<?xml version="1.0"?>
<VTKFile type="UnstructuredGrid" version="0.1" byte_order="LittleEndian" compressor="vtkZLibDataCompressor">
  <UnstructuredGrid>
    <Piece NumberOfPoints="21868" NumberOfCells="5467">
      <PointData Scalars="u2" Vectors="DisplacementSolutionVector">
        <DataArray type="Float64" Name="u2" format="ascii" RangeMin="-1.1506" RangeMax="2.13995">
          0.833553 0.807915 0.668802 0.652838 -0.869098 -0.796305
          -0.90005 -0.849714 -1.13082 -1.13173 -1.10792 -1.11521
          -1.02195 -1.05959 -1.04914 -1.05963 -0.222251 0.070095
          -0.0956363 -0.0840872 -0.958975 -0.947155 -0.920145 -1.0007
          0.693819 0.562318 0.653264 0.746838 2.03787 1.9882
          2.04656 1.98846 1.84313 1.79197 1.88195 1.9288
          -0.563079 -0.630091 -0.560799 -0.565742 -0.621601 -0.685354
          -0.656534 -0.752531 -0.0270135 -0.0704409 -0.0665337 -0.0490048
          -1.0663 -1.02135 -1.06445 -1.01051 1.84714 1.83094
          1.89904 1.86394 -0.0840872 -0.222251 0.070095 -0.0718907
          -0.210131 -0.188494 -0.149544 -0.143159 1.63277 1.66463
          1.55134 1.73139 -0.648259 -0.691136 -0.746678 -0.699613
          -0.323724 -0.173142 -0.274683 -0.258514 -1.00764 -0.973045
          -0.935717 -0.936173 0.85072 0.701274 0.93758 0.70671
          -0.847736 -0.775399 -0.792856 -0.714006 -0.847837 -0.924358
          -0.870565 -0.897867 -0.586159 -0.699613 -0.620987 -0.685864
          1.6753 1.65371 1.57344 1.52316 -0.354446 -0.323724
          -0.382148 -0.258514 -1.1349 -1.14029 -1.13536 -1.12721
          -0.88369 -0.792856 -0.847736 -0.846966 -1.13884 -1.13799
          -1.1506 -1.13418 -0.157499 -0.0811408 -0.177216 -0.0967612
          1.28935 1.1614 1.22074 1.21446 -0.67509 -0.592942
          -0.648259 -0.699613 -0.788346 -0.796305 -0.737575 -0.839382
          -1.09164 -1.12213 -1.08662 -1.10211 -0.680673 -0.667253
          -0.662766 -0.727052 2.03097 2.05199 2.00681 1.96815
          -1.06883 -1.09216 -1.08369 -1.10146 -0.788346 -0.680571
          -0.79408 -0.720252 2.04031 2.11155 2.07562 2.10335
          1.87832 1.91203 1.92573 1.84397 -0.185183 -0.266652
          -0.194325 -0.210131 -0.938354 -0.971894 -0.949907 -1.01114
          0.070095 0.224806 0.196126 0.102868 1.28846 1.06277
          1.18186 1.06639 -0.77357 -0.847493 -0.803147 -0.752531
          -0.873521 -0.811141 -0.769458 -0.794129 -0.700148 -0.775399
          -0.718463 -0.651747 -1.0663 -1.03094 -1.06016 -1.06445
          0.859824 0.798318 0.662099 0.667341 -0.395565 -0.354419
          -0.314918 -0.361431 -0.9239 -0.929701 -0.961593 -0.984145
          -0.936452 -0.963905 -1.01923 -1.01045 -0.974703 -0.967376
          -0.916534 -0.966454 -0.0685765 0.025035 0.105877 0.148091
          -0.266283 -0.359668 -0.331415 -0.314081 -0.966454 -0.93916
          -0.992494 -0.907578 -1.12721 -1.1071 -1.12287 -1.12756
          -1.09393 -1.11961 -1.09673 -1.08695 -0.773249 -0.680673
          -0.662766 -0.727052 2.03117 2.05199 2.03097 1.96815
          -0.459665 -0.533937 -0.514974 -0.390274 -1.04012 -1.0239
          -0.962722 -1.0015 -0.956961 -0.941717 -0.985129 -1.0025
          -1.11282 -1.13087 -1.13003 -1.10819 -0.614662 -0.691136
          -0.593398 -0.627782 -0.750283 -0.74517 -0.811176 -0.773249
          -0.624716 -0.540991 -0.599053 -0.593162 -0.380621 -0.295772
          -0.266146 -0.372721 0.25432 0.361071 0.411117 0.167727
          1.98437 1.98437 2.00681 1.98437 -1.02696 -1.02112
          -1.04012 -1.02577 -0.141753 -0.188494 -0.174972 -0.123609
          -0.0143042 0.000948014 0 -0.0122043 -1.03462 -1.03781
          -1.0707 -1.0652 0.102868 0.0264647 0.070095 -0.0036774
          -0.843822 -0.788346 -0.760049 -0.847837 0.977767 1.04243
          1.12293 1.10918 2.08832 2.0408 2.04065 2.04554
          -0.0278639 0 -0.030091 0 -1.08531 -1.07992
          -1.10792 -1.08729 0.662099 0.483109 0.681063 0.667341
          0.070095 0.25432 0.196126 0.224806 1.89003 1.94003
          1.94868 1.88336 -0.788346 -0.888644 -0.796305 -0.90005
          -0.376901 -0.339919 -0.411059 -0.442633 -1.04277 -1.06675
          -1.04914 -1.03123 -1.04643 -1.08134 -1.07046 -1.10819
          0.25432 0.167727 0.411117 0.157778 -0.552338 -0.476973
          -0.48275 -0.439577 -0.485896 -0.372721 -0.460253 -0.467039
          -0.573164 -0.594233 -0.621601 -0.687888 1.41683 1.48789
          1.4184 1.34396 1.05637 1.01471 1.13145 1.03886
          1.73139 1.62788 1.70571 1.71521 -0.277549 -0.0685765
          -0.106809 -0.0630469 1.94509 2.04711 2.01221 2.00861
          -0.0143042 0 -0.00445242 -0.0122043 1.06277 0.964154
          1.00011 0.842115 -0.371606 -0.310567 -0.381395 -0.396732
          -0.371997 -0.266652 -0.313891 -0.337935 0.360327 0.187026
          0.361071 0.352982 1.56397 1.57344 1.65206 1.52277
          -1.13884 -1.13028 -1.13082 -1.12438 1.87832 1.90816
          1.89003 1.94003 -1.09164 -1.12213 -1.09497 -1.08662
          -0.685864 -0.553598 -0.620987 -0.586159 -0.0944656 -0.076386
          -0.146496 -0.102152 -1.01559 -1.01235 -0.987972 -1.0551
          -0.376901 -0.337935 -0.433933 -0.411059 -1.11521 -1.11961
          -1.12044 -1.08695 1.3922 1.4184 1.24339 1.22555
          -0.953821 -0.929422 -0.987972 -0.958737 -0.800895 -0.795337
          -0.691136 -0.743985 0.550593 0.491304 0.411117 0.582721
          -0.266146 -0.179655 -0.222739 -0.188363 -0.863214 -0.79656
          -0.791267 -0.875966 -1.13275 -1.12711 -1.1349 -1.13421
          -1.10196 -1.0749 -1.07992 -1.10413 -1.03067 -1.04643
          -1.01114 -1.07046 -1.07656 -1.04331 -1.07793 -1.08765
          1.3658 1.23858 1.36561 1.3809 -0.643321 -0.590591
          -0.565645 -0.637707 2.09814 2.02504 2.09406 2.02495
          -1.03123 -1.06675 -1.04914 -1.05959 -0.337935 -0.339147
          -0.37308 -0.394325 1.9288 1.9288 1.9288 1.91203
          1.17371 1.26309 1.34396 1.22074 -1.03505 -1.08499
          -1.08729 -1.0707 -0.375156 -0.314918 -0.372606 -0.375043
          0.977767 0.763847 0.798318 0.859824 1.06639 0.990943
          1.12416 1.26476 -1.10678 -1.07377 -1.11313 -1.10149
          -1.13561 -1.10374 -1.1071 -1.12126 -0.359668 -0.433246
          -0.371606 -0.331415 -1.12899 -1.12692 -1.1349 -1.12627
          -0.174494 -0.15829 -0.230557 -0.150911 1.4564 1.59578
          1.6395 1.5561 -0.572695 -0.543667 -0.606738 -0.467039
          -0.380621 -0.371997 -0.485896 -0.460253 0.830437 0.653264
          0.653257 0.746838 0.481869 0.54982 0.377404 0.469028
          -0.700148 -0.718463 -0.641772 -0.651747 -1.0749 -1.10196
          -1.05661 -1.08499 2.03117 2.13214 2.13771 2.12646
          -0.9239 -0.960482 -0.906916 -0.929701 1.96815 1.98846
          2.00681 1.93899 -0.219262 -0.279389 -0.257693 -0.248114
          -0.236551 -0.106809 -0.379639 -0.277549 -1.10851 -1.10631
          -1.12544 -1.1077 1.95795 2.02853 1.9882 2.06131
          1.83215 1.89198 1.89605 1.89003 -0.925889 -0.985977
          -0.951595 -0.926588 -0.051575 -0.0394255 -0.0695534 -0.0718477
          -0.120506 -0.0861697 -0.0599512 -0.100673 -0.951595 -0.926588
          -0.985347 -0.917892 -0.966454 -0.93618 -0.907578 -0.943555
          -0.481701 -0.492427 -0.384602 -0.517364 -0.525649 -0.651747
          -0.543667 -0.590591 0.0941603 -0.0723265 0.0640076 0.0844741
          -0.295772 -0.279389 -0.211183 -0.248114 -0.12574 -0.0695534
          -0.100673 -0.120506 -1.08369 -1.12026 -1.09692 -1.10146
          -0.375043 -0.346252 -0.40716 -0.33122 -0.794129 -0.704614
          -0.806808 -0.791267 0.558058 0.701274 0.734424 0.642558
          0.653257 0.503453 0.681063 0.54136 -1.10589 -1.06714
          -1.08471 -1.08431 -0.354446 -0.323724 -0.423532 -0.382148
          -1.08134 -1.08627 -1.11282 -1.10819 -0.181104 -0.277549
          -0.179374 -0.239155 -1.11165 -1.10889 -1.10589 -1.08471
          1.3922 1.22555 1.24339 1.18652 -0.0401906 -0.0492764
          -0.0426216 -0.084285 -0.0956363 -0.0892965 -0.274683 -0.173142
          2.03987 2.03117 1.96844 2.06513 -0.389929 -0.371997
          -0.385426 -0.460253 0.49707 0.54136 0.558058 0.701274
          0.653257 0.841573 0.842115 0.830437 -0.843822 -0.892945
          -0.963905 -0.942546 -1.11395 -1.13227 -1.13495 -1.13173
          1.06277 0.830437 0.964154 0.842115 0.910491 0.807915
          0.78162 0.668802 -1.13495 -1.13173 -1.10787 -1.11395
          1.89003 1.94817 1.95211 1.94868 -1.11972 -1.10458
          -1.1291 -1.12026 -0.563079 -0.560799 -0.487029 -0.565742
          -0.977787 -0.881613 -0.930871 -0.956961 -0.680571 -0.796305
          -0.685864 -0.737575 0.282314 0.363125 0.233816 0.168031
          -0.627782 -0.593398 -0.446417 -0.547456 0.215002 0.183378
          0.190096 0.0435163 -1.05651 -1.03123 -1.09393 -1.07046
          -0.0808166 -0.0695534 -0.051575 -0.0599512 1.87832 1.92573
          1.94003 1.90147 -1.08765 -1.04331 -1.04283 -1.03143
          1.83279 1.87832 1.88188 1.78842 -1.10889 -1.07793
          -1.06991 -1.09011 1.9636 2.03117 1.96844 2.03987
          -0.15829 -0.179655 -0.230557 -0.150911 -0.666373 -0.543652
          -0.630091 -0.641354 -0.79408 -0.796305 -0.888644 -0.869098
          0.282314 0.233816 0.0844741 0.025035 -0.181104 -0.0630469
          -0.146912 -0.0221902 -1.08662 -1.12213 -1.10963 -1.10666
          0.54982 0.481869 0.662797 0.475347 1.71781 1.71781
          1.76111 1.83094 -0.811141 -0.830822 -0.876853 -0.790747
          -0.561488 -0.527732 -0.591251 -0.495461 2.10335 2.09747
          2.08832 2.02507 -0.0245388 -0.0270135 0 -0.0285603
          -0.314918 -0.361431 -0.262145 -0.266146 -0.146912 -0.260464
          -0.277549 -0.395732 -1.02818 -1.05661 -0.980392 -1.00016
          -0.873521 -0.794129 -0.769458 -0.774123 -1.13561 -1.14029
          -1.12721 -1.11985 1.7903 1.87832 1.90816 1.89003
          -0.102152 -0.157499 -0.194325 -0.133957 -0.469631 -0.553598
          -0.603389 -0.492427 -0.175074 -0.222739 -0.266652 -0.194325
          -0.0944656 -0.0389618 -0.076386 -0.0580778 0.475347 0.491304
          0.498809 0.338667 -0.533937 -0.675075 -0.615241 -0.667561
          -0.0401906 -0.0426216 -0.024542 -0.0143042 -0.211183 -0.248114
          -0.188494 -0.149544 1.24339 1.17371 1.22074 1.14735
          -0.149544 -0.188363 -0.0979218 -0.150911 0.469028 0.363125
          0.559962 0.489621 -0.888644 -0.945405 -0.942546 -0.998166
          -0.174494 -0.211183 -0.149544 -0.188363 1.6753 1.79197
          1.84313 1.76022 -1.08431 -1.06016 -1.06714 -1.08471
          -0.133678 -0.0946761 -0.0665337 -0.0704409 -1.03065 -1.0146
          -1.04601 -1.06535 -0.885602 -0.806808 -0.791267 -0.794129
          1.00411 0.920525 1.05637 0.931257 -1.09202 -1.08357
          -1.11504 -1.08431 1.21542 1.24082 1.18186 1.08346
          0.830437 0.813037 0.653264 0.746838 -0.459932 -0.586159
          -0.553598 -0.410816 -0.0401906 -0.0250458 -0.0492764 -0.0861697
          1.84714 1.83094 1.86394 1.78754 -0.455721 -0.560799
          -0.487029 -0.563079 -0.149544 -0.188363 -0.150911 -0.100673
          -0.7108 -0.704614 -0.637707 -0.700148 -0.845827 -0.751434
          -0.857877 -0.800314 0.233816 0.148091 0.105877 0.025035
          0.85072 0.988245 0.93758 0.832093 -1.05651 -1.07046
          -1.07793 -1.00764 2.11483 2.10279 2.11155 2.03097
          1.175 1.05637 1.12293 1.00411 -0.1821 -0.326607
          -0.292848 -0.212676 -0.806808 -0.885602 -0.868497 -0.873521
          -0.00445242 -0.0123778 -0.0497382 -0.0374226 -0.0379752 0.0779313
          0.0473313 0.106764 -0.998166 -1.03505 -1.05651 -1.06388
          1.82271 1.86394 1.9141 1.89649 -1.02438 -0.958975
          -1.0015 -1.0007 -1.04979 -1.04155 -1.08417 -1.06633
          -0.0791758 -0.0963933 -0.146496 -0.0944656 -0.643506 -0.606738
          -0.657779 -0.572695 1.71521 1.73139 1.83282 1.70571
          -0.143159 -0.188363 -0.149544 -0.210131 1.43571 1.63277
          1.52752 1.4184 -1.08085 -1.04785 -1.08417 -1.04979
          -0.77357 -0.752531 -0.685354 -0.845006 -0.839382 -0.870565
          -0.86543 -0.949907 1.38913 1.1614 1.30124 1.28935
          0.920525 1.01471 1.05637 1.03886 1.60977 1.44533
          1.56397 1.52277 0.196126 0.0264647 0.102868 0.181263
          2.00681 2.06627 2.10138 1.98437 -0.262841 -0.323366
          -0.410816 -0.469631 -1.13408 -1.13564 -1.13874 -1.13884
          0 0 -0.0278639 0 2.03787 1.98846
          2.07781 2.03117 1.90816 1.89003 1.90057 1.81379
          1.21446 1.03208 1.04243 1.05637 -0.410816 -0.262841
          -0.384524 -0.24624 -0.151989 -0.135516 -0.182455 -0.19697
          -0.606076 -0.675075 -0.615241 -0.533937 -0.385426 -0.371997
          -0.372721 -0.460253 -1.04012 -0.962722 -0.966454 -1.0015
          2.03787 2.03117 2.13214 2.13771 -0.795337 -0.849266
          -0.748962 -0.743985 1.89605 1.89003 1.95211 1.94868
          -0.142666 0.0352962 -0.151099 -0.0718907 -0.211183 -0.248114
          -0.219262 -0.188494 -0.48275 -0.375156 -0.395565 -0.476973
          -0.839382 -0.86543 -0.80429 -0.917065 -1.11706 -1.08417
          -1.11475 -1.10678 -0.707837 -0.684281 -0.701896 -0.643288
          -0.867566 -0.743985 -0.800895 -0.717461 1.62788 1.59758
          1.71521 1.55042 -0.378284 -0.571006 -0.449962 -0.520796
          0.475347 0.338667 0.498809 0.351904 -0.460253 -0.450311
          -0.516463 -0.504466 -1.09216 -1.11305 -1.11295 -1.12026
          -0.865373 -0.907578 -0.852965 -0.811176 -0.295772 -0.310567
          -0.372721 -0.381395 -0.446417 -0.547456 -0.593398 -0.375589
          1.98437 2.06131 2.12041 2.02853 -1.13082 -1.13595
          -1.13884 -1.13421 -0.325468 -0.337935 -0.389929 -0.433933
          -0.0811408 -0.076386 -0.0374226 -0.0497382 0.0687832 -0.106809
          0.105101 -0.0685765 0.974223 0.934743 1.01471 0.88187
          0.93758 0.832093 0.83647 0.70671 1.175 1.28935
          1.05637 1.13145 -1.06883 -1.02314 -1.04601 -1.03065
          -0.469631 -0.546765 -0.620987 -0.459932 -0.717461 -0.855794
          -0.800895 -0.867566 0.0687832 0.105101 0.146292 0.303109
          -1.12604 -1.09673 -1.08729 -1.10846 1.55134 1.48789
          1.41683 1.53891 -0.0956363 -0.274683 -0.212325 -0.262841
          -0.0822399 -0.0698736 -0.0646586 -0.0963933 1.34734 1.42249
          1.33583 1.51567 2.04142 1.95539 1.95549 1.95943
          -0.375043 -0.323621 -0.394513 -0.313891 -0.938354 -0.971894
          -1.03123 -0.982387 1.95539 1.89904 1.90057 1.90131
          -0.359668 -0.459665 -0.433246 -0.390274 -0.262145 -0.19697
          -0.216222 -0.230557 -0.207257 -0.14598 -0.104373 -0.156252
          -0.685864 -0.748962 -0.796305 -0.746878 -0.179655 -0.19082
          -0.249986 -0.191247 -1.13227 -1.13884 -1.13173 -1.13082
          1.55042 1.55134 1.62788 1.44669 -0.680571 -0.796305
          -0.737575 -0.788346 -0.533937 -0.667561 -0.615241 -0.514974
          -1.13564 -1.12877 -1.14815 -1.13799 -0.390274 -0.433246
          -0.395565 -0.403315 -0.276106 -0.185183 -0.266652 -0.194325
          1.96844 1.93412 1.91859 1.97551 -0.375156 -0.272863
          -0.313891 -0.266146 0.746838 0.941905 0.830437 0.813037
          -0.953749 -0.917065 -0.961802 -0.895068 -1.13884 -1.13874
          -1.14588 -1.14815 0.0640076 -0.0723265 -0.00656958 -0.0882344
          2.11979 2.12646 2.09401 2.12334 0.49707 0.489621
          0.353601 0.469028 -1.07046 -1.04643 -1.10819 -1.06991
          -0.460818 -0.476973 -0.40716 -0.375043 -1.02818 -0.980392
          -0.975666 -1.00016 -0.707837 -0.684281 -0.790747 -0.701896
          1.08346 1.1531 1.0193 1.18361 0 0
          0 -0.0278639 1.9636 1.9141 1.9938 1.96844
          1.89605 1.94817 1.95211 1.89003 -0.257693 -0.332616
          -0.274965 -0.319843 -0.0229973 -0.0535907 -0.0380729 -0.0430308
          -1.12756 -1.11706 -1.12126 -1.10678 1.73139 1.63277
          1.62788 1.55134 -0.375156 -0.314918 -0.375043 -0.272863
          1.83677 1.85818 1.89605 1.82278 -1.05661 -1.07992
          -1.08729 -1.11213 -0.0599512 -0.0401906 -0.0245388 -0.051575
          1.18361 1.04712 1.21542 1.26309 0.54982 0.54136
          0.49707 0.701274 0.54982 0.559962 0.49707 0.469028
          -0.236551 -0.379639 -0.449962 -0.410816 1.06277 1.00011
          1.07544 1.18186 0.833553 0.845586 0.934743 0.800478
          -0.460818 -0.439577 -0.40716 -0.476973 -0.106809 -0.146912
          -0.260464 -0.277549 0.25432 0.386022 0.453197 0.224806
          -0.030091 -0.0646586 -0.0484198 -0.0342029 -1.08085 -1.11706
          -1.10149 -1.08417 -0.211183 -0.295772 -0.248114 -0.266146
          1.90816 1.96815 1.94817 1.98205 2.01221 2.00861
          2.07562 2.04031 -0.236551 -0.277549 -0.379639 -0.24624
          -0.794661 -0.667561 -0.714006 -0.675075 0.54982 0.559962
          0.662797 0.70671 -0.0979218 -0.143159 -0.149544 -0.084285
          1.06639 1.00011 1.1531 0.988245 -1.12126 -1.07335
          -1.1071 -1.08417 -0.141753 -0.174972 -0.0930104 -0.123609
          -0.624716 -0.593162 -0.680673 -0.589371 1.28935 1.21446
          1.4291 1.37992 -0.446417 -0.432786 -0.375589 -0.305608
          0.303109 0.360895 0.483109 0.288513 -1.12756 -1.1071
          -1.10678 -1.12126 -0.620987 -0.716274 -0.546765 -0.603389
          -0.590591 -0.683439 -0.643321 -0.589371 -1.08369 -1.11295
          -1.12026 -1.09216 1.60977 1.56397 1.65206 1.52277
          -0.459932 -0.384524 -0.586159 -0.410816 -1.06714 -1.02696
          -1.09888 -1.08441 -0.0840872 0.070095 0.0195096 0.196126
          2.03987 2.13771 2.03117 2.06513 -1.08222 -1.08471
          -1.11165 -1.08441 0.920525 1.05637 1.13145 1.00411
          -1.12711 -1.11313 -1.12608 -1.12544 -0.846966 -0.791267
          -0.77883 -0.775399 -0.873521 -0.885602 -0.880859 -0.794129
          -0.847493 -0.91903 -0.849714 -0.845006 -0.478517 -0.560752
          -0.572695 -0.525649 -0.0245388 -0.0599512 -0.032129 -0.0250458
          -0.651747 -0.714006 -0.7108 -0.775399 -0.942546 -0.951595
          -0.985347 -0.917892 -0.867817 -0.800895 -0.876171 -0.79789
          -0.0840872 -0.142666 -0.0718907 -0.0036774 1.83094 1.84313
          1.81382 1.71781 -0.942546 -1.01045 -1.01923 -0.985347
          -0.517364 -0.492427 -0.384602 -0.394055 -1.13884 -1.14815
          -1.14588 -1.1506 -1.02696 -1.02112 -0.992494 -1.03468
          -0.746878 -0.79408 -0.841647 -0.869098 -0.590591 -0.525649
          -0.485896 -0.543667 -0.667253 -0.643321 -0.637707 -0.704614
          -0.895268 -0.887682 -0.830437 -0.847736 -0.967376 -0.964579
          -1.03094 -0.958737 -0.722719 -0.718463 -0.641772 -0.700148
          1.94868 2.01143 1.94817 1.95211 1.51115 1.51567
          1.69449 1.59578 -0.847736 -0.77883 -0.775399 -0.846966
          -1.04331 -1.07793 -1.04742 -1.07656 -1.08369 -1.08222
          -1.10458 -1.07142 -0.381395 -0.372721 -0.380621 -0.467039
          -0.410816 -0.375589 -0.24624 -0.384524 1.6753 1.79197
          1.76022 1.65371 -1.04173 -1.0652 -1.06388 -1.0865
          -0.977787 -0.962701 -0.956961 -1.02948 -0.051575 -0.0229973
          -0.0535907 -0.0245388 -0.125328 -0.143068 -0.258256 -0.264982
          -1.11521 -1.12044 -1.10889 -1.08695 -0.769458 -0.700148
          -0.643321 -0.774123 1.43571 1.22555 1.3922 1.18652
          -0.890416 -0.863214 -0.791267 -0.875966 0.215002 0.303109
          0.433358 0.420265 -0.980392 -0.925889 -1.00016 -0.997365
          -0.0379752 0.00567184 -0.179374 -0.176552 -0.0630469 -0.0379752
          -0.179374 -0.176552 -0.794661 -0.675075 -0.714006 -0.760958
          -0.614662 -0.586159 -0.691136 -0.581238 1.28846 1.18186
          1.21679 1.06639 -0.857877 -0.797427 -0.922852 -0.830822
          -0.568469 -0.683439 -0.590591 -0.589371 -0.0371014 -0.0270135
          -0.051575 -0.0285603 -1.12544 -1.12711 -1.13275 -1.13421
          1.78898 1.77496 1.85165 1.88195 -0.609731 -0.520796
          -0.395732 -0.492427 -0.971224 -1.03428 -1.03123 -0.982387
          -0.794129 -0.707837 -0.811141 -0.769458 -0.664582 -0.589968
          -0.517364 -0.610499 -0.381395 -0.295772 -0.380621 -0.372721
          -1.10889 -1.08431 -1.06016 -1.09202 0.749164 0.608061
          0.667341 0.577023 1.81379 1.83215 1.74814 1.72946
          1.34396 1.22074 1.30124 1.14735 2.03117 2.05199
          2.07781 2.13214 -0.0667112 -0.102152 -0.084285 -0.133957
          -0.880859 -0.967376 -0.873521 -0.966454 -1.04979 -1.03009
          -1.06633 -1.07377 0.0941603 0.0640076 0.157778 0.0844741
          -0.990689 -0.922852 -0.958737 -0.857877 -1.13561 -1.1071
          -1.10374 -1.11985 -0.956961 -0.88369 -0.941717 -0.962701
          -0.084285 -0.0492764 -0.0426216 -0.0800788 -0.956961 -0.881613
          -0.887682 -0.895268 1.98846 2.06627 2.05199 2.00681
          -1.11872 -1.11395 -1.10787 -1.08765 -1.10678 -1.09692
          -1.11049 -1.11972 -0.323724 -0.274683 -0.423532 -0.258514
          -0.790747 -0.880859 -0.849032 -0.929422 -0.525649 -0.615241
          -0.572695 -0.606738 -0.24624 -0.106809 -0.236551 -0.277549
          -0.210131 -0.188494 -0.143159 -0.194536 -0.219262 -0.257693
          -0.188494 -0.248114 1.94817 2.03097 2.04031 1.98205
          -0.839382 -0.814626 -0.716274 -0.762226 -0.513482 -0.476973
          -0.561488 -0.460818 -0.0540615 -0.0749921 -0.0342029 -0.0698736
          -0.917065 -0.876171 -0.80429 -0.862205 0.988245 0.83647
          0.832093 1.0193 0.68783 0.608061 0.655168 0.749164
          -0.746878 -0.849714 -0.869098 -0.845006 -0.371997 -0.337935
          -0.394325 -0.433933 -1.1349 -1.12287 -1.12962 -1.13595
          -0.560752 -0.700307 -0.643506 -0.615241 -1.14317 -1.1202
          -1.10889 -1.13003 -1.12128 -1.13564 -1.12266 -1.09888
          -0.876171 -0.976381 -0.862205 -0.917065 -1.08953 -1.11282
          -1.10803 -1.10666 -0.875966 -0.841123 -0.79656 -0.801634
          -0.0245388 -0.0599512 -0.0695534 -0.0621598 -0.354446 -0.473971
          -0.503416 -0.446417 1.21446 1.1614 1.22074 1.03886
          1.56307 1.48789 1.53891 1.44473 0.857926 0.941905
          0.964154 0.977767 0 0 0 -0.0229973
          1.90816 1.94003 1.87832 1.92573 0.833553 0.934743
          0.910491 0.807915 2.07781 2.13269 2.13995 2.12329
          -0.720252 -0.680571 -0.702508 -0.788346 0.39627 0.215311
          0.195354 0.351904 -1.09393 -1.08695 -1.05651 -1.07046
          0.681063 0.483109 0.662099 0.481869 -1.0698 -1.04012
          -1.01657 -1.0015 -0.331415 -0.433246 -0.371606 -0.381395
          -0.865373 -0.811176 -0.852965 -0.773249 -0.895268 -0.961593
          -0.954481 -0.956961 1.38557 1.4564 1.34734 1.33583
          -0.258256 -0.264982 -0.354446 -0.41916 -0.375156 -0.313891
          -0.380621 -0.266146 0.988245 1.08346 0.832093 1.00011
          -0.936452 -0.963905 -1.01045 -0.942546 -0.685354 -0.610887
          -0.699179 -0.746878 -0.102152 -0.157499 -0.133957 -0.0967612
          -1.12438 -1.10792 -1.13082 -1.10666 0.842115 0.681063
          0.653257 0.653264 -0.133957 -0.157499 -0.177216 -0.0967612
          -1.01114 -0.998765 -0.949907 -0.953749 -1.02908 -0.997365
          -1.00016 -1.05661 1.18186 1.38557 1.28846 1.24082
          -0.847736 -0.792856 -0.775399 -0.77883 -0.846966 -0.791267
          -0.75591 -0.77883 -0.326607 -0.329892 -0.432786 -0.462169
          -0.801634 -0.704614 -0.770226 -0.712925 -0.194325 -0.154028
          -0.133957 -0.175074 0.608061 0.416224 0.494116 0.514661
          2.02495 2.10279 2.03097 2.09747 -0.0882344 -0.217498
          -0.158079 0.00567184 -0.936452 -0.942546 -1.01923 -0.985347
          -0.100673 -0.0599512 -0.0535907 -0.0979218 -0.129841 -0.0978631
          -0.084285 -0.143159 -1.02334 -1.06445 -1.03094 -1.0663
          -0.0599512 -0.0245388 -0.0695534 -0.051575 1.06639 0.990943
          0.988245 1.12416 0.85072 0.988245 0.990943 0.93758
          -0.790747 -0.811141 -0.849032 -0.880859 -0.280035 -0.282328
          -0.272863 -0.19082 1.89605 1.94509 1.91561 1.95211
          -0.593398 -0.748962 -0.551896 -0.678307 -0.205618 -0.28944
          -0.262145 -0.266283 -0.803147 -0.884212 -0.826828 -0.849266
          -0.790747 -0.701896 -0.769458 -0.811141 -0.989246 -0.971224
          -0.971894 -0.924358 1.56307 1.66463 1.55134 1.63277
          0.102868 0.0264647 -0.0036774 0.181263 1.18186 1.00011
          1.08346 1.1531 -1.11282 -1.13052 -1.12534 -1.13087
          0.813037 0.941905 0.830437 0.964154 1.84397 1.91203
          1.92573 1.9288 -0.961802 -1.00764 -0.953749 -0.935717
          -0.790747 -0.701896 -0.849032 -0.769458 -1.12287 -1.12711
          -1.13067 -1.13595 -1.0015 -0.962722 -0.966454 -0.93618
          -0.194325 -0.154028 -0.102152 -0.133957 1.3809 1.28846
          1.18186 1.38557 1.90816 1.93899 1.96815 1.98205
          -1.12128 -1.1089 -1.08441 -1.09322 -0.568469 -0.707837
          -0.590591 -0.683439 -0.963537 -1.03184 -1.01045 -1.02195
          -1.08222 -1.1089 -1.10458 -1.07142 0.653257 0.433358
          0.653264 0.503453 -1.06714 -1.0335 -1.02577 -1.06016
          -1.12026 -1.11295 -1.1291 -1.13262 -1.10792 -1.13173
          -1.10787 -1.11521 -0.876171 -0.80429 -0.79789 -0.800895
          -0.665753 -0.774606 -0.700182 -0.717461 -0.595206 -0.665753
          -0.700182 -0.614662 -1.13418 -1.14484 -1.14317 -1.13003
          -1.10851 -1.12544 -1.12213 -1.1077 -0.337935 -0.339147
          -0.394325 -0.42744 -0.699179 -0.746878 -0.841647 -0.845006
          -1.06388 -1.0977 -1.0707 -1.09497 -1.08085 -1.08417
          -1.11475 -1.11706 -1.03067 -1.04643 -1.07046 -1.06991
          -0.656534 -0.752531 -0.77357 -0.687888 -0.396732 -0.332616
          -0.310567 -0.381395 0 -0.0374226 -0.0123778 -0.00445242
          -1.00623 -1.01114 -0.917065 -0.976381 1.4792 1.3658
          1.36561 1.50407 0.667341 0.490675 0.577023 0.608061
          -0.210131 -0.252972 -0.313497 -0.281814 -1.08765 -1.03143
          -1.04283 -1.0635 1.96815 1.93412 1.91649 1.90057
          -0.390274 -0.514974 -0.433246 -0.403315 -0.803147 -0.910515
          -0.884212 -0.849266 -1.12266 -1.13081 -1.13408 -1.13028
          -1.13408 -1.13081 -1.13884 -1.13028 -0.800314 -0.794129
          -0.830437 -0.700148 -0.135516 -0.151989 -0.182455 -0.096908
          -0.462169 -0.594233 -0.551896 -0.573164 -1.04012 -1.0239
          -1.0015 -1.02438 -1.0551 -1.02334 -1.08357 -1.01559
          -0.84509 -0.814626 -0.716274 -0.839382 1.95539 2.03117
          2.04142 1.96815 -0.971894 -0.924358 -0.897867 -0.938354
          0.667341 0.798318 0.749164 0.763847 -0.971224 -1.04914
          -0.989246 -1.03123 1.53596 1.44533 1.4291 1.56397
          -1.11872 -1.08765 -1.09011 -1.0635 1.94868 1.90147
          1.88336 1.94003 1.4291 1.38913 1.41683 1.30124
          -1.11213 -1.1078 -1.12604 -1.12909 -1.13564 -1.12197
          -1.14815 -1.12877 0.180975 0.187026 0.196126 0.0326147
          1.90816 1.93899 1.91203 1.91649 1.16296 1.18361
          1.17371 1.05157 -1.10792 -1.12627 -1.12909 -1.1078
          -0.179429 -0.211183 -0.149544 -0.100673 1.9288 1.9288
          1.91203 1.84313 1.83094 1.76111 1.71781 1.81351
          1.86394 1.83282 1.88582 1.82752 -0.133678 -0.15829
          -0.10608 -0.0665337 -1.13564 -1.10589 -1.12266 -1.09888
          -1.12287 -1.09202 -1.11049 -1.1071 -0.875966 -0.79656
          -0.791267 -0.801634 -0.143068 -0.354446 -0.258514 -0.173142
          -0.179655 -0.156252 -0.19082 -0.191247 -1.05661 -1.07992
          -1.11213 -1.0749 -0.960625 -0.925889 -1.00016 -0.951595
          -1.12213 -1.12406 -1.10666 -1.10211 -0.863214 -0.906916
          -0.841123 -0.929701 -1.08344 -1.08627 -1.11282 -1.06675
          1.73139 1.70657 1.78832 1.70571 -1.08953 -1.11282
          -1.10666 -1.07206 -0.847837 -0.892945 -0.870565 -0.924358
          -0.942546 -0.963537 -1.01045 -0.998166 -0.459665 -0.533937
          -0.478517 -0.433246 -0.433246 -0.514974 -0.525649 -0.48275
          0.215002 0.360895 0.433358 0.303109 -1.0698 -1.0015
          -1.01657 -1.04905 -1.0176 -0.987319 -1.02438 -1.02314
          -1.03123 -1.09393 -1.06675 -1.05959 1.17371 1.18361
          1.26309 1.04712 -1.12044 -1.14484 -1.13418 -1.13003
          1.175 1.05637 1.00411 1.13145 1.51567 1.38557
          1.3809 1.52233 1.89649 1.89904 1.86394 1.96844
          -0.379639 -0.610887 -0.492427 -0.520796 -1.12544 -1.13421
          -1.12406 -1.12608 -0.963537 -1.01045 -1.00984 -1.02195
          1.4564 1.31556 1.41079 1.40219 1.91948 1.89136
          1.88195 1.85599 -0.722719 -0.800314 -0.718463 -0.700148
          -0.565742 -0.563079 -0.455721 -0.487029 1.4564 1.4178
          1.55042 1.41079 -0.331415 -0.310567 -0.371606 -0.28944
          1.57455 1.6753 1.62844 1.52316 -0.476973 -0.439577
          -0.495461 -0.460818 -0.384524 -0.375589 -0.24624 -0.222251
          -0.19697 -0.182455 -0.216222 -0.230557 -0.433246 -0.371606
          -0.381395 -0.396732 -0.727052 -0.667253 -0.770226 -0.774123
          -0.0540615 -0.00942474 -0.0342029 -0.0490048 -1.10851 -1.11263
          -1.12544 -1.10631 1.4291 1.4178 1.41683 1.53891
          -0.683439 -0.643288 -0.701896 -0.593392 -0.589371 -0.643288
          -0.683439 -0.593392 0.964154 0.830437 0.813037 0.842115
          -0.895068 -0.86543 -0.80429 -0.795337 -1.11163 -1.12964
          -1.13087 -1.10446 -0.687888 -0.621601 -0.678307 -0.594233
          -0.354446 -0.503416 -0.323724 -0.384524 0.854408 0.647563
          0.781435 0.68783 1.40219 1.4564 1.53837 1.55042
          -0.862268 -0.843822 -0.963905 -0.942546 1.90131 1.90057
          1.89198 1.83282 -0.514974 -0.48275 -0.403315 -0.552338
          0.854408 0.598091 0.647563 0.68783 1.79745 1.89003
          1.87832 1.81379 -0.219262 -0.257693 -0.174972 -0.188494
          -0.423532 -0.503416 -0.595206 -0.581238 1.24102 1.30879
          1.21814 1.12293 0.763847 0.749164 0.667341 0.577023
          -1.05651 -1.01114 -1.07046 -1.00764 -0.593162 -0.643321
          -0.565645 -0.667253 -1.09216 -1.06883 -1.087 -1.06535
          -1.12406 -1.13421 -1.11961 -1.12534 -0.360852 -0.469631
          -0.485872 -0.404598 -0.0245388 -0.0401906 -0.0599512 -0.0250458
          -0.687888 -0.803147 -0.752531 -0.77357 -0.774123 -0.773249
          -0.811176 -0.823936 2.01079 2.03117 2.04142 1.95539
          -0.314918 -0.230557 -0.280035 -0.272863 -0.975666 -1.04399
          -1.02818 -1.00016 -1.11972 -1.08369 -1.10458 -1.12026
          -0.276106 -0.185183 -0.194325 -0.251084 1.89649 1.89904
          1.96844 1.9636 0.282314 0.233816 0.025035 0.168031
          -1.03094 -1.0239 -1.07587 -1.06445 1.6896 1.57455
          1.74209 1.62844 1.29336 1.13145 1.28935 1.175
          -0.774123 -0.643321 -0.680673 -0.667253 -1.10678 -1.07335
          -1.07587 -1.06633 1.7903 1.68961 1.79745 1.81379
          -0.593398 -0.685864 -0.62348 -0.748962 -0.603389 -0.620987
          -0.716274 -0.737575 1.59758 1.71521 1.65267 1.75653
          -0.702508 -0.603389 -0.665505 -0.788346 -0.7108 -0.637707
          -0.606738 -0.651747 -1.04331 -0.973045 -1.02908 -0.997365
          1.34734 1.33583 1.4564 1.51567 -1.12711 -1.11972
          -1.13799 -1.12608 0.662099 0.483109 0.667341 0.490675
          -0.0401906 -0.0621598 -0.0250458 -0.0861697 -0.641772 -0.667561
          -0.585892 -0.615241 1.86394 1.89904 1.91859 1.96844
          1.43571 1.4184 1.3922 1.22555 1.23496 1.37992
          1.4178 1.21542 1.21542 1.24082 1.23496 1.18186
          0.360327 0.180975 0.352982 0.285413 1.85599 1.78898
          1.89136 1.88195 1.9455 1.89136 1.88195 1.91948
          1.18652 1.17371 1.05157 1.22555 -0.643288 -0.684281
          -0.701896 -0.593392 -0.643288 -0.612851 -0.706495 -0.684281
          -0.624716 -0.599053 -0.652342 -0.680673 2.10279 2.02495
          2.09814 2.09747 -0.667253 -0.704614 -0.660161 -0.770226
          -1.0176 -0.960482 -0.987319 -1.02314 -0.0791758 -0.0646586
          -0.0278639 -0.0430308 -0.774123 -0.794129 -0.700148 -0.704614
          -1.12128 -1.12266 -1.13874 -1.09888 -0.572695 -0.461085
          -0.467039 -0.569304 -0.0430308 -0.0229973 0 0
          0.54136 0.503453 0.701274 0.54982 1.81379 1.66463
          1.6896 1.74209 1.82271 1.80015 1.9141 1.86394
          -0.678307 -0.803147 -0.743985 -0.748962 1.93899 1.9288
          1.98437 1.92573 -0.120506 -0.0621598 -0.0599512 -0.0861697
          -0.0245388 -0.0621598 -0.032129 -0.0599512 1.00411 0.920525
          0.931257 0.828881 -1.12534 -1.14484 -1.13418 -1.12044
          -0.337935 -0.276106 -0.325468 -0.266652 0.990943 0.887579
          1.06639 0.988245 -0.890416 -0.929701 -0.875966 -0.961593
          -0.100673 -0.0599512 -0.051575 -0.0535907 -0.467039 -0.507901
          -0.563079 -0.569304 1.21679 1.06639 1.12416 1.26476
          -1.10889 -1.11521 -1.08695 -1.07793 -0.0956363 -0.323724
          -0.262841 -0.222251 1.92573 1.98437 1.93899 2.02495
          -0.595206 -0.503416 -0.614662 -0.581238 -0.150911 -0.179655
          -0.230557 -0.188363 2.07781 2.13214 2.13995 2.13771
          -0.800895 -0.80429 -0.691136 -0.795337 -0.179429 -0.171628
          -0.100673 -0.120506 -0.380621 -0.48275 -0.485896 -0.375156
          -0.449962 -0.379639 -0.492427 -0.553598 1.92573 1.92573
          1.94003 1.92573 -0.565645 -0.563079 -0.565742 -0.667253
          -0.847837 -0.870565 -0.814626 -0.897867 -1.10146 -1.11305
          -1.09216 -1.12026 0.739804 0.83647 0.903992 0.763471
          -0.667253 -0.643321 -0.565645 -0.637707 -0.485896 -0.543667
          -0.460253 -0.563079 -0.794129 -0.885602 -0.806808 -0.873521
          -0.252972 -0.325468 -0.266652 -0.313497 -0.714006 -0.667561
          -0.615241 -0.675075 -1.09337 -1.11463 -1.09164 -1.11628
          1.26309 1.41683 1.22074 1.21446 -0.794661 -0.667561
          -0.718463 -0.714006 -0.7108 -0.637707 -0.651747 -0.700148
          -1.13173 -1.13884 -1.14588 -1.1506 -1.08729 -1.07992
          -1.10792 -1.11213 1.94817 1.90816 1.94003 1.89003
          -0.262841 -0.176552 -0.24624 -0.323366 -1.12604 -1.08729
          -1.10792 -1.11213 -0.790747 -0.769458 -0.849032 -0.811141
          -1.06714 -1.02577 -1.02696 -1.04012 -0.727052 -0.774123
          -0.770226 -0.823936 2.01079 1.95539 2.04142 1.95943
          -0.86422 -0.801634 -0.770226 -0.759307 -1.11972 -1.08369
          -1.12877 -1.10458 -0.553598 -0.685864 -0.620987 -0.680571
          -1.12438 -1.13173 -1.10666 -1.13082 -0.295772 -0.310567
          -0.211183 -0.279389 1.9636 1.96844 1.9938 2.03987
          -0.794661 -0.718463 -0.775399 -0.714006 1.95795 2.06131
          2.04656 2.00681 -0.989246 -0.971894 -0.945405 -0.924358
          -0.963905 -1.01923 -1.01045 -1.04173 0.568122 0.475347
          0.498809 0.48361 0.763471 0.833553 0.910491 0.668802
          -0.794129 -0.800314 -0.89299 -0.811141 1.26309 1.41683
          1.34396 1.22074 -0.752531 -0.62348 -0.746878 -0.748962
          0.662099 0.845586 0.800478 0.860861 -0.433246 -0.533937
          -0.478517 -0.525649 2.03117 1.98846 2.05199 1.96815
          -0.774123 -0.667253 -0.680673 -0.727052 -0.225044 -0.310567
          -0.279389 -0.211183 -1.11163 -1.11584 -1.13052 -1.12964
          0.291124 0.148091 0.105877 0.233816 1.87832 1.7903
          1.83279 1.79745 -0.102152 -0.0791758 -0.146496 -0.0944656
          -0.341636 -0.176552 -0.179374 -0.264494 -1.03094 -1.02135
          -1.0239 -1.06445 -0.938354 -1.01114 -0.949907 -0.917065
          0.85072 0.832093 0.93758 0.701274 -1.11521 -1.13418
          -1.12044 -1.11961 -0.967376 -0.929422 -0.987972 -0.974703
          1.21446 1.03208 1.05637 1.03886 -1.08471 -1.06016
          -1.02577 -1.03094 -0.0371014 -0.0505998 -0.0808166 -0.096908
          -0.1821 -0.292848 -0.326607 -0.378284 1.94509 2.04711
          1.99431 2.01221 1.0351 1.13145 1.175 1.00411
          -0.313497 -0.281814 -0.389929 -0.385426 -1.10969 -1.11042
          -1.13052 -1.11163 -0.964579 -1.0239 -0.967376 -1.03094
          -0.0667112 -0.0143042 -0.0380729 -0.0548072 -0.990689 -0.857877
          -0.958737 -0.930871 -1.08471 -1.06714 -1.08441 -1.02577
          1.05157 1.03394 1.0193 0.903992 0.167727 0.0195096
          0.0434342 0.0941603 1.89198 1.95549 1.94509 1.94817
          1.63429 1.64599 1.77496 1.67008 -1.1202 -1.10787
          -1.07793 -1.09011 -0.42744 -0.540991 -0.497885 -0.433933
          0.701274 0.887579 0.988245 0.832093 -1.12287 -1.12721
          -1.12962 -1.10889 -1.01235 -1.06016 -1.0335 -1.0551
          -1.04283 -1.04331 -1.00764 -1.03143 1.94817 1.94003
          1.94868 1.89003 -0.936452 -0.942546 -0.985347 -0.917892
          1.09947 1.10918 0.977767 1.24102 -0.478517 -0.433246
          -0.525649 -0.467039 2.04031 1.98205 2.09747 2.02507
          -0.641772 -0.525649 -0.48275 -0.590591 1.7537 1.78754
          1.83094 1.84714 -1.12026 -1.08369 -1.10458 -1.11295
          -1.01114 -1.05651 -0.998765 -1.00764 1.24339 1.17371
          1.34396 1.22074 -0.552338 -0.48275 -0.403315 -0.439577
          -0.956961 -0.887682 -0.930871 -0.964579 0.813037 0.859824
          0.763847 0.977767 -1.12266 -1.13081 -1.13564 -1.13408
          -0.179655 -0.154028 -0.191247 -0.222739 -1.11282 -1.07206
          -1.08953 -1.08344 -0.129841 -0.133957 -0.185183 -0.0978631
          1.66463 1.62844 1.53891 1.55134 -0.277549 -0.106809
          -0.146912 -0.0630469 -0.882717 -0.925889 -0.847493 -0.91903
          -0.375589 -0.305608 -0.326607 -0.223941 -0.987319 -0.947155
          -1.0007 -1.0146 -0.606076 -0.700307 -0.615241 -0.675075
          -0.961802 -0.935717 -0.895068 -0.936173 -0.206198 -0.19082
          -0.280035 -0.272863 0.187026 0.167727 0.361071 0.25432
          0.360327 0.180975 0.187026 0.352982 -1.02334 -0.990689
          -1.02135 -1.06445 1.88582 1.95943 1.8842 1.90131
          -0.236551 -0.151099 -0.0678035 -0.223941 -0.897867 -0.971224
          -0.938354 -0.891684 -0.433246 -0.533937 -0.525649 -0.514974
          0.857926 0.941905 0.977767 1.09947 -0.984041 -0.973045
          -1.00764 -0.936173 -0.372721 -0.385426 -0.460253 -0.455721
          0.102868 0.190096 0.269333 0.0352962 -0.0749921 -0.103565
          -0.0698736 -0.0822399 1.4184 1.63277 1.52752 1.48789
          -0.520796 -0.610887 -0.492427 -0.609731 0.49707 0.54982
          0.701274 0.559962 -0.212676 -0.151099 -0.0607881 -0.0678035
          -0.210131 -0.248114 -0.149544 -0.188494 -0.977787 -0.956961
          -0.930871 -0.964579 1.90816 1.90057 1.89198 1.94817
          -0.788346 -0.870565 -0.796305 -0.86543 -1.05661 -1.04742
          -1.03505 -1.08729 -1.12438 -1.13227 -1.13173 -1.13082
          1.96844 1.93412 1.89904 1.91859 -0.125328 -0.258256
          -0.0840872 -0.142666 1.4184 1.48789 1.3922 1.34396
          -1.0665 -1.06388 -1.09497 -1.0865 -1.12909 -1.12604
          -1.1349 -1.12627 -0.699613 -0.737575 -0.620987 -0.685864
          -0.762226 -0.847837 -0.788346 -0.870565 -0.133957 -0.102152
          -0.084285 -0.143159 -0.77357 -0.847493 -0.752531 -0.845006
          -0.610499 -0.680571 -0.589968 -0.603389 -0.770226 -0.704614
          -0.660161 -0.712925 -0.120506 -0.097455 -0.0621598 -0.0861697
          0.105101 0.190096 0.102868 0.0352962 -0.051575 -0.0371014
          -0.0808166 -0.0704409 -0.42142 -0.592942 -0.546765 -0.459932
          -0.143068 -0.354446 -0.173142 -0.0840872 -1.09393 -1.11961
          -1.10666 -1.10963 1.79745 1.7903 1.83279 1.73409
          -0.376901 -0.276106 -0.325468 -0.337935 -1.03123 -1.03428
          -1.04643 -0.982387 2.00681 2.06131 2.06627 1.98437
          0.781435 0.647563 0.686588 0.655168 0.291124 0.105877
          0.105101 0.224806 1.2659 1.36561 1.24102 1.4792
          -0.151099 0.0352962 -0.0607881 -0.0678035 0.0941603 -0.00516023
          0.157778 0.0640076 0.85072 0.887579 0.988245 0.701274
          0.800478 0.753173 0.88187 0.807915 -0.313497 -0.266652
          -0.252972 -0.210131 1.10918 1.04243 1.07544 0.964154
          -0.680673 -0.652342 -0.74517 -0.662766 -0.156252 -0.207257
          -0.19082 -0.24717 -1.0698 -1.08222 -1.04012 -1.0015
          -0.961593 -0.987319 -1.02438 -1.0176 -1.07046 -1.10889
          -1.07793 -1.06991 -1.12608 -1.13421 -1.12406 -1.12534
          0.475347 0.498809 0.652838 0.668802 -1.08134 -1.08627
          -1.06675 -1.11282 -0.0540615 -0.0342029 -0.0484198 -0.0698736
          -0.651747 -0.615241 -0.7108 -0.714006 -0.971224 -0.993426
          -1.03428 -0.982387 -0.643506 -0.7108 -0.606738 -0.651747
          -0.870565 -0.888644 -0.84867 -0.788346 -0.0278639 0
          0 -0.0580352 1.91649 1.84313 1.83094 1.88195
          -0.248114 -0.313497 -0.319843 -0.281814 -0.954481 -0.962722
          -0.964579 -1.0239 1.84397 1.84313 1.91203 1.9288
          1.09947 1.23858 1.10918 1.2659 1.96844 1.9141
          1.9938 1.97551 0.833553 1.03208 0.934743 0.845586
          1.4184 1.17371 1.24339 1.22555 0.568122 0.559962
          0.662797 0.469028 0.148091 0.0687832 0.303109 0.105877
          -1.11282 -1.11163 -1.13087 -1.10446 0.282314 0.164546
          0.351904 0.363125 -0.375156 -0.395565 -0.314918 -0.380621
          -0.956961 -0.881613 -0.930871 -0.887682 2.04031 2.01143
          1.98205 2.02507 1.80015 1.84714 1.9141 1.86394
          1.90816 1.94817 1.89198 1.89003 -0.700148 -0.643321
          -0.683439 -0.769458 -0.606738 -0.704614 -0.630091 -0.637707
          1.10918 0.964154 0.977767 1.04243 1.03886 1.1614
          1.13145 1.21446 -1.13275 -1.12756 -1.1349 -1.12711
          -0.627782 -0.743985 -0.593398 -0.748962 -0.593398 -0.743985
          -0.691136 -0.748962 1.83094 1.7537 1.71781 1.78754
          -0.862268 -0.84867 -0.74553 -0.760049 1.28846 1.18186
          1.24082 1.21679 -0.963537 -1.02195 -1.00984 -0.989246
          -1.08729 -1.03505 -1.05661 -1.08499 -0.277549 -0.0630469
          -0.179374 -0.176552 1.41079 1.4178 1.55042 1.55134
          -0.149544 -0.143159 -0.188494 -0.123609 1.55691 1.52316
          1.30879 1.37031 -0.895068 -0.90005 -0.86543 -0.795337
          -0.0548072 -0.0497382 -0.0667112 -0.0978631 1.22555 1.16296
          1.28711 1.18361 1.33583 1.26476 1.29245 1.42249
          -0.956961 -0.961593 -0.985129 -0.941717 -0.295772 -0.319843
          -0.248114 -0.372721 -0.360852 -0.264494 -0.323366 -0.404598
          1.87832 1.84397 1.92573 1.78842 1.55134 1.55042
          1.6896 1.6395 0.025035 0.00567184 -0.176552 -0.0882344
          -1.06883 -1.08369 -1.09692 -1.10146 2.03117 2.13771
          2.03787 2.06513 -0.572695 -0.478517 -0.467039 -0.461085
          1.89605 1.89003 1.94868 1.88336 1.84714 1.91859
          1.86394 1.89904 -1.03094 -1.0663 -1.06016 -1.01235
          -0.892945 -0.888644 -0.84867 -0.870565 1.62788 1.71521
          1.73139 1.6896 -0.314081 -0.354419 -0.331415 -0.286805
          -0.971224 -0.924358 -0.897867 -0.971894 1.18361 1.31556
          1.28711 1.41079 1.06639 1.06277 1.00011 0.841573
          1.00011 0.964154 0.859824 0.842115 0.0434342 0.0195096
          -0.0892965 0.0941603 0.157778 0.0844741 0.215311 0.0941603
          -0.396732 -0.381395 -0.467039 -0.461085 -1.01114 -1.04643
          -1.03123 -1.07046 -1.02948 -0.956961 -1.04155 -1.0025
          0.180975 0.0264647 0.196126 0.181263 -1.11165 -1.08441
          -1.1089 -1.08222 -1.06388 -1.10846 -1.0707 -1.10963
          -0.702508 -0.680571 -0.603389 -0.788346 -1.03094 -1.01235
          -1.06016 -1.02577 -0.867817 -0.867566 -0.800895 -0.855794
          0.763471 0.910491 0.912449 0.78162 -0.182455 -0.15829
          -0.216222 -0.230557 -1.01235 -0.987972 -1.0335 -1.02577
          1.38557 1.4564 1.33583 1.24082 1.10918 1.23496
          1.18186 1.07544 0.252378 0.148091 0.273135 0.0779313
          1.66253 1.63277 1.74814 1.63519 -0.129841 -0.0800788
          -0.084285 -0.0978631 -1.06883 -1.03065 -1.04601 -1.06535
          0.550593 0.655168 0.491304 0.686588 0.491304 0.686588
          0.652838 0.582721 0.491304 0.655168 0.652838 0.686588
          -0.375156 -0.313891 -0.394513 -0.394325 0.025035 0.00567184
          0.164546 0.168031 -0.331415 -0.433246 -0.381395 -0.361431
          0.550593 0.686588 0.491304 0.582721 -0.372721 -0.371997
          -0.380621 -0.460253 -0.492427 -0.395732 -0.394055 -0.277549
          -0.423532 -0.581238 -0.595206 -0.592942 1.82271 1.82752
          1.86394 1.89649 -0.565742 -0.455721 -0.504466 -0.487029
          0.956597 1.01471 1.13145 1.05637 -0.643506 -0.615241
          -0.700307 -0.714006 -0.0285603 -0.0394255 -0.051575 -0.0718477
          1.4564 1.51567 1.59578 1.5561 -0.217498 -0.323366
          -0.379886 -0.360852 0 0 0 0.000948014
          -1.1071 -1.06445 -1.09202 -1.07335 -0.185183 -0.194325
          -0.251084 -0.177216 -0.0808166 -0.0695534 -0.0599512 -0.100673
          -0.929906 -0.867817 -0.961802 -0.876171 -1.13052 -1.12026
          -1.1415 -1.13262 -0.359668 -0.459665 -0.371606 -0.433246
          1.96815 1.98846 1.91649 1.93412 1.4178 1.37992
          1.52316 1.4291 2.05199 2.12329 2.13214 2.12646
          -0.0685765 0.105877 0.070095 -0.0718907 -1.09202 -1.06016
          -1.08471 -1.07587 -0.191247 -0.24717 -0.19082 -0.249986
          -0.354446 -0.258256 -0.222251 -0.0840872 -0.79408 -0.84867
          -0.869098 -0.888644 -1.07046 -1.08134 -1.06675 -1.10819
          0.568122 0.668802 0.739804 0.578553 -0.188363 -0.179655
          -0.230557 -0.266146 0.652838 0.662797 0.662099 0.475347
          -0.051575 -0.0704409 -0.0665337 -0.0270135 1.55134 1.48789
          1.53891 1.56307 1.03886 0.920525 1.01471 0.858087
          -1.12287 -1.12962 -1.13081 -1.10889 1.33583 1.29245
          1.31556 1.40219 -0.375156 -0.375043 -0.394513 -0.313891
          1.29336 1.28935 1.3944 1.175 -0.0426216 -0.0122043
          -0.0143042 -0.0548072 -0.133678 -0.0665337 -0.10608 -0.0704409
          -1.04277 -1.08627 -1.06675 -1.08134 1.91859 1.97551
          1.9141 1.96844 -0.476973 -0.375156 -0.372606 -0.375043
          1.79745 1.89003 1.81379 1.83215 -0.718463 -0.667561
          -0.615241 -0.714006 -1.07656 -1.02908 -1.07992 -1.04742
          -1.04643 -1.08134 -1.06675 -1.07046 1.10918 1.18186
          1.23496 1.23858 -0.149544 -0.174494 -0.188363 -0.100673
          -0.252972 -0.185183 -0.266652 -0.276106 -0.977787 -0.956961
          -0.962701 -0.881613 -0.310567 -0.319843 -0.295772 -0.372721
          1.94509 2.02627 2.04711 2.00861 -0.0808166 -0.100673
          -0.135516 -0.12574 -0.610887 -0.699179 -0.746878 -0.680571
          -0.02854 -0.0245388 -0.0695534 -0.0621598 1.05157 1.16296
          1.0193 1.03394 -1.01114 -0.917065 -0.961802 -0.953749
          -1.07793 -1.05651 -1.04742 -1.08531 1.00011 1.07544
          1.03208 0.859824 -0.850377 -0.720252 -0.74553 -0.84867
          1.52316 1.55691 1.57344 1.37031 1.4184 1.26309
          1.17371 1.22555 0.857926 0.813037 0.763847 0.977767
          -0.236551 -0.24624 -0.379639 -0.410816 -0.606738 -0.630091
          -0.569304 -0.563079 -0.680673 -0.74517 -0.773249 -0.662766
          -0.182455 -0.135516 -0.10608 -0.15829 -0.773249 -0.774123
          -0.727052 -0.823936 -0.0956363 -0.173142 -0.274683 -0.323724
          1.82278 1.94509 1.89198 1.90131 1.95549 1.94509
          1.90131 1.89198 -0.323724 -0.459932 -0.379886 -0.262841
          0.105101 0.190096 0.303109 0.288513 1.6395 1.71781
          1.78754 1.6896 2.03987 2.13771 2.06513 2.11404
          -0.643288 -0.568469 -0.561488 -0.593392 -0.492427 -0.610887
          -0.589968 -0.609731 -0.700182 -0.79789 -0.746678 -0.800895
          0.693819 0.506003 0.653264 0.562318 -0.870565 -0.924358
          -0.971894 -0.938354 1.1614 1.01471 1.14735 1.03886
          -0.0582118 -0.0260409 -0.0492764 -0.0930104 0.941905 0.964154
          0.977767 1.10918 0.974223 1.14735 1.01471 0.934743
          2.10335 2.04031 2.09747 2.02507 -0.887682 -0.830437
          -0.847736 -0.794661 -0.449962 -0.326607 -0.432786 -0.462169
          -1.09202 -1.03094 -1.06016 -1.07587 -1.02334 -1.01235
          -1.03094 -0.990689 -0.156252 -0.179655 -0.19082 -0.103565
          1.17371 1.26309 1.22074 1.04712 -0.984041 -0.961802
          -0.929906 -0.867566 -0.133678 -0.0946761 -0.15829 -0.0665337
          -0.605686 -0.667253 -0.565742 -0.660161 1.51567 1.34734
          1.3809 1.38557 1.04712 0.833553 0.910491 0.83647
          1.96301 2.02507 2.04554 2.04065 -1.09337 -1.09497
          -1.09164 -1.11463 2.11494 2.11155 2.07562 2.04031
          -0.102152 -0.084285 -0.0979218 -0.058432 -0.75591 -0.666373
          -0.657779 -0.704614 1.7903 1.87832 1.89003 1.81379
          1.79745 1.88336 1.89003 1.83215 1.98437 2.10138
          2.12041 2.06131 -1.03428 -1.08134 -1.06675 -1.04643
          -0.684281 -0.643288 -0.561488 -0.593392 -1.12128 -1.11165
          -1.13564 -1.09888 -0.156252 -0.207257 -0.14598 -0.19082
          -1.06714 -1.02696 -1.08441 -1.04012 1.65267 1.59578
          1.69449 1.78754 -1.09888 -1.02696 -1.0667 -1.08441
          -0.610499 -0.680571 -0.603389 -0.702508 -0.610499 -0.603389
          -0.665505 -0.702508 -0.702508 -0.788346 -0.665505 -0.762226
          0.746838 0.941905 0.813037 0.857926 -0.188363 -0.174494
          -0.150911 -0.100673 -0.272863 -0.179655 -0.249986 -0.222739
          -0.610887 -0.62348 -0.449962 -0.510283 2.03787 2.13214
          2.07781 2.13771 -0.93618 -0.958975 -0.875966 -0.868497
          -1.13028 -1.13595 -1.13884 -1.13082 0.832093 0.54982
          0.662797 0.701274 -1.12608 -1.10803 -1.12534 -1.12406
          -1.11872 -1.13495 -1.10787 -1.11395 -1.06633 -1.01073
          -1.0239 -1.0176 1.0351 1.13145 1.29336 1.175
          0.93758 1.0193 1.16605 1.03394 1.24082 1.16605
          1.1531 1.18361 -0.720252 -0.680571 -0.610499 -0.702508
          0.282314 0.164546 0.215311 0.351904 -1.03094 -1.07587
          -1.09202 -1.06445 1.22555 1.16296 1.18361 1.17371
          -1.02314 -0.987319 -1.04601 -1.03065 -0.581238 -0.586159
          -0.691136 -0.699613 -1.02577 -1.04012 -1.0239 -0.962722
          -0.694047 -0.552338 -0.641772 -0.585892 0.375367 0.54136
          0.558058 0.49707 1.94003 1.92573 1.87832 1.92573
          -0.667253 -0.704614 -0.770226 -0.774123 -0.260464 -0.326607
          -0.379639 -0.378284 -0.279389 -0.319843 -0.248114 -0.295772
          -1.08222 -1.08471 -1.08441 -1.04012 -0.961802 -0.984041
          -1.04283 -1.00764 -0.0389618 0 -0.0123778 -0.0278639
          1.4792 1.36561 1.45466 1.50407 -0.266283 -0.359668
          -0.28944 -0.331415 -0.0630469 0.0687832 0.148091 -0.0685765
          0.662797 0.568122 0.739804 0.70671 -1.12747 -1.12909
          -1.13536 -1.12627 -0.593398 -0.547456 -0.627782 -0.678307
          0.506003 0.409391 0.483109 0.360895 -1.10889 -1.08431
          -1.08471 -1.06016 -0.998166 -0.998765 -0.888644 -0.945405
          -0.533937 -0.615241 -0.560752 -0.525649 1.18652 1.24339
          1.17371 1.22555 1.22074 1.1614 1.30124 1.14735
          -0.868497 -0.920145 -0.823936 -0.865373 1.86394 1.89904
          1.89649 1.88582 -0.961802 -0.867566 -0.936173 -0.895068
          -1.07793 -1.00764 -1.04742 -1.05651 2.03097 2.05199
          2.10279 2.02495 0.83647 0.833553 0.903992 0.763471
          1.66463 1.81379 1.74814 1.72946 -0.800314 -0.718463
          -0.775399 -0.794661 -0.394325 -0.337935 -0.42744 -0.433933
          -0.0945631 -0.0808166 -0.135516 -0.12574 1.09947 1.10918
          1.24102 1.2659 -0.775399 -0.7108 -0.651747 -0.700148
          -0.839382 -0.870565 -0.949907 -0.938354 -0.627782 -0.748962
          -0.593398 -0.678307 1.89136 1.78898 1.85165 1.88195
          -0.0371014 -0.0285603 -0.00222902 -0.0270135 -0.762226 -0.839382
          -0.814626 -0.870565 -1.12438 -1.12627 -1.13082 -1.10792
          -0.589371 -0.540991 -0.593162 -0.516463 0.0844741 -0.0882344
          0.0640076 0.025035 0.652838 0.686588 0.753173 0.582721
          -0.887682 -0.89299 -0.830437 -0.800314 -1.05661 -1.11213
          -1.10196 -1.0749 -0.714006 -0.700307 -0.792856 -0.760958
          0.739804 0.83647 0.763471 0.668802 -1.12438 -1.13227
          -1.11395 -1.13173 -0.314918 -0.230557 -0.272863 -0.266146
          1.90816 1.96815 1.90057 1.94817 -0.248114 -0.281814
          -0.188494 -0.194536 1.82278 1.73139 1.74814 1.70657
          -1.02818 -1.02908 -0.980392 -1.05661 -0.75767 -0.666373
          -0.704614 -0.712925 -0.830822 -0.958737 -0.89299 -0.876853
          1.22555 1.18361 1.26309 1.17371 -0.326607 -0.292848
          -0.329892 -0.408731 -0.0678035 -0.236551 -0.0718907 -0.106809
          -0.585892 -0.514974 -0.552338 -0.48275 -1.04905 -1.0015
          -1.01657 -1.0007 -1.09393 -1.09673 -1.05651 -1.08695
          1.9455 1.95795 1.91649 1.88195 1.95539 2.04142
          1.95549 1.96815 -0.774123 -0.770226 -0.823936 -0.868497
          -1.08369 -1.04601 -1.08222 -1.07142 1.08346 1.18361
          1.03208 1.21542 -1.06633 -1.02314 -1.04601 -1.08369
          -1.02195 -1.06388 -1.05959 -1.05963 -0.0630469 -0.0379752
          -0.176552 0.025035 -0.266146 -0.222739 -0.266652 -0.175074
          1.89904 1.83094 1.93412 1.90057 -0.286805 -0.314918
          -0.262145 -0.230557 -0.700182 -0.800895 -0.746678 -0.691136
          2.03097 2.00681 2.05199 2.02495 1.93412 1.95846
          1.91859 1.97551 2.02495 1.98437 2.09814 2.02504
          -1.12747 -1.10413 -1.12314 -1.1078 -0.478517 -0.433246
          -0.467039 -0.381395 -1.11049 -1.08222 -1.12877 -1.11972
          -1.11584 -1.10146 -1.11042 -1.12026 -1.0665 -1.0865
          -1.09337 -1.04173 -1.04742 -1.05661 -1.07992 -1.08729
          1.21542 1.18186 1.23496 1.07544 1.29336 1.13145
          1.1614 1.28935 -0.665505 -0.737575 -0.716274 -0.788346
          0.0174048 0.00797098 0.0687832 -0.106809 1.9288 1.91203
          1.88195 1.84313 -0.989246 -1.00984 -1.03123 -1.05959
          2.09401 2.13771 2.03987 2.11404 -0.143068 -0.258514
          -0.0892965 -0.173142 0.070095 0.223329 0.224806 0.105877
          -0.473971 -0.41916 -0.49828 -0.548444 -1.07046 -1.03067
          -1.06991 -1.01114 -1.08765 -1.04283 -1.09011 -1.0635
          -0.447808 -0.525649 -0.485896 -0.48275 0.491304 0.652838
          0.475347 0.498809 -1.06883 -1.02314 -1.08369 -1.04601
          1.26309 1.21542 1.03886 1.04712 -0.467039 -0.372721
          -0.460253 -0.455721 1.38913 1.44473 1.41683 1.30124
          -0.0685765 0.0687832 0.148091 0.105877 1.59578 1.69668
          1.69449 1.7537 1.76111 1.63429 1.78898 1.71781
          -0.375589 -0.449962 -0.410816 -0.236551 -1.07793 -1.08531
          -1.04742 -1.07656 2.00861 2.11155 2.11979 2.11494
          0.828881 0.68783 0.781435 0.655168 1.89904 1.95539
          1.90057 1.96815 1.73139 1.62788 1.70657 1.70571
          0.652838 0.833553 0.662099 0.662797 -0.746878 -0.796305
          -0.869098 -0.849714 1.05637 0.860861 1.04243 0.931257
          0.146292 0.00797098 0.105101 0.0687832 -0.795337 -0.748962
          -0.691136 -0.743985 1.56307 1.55134 1.48789 1.63277
          -1.13081 -1.13067 -1.11165 -1.13564 1.18186 1.06277
          1.00011 1.06639 -0.627782 -0.743985 -0.691136 -0.593398
          -0.953749 -0.949907 -0.917065 -0.86543 1.05637 1.21446
          1.21814 1.04243 -1.12544 -1.13275 -1.12406 -1.13421
          0.662797 0.662099 0.845586 0.833553 -0.396732 -0.332616
          -0.381395 -0.372721 -1.12128 -1.08441 -1.09888 -1.09322
          -0.470608 -0.516463 -0.394325 -0.497885 0.48361 0.498809
          0.668802 0.578553 -1.01235 -1.02334 -1.03094 -1.0663
          -0.568469 -0.683439 -0.589371 -0.643288 -0.794661 -0.714006
          -0.775399 -0.760958 -0.00516023 -0.0723265 -0.00656958 0.0640076
          1.90816 1.84313 1.81382 1.91203 -0.605686 -0.667253
          -0.660161 -0.727052 -1.11463 -1.09497 -1.09164 -1.12213
          -1.11463 -1.12213 -1.09164 -1.11628 -1.09497 -1.12932
          -1.12213 -1.11463 -0.846966 -0.863214 -0.79656 -0.791267
          -0.846966 -0.890416 -0.863214 -0.791267 -0.890416 -0.929701
          -0.863214 -0.875966 -0.102152 -0.0791758 -0.0380729 -0.058432
          -0.0892965 0.0941603 -0.0723265 0.0434342 1.56397 1.68961
          1.65206 1.68813 1.89136 1.85165 1.917 1.88195
          -0.788346 -0.839382 -0.716274 -0.762226 -0.266146 -0.222739
          -0.313891 -0.266652 0.106764 -0.0379752 0.025035 0.00567184
          -1.14029 -1.13536 -1.12721 -1.12749 -0.051575 -0.0535907
          -0.0401906 -0.0245388 1.59578 1.7537 1.69449 1.78754
          -0.0646586 -0.0430308 -0.030091 -0.0278639 1.94868 1.94003
          1.94817 1.98205 0.377404 0.469028 0.353601 0.282314
          -0.845827 -0.887682 -0.881613 -0.847736 -0.694047 -0.643288
          -0.75319 -0.722719 0.196126 0.0195096 0.0941603 0.070095
          -0.354446 -0.384524 -0.222251 -0.375589 1.9882 2.06131
          2.04656 1.95795 -0.593162 -0.539283 -0.565645 -0.516463
          -0.800314 -0.830437 -0.718463 -0.700148 -0.561488 -0.476973
          -0.495461 -0.460818 -1.01073 -0.954481 -0.964579 -1.0239
          0.701274 0.841573 0.887579 0.832093 -0.0599512 -0.0401906
          -0.051575 -0.0535907 0.807915 0.753173 0.668802 0.652838
          -0.460818 -0.375043 -0.40716 -0.394513 -0.680673 -0.643321
          -0.593162 -0.667253 -1.12438 -1.13408 -1.13227 -1.13884
          -1.13564 -1.14815 -1.13874 -1.13884 1.59758 1.71521
          1.75653 1.70571 -0.552338 -0.568469 -0.48275 -0.476973
          -0.0685765 -0.0630469 0.025035 0.148091 -0.791267 -0.79656
          -0.75591 -0.75767 1.71781 1.67008 1.79197 1.6753
          -0.525649 -0.485896 -0.48275 -0.590591 -0.624716 -0.593162
          -0.599053 -0.680673 -0.143068 -0.173142 -0.0892965 0.0195096
          -0.133678 -0.206198 -0.216222 -0.15829 -1.10846 -1.12932
          -1.0977 -1.12188 -0.379639 -0.106809 -0.260464 -0.277549
          0.306036 0.375367 0.558058 0.489621 -0.7108 -0.704614
          -0.606738 -0.637707 -1.08222 -1.10458 -1.12197 -1.12877
          -0.971894 -1.03123 -0.949907 -1.01114 -0.0822399 -0.103565
          -0.0698736 -0.0963933 1.33583 1.29245 1.40219 1.51115
          -0.857877 -0.958737 -0.89299 -0.830822 -0.998765 -0.90005
          -0.945405 -0.949907 1.2659 1.3658 1.36561 1.4792
          -0.62348 -0.748962 -0.685864 -0.746878 -0.174494 -0.262145
          -0.211183 -0.266146 -0.205618 -0.151989 -0.135516 -0.171628
          -0.380621 -0.313497 -0.371997 -0.372721 -0.0956363 -0.274683
          -0.262841 -0.323724 -0.0685765 -0.106809 -0.24624 -0.277549
          2.04031 2.11155 2.03097 2.00861 2.03787 2.07781
          2.13995 2.13771 1.84714 1.89347 1.91859 1.89904
          -0.700182 -0.774606 -0.800895 -0.717461 -1.00016 -0.925889
          -0.975666 -0.985977 -0.615241 -0.667561 -0.585892 -0.514974
          -0.888644 -0.788346 -0.79408 -0.84867 1.22074 1.21542
          1.21446 1.03886 -1.05651 -1.03123 -1.07046 -1.01114
          1.45466 1.51462 1.37992 1.52316 -0.102152 -0.0667112
          -0.058432 -0.0380729 -1.14317 -1.10889 -1.13418 -1.12044
          -0.780209 -0.776937 -0.716274 -0.84509 -0.0808166 -0.0285603
          -0.051575 -0.0718477 1.34734 1.26476 1.33583 1.42249
          -0.02854 -0.0285603 -0.0245388 0 -0.173142 -0.323724
          -0.354446 -0.258514 -1.06445 -1.07587 -1.09202 -1.07335
          -0.1821 -0.212676 -0.0607881 -0.0678035 1.00411 1.05637
          1.12293 0.931257 1.96844 1.98846 2.03787 2.03117
          -1.13067 -1.11049 -1.11165 -1.12877 -0.595206 -0.700182
          -0.648259 -0.614662 1.97551 1.98846 2.03787 1.96844
          -0.700307 -0.7108 -0.75591 -0.657779 1.97551 2.03787
          1.9938 1.96844 -1.11872 -1.10787 -1.1202 -1.09011
          -0.0229973 0 0 0 -1.11972 -1.10458
          -1.12877 -1.1291 1.94509 2.01221 1.99431 1.95211
          -0.892945 -0.924358 -0.963537 -0.945405 -0.143068 -0.258256
          -0.0840872 -0.125328 -0.478517 -0.381395 -0.467039 -0.396732
          -0.873521 -0.907578 -0.865373 -0.811176 -1.11165 -1.10589
          -1.13564 -1.09888 -0.133957 -0.185183 -0.143159 -0.129841
          0.157778 0.215311 0.338667 0.223329 0.681063 0.845586
          0.662099 0.859824 -0.084285 -0.0548072 -0.0667112 -0.0978631
          -0.0221902 0.0779313 0.140069 0.0473313 0.375367 0.353601
          0.306036 0.259453 -1.12747 -1.13832 -1.13536 -1.12909
          -0.143068 -0.258256 -0.354446 -0.0840872 -0.0379752 -0.0630469
          0.0473313 0.0779313 1.06277 1.07544 1.10918 1.18186
          1.73139 1.63277 1.70657 1.62788 1.63277 1.60442
          1.70657 1.62788 -0.870565 -0.924358 -0.945405 -0.971894
          -0.980392 -0.997365 -0.910515 -0.925889 -0.0036774 -0.142666
          -0.0718907 0.0352962 0.157778 0.0941603 0.223329 0.25432
          -0.375156 -0.380621 -0.394325 -0.470608 -1.10792 -1.09673
          -1.08531 -1.08729 -1.12721 -1.13536 -1.11504 -1.12749
          -0.980392 -0.910515 -0.882717 -0.925889 -0.74553 -0.720252
          -0.598024 -0.664582 1.98437 2.02853 1.95795 2.06131
          1.98846 1.96815 2.03117 1.96844 -1.08222 -1.04905
          -1.0698 -1.1089 -0.958737 -0.964579 -1.03094 -0.990689
          -1.0652 -1.08499 -1.0707 -1.0977 0.0435163 -0.0678035
          0.190096 0.105101 1.21542 1.24082 1.31556 1.41079
          -0.627782 -0.743985 -0.748962 -0.678307 1.96815 1.91649
          1.98846 1.93899 1.89003 1.89198 1.90057 1.81379
          1.7903 1.89003 1.90816 1.81379 -0.79789 -0.80429
          -0.746678 -0.800895 -1.03505 -1.0707 -1.05651 -1.06388
          -1.12266 -1.13564 -1.13874 -1.13408 1.98846 1.95846
          1.96844 1.97551 -0.543667 -0.651747 -0.637707 -0.590591
          -0.00516023 -0.158079 -0.00656958 -0.0723265 -0.930871 -0.845827
          -0.887682 -0.881613 -0.182455 -0.135516 -0.15829 -0.19697
          0.481869 0.490675 0.483109 0.662099 -1.0551 -1.02334
          -1.01235 -1.0663 -1.04155 -1.01073 -1.06633 -1.0176
          1.81379 1.72946 1.79745 1.83215 -0.873521 -0.966454
          -0.967376 -0.962722 -0.568469 -0.485896 -0.470608 -0.589371
          1.64719 1.63429 1.51462 1.52233 -0.961593 -1.02438
          -0.958975 -0.962722 -1.01045 -1.03462 -1.06388 -1.0652
          -1.00764 -0.973045 -0.997365 -0.935717 1.5561 1.52233
          1.64719 1.51462 -0.0979218 -0.100673 -0.0861697 -0.149544
          -0.211183 -0.279389 -0.219262 -0.248114 0.491304 0.386022
          0.25432 0.338667 1.4178 1.21542 1.26309 1.41079
          -1.13082 -1.12604 -1.13421 -1.11961 1.22555 1.18361
          1.28711 1.26309 -0.773249 -0.774123 -0.680673 -0.727052
          -0.603389 -0.469631 -0.446988 -0.520837 -1.08765 -1.07793
          -1.09011 -1.04283 0.701274 0.832093 0.93758 0.70671
          -0.104373 -0.0749921 -0.0540615 -0.0822399 0.196126 0.288513
          0.285413 0.181263 -0.880859 -0.876853 -0.929422 -0.790747
          0.377404 0.503453 0.54982 0.481869 -1.1349 -1.12899
          -1.12627 -1.13082 -1.06883 -1.087 -1.08369 -1.09216
          0.653264 0.506003 0.360895 0.562318 0.830437 0.842115
          0.653257 0.653264 -0.0540615 -0.0490048 -0.0342029 -0.0749921
          0.106764 0.148091 0.233816 0.025035 -1.13595 -1.12962
          -1.13028 -1.13081 -1.13408 -1.13081 -1.13564 -1.13884
          -1.13564 -1.13081 -1.10589 -1.11165 -1.12899 -1.12692
          -1.13028 -1.12962 0.503453 0.483109 0.377404 0.303109
          0.503453 0.483109 0.481869 0.377404 -0.954481 -0.961593
          -1.0239 -1.01073 1.73139 1.6896 1.81382 1.81379
          1.94868 1.96301 1.94003 1.98205 0.0844741 0.0640076
          0.215311 0.164546 1.73243 1.69449 1.80015 1.78754
          -0.942546 -0.998166 -1.03462 -0.985347 -1.06016 -1.03094
          -1.08471 -1.07587 -1.08672 -1.04785 -1.02948 -1.04155
          -1.12608 -1.10969 -1.10803 -1.12406 0 -0.0229973
          0 0 -0.892945 -0.788346 -0.843822 -0.847837
          1.04712 0.83647 0.903992 1.0193 -0.211183 -0.225044
          -0.295772 -0.262145 -0.179429 -0.219262 -0.141753 -0.188494
          -1.11985 -1.11504 -1.12721 -1.09202 -1.11165 -1.10889
          -1.08471 -1.11049 -1.03184 -1.06388 -1.0665 -1.04173
          -0.929906 -0.867566 -0.867817 -0.855794 1.6896 1.71781
          1.6395 1.71781 -1.0551 -1.0663 -1.08357 -1.02334
          -0.614662 -0.586159 -0.503416 -0.593398 -0.0270135 -0.00222902
          -0.0138309 0 0.148091 0.303109 0.273135 0.291124
          -0.188494 -0.257693 -0.274965 -0.248114 1.68813 1.7903
          1.68961 1.78842 0.964154 0.859824 0.977767 1.04243
          1.51567 1.69668 1.69449 1.59578 1.0911 1.04712
          1.14735 0.974223 1.56397 1.68813 1.65206 1.57344
          -0.379886 -0.42142 -0.546765 -0.459932 -0.775399 -0.700307
          -0.77883 -0.714006 1.23858 1.3809 1.18186 1.38557
          -1.13564 -1.12197 -1.12128 -1.14815 0.215002 0.183378
          0.388691 0.190096 -1.05959 -1.09673 -1.06388 -1.05651
          1.6753 1.52316 1.57344 1.56397 -0.459932 -0.423532
          -0.581238 -0.503416 -0.700182 -0.774606 -0.79789 -0.800895
          -1.04399 -1.03505 -1.00016 -0.985977 -1.04643 -1.06675
          -1.03123 -1.07046 -0.361431 -0.295772 -0.331415 -0.262145
          -0.643288 -0.527732 -0.561488 -0.568469 -0.890416 -0.961593
          -0.956961 -0.941717 -0.593162 -0.605686 -0.662766 -0.667253
          1.83282 1.70571 1.73139 1.78832 1.76701 1.70657
          1.74814 1.66253 -0.624716 -0.593392 -0.589371 -0.701896
          -1.11706 -1.10149 -1.11313 -1.10631 -0.295772 -0.310567
          -0.381395 -0.331415 0 0 0 -0.00445242
          -0.751434 -0.667561 -0.722719 -0.718463 1.83094 1.84313
          1.71781 1.88195 -0.331415 -0.295772 -0.28944 -0.262145
          0.988245 1.08346 1.1531 1.0193 -0.176552 -0.0685765
          -0.277549 -0.0630469 1.00011 0.842115 0.845586 0.832093
          1.94868 2.01143 1.98205 1.94817 0.559962 0.54982
          0.701274 0.70671 -0.185183 -0.210131 -0.194325 -0.175074
          -0.700148 -0.643321 -0.707837 -0.683439 0.187026 0.361071
          0.352982 0.25432 0.291124 0.377404 0.233816 0.282314
          -0.455721 -0.385426 -0.460253 -0.487029 -0.173142 -0.0956363
          -0.0892965 0.0941603 2.01079 2.03117 1.9636 2.03987
          -0.182455 -0.201846 -0.19697 -0.286805 0.54982 0.681063
          0.832093 0.662797 0.196126 0.0941603 0.25432 0.070095
          -1.10969 -1.11042 -1.12608 -1.13052 -0.120506 -0.0621598
          -0.0695534 -0.0599512 -0.0371014 -0.0505998 -0.0285603 -0.0808166
          1.96248 2.02853 1.95795 1.98437 -0.714006 -0.718463
          -0.651747 -0.615241 -0.305608 -0.142666 -0.223941 -0.258256
          -0.930871 -0.857877 -0.887682 -0.845827 -0.791267 -0.704614
          -0.806808 -0.801634 0.845586 0.833553 0.652838 0.800478
          -0.171628 -0.174494 -0.211183 -0.100673 -0.15829 -0.103565
          -0.179655 -0.150911 -0.0123778 0 -0.0389618 -0.0374226
          -0.174494 -0.211183 -0.188363 -0.266146 -0.680571 -0.685864
          -0.620987 -0.737575 -0.839382 -0.862205 -0.909379 -0.917065
          1.22555 1.16296 1.17371 1.05157 0.813037 0.964154
          0.859824 0.977767 -0.175074 -0.185183 -0.210131 -0.133957
          0.190096 -0.0678035 0.0879617 0.105101 -1.01235 -1.0663
          -1.06016 -1.0551 -0.75591 -0.666373 -0.704614 -0.75767
          -0.223941 -0.151099 -0.0678035 -0.0718907 -0.790747 -0.701896
          -0.811141 -0.707837 -0.989246 -1.00984 -1.05959 -1.02195
          1.66463 1.62844 1.55134 1.6896 1.55691 1.37992
          1.30879 1.52316 -0.0540615 -0.0749921 -0.0698736 -0.0822399
          -1.12534 -1.13087 -1.14484 -1.12044 1.87832 1.89003
          1.88336 1.94003 -0.610499 -0.603389 -0.517364 -0.520837
          -1.08417 -1.08672 -1.11475 -1.12126 0.85072 0.701274
          0.988245 0.832093 1.38557 1.33583 1.28846 1.24082
          -0.847493 -0.925889 -0.849714 -0.91903 -1.1349 -1.13561
          -1.14115 -1.14029 -0.572695 -0.525649 -0.606738 -0.543667
          -0.867566 -0.826828 -0.800895 -0.743985 -0.581238 -0.699613
          -0.546765 -0.620987 1.83279 1.87832 1.78842 1.73409
          -0.0944656 -0.076386 -0.102152 -0.0580778 -0.746678 -0.80429
          -0.699613 -0.691136 0.54136 0.653257 0.715955 0.681063
          -0.462169 -0.449962 -0.524484 -0.621601 0.303109 0.503453
          0.433358 0.420265 -1.04979 -1.04785 -1.04155 -1.0025
          -0.030091 -0.0430308 -0.0342029 -0.0278639 -0.280035 -0.206198
          -0.282328 -0.19082 -1.10889 -1.13173 -1.11521 -1.10787
          0.988245 1.0193 1.1531 1.12416 0.763471 0.668802
          0.78162 0.578553 0.941905 1.06277 1.10918 1.09947
          -1.0665 -1.08662 -1.09164 -1.09497 -0.478517 -0.396732
          -0.467039 -0.461085 1.44533 1.4291 1.56397 1.3944
          -0.775399 -0.718463 -0.651747 -0.714006 0.469028 0.489621
          0.353601 0.363125 -0.133957 -0.185183 -0.210131 -0.143159
          -0.0698736 -0.0342029 -0.0484198 -0.0646586 0.49707 0.503453
          0.54982 0.377404 -1.11872 -1.13495 -1.1202 -1.10787
          -0.141753 -0.219262 -0.174972 -0.188494 -1.02195 -1.03184
          -1.06388 -1.05963 -1.11972 -1.12877 -1.13799 -1.12026
          -0.292848 -0.329892 -0.295763 -0.212676 -0.873521 -0.811141
          -0.880859 -0.769458 -1.02577 -0.987972 -1.0335 -0.974703
          -1.02948 -0.962701 -1.0025 -1.04785 -1.10196 -1.08729
          -1.05661 -1.08499 -1.04155 -0.956961 -0.985129 -1.0025
          -0.476973 -0.439577 -0.40716 -0.375043 -0.0221902 0.0174048
          0.0779313 -0.0630469 -0.179655 -0.19082 -0.272863 -0.249986
          -0.717461 -0.743985 -0.691136 -0.627782 2.01079 2.04142
          2.02627 1.95943 -0.907578 -0.866727 -0.873521 -0.849032
          -0.873521 -0.866727 -0.907578 -0.811176 -1.04277 -1.04914
          -0.971224 -1.03123 -0.0978631 -0.0667112 -0.084285 -0.133957
          1.96248 1.98437 1.95795 1.98437 1.81379 1.89003
          1.89198 1.83215 2.10335 2.02507 2.08832 2.04554
          -0.48275 -0.476973 -0.403315 -0.439577 -1.11645 -1.08085
          -1.11706 -1.10149 1.4184 1.55134 1.63277 1.48789
          -1.04742 -1.05651 -1.03505 -1.08729 1.65267 1.59578
          1.78754 1.71521 -1.11645 -1.11706 -1.13379 -1.11263
          -0.961593 -0.958975 -0.875966 -0.962722 -0.956961 -0.954481
          -0.964579 -1.01073 -0.350307 -0.42142 -0.473892 -0.379886
          1.73139 1.66463 1.6896 1.81379 2.09814 2.02495
          2.09406 2.09747 2.09401 2.03117 2.03987 2.13771
          -0.0630469 -0.106809 0.0687832 -0.0685765 -0.641772 -0.590591
          -0.48275 -0.568469 -0.922852 -0.958737 -1.02334 -0.990689
          0.763471 0.910491 0.78162 0.668802 -0.938354 -1.03123
          -0.971894 -1.01114 -0.0791758 -0.0580352 -0.0278639 -0.0646586
          1.82278 1.85818 1.89605 1.94509 -0.850377 -0.841647
          -0.764546 -0.79408 -0.74553 -0.720252 -0.664582 -0.760049
          -1.08222 -1.08441 -1.1089 -1.0698 -0.185183 -0.133957
          -0.177216 -0.0967612 1.36561 1.37992 1.45466 1.51462
          -0.925889 -0.91903 -0.975666 -0.985977 -0.00516023 -0.00656958
          0.195354 0.0640076 0.941905 0.830437 0.964154 1.06277
          -0.589371 -0.516463 -0.593162 -0.643321 0.54982 0.681063
          0.662797 0.662099 -0.880859 -0.89299 -0.811141 -0.885602
          -0.86543 -0.895068 -0.80429 -0.917065 1.88582 1.95539
          1.9636 1.95943 0.352982 0.463576 0.494116 0.514661
          -0.700148 -0.643321 -0.704614 -0.637707 -0.051575 -0.0229973
          -0.0270135 -0.0535907 -0.1821 -0.106809 -0.0678035 0.00797098
          -0.222739 -0.154028 -0.191247 -0.207319 1.87832 1.92573
          1.88188 1.78842 1.9791 1.9791 2.0408 2.04065
          -0.775399 -0.791267 -0.77883 -0.7108 -0.0685765 0.105101
          0.0687832 0.105877 -0.666373 -0.641354 -0.630091 -0.712925
          1.04243 0.860861 0.845586 0.859824 -1.03123 -1.05651
          -1.09393 -1.05959 0.910491 0.934743 0.88187 0.807915
          -0.133678 -0.15829 -0.14598 -0.206198 -1.07046 -1.06675
          -1.03123 -1.09393 0.105101 0.102868 0.190096 0.288513
          -1.08369 -1.09216 -1.12026 -1.10146 1.55134 1.62788
          1.73139 1.6896 -1.12128 -1.11165 -1.08441 -1.1089
          -0.870565 -0.945405 -0.949907 -0.971894 -0.0808166 -0.0599512
          -0.051575 -0.100673 0.857926 0.941905 0.813037 0.964154
          0.070095 -0.0718907 0.105101 0.102868 -1.13538 -1.13275
          -1.1349 -1.12909 -1.0652 -1.09497 -1.06388 -1.0865
          -1.0652 -1.0977 -1.06388 -1.09497 -1.02818 -1.07992
          -1.05661 -1.0749 -0.962701 -0.840197 -0.881613 -0.88369
          -1.12711 -1.10678 -1.11049 -1.11972 -0.850377 -0.84867
          -0.764546 -0.720252 -0.478517 -0.433246 -0.381395 -0.396732
          0.763847 0.577023 0.667341 0.693819 -0.266652 -0.325468
          -0.337935 -0.313497 1.40219 1.41079 1.55042 1.44669
          -0.961802 -1.04283 -1.01497 -0.976381 0.070095 0.0941603
          0.223329 0.105877 -1.13173 -1.1506 -1.14588 -1.14317
          -1.04979 -1.0025 -1.04155 -1.03009 1.53596 1.53891
          1.44473 1.56307 -0.258256 -0.143068 -0.354446 -0.264982
          -0.614662 -0.503416 -0.586159 -0.581238 -1.0663 -1.01051
          -1.06445 -1.05123 -0.839382 -0.870565 -0.938354 -0.897867
          -0.656534 -0.685354 -0.77357 -0.752531 -0.839382 -0.917065
          -0.80429 -0.862205 2.03097 2.05199 2.11483 2.10279
          2.05199 2.12329 2.11483 2.10279 -0.603389 -0.680571
          -0.589968 -0.492427 -1.09692 -1.07377 -1.09595 -1.11313
          -1.087 -1.11295 -1.08369 -1.09216 -0.961802 -0.953749
          -0.895068 -0.935717 -0.0882344 -0.158079 -0.00656958 0.00567184
          -0.806808 -0.868497 -0.774123 -0.873521 0.655168 0.490675
          0.667341 0.608061 -0.0892965 -0.274683 -0.0723265 -0.0956363
          1.31556 1.29245 1.28711 1.40219 -0.525649 -0.615241
          -0.585892 -0.514974 1.24082 1.1531 1.08346 1.18361
          -0.313891 -0.323621 -0.37308 -0.283796 1.83215 1.89003
          1.89605 1.88336 -0.651747 -0.641772 -0.590591 -0.525649
          -0.665753 -0.700182 -0.614662 -0.717461 -0.48275 -0.470608
          -0.375156 -0.476973 -1.14317 -1.12044 -1.13418 -1.13003
          0.54982 0.662099 0.662797 0.481869 0.215002 0.303109
          0.420265 0.252378 0.146292 0.303109 0.215002 0.252378
          -0.151099 0.0352962 -0.0678035 -0.0718907 -1.03505 -1.03781
          -0.985977 -1.04399 -0.286805 -0.318496 -0.314918 -0.216222
          -0.520837 -0.485872 -0.603389 -0.469631 -0.381395 -0.310567
          -0.371606 -0.331415 0.0434342 -0.00516023 0.157778 0.0941603
          -0.890416 -0.875966 -0.791267 -0.885602 -0.1821 -0.292848
          -0.295763 -0.212676 1.82278 1.83282 1.90131 1.89198
          0 -0.0123778 0 -0.00445242 -1.10851 -1.11628
          -1.12213 -1.12862 1.40219 1.55042 1.53837 1.44669
          2.00681 1.98437 2.06131 1.98437 -0.143159 -0.123609
          -0.0800788 -0.129841 -1.1089 -1.08441 -1.09322 -1.0698
          -1.12044 -1.11282 -1.13003 -1.10819 0.181263 0.288513
          0.391246 0.269333 1.62844 1.57455 1.55134 1.6896
          -0.845827 -0.800314 -0.887682 -0.830437 -0.86422 -0.846644
          -0.841123 -0.801634 -1.04331 -1.00764 -1.04742 -1.04283
          -0.236551 -0.375589 -0.223941 -0.222251 -0.565645 -0.516463
          -0.504466 -0.460253 0.887579 0.841573 1.06639 0.988245
          -0.22772 -0.42142 -0.350307 -0.379886 0.0941603 -0.0956363
          -0.0723265 0.0844741 -0.171628 -0.135516 -0.100673 -0.12574
          -1.04012 -0.966454 -1.02112 -1.0015 -1.08369 -1.02438
          -1.08222 -1.04601 -0.395732 -0.379639 -0.277549 -0.492427
          -0.0946761 -0.0490048 -0.0665337 -0.0704409 -0.961593 -0.9239
          -0.984145 -0.941717 0.577023 0.409391 0.490675 0.506003
          0.807915 0.974223 0.910491 0.78162 -0.179429 -0.225044
          -0.219262 -0.211183 1.90816 1.89198 1.90057 1.89003
          1.83094 1.81351 1.84714 1.89347 1.65206 1.68813
          1.68961 1.78842 -0.929906 -0.867566 -0.961802 -0.867817
          -0.143159 -0.188363 -0.175074 -0.0979218 0.106764 0.233816
          0.168031 0.025035 0.233816 0.105877 0.0844741 0.025035
          -0.459665 -0.533937 -0.433246 -0.514974 0.338667 0.282314
          0.351904 0.475347 -0.93916 -0.974703 -0.916534 -0.966454
          -1.02112 -0.966454 -1.04012 -1.02577 -0.606076 -0.615241
          -0.560752 -0.533937 -0.606076 -0.700307 -0.560752 -0.615241
          0 -0.0342029 0 0 -1.12188 -1.11213
          -1.10846 -1.12604 1.84714 1.89347 1.89904 1.83094
          -0.0540615 -0.0267296 -0.0484198 -0.0342029 -0.447808 -0.433246
          -0.361431 -0.381395 -0.337935 -0.325468 -0.371997 -0.313497
          0.974223 0.910491 1.04712 0.934743 -1.04155 -1.07335
          -1.08417 -1.06633 1.83094 1.88195 1.76111 1.85599
          -0.811141 -0.761579 -0.830822 -0.790747 1.4564 1.33583
          1.40219 1.51115 0.469028 0.363125 0.568122 0.559962
          -0.266652 -0.194325 -0.222739 -0.283796 0.85072 0.887579
          0.990943 0.988245 -1.03781 -1.08499 -1.03505 -1.0707
          1.38557 1.34734 1.28846 1.33583 0.105877 0.105101
          0.070095 -0.0718907 2.03117 2.12646 2.09401 2.04142
          0.215002 0.388691 0.433358 0.360895 -1.09393 -1.10963
          -1.10666 -1.08662 1.53596 1.44533 1.56397 1.60977
          -0.606738 -0.637707 -0.563079 -0.543667 1.51462 1.6753
          1.57455 1.52316 -0.603389 -0.716274 -0.546765 -0.608938
          0.105877 0.105101 0.303109 0.291124 1.05157 1.17371
          1.0235 1.04712 1.17371 1.18361 1.04712 1.05157
          -1.12756 -1.12287 -1.1349 -1.12711 1.98846 1.9882
          2.04656 2.00681 -0.325468 -0.371997 -0.389929 -0.337935
          -0.143159 -0.185183 -0.210131 -0.129841 1.65371 1.55691
          1.57344 1.52316 0.0844741 0.164546 0.282314 0.025035
          -0.416868 -0.473892 -0.608938 -0.546765 2.13771 2.13995
          2.03787 2.06513 2.04656 2.06131 2.06627 2.00681
          1.76111 1.71781 1.64719 1.71781 1.91649 1.84313
          1.81382 1.83094 2.03987 1.96844 1.9938 2.06513
          -0.376901 -0.276106 -0.337935 -0.339919 1.44533 1.3944
          1.56397 1.52277 1.56397 1.3944 1.57344 1.52277
          -1.11985 -1.12749 -1.11504 -1.08357 1.98205 2.02507
          2.02495 2.09747 -0.120506 -0.149544 -0.0861697 -0.100673
          -0.93916 -0.926114 -0.992494 -0.907578 -0.685864 -0.691136
          -0.795337 -0.748962 -0.174494 -0.10608 -0.150911 -0.100673
          -1.04331 -0.973045 -0.997365 -1.00764 1.5561 1.51462
          1.64719 1.63429 -0.666373 -0.641354 -0.712925 -0.759307
          1.4184 1.44669 1.62788 1.55134 0.291124 0.105877
          0.223329 0.282314 -1.09673 -1.12604 -1.11961 -1.10963
          -0.989246 -1.00984 -0.945405 -0.971894 -1.03067 -1.01114
          -0.976381 -1.00764 -0.936173 -0.973045 -0.935717 -0.884212
          -0.620987 -0.699613 -0.546765 -0.716274 -1.08085 -1.08672
          -1.11475 -1.08417 0.49707 0.559962 0.701274 0.642558
          -0.337935 -0.371997 -0.389929 -0.433933 -0.593392 -0.568469
          -0.561488 -0.513482 -0.217498 -0.264494 -0.323366 -0.360852
          -0.314081 -0.390274 -0.331415 -0.354419 -0.157499 -0.076386
          -0.0811408 -0.0967612 -0.120506 -0.0599512 -0.0695534 -0.100673
          1.18361 1.16605 1.28711 1.31556 1.94817 2.01143
          1.98205 2.04031 -1.01114 -0.998765 -0.953749 -1.00764
          -1.02818 -1.07992 -1.02908 -1.05661 -0.379639 -0.449962
          -0.492427 -0.610887 -0.846644 -0.75767 -0.841123 -0.801634
          -0.667253 -0.700148 -0.643321 -0.704614 -0.24624 -0.277549
          -0.394055 -0.323366 -0.188363 -0.0979218 -0.150911 -0.175074
          -0.909379 -0.976381 -0.917065 -0.862205 -0.00516023 0.0640076
          0.195354 0.215311 -1.13082 -1.12627 -1.12604 -1.10792
          2.03117 2.03787 1.96844 2.06513 -1.13275 -1.1349
          -1.12604 -1.13595 -0.880859 -0.885602 -0.811141 -0.794129
          -0.0430308 -0.0342029 0 0 -0.143159 -0.194536
          -0.188494 -0.123609 1.89649 1.9141 1.9938 1.9636
          -0.00516023 -0.22772 -0.00656958 -0.158079 1.41079 1.55134
          1.55042 1.44669 -0.0540615 -0.0267296 -0.0342029 -0.00942474
          1.94868 1.96301 1.90147 1.94003 -0.02854 -0.0394255
          -0.0245388 -0.0285603 -1.08471 -1.02577 -1.04012 -1.0239
          -0.963537 -1.01045 -0.998166 -1.00984 -1.0551 -1.0663
          -1.09202 -1.08357 -0.929701 -0.906916 -0.841123 -0.86422
          0.0174048 -0.106809 0.0687832 -0.0630469 -0.980392 -0.925889
          -0.975666 -1.00016 -0.266652 -0.194325 -0.283796 -0.251084
          -0.751434 -0.75319 -0.857877 -0.800314 1.28935 1.21446
          1.05637 1.13145 -0.897867 -0.84509 -0.938354 -0.814626
          1.76701 1.78832 1.82278 1.70657 1.22074 1.21446
          1.4291 1.28935 1.93412 1.91859 1.89347 1.89904
          1.93412 1.95846 1.89347 1.91859 -0.295772 -0.310567
          -0.331415 -0.28944 1.26309 1.21542 1.21446 1.22074
          1.24339 1.22074 1.34396 1.14735 1.22074 1.41683
          1.34396 1.30124 -1.09673 -1.05651 -1.08531 -1.08729
          2.06131 2.12041 2.13269 2.10138 1.53891 1.4291
          1.38913 1.41683 -0.395732 -0.260464 -0.277549 -0.379639
          0.481869 0.483109 0.291124 0.377404 0.701274 0.54982
          0.662797 0.70671 0.701274 0.681063 0.832093 0.54982
          -0.643321 -0.680673 -0.683439 -0.769458 -0.051575 -0.0270135
          -0.0665337 -0.0535907 -0.051575 -0.10608 -0.0535907 -0.0665337
          -0.266652 -0.337935 -0.371997 -0.313497 -0.773249 -0.811176
          -0.680673 -0.774123 -0.589371 -0.683439 -0.701896 -0.593392
          1.65371 1.57344 1.68813 1.6753 -0.641772 -0.615241
          -0.585892 -0.525649 -0.379886 -0.459932 -0.469631 -0.323366
          2.04142 2.11979 2.00861 2.03097 -0.181104 -0.395732
          -0.277549 -0.325622 -0.0401906 -0.0861697 -0.0492764 -0.084285
          -0.0685765 0.105101 0.105877 -0.0718907 1.21542 1.4178
          1.38557 1.24082 -1.09164 -1.11628 -1.12213 -1.10851
          -0.775399 -0.791267 -0.700148 -0.794129 -1.02195 -1.01045
          -1.00984 -1.06388 1.05637 1.03208 1.04243 0.860861
          -0.794129 -0.707837 -0.800314 -0.811141 -1.06633 -1.06883
          -1.08369 -1.09692 -0.942546 -0.998166 -0.985347 -0.951595
          1.23496 1.21542 1.38557 1.24082 2.02507 1.98205
          1.96301 2.04554 -0.459665 -0.560752 -0.478517 -0.533937
          -0.956961 -0.881613 -0.895268 -0.847736 -0.181104 -0.325622
          -0.277549 -0.239155 1.91561 1.94509 1.99431 1.95211
          -1.08953 -1.10211 -1.08253 -1.10666 1.83279 1.87832
          1.88336 1.90147 -0.318496 -0.216222 -0.280035 -0.314918
          0.105101 0.288513 0.303109 0.291124 1.53891 1.38913
          1.44473 1.41683 1.37031 1.28935 1.37992 1.21814
          1.92573 2.02495 1.9791 2.02504 -1.12711 -1.13595
          -1.1349 -1.13421 -1.04742 -1.02908 -1.07992 -1.05661
          1.73139 1.83282 1.81379 1.81382 0.303109 0.360895
          0.433358 0.483109 -0.135516 -0.0808166 -0.096908 -0.10608
          0.0326147 -0.143068 0.0195096 -0.0840872 -1.13418 -1.13421
          -1.13799 -1.12534 1.78898 1.64599 1.77496 1.63429
          -1.06388 -1.0707 -1.10846 -1.09497 0.833553 0.652838
          0.668802 0.662797 -0.142666 -0.0718907 -0.151099 -0.223941
          -1.02334 -1.02135 -1.03094 -1.06445 0.288513 0.490675
          0.483109 0.453197 -1.12406 -1.1077 -1.10803 -1.10211
          1.38913 1.4291 1.53596 1.44533 0.352982 0.180975
          0.187026 0.196126 -1.13081 -1.11451 -1.10589 -1.10889
          -1.08765 -1.04331 -1.07793 -1.04283 0.653264 0.562318
          0.653257 0.746838 -1.11985 -1.08357 -1.11504 -1.09202
          -1.11985 -1.08357 -1.09202 -1.0663 -1.10851 -1.12862
          -1.12213 -1.11263 -1.01559 -0.953821 -0.987972 -1.01235
          -1.12287 -1.09202 -1.10889 -1.11049 -0.248114 -0.281814
          -0.194536 -0.210131 0.668802 0.807915 0.78162 0.58157
          -0.361431 -0.295772 -0.380621 -0.381395 1.82271 1.80015
          1.86394 1.78754 -0.00516023 -0.22772 -0.158079 -0.161167
          -0.938354 -0.971224 -0.971894 -0.982387 1.81382 1.71781
          1.6896 1.71781 -0.700307 -0.7108 -0.657779 -0.643506
          -0.615241 -0.643506 -0.572695 -0.606738 0.481869 0.453197
          0.483109 0.490675 1.82752 1.86394 1.89649 1.88582
          -0.120506 -0.179429 -0.141753 -0.149544 1.23496 1.4178
          1.38557 1.21542 -0.210131 -0.248114 -0.188494 -0.194536
          1.28935 1.13145 1.1614 1.21446 1.42249 1.29245
          1.33583 1.51115 1.23858 1.18186 1.23496 1.38557
          0.00797098 0.0435163 0.190096 0.105101 -1.04155 -1.0176
          -1.06633 -1.03009 1.03208 0.833553 1.04712 1.0193
          0.550593 0.361071 0.491304 0.514661 -0.880859 -0.769458
          -0.811176 -0.873521 -0.359668 -0.390274 -0.433246 -0.331415
          -0.685354 -0.746878 -0.699179 -0.845006 -0.447808 -0.380621
          -0.485896 -0.467039 -0.188363 -0.150911 -0.179655 -0.175074
          -0.868497 -0.920145 -0.865373 -0.93618 1.96815 1.90057
          1.93899 1.90816 -0.667253 -0.605686 -0.662766 -0.727052
          0.833553 0.807915 0.910491 0.668802 0.857926 0.964154
          0.813037 0.977767 -1.09692 -1.07377 -1.11313 -1.10678
          -1.10846 -1.13275 -1.10963 -1.12213 -1.07046 -1.06675
          -1.09393 -1.10819 1.9455 2.02853 1.95795 1.96248
          -1.09337 -1.0865 -1.09497 -1.11463 -0.384524 -0.262841
          -0.459932 -0.323724 -1.01235 -0.987972 -1.02577 -0.967376
          -0.942546 -1.03462 -1.01045 -0.985347 1.98437 1.95795
          2.00681 1.98437 -0.866727 -0.750283 -0.852965 -0.811176
          -0.811176 -0.74517 -0.852965 -0.773249 -0.862268 -0.942546
          -0.963905 -0.936452 -0.103565 -0.0749921 -0.0698736 -0.0665337
          -1.03009 -1.0176 -1.06633 -1.02314 1.63429 1.4792
          1.45466 1.50407 -1.12406 -1.13275 -1.10963 -1.11961
          -0.48275 -0.395565 -0.403315 -0.476973 -1.11985 -1.09202
          -1.10374 -1.0663 -0.704614 -0.791267 -0.75591 -0.75767
          -0.262145 -0.314081 -0.331415 -0.286805 1.94003 1.9791
          1.96301 1.92573 -1.00623 -1.03123 -0.938354 -1.01114
          -0.461085 -0.372721 -0.455721 -0.410748 -0.938354 -0.982387
          -0.909379 -0.891684 -1.00623 -1.04643 -1.03123 -1.01114
          -0.982387 -1.03123 -0.938354 -1.00623 -0.945405 -1.00984
          -0.949907 -0.971894 -0.520796 -0.699179 -0.610887 -0.609731
          0.491304 0.481869 0.475347 0.652838 -1.12406 -1.11961
          -1.10963 -1.10666 -0.867817 -0.800895 -0.895068 -0.876171
          -0.867817 -0.867566 -0.895068 -0.800895 -0.665505 -0.603389
          -0.737575 -0.788346 -1.12287 -1.12721 -1.10889 -1.09202
          2.04656 2.13269 2.07781 2.06627 -0.354446 -0.49828
          -0.503416 -0.473971 -0.788346 -0.86543 -0.796305 -0.839382
          -1.12877 -1.11972 -1.13799 -1.13067 -0.603389 -0.665505
          -0.608938 -0.520837 -0.775399 -0.77883 -0.792856 -0.714006
          0.988245 0.93758 0.83647 1.0193 -0.051575 -0.0270135
          -0.0245388 -0.0285603 0.568122 0.48361 0.668802 0.578553
          -1.12044 -1.13087 -1.14484 -1.13003 -0.0371014 -0.0704409
          -0.051575 -0.0270135 1.9455 1.96248 1.95795 1.917
          -0.104373 -0.0749921 -0.0822399 -0.103565 -1.10787 -1.08765
          -1.07793 -1.09011 -0.568469 -0.470608 -0.48275 -0.476973
          0.187026 0.167727 0.25432 0.196126 0.49707 0.701274
          0.558058 0.642558 -1.12544 -1.13275 -1.12213 -1.12406
          -0.260464 -0.236551 -0.1821 -0.106809 -1.10589 -1.06714
          -1.08441 -1.08471 -0.987972 -1.01235 -1.0335 -1.0551
          0.375367 0.49707 0.558058 0.489621 -0.051575 -0.0704409
          -0.10608 -0.0665337 -0.0389618 -0.0580352 -0.0278639 -0.0580778
          -0.460818 -0.439577 -0.495461 -0.40716 -0.266146 -0.179655
          -0.272863 -0.222739 -1.08222 -1.08369 -1.12877 -1.11972
          -0.700148 -0.683439 -0.707837 -0.769458 2.04031 2.01143
          2.02507 2.04554 1.89605 1.85818 1.91561 1.94509
          1.99431 2.04711 2.08402 2.04718 0.0174048 -0.106809
          -0.146912 0.00797098 -0.811176 -0.773249 -0.865373 -0.823936
          0.941905 0.964154 1.10918 1.06277 -0.0892965 -0.0956363
          -0.0723265 0.0941603 -0.408731 -0.326607 -0.449962 -0.462169
          1.56307 1.66463 1.53891 1.55134 -0.0808166 -0.0505998
          -0.0285603 -0.0718477 -0.811141 -0.876853 -0.880859 -0.790747
          0.106764 -0.0630469 0.025035 -0.0379752 1.78898 1.71781
          1.77496 1.88195 -0.181104 -0.146912 -0.277549 -0.395732
          -0.974703 -1.02696 -1.0335 -1.02577 -1.04601 -1.0146
          -1.07142 -1.087 0.386022 0.282314 0.475347 0.481869
          -0.0285603 -0.0505998 -0.0394255 -0.0718477 -1.11961 -1.12534
          -1.13418 -1.12044 -0.481701 -0.395732 -0.384602 -0.492427
          -1.13028 -1.13595 -1.13082 -1.12899 -0.572695 -0.478517
          -0.525649 -0.467039 -1.05661 -1.02908 -0.980392 -1.00016
          -0.922852 -0.953821 -1.01559 -1.02334 -1.08672 -1.02948
          -1.05123 -1.04155 0.0941603 -0.00516023 0.0640076 -0.0723265
          1.7903 1.84397 1.87832 1.78842 0.931257 0.749164
          0.798318 0.763847 1.96844 2.03787 1.9938 2.06513
          1.89904 1.96815 1.96844 1.95539 0.662099 0.652838
          0.655168 0.800478 -0.612851 -0.591251 -0.706495 -0.684281
          -0.942546 -0.998166 -1.01045 -1.03462 -0.855794 -0.800895
          -0.867817 -0.774606 -0.77883 -0.700307 -0.792856 -0.714006
          1.87832 1.94003 1.88336 1.90147 1.03886 1.03208
          1.05637 0.860861 1.05637 1.04243 1.12293 0.931257
          1.70657 1.73139 1.74814 1.63277 -0.610887 -0.699179
          -0.680571 -0.609731 -0.847837 -0.788346 -0.760049 -0.762226
          -1.12899 -1.13595 -1.13082 -1.1349 0.475347 0.469028
          0.48361 0.568122 -0.161167 -0.22772 -0.158079 -0.212325
          -0.222251 -0.323724 -0.354446 -0.173142 1.21814 1.21446
          1.05637 1.28935 -0.651747 -0.615241 -0.641772 -0.525649
          1.57455 1.52316 1.62844 1.4291 1.44533 1.28935
          1.3944 1.29336 -0.0580352 -0.0278639 -0.030091 0
          -0.151989 -0.205618 -0.19697 -0.201846 -0.179655 -0.191247
          -0.249986 -0.222739 -0.375156 -0.485896 -0.380621 -0.470608
          -0.360852 -0.323366 -0.469631 -0.404598 1.95539 2.03117
          1.96844 1.9636 0.88187 0.800478 0.858087 0.753173
          -0.565645 -0.539283 -0.593162 -0.605686 -0.1821 -0.236551
          -0.0678035 -0.106809 0.662797 0.681063 0.832093 0.662099
          -0.800314 -0.722719 -0.75319 -0.830822 -1.04155 -1.04785
          -1.02948 -1.0025 2.04142 2.03097 1.95549 1.96815
          -0.553598 -0.410816 -0.469631 -0.459932 -0.0371014 -0.0285603
          -0.051575 -0.0808166 -1.06883 -1.08369 -1.087 -1.04601
          -0.525649 -0.651747 -0.606738 -0.543667 0.903992 0.833553
          0.910491 0.763471 1.23858 1.28846 1.18186 1.3809
          -0.361431 -0.295772 -0.381395 -0.331415 -1.12721 -1.11504
          -1.12692 -1.12962 -1.12899 -1.12962 -1.13028 -1.13595
          -1.12534 -1.13052 -1.13799 -1.14484 -1.12534 -1.13052
          -1.14484 -1.13087 -1.12962 -1.12287 -1.13081 -1.13595
          -0.565742 -0.563079 -0.565645 -0.460253 1.9455 1.917
          1.95795 1.88195 -1.06388 -1.0865 -1.0665 -1.04173
          1.80015 1.84714 1.86394 1.78754 0.140069 0.0174048
          0.252378 0.0779313 1.37031 1.175 1.28935 1.21814
          -1.08222 -1.04012 -1.08441 -1.0698 -0.175074 -0.188363
          -0.143159 -0.210131 1.63429 1.50407 1.45466 1.51462
          -0.590591 -0.707837 -0.643321 -0.683439 -0.0678035 -0.0607881
          0.0879617 0.0352962 -1.12909 -1.11213 -1.12188 -1.12604
          1.84313 1.79197 1.9288 1.76022 0.196126 0.0195096
          0.167727 0.0941603 -0.171628 -0.12574 -0.100673 -0.120506
          -0.1821 -0.0678035 0.0435163 0.00797098 -1.11042 -1.11313
          -1.09595 -1.10969 -0.863214 -0.929701 -0.841123 -0.875966
          -0.503416 -0.593398 -0.510283 -0.375589 -1.11263 -1.11706
          -1.10631 -1.10149 1.82752 1.83282 1.88582 1.81518
          -1.12406 -1.12534 -1.11961 -1.10666 -0.971224 -0.971894
          -0.897867 -0.938354 0.681063 0.503453 0.481869 0.54982
          0.577023 0.391246 0.490675 0.409391 -0.478517 -0.533937
          -0.560752 -0.525649 1.86394 1.83282 1.82752 1.78754
          -0.714006 -0.675075 -0.700307 -0.760958 -1.08369 -1.087
          -1.10458 -1.11295 -1.05959 -1.07206 -1.04914 -1.05963
          2.11979 2.11155 2.00861 2.03097 -0.361431 -0.286805
          -0.314918 -0.262145 -0.174494 -0.188363 -0.230557 -0.266146
          -0.7108 -0.643506 -0.700307 -0.714006 1.88195 1.77496
          1.85165 1.9288 -0.323366 -0.459932 -0.469631 -0.262841
          1.76701 1.82278 1.74814 1.70657 -1.1202 -1.10889
          -1.13173 -1.14317 1.10918 1.21814 1.12293 1.24102
          -1.13564 -1.12128 -1.13874 -1.14815 0.105877 -0.0956363
          0.0844741 -0.0685765 0.854408 0.920525 1.00411 0.828881
          0.964154 0.813037 0.859824 0.842115 1.04243 1.21814
          1.12293 1.10918 -0.0822399 -0.103565 -0.0963933 -0.156252
          -1.0551 -1.09202 -1.08431 -1.08357 -0.0685765 0.025035
          0.0844741 0.105877 0.187026 0.0195096 0.167727 0.196126
          1.38557 1.4178 1.4564 1.24082 -0.176552 0.00567184
          -0.179374 -0.264494 -1.10851 -1.1077 -1.12213 -1.10211
          0.00797098 0.0435163 0.215002 0.190096 -0.459932 -0.503416
          -0.586159 -0.384524 -0.585892 -0.514974 -0.48275 -0.525649
          -0.958737 -0.967376 -0.987972 -1.01235 -0.958737 -0.967376
          -1.01235 -1.03094 -0.516463 -0.485896 -0.460253 -0.565645
          -1.03428 -1.06675 -1.03123 -1.04643 1.53596 1.4291
          1.38913 1.53891 -0.096908 -0.0704409 -0.133678 -0.10608
          -0.800314 -0.707837 -0.722719 -0.830822 -0.19082 -0.207257
          -0.282328 -0.24717 -0.262145 -0.19697 -0.230557 -0.174494
          1.09947 1.06277 1.10918 1.23858 -0.185183 -0.194325
          -0.177216 -0.133957 -1.06016 -1.01235 -1.0335 -1.02577
          -0.143159 -0.102152 -0.0979218 -0.175074 1.4178 1.4564
          1.57455 1.5561 -0.143159 -0.194536 -0.123609 -0.129841
          1.26309 1.18361 1.28711 1.41079 -0.485896 -0.467039
          -0.460253 -0.543667 1.4178 1.57455 1.62844 1.4291
          0.977767 1.10918 1.12293 1.24102 -0.0221902 0.0174048
          0.140069 0.0779313 1.21542 1.18361 1.26309 1.41079
          -0.0718477 -0.0695534 -0.0808166 -0.12574 1.51567 1.4564
          1.34734 1.38557 0.106764 0.0779313 0.025035 -0.0630469
          -0.685864 -0.746878 -0.796305 -0.680571 -0.75767 -0.712925
          -0.801634 -0.759307 1.7903 1.84313 1.91203 1.84397
          -0.961802 -1.00764 -1.04283 -0.976381 -0.590591 -0.485896
          -0.516463 -0.565645 -1.04979 -1.04155 -1.06633 -1.03009
          -0.375156 -0.313891 -0.394325 -0.380621 -1.11985 -1.12721
          -1.1071 -1.09202 -1.12287 -1.12711 -1.12756 -1.10678
          -1.11645 -1.11475 -1.13379 -1.11706 -0.717461 -0.855794
          -0.774606 -0.800895 -0.129841 -0.0978631 -0.143159 -0.133957
          1.81379 1.66463 1.74209 1.7903 -1.0665 -1.09497
          -1.09164 -1.09337 1.94003 1.92573 1.96301 1.90147
          1.92573 1.93899 1.94003 1.98205 1.89605 1.89198
          1.94817 1.89003 -0.700182 -0.800895 -0.614662 -0.717461
          -0.701896 -0.750283 -0.849032 -0.769458 -0.907578 -0.93618
          -0.865373 -0.943555 1.85818 1.93833 1.91561 1.94509
          -1.06633 -1.0176 -1.07587 -1.02438 -0.727052 -0.667253
          -0.660161 -0.770226 -0.481701 -0.395732 -0.589968 -0.609731
          -1.10889 -1.11521 -1.13173 -1.13418 -0.962722 -0.93618
          -0.875966 -0.868497 -0.989246 -1.05959 -1.04914 -1.02195
          1.175 1.21814 1.05637 1.28935 2.02627 2.00861
          2.04142 2.04711 -0.181104 -0.0630469 -0.179374 -0.277549
          0 0 -0.030091 0 2.01079 2.03117
          2.09401 2.04142 -1.02818 -1.05661 -1.00016 -1.04399
          -0.104373 -0.14598 -0.103565 -0.156252 -0.02854 -0.00611242
          -0.0394255 0 -0.641772 -0.568469 -0.643288 -0.707837
          -0.568469 -0.643288 -0.589371 -0.593392 -0.581238 -0.620987
          -0.586159 -0.699613 0.070095 -0.0956363 0.105877 -0.0685765
          -0.520837 -0.603389 -0.517364 -0.446988 2.01143 2.01221
          2.07562 2.04031 -0.460818 -0.470608 -0.394513 -0.513482
          1.55042 1.4178 1.57455 1.55134 0.988245 1.00011
          1.1531 1.08346 -0.260464 -0.1821 -0.326607 -0.378284
          -1.12711 -1.12287 -1.1349 -1.13595 -0.175074 -0.133957
          -0.210131 -0.143159 1.76111 1.83094 1.85599 1.81351
          -1.13832 -1.1349 -1.13536 -1.12909 -0.182455 -0.19697
          -0.262145 -0.286805 -1.09888 -1.08441 -1.0667 -1.09322
          1.37992 1.4291 1.4178 1.21446 1.62844 1.6753
          1.56397 1.52316 -0.236551 -0.223941 -0.0718907 -0.222251
          -0.188363 -0.179655 -0.222739 -0.175074 1.4178 1.52316
          1.57455 1.4291 -0.614662 -0.691136 -0.586159 -0.593398
          -1.12544 -1.1077 -1.12608 -1.12406 0.931257 0.828881
          0.920525 0.798318 1.93833 2.04711 1.99431 1.94509
          -0.533937 -0.615241 -0.525649 -0.514974 -0.980392 -0.925889
          -0.882717 -0.975666 -0.503416 -0.473971 -0.49828 -0.614662
          0.490675 0.391246 0.577023 0.608061 -1.13379 -1.12756
          -1.14115 -1.13275 0.662099 0.845586 0.652838 0.800478
          0.715955 0.653257 0.841573 0.681063 -0.543667 -0.637707
          -0.563079 -0.590591 -1.09393 -1.09673 -1.05959 -1.05651
          -0.0221902 -0.0630469 -0.146912 0.0174048 -1.12026 -1.10146
          -1.11042 -1.09692 0.0844741 0.164546 0.215311 0.282314
          -0.966454 -1.04012 -1.02577 -0.962722 -0.0371014 -0.00222902
          -0.0138309 -0.0270135 -0.376901 -0.325468 -0.389929 -0.433933
          1.00011 0.859824 0.845586 0.842115 -0.563079 -0.590591
          -0.485896 -0.543667 -0.0535907 -0.0229973 -0.0270135 -0.0430308
          -0.266146 -0.188363 -0.222739 -0.175074 -1.10787 -1.08765
          -1.08531 -1.07793 0.481869 0.469028 0.475347 0.54982
          -0.966454 -0.907578 -0.992494 -0.943555 0.224806 0.291124
          0.386022 0.288513 -0.223941 -0.305608 -0.151099 -0.142666
          0.693819 0.813037 0.763847 0.857926 0.409391 0.490675
          0.483109 0.288513 -0.0278639 -0.0123778 -0.0580778 -0.0380729
          -0.379886 -0.459932 -0.546765 -0.469631 -0.751434 -0.694047
          -0.75319 -0.722719 0.463576 0.360327 0.361071 0.352982
          -0.811176 -0.873521 -0.769458 -0.774123 0.148091 0.105877
          0.303109 0.291124 -0.548444 -0.665753 -0.595206 -0.614662
          -1.13421 -1.12608 -1.13799 -1.12534 0.859824 0.798318
          0.860861 0.845586 -1.08662 -1.10666 -1.08253 -1.10211
          0.503453 0.681063 0.701274 0.54982 1.98846 1.91649
          1.95795 1.93899 -0.395732 -0.260464 -0.379639 -0.520796
          1.4564 1.24082 1.41079 1.31556 0 -0.0123778
          0 -0.0278639 -0.174494 -0.150911 -0.230557 -0.188363
          0.215002 0.190096 0.303109 0.105101 -0.811176 -0.769458
          -0.680673 -0.774123 0.00797098 0.190096 0.215002 0.105101
          -0.956961 -0.895268 -0.887682 -0.964579 1.26309 1.21542
          1.41683 1.21446 0.105101 -0.0678035 0.0879617 0.0352962
          0.833553 0.800478 0.807915 0.652838 -1.11645 -1.08085
          -1.11475 -1.11706 -0.585892 -0.525649 -0.48275 -0.641772
          1.83094 1.85599 1.81351 1.89347 0.662797 0.662099
          0.832093 0.845586 0.903992 0.910491 0.912449 0.763471
          1.82278 1.94509 1.90131 1.8842 0.903992 0.910491
          1.05157 0.912449 -0.236551 -0.106809 -0.260464 -0.379639
          -1.11165 -1.13081 -1.10589 -1.10889 1.66463 1.62844
          1.6896 1.74209 1.83094 1.81351 1.71781 1.7537
          -0.88369 -0.840197 -0.881613 -0.847736 0.106764 0.025035
          0.168031 0.00567184 0.653257 0.653264 0.433358 0.562318
          -0.24624 -0.277549 -0.410816 -0.394055 1.41079 1.28711
          1.26309 1.22555 2.03117 2.05199 2.13214 2.12646
          -1.13832 -1.12314 -1.13538 -1.12909 0.800478 0.860861
          1.03886 0.858087 -1.13082 -1.12899 -1.12627 -1.12438
          -1.00623 -1.01114 -0.938354 -0.917065 1.06277 1.18186
          1.10918 1.23858 -0.590591 -0.485896 -0.565645 -0.563079
          -0.260464 -0.378284 -0.379639 -0.520796 1.73139 1.81379
          1.74814 1.66463 0.920525 0.860861 1.03886 1.05637
          0.0844741 0.0640076 0.164546 0.025035 -0.806808 -0.885602
          -0.875966 -0.868497 -1.12608 -1.11313 -1.11042 -1.10969
          -1.11706 -1.10678 -1.10149 -1.08417 -0.589371 -0.593162
          -0.680673 -0.643321 -0.637707 -0.590591 -0.565645 -0.563079
          -0.989246 -0.971894 -1.03123 -1.00984 -0.097455 -0.0582118
          -0.0861697 -0.0930104 -0.830437 -0.800314 -0.775399 -0.794661
          2.01143 1.96301 1.94868 1.98205 -0.143159 -0.0978631
          -0.084285 -0.133957 0.550593 0.463576 0.361071 0.514661
          -0.179429 -0.211183 -0.219262 -0.188494 2.04711 2.12334
          2.08402 2.11494 -0.814626 -0.839382 -0.938354 -0.897867
          -0.151989 -0.19697 -0.182455 -0.201846 -0.870565 -0.84867
          -0.843822 -0.788346 -0.657779 -0.666373 -0.630091 -0.704614
          1.89649 1.96844 1.9141 1.9636 -0.847736 -0.775399
          -0.714006 -0.760958 -0.378284 -0.524484 -0.408731 -0.449962
          -1.13538 -1.14115 -1.1349 -1.13275 1.93412 1.96815
          1.98846 1.96844 -1.08953 -1.11163 -1.11282 -1.10446
          1.82271 1.78754 1.86394 1.82752 -1.06883 -1.09692
          -1.09595 -1.10146 0.252378 0.273135 0.375367 0.259453
          0.282314 0.164546 0.363125 0.168031 -0.892945 -0.84867
          -0.843822 -0.870565 -1.1349 -1.12692 -1.13536 -1.12627
          -0.156252 -0.19082 -0.14598 -0.103565 -0.24624 -0.394055
          -0.410816 -0.323366 -1.10666 -1.11282 -1.12044 -1.09393
          -0.492427 -0.395732 -0.384602 -0.394055 -0.847493 -0.849714
          -0.752531 -0.845006 2.04031 2.03097 2.09747 1.98205
          -0.987319 -1.0146 -1.04601 -1.03065 0.215311 0.164546
          0.195354 0.351904 -1.02818 -1.05661 -1.04399 -1.0749
          0.39627 0.291865 0.195354 0.215311 -0.667253 -0.637707
          -0.565645 -0.563079 1.88582 1.89904 1.89649 1.9636
          -0.691136 -0.80429 -0.685864 -0.795337 -0.86422 -0.841123
          -0.929701 -0.801634 0.190096 0.102868 0.269333 0.288513
          -0.586159 -0.593398 -0.510283 -0.503416 -1.11042 -1.11584
          -1.13052 -1.11163 -0.102152 -0.076386 -0.157499 -0.0967612
          0.568122 0.498809 0.662797 0.668802 0.475347 0.351904
          0.498809 0.48361 1.95943 1.95549 2.00861 1.94509
          -0.573164 -0.621601 -0.656534 -0.687888 -0.277549 -0.176552
          -0.394055 -0.323366 -0.0840872 -0.142666 -0.223941 -0.0718907
          -0.791267 -0.704614 -0.700148 -0.794129 2.09401 2.12646
          2.03117 2.13771 -0.788346 -0.870565 -0.86543 -0.839382
          1.4178 1.24082 1.21542 1.41079 1.66463 1.6896
          1.55134 1.73139 1.99431 2.02627 2.08402 2.04711
          -0.02854 0 -0.0245388 0 -1.03094 -1.01235
          -1.02577 -0.967376 -1.03781 -1.08499 -1.0707 -1.0652
          -1.12721 -1.12287 -1.1071 -1.09202 -0.0840872 0.070095
          0.196126 0.0264647 0.0326147 -0.0840872 0.196126 0.0264647
          -0.230557 -0.206198 -0.272863 -0.19082 1.98846 1.95795
          2.00681 1.93899 -1.10678 -1.06633 -1.11049 -1.09692
          2.00681 1.95795 1.98437 1.93899 -0.643321 -0.516463
          -0.593162 -0.565645 -0.274683 -0.323724 -0.379886 -0.262841
          -1.01114 -0.953749 -0.961802 -1.00764 -0.379886 -0.459932
          -0.323366 -0.262841 -1.10589 -1.06714 -1.09888 -1.08441
          -0.248114 -0.319843 -0.274965 -0.281814 -0.694047 -0.585892
          -0.641772 -0.667561 -1.00016 -1.05661 -1.03505 -1.04399
          -0.67509 -0.648259 -0.746678 -0.699613 -1.05661 -1.03505
          -1.04399 -1.08499 1.81379 1.66463 1.68961 1.72946
          -0.19082 -0.282328 -0.272863 -0.24717 0.215002 0.190096
          0.388691 0.360895 -0.0685765 -0.0718907 -0.0956363 -0.222251
          -0.174494 -0.230557 -0.262145 -0.266146 2.05199 1.98846
          2.00681 1.96815 1.55134 1.62788 1.6896 1.55042
          -1.03094 -0.990689 -0.964579 -1.02135 1.3922 1.34396
          1.24339 1.4184 -1.12962 -1.12692 -1.13028 -1.11451
          2.07781 1.98846 2.05199 2.03117 1.4184 1.52752
          1.3922 1.48789 -1.13052 -1.11584 -1.13262 -1.12964
          1.9455 2.02853 1.9882 1.95795 -0.460253 -0.385426
          -0.504466 -0.487029 -0.385426 -0.319843 -0.366911 -0.455721
          -0.179429 -0.100673 -0.149544 -0.120506 -0.958737 -0.89299
          -0.967376 -0.964579 -0.7108 -0.714006 -0.700307 -0.775399
          1.89198 1.94509 1.89605 1.94817 -1.12438 -1.13227
          -1.13082 -1.13884 -0.455721 -0.366911 -0.385426 -0.487029
          -0.103565 -0.15829 -0.14598 -0.0946761 -0.323366 -0.176552
          -0.217498 -0.262841 -0.0342029 -0.0430308 -0.0646586 -0.0698736
          1.86394 1.91859 1.9141 1.96844 -0.984145 -1.03009
          -1.0176 -0.985129 -1.08531 -1.08765 -1.07656 -1.07793
          -0.149544 -0.188363 -0.143159 -0.0979218 1.63519 1.56307
          1.66463 1.64709 -0.179655 -0.156252 -0.191247 -0.154028
          -0.394325 -0.339147 -0.37308 -0.42744 0.668802 0.753173
          0.807915 0.58157 -1.14029 -1.12749 -1.12721 -1.11985
          1.26309 1.4178 1.41683 1.21542 1.57455 1.4564
          1.6395 1.5561 0.746838 0.857926 0.813037 0.693819
          -0.9239 -0.929701 -0.863214 -0.890416 -0.394513 -0.323621
          -0.37308 -0.313891 1.9882 1.95795 2.00681 1.98846
          0.252378 0.0779313 0.259453 0.140069 1.36561 1.38557
          1.37992 1.51462 -1.1202 -1.07793 -1.10889 -1.09011
          -1.10819 -1.10889 -1.09393 -1.07046 1.97551 1.95846
          2.03787 1.98846 -1.07046 -1.08695 -1.05651 -1.07793
          1.9882 1.95795 2.04656 2.00681 0.224806 0.453197
          0.352982 0.288513 -1.04331 -0.973045 -1.00764 -0.984041
          1.88582 1.89904 1.9636 1.95539 0.223329 0.291124
          0.386022 0.224806 -0.887682 -0.895268 -0.881613 -0.847736
          -0.0978631 -0.0667112 -0.133957 -0.0967612 -0.280035 -0.346252
          -0.272863 -0.282328 -1.10803 -1.11282 -1.12534 -1.10666
          -0.274683 -0.323724 -0.42142 -0.379886 -0.141753 -0.149544
          -0.188494 -0.123609 -0.179429 -0.188494 -0.141753 -0.149544
          -1.05661 -1.11213 -1.08729 -1.10196 -0.989246 -0.963537
          -0.945405 -1.00984 -0.266146 -0.313497 -0.380621 -0.372721
          -0.868497 -0.774123 -0.811176 -0.823936 2.01079 2.03117
          2.03987 2.09401 1.84714 1.91859 1.9141 1.86394
          -0.274683 -0.423532 -0.42142 -0.323724 1.89904 1.81382
          1.83282 1.78754 -0.961593 -0.960482 -0.987319 -1.0176
          1.21542 1.07544 1.23496 1.03208 1.76022 1.9288
          1.84313 1.84397 -1.13003 -1.1202 -1.10889 -1.10819
          0.353601 0.503453 0.49707 0.377404 -1.01923 -1.03781
          -1.03462 -1.0652 1.98205 2.01143 1.96301 2.04554
          -1.12438 -1.11395 -1.10666 -1.13173 -0.260464 -0.106809
          -0.1821 0.00797098 0.828881 0.68783 0.655168 0.749164
          -1.08695 -1.11961 -1.09673 -1.11521 -0.746878 -0.79408
          -0.699179 -0.841647 1.62844 1.7903 1.68961 1.6753
          -0.595206 -0.581238 -0.648259 -0.592942 1.70657 1.78832
          1.82278 1.73139 0.303109 0.288513 0.483109 0.291124
          -0.590591 -0.700148 -0.641772 -0.651747 2.07781 2.04656
          2.06627 1.98846 -0.446417 -0.473971 -0.614662 -0.598263
          -0.0245388 0 0 0 -0.0840872 0.070095
          -0.0956363 0.0941603 -0.525649 -0.560752 -0.572695 -0.615241
          -0.603389 -0.520837 -0.608938 -0.485872 -0.929422 -0.958737
          -0.953821 -0.876853 -0.762226 -0.870565 -0.814626 -0.847837
          -1.11313 -1.07377 -1.09595 -1.10149 -0.888644 -0.892945
          -0.942546 -0.945405 0.223329 0.282314 0.386022 0.291124
          -1.04979 -1.06633 -1.08417 -1.07377 1.10918 1.23496
          1.21814 1.24102 0.157778 0.215311 0.223329 0.0941603
          -0.945405 -0.892945 -0.942546 -0.963537 -1.1077 -1.12406
          -1.12213 -1.10211 -0.102152 -0.0791758 -0.058432 -0.0979218
          -0.0394255 -0.0285603 -0.051575 -0.0245388 1.81382 1.83094
          1.71781 1.78754 -0.182455 -0.133678 -0.216222 -0.15829
          0.859824 0.662099 0.798318 0.845586 -0.00516023 0.0640076
          0.215311 0.157778 0.375367 0.49707 0.489621 0.353601
          -1.01114 -0.949907 -0.917065 -0.953749 -1.08369 -1.07587
          -1.08222 -1.02438 -1.02135 -1.0239 -0.964579 -1.03094
          -0.868497 -0.811176 -0.865373 -0.823936 -0.181104 -0.146912
          -0.0630469 -0.277549 0.303109 0.483109 0.433358 0.503453
          1.64719 1.64599 1.78898 1.63429 1.917 1.85165
          1.9288 1.88195 1.73243 1.80015 1.82271 1.78754
          -1.13418 -1.13884 -1.13173 -1.1506 -0.262841 -0.0685765
          -0.24624 -0.176552 -0.313497 -0.325468 -0.371997 -0.389929
          -1.10792 -1.13173 -1.10666 -1.10787 -1.10666 -1.08765
          -1.07656 -1.10787 -0.0371014 -0.0505998 -0.00847001 -0.0285603
          -1.1202 -1.13173 -1.10889 -1.10787 -1.12756 -1.12711
          -1.12544 -1.10678 -1.12544 -1.12756 -1.13275 -1.12711
          -0.565742 -0.565645 -0.504466 -0.460253 -0.24624 -0.0685765
          -0.277549 -0.176552 -0.971894 -1.00984 -0.949907 -1.03123
          -0.643288 -0.612851 -0.561488 -0.527732 -1.11628 -1.11645
          -1.12862 -1.11263 -1.10851 -1.12213 -1.12544 -1.11263
          -1.04331 -0.997365 -1.02908 -1.04742 -0.845827 -0.800314
          -0.857877 -0.887682 1.63519 1.64709 1.66463 1.72946
          -0.694047 -0.641772 -0.643288 -0.722719 -1.1349 -1.12721
          -1.13536 -1.12692 -0.0380729 -0.0143042 -0.0123778 -0.00445242
          -0.1821 -0.0678035 -0.0607881 0.0435163 -0.667253 -0.563079
          -0.565742 -0.630091 -0.667253 -0.704614 -0.630091 -0.660161
          1.4178 1.4564 1.55042 1.57455 -1.09164 -1.10851
          -1.12213 -1.10211 -0.266283 -0.331415 -0.28944 -0.262145
          -0.84867 -0.892945 -0.942546 -0.888644 0.988245 0.842115
          1.00011 0.832093 -1.10819 -1.1202 -1.10889 -1.06991
          -0.461085 -0.410748 -0.396732 -0.372721 0.224806 0.386022
          0.453197 0.288513 1.4184 1.26309 1.24339 1.17371
          -0.262145 -0.19697 -0.314081 -0.286805 -0.907578 -0.926114
          -0.943555 -0.865373 0.887579 0.841573 0.988245 0.832093
          -0.272863 -0.249986 -0.323621 -0.313891 -0.106809 0.105101
          -0.0718907 -0.0678035 0 -0.0123778 -0.0278639 -0.0380729
          -1.13379 -1.12126 -1.13561 -1.12756 -1.08369 -1.12026
          -1.11972 -1.09692 -0.313891 -0.266652 -0.371997 -0.266146
          -1.13379 -1.13561 -1.14115 -1.12756 0.662099 0.800478
          0.655168 0.860861 -0.02854 -0.0394255 -0.0285603 0
          1.90816 1.81379 1.81382 1.7903 -1.13028 -1.11451
          -1.12266 -1.13081 -0.694047 -0.552338 -0.612851 -0.641772
          -1.03505 -1.08729 -1.05651 -1.0707 0.025035 -0.0685765
          -0.176552 -0.0630469 -0.354446 -0.41916 -0.49828 -0.473971
          0.196126 0.167727 0.25432 0.0941603 -0.0978631 -0.133957
          -0.185183 -0.0967612 -0.956961 -0.962701 -1.0025 -1.02948
          1.96815 1.91649 1.93899 1.90057 1.06639 0.988245
          1.1531 1.12416 -0.873521 -0.967376 -0.880859 -0.962722
          1.81379 1.66463 1.7903 1.68961 -0.286805 -0.230557
          -0.262145 -0.216222 -0.664582 -0.720252 -0.589968 -0.610499
          -0.42142 -0.423532 -0.592942 -0.459932 1.43571 1.52752
          1.3922 1.4184 1.43571 1.44669 1.60442 1.4184
          1.55134 1.48789 1.4184 1.41683 -0.590591 -0.707837
          -0.568469 -0.641772 -0.648259 -0.700182 -0.746678 -0.691136
          -0.794129 -0.700148 -0.707837 -0.769458 -1.04331 -1.04742
          -1.02908 -1.07656 -0.266283 -0.314081 -0.331415 -0.262145
          -1.13421 -1.12544 -1.12711 -1.12608 -1.13421 -1.12711
          -1.13799 -1.12608 -0.0123778 -0.0389618 -0.076386 -0.0374226
          1.26309 1.04712 1.03886 1.22074 -1.04601 -1.0146
          -1.0007 -1.07142 1.0351 0.920525 1.13145 1.00411
          -1.11049 -1.08222 -1.11165 -1.12877 -1.11165 -1.08222
          -1.12197 -1.12877 -1.1202 -1.13173 -1.13495 -1.14317
          2.11494 2.11155 2.04031 2.00861 -1.0665 -1.08662
          -1.09497 -1.06388 -1.13082 -1.13028 -1.12899 -1.12438
          -0.0979218 -0.102152 -0.154028 -0.175074 0.974223 0.910491
          0.934743 0.88187 0.598091 0.463576 0.647563 0.514661
          -0.773249 -0.750283 -0.680673 -0.811176 0.833553 0.800478
          0.934743 0.807915 -0.80429 -0.691136 -0.746678 -0.800895
          0.910491 0.833553 1.04712 0.934743 -0.867566 -0.849266
          -0.936173 -0.895068 -0.146496 -0.076386 -0.157499 -0.102152
          -0.780209 -0.776937 -0.671386 -0.716274 -0.873521 -0.880859
          -0.885602 -0.962722 -0.207319 -0.146496 -0.157499 -0.154028
          -0.0505998 -0.0195266 -0.0285603 -0.0394255 -0.207319 -0.222739
          -0.154028 -0.194325 -0.925889 -0.985977 -1.00016 -0.951595
          1.44533 1.4291 1.3944 1.28935 1.78754 1.83094
          1.89904 1.81382 -1.09393 -1.08662 -1.05959 -1.09673
          -0.849714 -0.925889 -0.935717 -0.960625 -0.476973 -0.375043
          -0.372606 -0.439577 -0.222251 -0.0956363 -0.323724 -0.173142
          1.00011 0.845586 1.03208 0.832093 -0.176552 0.00567184
          -0.217498 -0.0882344 2.02627 2.12334 2.08402 2.04711
          -1.08627 -1.08344 -1.11282 -1.10446 -0.683439 -0.707837
          -0.701896 -0.643288 -0.473971 -0.548444 -0.49828 -0.614662
          0.291124 0.481869 0.377404 0.282314 -1.13832 -1.14115
          -1.14029 -1.1349 -1.13832 -1.14029 -1.13536 -1.1349
          -1.13082 -1.13173 -1.10666 -1.10792 -0.606738 -0.467039
          -0.563079 -0.569304 0 0 -0.0245388 0
          -1.02314 -0.960482 -0.987319 -1.03065 -1.11049 -1.13081
          -1.10889 -1.12287 -1.01559 -1.02334 -1.01235 -1.0551
          0 -0.00942474 -0.0342029 -0.00647402 -0.67509 -0.671386
          -0.60257 -0.716274 -0.156252 -0.103565 -0.0963933 -0.146496
          1.63519 1.66463 1.74814 1.72946 -0.396732 -0.372721
          -0.381395 -0.461085 0 0 0 -0.0250458
          0.568122 0.48361 0.498809 0.668802 -0.0685765 -0.0718907
          0.070095 -0.0956363 -0.84509 -0.776937 -0.716274 -0.814626
          -0.230557 -0.179655 -0.272863 -0.266146 1.52316 1.37992
          1.30879 1.37031 1.85818 1.93833 1.94509 1.8842
          1.90816 1.91203 1.81382 1.90057 -0.286805 -0.314918
          -0.230557 -0.216222 -1.07206 -1.08662 -1.05963 -1.05959
          -0.953749 -0.949907 -0.86543 -0.90005 -0.314918 -0.216222
          -0.280035 -0.230557 0.910491 0.88187 0.974223 0.807915
          -1.1202 -1.10787 -1.10889 -1.07793 -1.10889 -1.10787
          -1.11521 -1.07793 -0.372721 -0.380621 -0.485896 -0.460253
          -1.06714 -1.06016 -1.02577 -1.08471 -0.354446 -0.323724
          -0.222251 -0.384524 1.51462 1.52316 1.57455 1.37992
          1.89649 1.86394 1.9141 1.96844 -0.154028 -0.146496
          -0.191247 -0.207319 -0.568469 -0.485896 -0.48275 -0.470608
          -1.01923 -1.03462 -1.01045 -1.0652 -0.0229973 -0.0278639
          -0.0430308 -0.0380729 -0.462169 -0.621601 -0.524484 -0.573164
          -0.814626 -0.839382 -0.84509 -0.938354 0.0264647 -0.0840872
          -0.125328 0.0326147 0 0 -0.0278639 -0.0380729
          -0.0229973 0 -0.0278639 -0.0380729 -1.10666 -1.08765
          -1.10787 -1.11395 -0.262841 -0.24624 -0.410816 -0.323366
          0.102868 0.288513 0.196126 0.181263 0.00797098 -0.146912
          -0.260464 -0.106809 -0.953749 -0.90005 -0.895068 -0.935717
          0.0174048 -0.0630469 -0.146912 -0.106809 1.04712 0.833553
          0.83647 1.0193 -1.08222 -1.0239 -1.04012 -1.02438
          -0.593398 -0.691136 -0.685864 -0.748962 -0.964579 -0.962722
          -0.967376 -1.0239 -1.0239 -1.01073 -1.07587 -1.07335
          1.17371 1.22074 1.14735 1.04712 -0.885602 -0.962722
          -0.93618 -0.873521 2.02507 1.9791 1.96301 1.94003
          -1.08729 -1.12604 -1.10792 -1.09673 -0.0840872 -0.0956363
          -0.173142 0.0941603 -0.179429 -0.211183 -0.188494 -0.149544
          -0.525649 -0.615241 -0.606738 -0.651747 0.746838 0.813037
          0.653264 0.693819 -0.182455 -0.10608 -0.133678 -0.15829
          1.23496 1.38557 1.37992 1.36561 1.36561 1.10918
          1.24102 1.23496 1.2659 1.3658 1.24102 1.36561
          -0.0143042 -0.0122043 -0.00445242 -0.0548072 -0.750283 -0.74517
          -0.852965 -0.811176 -1.10666 -1.10803 -1.12406 -1.12534
          1.65371 1.68813 1.76022 1.6753 1.62844 1.52316
          1.56397 1.4291 -1.13028 -1.13081 -1.13884 -1.13595
          1.6753 1.67008 1.79197 1.65371 1.51462 1.38557
          1.5561 1.52233 1.38557 1.51567 1.5561 1.52233
          -0.0723265 -0.158079 -0.00656958 -0.0882344 -0.667253 -0.630091
          -0.565742 -0.660161 -1.10666 -1.11282 -1.12534 -1.12044
          0.475347 0.652838 0.662797 0.668802 -0.416868 -0.485872
          -0.546765 -0.608938 -1.0663 -1.06016 -1.09202 -1.06445
          2.10335 2.01143 2.04031 2.04554 -1.13275 -1.1349
          -1.13595 -1.13421 0.854408 0.68783 0.781435 0.828881
          -1.12266 -1.13081 -1.10589 -1.13564 -1.13081 -1.12962
          -1.13028 -1.11451 1.50407 1.63429 1.64719 1.52233
          -0.0840872 -0.0718907 0.070095 -0.0036774 -0.885602 -0.962722
          -0.868497 -0.93618 1.55042 1.62788 1.59758 1.44669
          -0.80429 -0.862205 -0.780209 -0.839382 -0.503416 -0.510283
          -0.410816 -0.384524 0.941905 1.10918 0.977767 1.09947
          -0.384524 -0.503416 -0.586159 -0.410816 -0.272863 -0.222739
          -0.249986 -0.313891 -0.266146 -0.295772 -0.313497 -0.372721
          -0.266146 -0.248114 -0.313497 -0.295772 -1.11872 -1.08765
          -1.10787 -1.09011 1.68813 1.84397 1.7903 1.78842
          1.76022 1.84397 1.84313 1.7903 1.68813 1.76022
          1.7903 1.84397 -0.998166 -0.951595 -0.888644 -0.998765
          -0.998166 -0.998765 -1.03505 -0.951595 0.739804 0.668802
          0.763471 0.578553 -0.379639 -0.449962 -0.610887 -0.520796
          1.24339 1.26309 1.34396 1.17371 1.06277 1.28846
          1.18186 1.23858 -0.926588 -0.869098 -0.91903 -0.845006
          -0.841647 -0.869098 -0.926588 -0.845006 -0.432786 -0.547456
          -0.551896 -0.594233 -1.13418 -1.14484 -1.1506 -1.14317
          -0.869098 -0.926588 -0.917892 -0.841647 -0.888644 -0.90005
          -0.951595 -0.869098 -0.24624 -0.277549 -0.379639 -0.410816
          -0.262145 -0.331415 -0.361431 -0.286805 -0.257693 -0.274965
          -0.174972 -0.188494 -0.699613 -0.839382 -0.716274 -0.737575
          -0.751434 -0.722719 -0.75319 -0.800314 -1.12438 -1.12627
          -1.10792 -1.1078 -1.12438 -1.1078 -1.10792 -1.10666
          -0.780209 -0.671386 -0.67509 -0.716274 -1.08369 -1.04601
          -1.07142 -1.087 -0.459665 -0.514974 -0.433246 -0.390274
          -0.870565 -0.90005 -0.796305 -0.86543 1.87832 1.90147
          1.83279 1.88188 -0.585892 -0.48275 -0.552338 -0.641772
          -0.0892965 -0.161167 -0.00516023 -0.0723265 -0.0892965 -0.0723265
          -0.00516023 0.0434342 -1.0749 -1.05661 -1.04399 -1.08499
          1.78754 1.7537 1.80015 1.84714 -0.680673 -0.593162
          -0.662766 -0.667253 1.44669 1.40219 1.41079 1.28711
          1.4178 1.5561 1.57455 1.51462 -0.411059 -0.540991
          -0.42744 -0.433933 1.4178 1.51462 1.57455 1.37992
          -0.103565 -0.0698736 -0.0430308 -0.0665337 -0.985129 -0.961593
          -1.01073 -1.0176 -0.120506 -0.0861697 -0.149544 -0.141753
          0.854408 0.781435 0.956597 0.920525 -0.956961 -0.961593
          -1.01073 -0.985129 -0.120506 -0.097455 -0.0861697 -0.141753
          -0.643321 -0.707837 -0.590591 -0.700148 -1.12962 -1.11504
          -1.12692 -1.11451 0.931257 0.920525 0.860861 0.798318
          -1.12126 -1.08672 -1.07335 -1.08417 2.06627 2.06131
          2.13269 2.10138 -0.882717 -0.910515 -0.803147 -0.925889
          1.30124 1.22074 1.4291 1.28935 -0.571006 -0.449962
          -0.520796 -0.610887 1.28935 1.1614 1.30124 1.22074
          -0.084285 -0.0143042 -0.0667112 -0.0548072 -0.610887 -0.571006
          -0.699179 -0.520796 -0.0718477 -0.0695534 -0.051575 -0.0808166
          1.53837 1.4564 1.40219 1.51115 -1.0176 -1.02314
          -1.02438 -1.04601 -1.0176 -1.04601 -1.02438 -1.08369
          -0.378284 -0.524484 -0.449962 -0.571006 -0.470608 -0.485896
          -0.371997 -0.516463 -0.0138309 -0.0704409 -0.0270135 -0.0490048
          -0.977787 -0.964579 -0.930871 -1.01051 -1.04331 -0.997365
          -1.04742 -1.00764 -0.276106 -0.194325 -0.266652 -0.251084
          -1.13561 -1.1071 -1.12756 -1.12126 -0.973045 -0.910515
          -0.935717 -0.884212 1.89904 1.89347 1.93412 1.83094
          0.498809 0.475347 0.662797 0.668802 -1.02334 -0.990689
          -1.06445 -1.0663 -0.589968 -0.610887 -0.680571 -0.609731
          -0.862268 -0.850377 -0.74553 -0.84867 -0.354446 -0.503416
          -0.384524 -0.375589 -1.12026 -1.11313 -1.11042 -1.12608
          -0.446417 -0.593398 -0.503416 -0.375589 -0.384524 -0.24624
          -0.323724 -0.222251 -0.7108 -0.615241 -0.643506 -0.714006
          -0.455721 -0.507901 -0.487029 -0.560799 -0.845827 -0.847736
          -0.881613 -0.794661 -1.13275 -1.13595 -1.12604 -1.13421
          -0.774123 -0.770226 -0.868497 -0.806808 -1.10792 -1.12627
          -1.12604 -1.12909 -0.958975 -0.920145 -0.868497 -0.93618
          -0.791267 -0.801634 -0.806808 -0.875966 1.56307 1.63277
          1.48789 1.63519 1.08346 1.0193 1.03208 1.18361
          1.96301 1.9791 2.02507 2.04065 -0.929422 -0.89299
          -0.958737 -0.876853 0.681063 0.481869 0.662099 0.54982
          0.920525 0.828881 0.860861 0.798318 -1.08672 -1.04785
          -1.04155 -1.08417 -1.12126 -1.08417 -1.1071 -1.10678
          1.41079 1.41683 1.4178 1.55134 1.23496 1.38557
          1.18186 1.24082 -0.266146 -0.266652 -0.371997 -0.313497
          -1.00764 -0.998765 -1.04742 -1.05651 -0.546765 -0.469631
          -0.603389 -0.485872 -0.230557 -0.19082 -0.272863 -0.179655
          0.54136 0.681063 0.715955 0.701274 1.93899 2.02495
          2.03097 1.98205 1.92573 1.98437 2.02495 2.02504
          -1.08222 -1.08369 -1.10458 -1.12877 -1.12026 -1.10458
          -1.1291 -1.11295 -1.08369 -1.07142 -1.10458 -1.087
          -0.548444 -0.665753 -0.614662 -0.598263 -0.598263 -0.614662
          -0.446417 -0.627782 -0.0840872 -0.258256 -0.222251 -0.223941
          0.642558 0.734424 0.85072 0.701274 -1.13408 -1.13874
          -1.14588 -1.13884 -0.907578 -0.866727 -0.852965 -0.811176
          0.681063 0.483109 0.481869 0.503453 -0.791267 -0.801634
          -0.79656 -0.75767 -1.13564 -1.13799 -1.14815 -1.13884
          0.749164 0.608061 0.798318 0.667341 2.00681 1.98437
          1.95795 2.06131 -0.79408 -0.764546 -0.699179 -0.841647
          -0.627782 -0.614662 -0.446417 -0.593398 -0.680571 -0.79408
          -0.699179 -0.746878 2.01079 2.09401 2.02627 2.04142
          -0.182455 -0.15829 -0.230557 -0.19697 -1.12544 -1.13379
          -1.12213 -1.13275 -0.0944656 -0.0580352 -0.0580778 -0.0791758
          -0.0944656 -0.0580778 -0.102152 -0.0791758 -0.205618 -0.225044
          -0.19697 -0.262145 1.82752 1.83282 1.81518 1.75653
          -0.389929 -0.450311 -0.460253 -0.504466 1.04243 0.845586
          1.03208 0.859824 1.00011 0.859824 1.03208 0.845586
          0.681063 0.832093 0.662099 0.845586 -0.746878 -0.869098
          -0.841647 -0.845006 -0.258256 -0.473971 -0.354446 -0.446417
          1.05157 1.0193 1.04712 0.903992 -0.125328 -0.0036774
          -0.0840872 0.0264647 -0.125328 -0.142666 -0.0840872 -0.0036774
          0.291124 0.377404 0.148091 0.233816 1.0193 0.93758
          1.16605 1.12416 -0.694047 -0.612851 -0.706495 -0.643288
          -1.13538 -1.12314 -1.12188 -1.12909 -1.12721 -1.12749
          -1.11504 -1.11985 1.90057 1.95549 1.89198 1.94817
          -0.769458 -0.683439 -0.701896 -0.750283 1.90057 1.96815
          1.95549 1.94817 -0.469631 -0.620987 -0.603389 -0.553598
          -0.339147 -0.313891 -0.37308 -0.283796 -1.11282 -1.08627
          -1.13087 -1.10819 1.91649 1.95795 1.91203 1.9288
          -0.0371014 -0.0704409 -0.0270135 -0.0138309 -0.694047 -0.706495
          -0.75319 -0.643288 2.04711 2.04142 2.12334 2.11494
          1.52752 1.60442 1.66253 1.63277 -1.01051 -0.964579
          -0.930871 -0.990689 1.23496 1.38557 1.4178 1.37992
          1.37992 1.38557 1.4178 1.51462 -1.13495 -1.13173
          -1.1202 -1.10787 -1.02908 -0.973045 -0.980392 -0.997365
          -0.264494 0.00567184 -0.217498 -0.176552 1.03886 1.01471
          1.13145 1.1614 1.21542 1.08346 1.18186 1.07544
          -1.0865 -1.0977 -1.09497 -1.11463 1.18186 1.08346
          1.24082 1.1531 -1.13275 -1.12604 -1.10963 -1.11961
          -0.492427 -0.410816 -0.277549 -0.394055 -1.0652 -1.0977
          -1.09497 -1.0865 0.481869 0.282314 0.475347 0.469028
          -1.13561 -1.12721 -1.1071 -1.11985 -1.1071 -1.07335
          -1.07587 -1.10678 -1.12287 -1.12756 -1.1071 -1.10678
          -1.1071 -1.09202 -1.07587 -1.07335 0.498809 0.58157
          0.668802 0.578553 0 -0.0374226 0 -0.0123778
          -0.75591 -0.704614 -0.657779 -0.7108 -0.589371 -0.540991
          -0.624716 -0.593162 0.701274 0.54136 0.558058 0.715955
          -1.11985 -1.1071 -1.10374 -1.09202 -0.551896 -0.547456
          -0.593398 -0.678307 0.416224 0.352982 0.494116 0.514661
          0.105101 0.0879617 0.190096 0.0352962 0 0
          0 -0.0123778 -1.12126 -1.08672 -1.10374 -1.07335
          -1.10374 -1.08672 -1.05123 -1.07335 -1.03009 -0.984145
          -1.0176 -1.02314 -1.06633 -1.0239 -1.07587 -1.0176
          1.18361 1.16605 1.31556 1.24082 -0.0497382 -0.0123778
          -0.076386 -0.0374226 -0.0380729 -0.0143042 0 -0.0123778
          -0.446417 -0.547456 -0.375589 -0.432786 1.30879 1.175
          1.21814 1.12293 1.37031 1.175 1.21814 1.30879
          1.05637 1.21814 1.12293 1.04243 -1.03505 -1.03781
          -1.04399 -1.08499 1.90057 1.95539 1.95549 1.96815
          -1.11395 -1.13227 -1.11872 -1.13495 -1.08085 -1.04979
          -1.08417 -1.07377 -0.272863 -0.282328 -0.33122 -0.24717
          -0.272863 -0.24717 -0.33122 -0.323621 -1.09393 -1.10889
          -1.08695 -1.07046 1.41079 1.26309 1.4178 1.41683
          -1.11042 -1.12026 -1.12608 -1.13052 -0.272863 -0.346252
          -0.33122 -0.282328 -0.272863 -0.24717 -0.323621 -0.249986
          -0.02854 -0.0245388 -0.032129 0 -0.0945631 -0.0718477
          -0.0808166 -0.12574 0.285413 0.288513 0.391246 0.181263
          1.78898 1.63429 1.77496 1.71781 -1.13421 -1.13595
          -1.12604 -1.13082 -0.694047 -0.641772 -0.722719 -0.667561
          1.85599 1.76111 1.78898 1.88195 -0.974703 -1.02577
          -0.967376 -0.966454 0.662099 0.667341 0.681063 0.859824
          -0.589968 -0.395732 -0.492427 -0.609731 1.12293 0.977767
          0.931257 1.04243 -0.598024 -0.481701 -0.589968 -0.609731
          -1.13275 -1.12604 -1.11961 -1.13421 -1.12877 -1.10458
          -1.12197 -1.1291 -0.248114 -0.313497 -0.372721 -0.319843
          -1.12909 -1.12747 -1.1078 -1.12627 -0.410748 -0.332616
          -0.396732 -0.372721 -1.11049 -1.06633 -1.07587 -1.09692
          1.79197 1.63429 1.77496 1.67008 -1.0652 -1.0707
          -1.06388 -1.0977 -0.598263 -0.627782 -0.717461 -0.614662
          -0.801634 -0.712925 -0.770226 -0.759307 0 -0.00647402
          -0.030091 0 1.43571 1.60442 1.63277 1.4184
          -0.258256 -0.446417 -0.375589 -0.305608 1.06639 1.1531
          1.21679 1.12416 -0.0229973 0 -0.0430308 -0.0278639
          1.91649 1.95795 1.93899 1.91203 1.7903 1.90816
          1.87832 1.91203 1.90816 1.91203 1.90057 1.91649
          -0.909379 -0.982387 -0.938354 -1.00623 -0.982387 -1.04643
          -1.03123 -1.00623 0.180975 0.196126 0.0264647 0.0326147
          -0.0808166 -0.0695534 -0.100673 -0.12574 1.51115 1.59578
          1.69449 1.65267 1.94817 2.03097 2.00861 2.04031
          -1.0665 -1.0865 -1.09497 -1.09337 1.22074 1.1614
          1.14735 1.03886 1.55042 1.71521 1.62788 1.6395
          -1.10589 -1.08441 -1.09888 -1.11165 1.93833 2.02627
          1.99431 2.04711 0.832093 1.08346 1.03208 1.00011
          -1.04601 -1.0146 -1.087 -1.06535 -0.568469 -0.707837
          -0.683439 -0.643288 -1.12128 -1.11165 -1.09888 -1.08441
          -1.10589 -1.08471 -1.08441 -1.11165 -0.470608 -0.485896
          -0.48275 -0.375156 2.11979 2.11155 2.03097 2.11483
          -0.984041 -1.00764 -0.961802 -0.936173 -0.929906 -0.961802
          -0.976381 -0.876171 -0.929906 -0.961802 -1.01497 -0.976381
          0.559962 0.568122 0.662797 0.70671 0.375367 0.489621
          0.306036 0.353601 -0.433246 -0.514974 -0.395565 -0.403315
          1.63429 1.50407 1.51462 1.52233 0.353601 0.489621
          0.306036 0.240111 0.353601 0.489621 0.240111 0.363125
          1.93833 2.02627 2.04711 1.94509 0.642558 0.559962
          0.701274 0.70671 -1.13082 -1.12604 -1.11521 -1.10792
          -0.225044 -0.310567 -0.211183 -0.295772 -0.262841 -0.410816
          -0.459932 -0.469631 -0.0840872 -0.0036774 0.070095 0.0264647
          -0.621601 -0.752531 -0.656534 -0.687888 1.28935 1.21446
          1.37992 1.21814 -1.12287 -1.13067 -1.11049 -1.13081
          2.07781 2.06627 2.05199 1.98846 -0.210131 -0.194536
          -0.143159 -0.129841 -0.171628 -0.151989 -0.135516 -0.12574
          -0.704614 -0.770226 -0.774123 -0.806808 -0.839382 -0.917065
          -0.938354 -0.949907 1.76022 1.9288 1.9288 1.84313
          -0.1821 -0.326607 -0.0678035 -0.236551 -0.379639 -0.378284
          -0.449962 -0.520796 -0.379639 -0.277549 -0.492427 -0.410816
          -0.938354 -0.993426 -0.982387 -0.891684 -0.971224 -0.993426
          -0.982387 -0.938354 0.291124 0.233816 0.105877 0.282314
          -0.839382 -0.917065 -0.909379 -0.938354 0.282314 0.105877
          0.0844741 0.233816 -0.971224 -0.993426 -0.938354 -0.891684
          1.90816 1.7903 1.81382 1.84313 -0.614662 -0.665753
          -0.717461 -0.598263 -0.286805 -0.182455 -0.216222 -0.262145
          -0.104373 -0.14598 -0.0749921 -0.103565 -0.0646586 -0.0791758
          -0.0580352 -0.0944656 0.285413 0.180975 0.196126 0.181263
          -0.313497 -0.252972 -0.389929 -0.281814 -0.0822399 -0.0698736
          -0.0484198 -0.0646586 -0.699613 -0.716274 -0.620987 -0.737575
          -0.845827 -0.830437 -0.887682 -0.794661 -0.205618 -0.225044
          -0.262145 -0.28944 -0.989246 -1.03123 -1.04914 -1.05959
          -1.04331 -1.04283 -1.04742 -1.07793 -0.801634 -0.791267
          -0.704614 -0.75767 -0.376901 -0.339919 -0.337935 -0.411059
          -0.0749921 -0.0490048 -0.0698736 -0.0665337 -0.354419 -0.286805
          -0.314918 -0.361431 -0.354419 -0.286805 -0.318496 -0.314918
          -0.266146 -0.222739 -0.272863 -0.313891 -0.206198 -0.207257
          -0.282328 -0.19082 -0.975666 -1.04399 -1.00016 -0.985977
          -0.408731 -0.329892 -0.326607 -0.462169 -1.11282 -1.10446
          -1.13087 -1.08627 -1.11163 -1.13052 -1.11282 -1.13087
          -0.460253 -0.371997 -0.485896 -0.516463 -0.553598 -0.410816
          -0.492427 -0.469631 -0.876171 -0.80429 -0.746678 -0.79789
          -1.03123 -1.05651 -0.998765 -1.01114 1.45466 1.37992
          1.30879 1.55691 -0.395732 -0.379639 -0.492427 -0.520796
          -0.845827 -0.751434 -0.800314 -0.794661 -0.752531 -0.746878
          -0.685354 -0.845006 -0.752531 -0.849714 -0.746878 -0.845006
          -1.13418 -1.1506 -1.13173 -1.14317 0.653264 0.360895
          0.433358 0.562318 0.653257 0.653264 0.681063 0.503453
          -0.975666 -0.925889 -0.882717 -0.91903 -0.985977 -0.925889
          -0.91903 -0.926588 -0.687888 -0.803147 -0.678307 -0.752531
          -0.752531 -0.849714 -0.748962 -0.746878 1.42249 1.33583
          1.4564 1.51115 -0.716274 -0.776937 -0.671386 -0.814626
          -0.716274 -0.814626 -0.671386 -0.762226 -0.716274 -0.671386
          -0.608938 -0.762226 -0.0840872 -0.143068 -0.125328 0.0326147
          -0.75767 -0.666373 -0.712925 -0.759307 -0.0978631 -0.0497382
          -0.0667112 -0.0967612 -0.803147 -0.826828 -0.743985 -0.748962
          -0.62348 -0.746878 -0.685864 -0.680571 1.45466 1.51462
          1.52316 1.55691 2.03787 1.95846 1.9882 1.98846
          -0.410816 -0.375589 -0.236551 -0.24624 1.81518 1.70571
          1.83282 1.78832 2.03097 2.04142 2.11979 2.11483
          -0.916534 -0.967376 -0.880859 -0.966454 -1.10889 -1.12044
          -1.13003 -1.10819 -0.603389 -0.610499 -0.665505 -0.520837
          1.23496 1.21542 1.03208 1.04243 -1.13418 -1.13082
          -1.11961 -1.11521 -0.746878 -0.748962 -0.796305 -0.849714
          -0.62348 -0.610887 -0.746878 -0.680571 -0.10608 -0.103565
          -0.0979218 -0.0665337 -0.665505 -0.603389 -0.716274 -0.737575
          -0.0956363 -0.0718907 0.070095 -0.222251 -1.02334 -0.990689
          -1.03094 -1.02135 -1.06633 -1.0176 -1.02438 -1.08369
          -1.06633 -1.02438 -1.07587 -1.08369 -0.79408 -0.84867
          -0.841647 -0.869098 2.04142 2.12646 2.09401 2.11979
          -0.800314 -0.751434 -0.718463 -0.794661 1.94003 1.93899
          1.90816 1.98205 1.56307 1.53596 1.53891 1.64709
          2.01143 2.04031 2.07562 2.10335 -1.00984 -1.01045
          -0.998166 -1.06388 -0.80429 -0.876171 -0.746678 -0.862205
          -0.746678 -0.862205 -0.780209 -0.80429 1.94817 1.94003
          1.90816 1.98205 -0.589371 -0.516463 -0.643321 -0.590591
          -1.03143 -1.04331 -1.00764 -0.984041 -0.179429 -0.225044
          -0.211183 -0.171628 2.04031 2.11155 2.09747 2.03097
          -0.467039 -0.460253 -0.563079 -0.455721 -0.942546 -0.888644
          -0.998166 -0.951595 1.95943 1.95539 1.9636 2.01079
          1.95539 2.03117 1.9636 2.01079 -0.380621 -0.485896
          -0.371997 -0.470608 1.24082 1.18361 1.08346 1.21542
          -0.847493 -0.925889 -0.803147 -0.849714 1.3809 1.34734
          1.28846 1.38557 0.974223 1.14735 0.934743 1.04712
          -0.863214 -0.841123 -0.79656 -0.875966 -0.593162 -0.539283
          -0.662766 -0.605686 -0.895068 -0.876171 -0.80429 -0.917065
          -0.565742 -0.460253 -0.504466 -0.455721 0.662099 0.490675
          0.667341 0.655168 2.03117 2.03097 2.04142 1.96815
          1.98205 1.9791 2.02507 1.94003 -1.00623 -1.04643
          -1.01114 -1.03067 -0.337935 -0.411059 -0.42744 -0.433933
          -0.337935 -0.339147 -0.42744 -0.411059 -0.225044 -0.279389
          -0.219262 -0.211183 -0.702508 -0.720252 -0.664582 -0.610499
          0.0174048 0.0687832 0.252378 0.0779313 -0.84867 -0.917892
          -0.869098 -0.888644 -0.0882344 -0.0956363 -0.262841 -0.0685765
          -0.565645 -0.605686 -0.593162 -0.667253 0.0844741 -0.0956363
          -0.0882344 -0.0685765 -0.310567 -0.319843 -0.279389 -0.295772
          0.798318 0.608061 0.655168 0.667341 -0.447808 -0.48275
          -0.485896 -0.380621 1.98205 2.02495 2.03097 2.09747
          -0.476973 -0.372606 -0.403315 -0.439577 1.81382 1.71781
          1.74209 1.6896 -0.648259 -0.581238 -0.691136 -0.699613
          -1.07335 -1.01073 -1.07587 -1.06633 -0.182455 -0.096908
          -0.133678 -0.135516 -0.0036774 -0.0718907 0.102868 0.0352962
          0.102868 -0.0718907 0.105101 0.0352962 0.288513 0.102868
          0.269333 0.181263 -1.06633 -1.02314 -1.08369 -1.06883
          -1.03009 -1.02314 -1.06633 -1.06883 -1.07377 -1.03009
          -1.06633 -1.06883 1.90057 1.95539 1.90131 1.95549
          0.181263 -0.0036774 0.102868 0.0352962 0.102868 0.0352962
          0.269333 0.181263 -1.06633 -1.08369 -1.07587 -1.09692
          1.2659 1.10918 1.24102 1.3658 1.2659 1.23858
          1.10918 1.3658 -1.09393 -1.10963 -1.09673 -1.11961
          -1.12534 -1.14484 -1.13799 -1.13418 1.04712 0.910491
          0.903992 0.83647 0.903992 1.04712 1.05157 0.910491
          -1.06714 -1.0335 -1.02696 -1.02577 -1.08471 -1.02577
          -1.08441 -1.04012 -0.966454 -1.02577 -0.967376 -0.962722
          -1.08471 -1.03094 -1.02577 -1.0239 -1.09164 -1.08662
          -1.08253 -1.10211 0.577023 0.506003 0.483109 0.667341
          1.7537 1.83094 1.81351 1.84714 1.64599 1.63429
          1.4792 1.67008 -0.980392 -0.973045 -0.910515 -0.997365
          -0.967376 -0.987972 -1.02577 -0.974703 1.26309 1.41683
          1.4184 1.34396 1.43571 1.44669 1.4184 1.22555
          0.196126 0.0264647 0.070095 0.102868 -1.06633 -1.01073
          -1.07587 -1.0239 -1.04905 -1.02438 -1.0015 -1.0007
          -1.0698 -1.08222 -1.0015 -1.04905 -0.0685765 -0.106809
          -0.0718907 -0.236551 -0.0685765 0.105101 -0.0718907 -0.106809
          0.653257 0.433358 0.503453 0.420265 0.54136 0.681063
          0.701274 0.503453 1.03886 1.21446 1.13145 1.05637
          0.653257 0.420265 0.503453 0.54136 -0.704614 -0.770226
          -0.806808 -0.801634 -1.10819 -1.10889 -1.07046 -1.06991
          0 0 0 -0.0278639 1.41079 1.31556
          1.28711 1.40219 -0.375156 -0.375043 -0.313891 -0.272863
          -0.964579 -0.962722 -0.89299 -0.967376 -1.08471 -1.03094
          -1.0239 -1.07587 0.568122 0.662797 0.739804 0.668802
          -0.846966 -0.79656 -0.75591 -0.791267 -1.06445 -1.02135
          -1.07335 -1.05123 1.89904 1.95539 1.96844 1.9636
          -0.811141 -0.707837 -0.830822 -0.761579 -0.746878 -0.796305
          -0.680571 -0.79408 1.81351 1.69668 1.71781 1.7537
          -0.867566 -0.826828 -0.849266 -0.800895 0.582721 0.753173
          0.652838 0.58157 1.04243 1.23496 1.21814 1.10918
          1.37031 1.21814 1.37992 1.30879 1.89198 1.83215
          1.82278 1.81379 1.73139 1.81379 1.82278 1.74814
          1.82278 1.83282 1.89198 1.81379 1.85818 1.78832
          1.82278 1.76701 -1.04277 -1.08627 -1.04914 -1.06675
          1.73139 1.83282 1.82278 1.81379 2.01221 2.04711
          2.07562 2.00861 1.85818 1.82278 1.83677 1.76701
          -1.12406 -1.13275 -1.11961 -1.13421 1.96844 1.96815
          2.03117 1.95539 -0.473971 -0.548444 -0.614662 -0.598263
          -1.08499 -1.10846 -1.0977 -1.12188 1.4178 1.24082
          1.41079 1.4564 -0.0401906 -0.0250458 -0.024542 -0.0492764
          -0.135516 -0.0808166 -0.10608 -0.100673 -1.06883 -1.04601
          -1.087 -1.06535 -0.89299 -0.830822 -0.880859 -0.811141
          -0.258256 -0.354446 -0.375589 -0.446417 -0.258256 -0.354446
          -0.222251 -0.375589 -0.964579 -0.958737 -0.930871 -0.990689
          -0.354446 -0.503416 -0.375589 -0.446417 -0.179655 -0.150911
          -0.103565 -0.154028 -0.561488 -0.612851 -0.591251 -0.527732
          -0.354446 -0.143068 -0.258514 -0.264982 -0.870565 -0.971894
          -0.949907 -0.938354 -1.12756 -1.12721 -1.1349 -1.12287
          -1.12756 -1.13561 -1.1349 -1.12721 0 -0.0123778
          0 0 -0.446417 -0.473971 -0.503416 -0.614662
          -0.0718907 0.0352962 -0.0678035 0.105101 2.03787 2.04656
          2.07781 1.98846 -0.0678035 0.105101 0.0435163 0.00797098
          0.739804 0.83647 0.668802 0.662797 0.0435163 -0.0607881
          0.0879617 -0.0678035 -1.02948 -0.977787 -1.01073 -0.956961
          -0.956961 -0.941717 -1.0025 -0.962701 -0.378284 -0.292848
          -0.326607 -0.408731 -1.07587 -1.08471 -1.08222 -1.04012
          -0.182455 -0.135516 -0.133678 -0.10608 -1.07587 -1.08471
          -1.11165 -1.08222 2.04656 2.06131 2.13269 2.06627
          -0.15829 -0.0946761 -0.103565 -0.0665337 -0.305608 -0.223941
          -0.375589 -0.258256 1.81382 1.71781 1.71781 1.83094
          0.642558 0.701274 0.85072 0.70671 -0.803147 -0.849266
          -0.826828 -0.748962 -0.875966 -0.929701 -0.86422 -0.958975
          1.92573 1.93899 1.98205 2.02495 1.93899 2.02495
          1.96815 2.03097 -1.12266 -1.11451 -1.10589 -1.13081
          -0.86422 -0.929701 -0.875966 -0.801634 1.45466 1.52316
          1.37992 1.55691 -0.958975 -0.947155 -0.86422 -0.920145
          0.977767 0.763847 0.931257 0.798318 1.4184 1.62788
          1.60442 1.55134 1.63277 1.73139 1.74814 1.66463
          -0.0946761 -0.0490048 -0.0749921 -0.0665337 -0.0946761 -0.0749921
          -0.103565 -0.0665337 1.63519 1.63277 1.74814 1.66463
          1.56307 1.66463 1.63277 1.63519 1.60442 1.62788
          1.63277 1.55134 -1.12213 -1.13379 -1.12862 -1.13275
          -0.845827 -0.887682 -0.847736 -0.794661 -0.230557 -0.206198
          -0.280035 -0.272863 -0.216222 -0.206198 -0.280035 -0.230557
          -1.11049 -1.08471 -1.11165 -1.07587 -0.9239 -0.929701
          -0.890416 -0.961593 -0.394513 -0.375043 -0.40716 -0.33122
          0.338667 0.282314 0.475347 0.386022 1.79745 1.87832
          1.7903 1.81379 -0.248114 -0.210131 -0.313497 -0.281814
          0.988245 0.841573 1.06639 1.00011 -0.614662 -0.627782
          -0.717461 -0.691136 1.72946 1.68961 1.79745 1.64709
          1.68961 1.72946 1.79745 1.81379 1.65206 1.68961
          1.73409 1.78842 -0.459665 -0.478517 -0.371606 -0.433246
          -0.643288 -0.552338 -0.612851 -0.568469 -0.641772 -0.552338
          -0.643288 -0.568469 -0.0394255 -0.0245388 -0.051575 -0.0695534
          -0.0394255 -0.02854 -0.0245388 -0.0695534 -0.641772 -0.48275
          -0.552338 -0.568469 -0.478517 -0.371606 -0.433246 -0.396732
          -0.0270135 -0.00222902 0 0 0 -0.0270135
          0 0 -1.11165 -1.1089 -1.12197 -1.08222
          -1.08222 -1.1089 -1.12197 -1.10458 -0.0270135 0
          0 -0.0229973 -1.03462 -1.0707 -1.06388 -1.0652
          -1.13379 -1.12756 -1.13275 -1.12544 -0.313891 -0.249986
          -0.323621 -0.283796 1.41683 1.4178 1.55134 1.57455
          1.41683 1.44473 1.34396 1.30124 1.41683 1.48789
          1.34396 1.44473 -0.93916 -0.916534 -0.907578 -0.966454
          -0.93916 -0.866727 -0.907578 -0.916534 0.920525 0.860861
          1.05637 0.931257 -0.236551 -0.223941 -0.0678035 -0.0718907
          1.41683 1.4178 1.4291 1.21446 1.79745 1.68961
          1.73409 1.64709 1.52316 1.37031 1.57344 1.56397
          -0.667253 -0.774123 -0.700148 -0.704614 1.81379 1.83282
          1.89198 1.81382 0.964154 1.04243 1.07544 0.859824
          -0.909379 -1.00623 -0.938354 -0.917065 1.0351 0.854408
          0.956597 0.920525 1.0351 0.956597 1.13145 0.920525
          -0.361431 -0.262145 -0.266146 -0.295772 -0.262145 -0.295772
          -0.28944 -0.225044 -0.295772 -0.310567 -0.28944 -0.225044
          -0.985129 -0.961593 -0.984145 -0.941717 -1.07587 -1.08369
          -1.08222 -1.11049 -1.07587 -1.08222 -1.11165 -1.11049
          -0.0979218 -0.0861697 -0.084285 -0.149544 1.64719 1.63429
          1.76111 1.71781 -0.295772 -0.248114 -0.313497 -0.372721
          1.92573 1.9791 1.94003 1.92573 -0.230557 -0.314918
          -0.262145 -0.266146 -0.846644 -0.75767 -0.801634 -0.759307
          -0.800895 -0.895068 -0.876171 -0.80429 -0.880859 -0.811141
          -0.849032 -0.769458 -0.873521 -0.880859 -0.811141 -0.794129
          0.582721 0.652838 0.491304 0.58157 0.411117 0.58157
          0.582721 0.491304 -0.800895 -0.743985 -0.691136 -0.717461
          -0.455721 -0.507901 -0.560799 -0.563079 -0.849032 -0.769458
          -0.811176 -0.880859 -1.11584 -1.11305 -1.13262 -1.12964
          -0.769458 -0.643321 -0.680673 -0.774123 -0.0599512 -0.0861697
          -0.0621598 -0.0401906 -1.11163 -1.12964 -1.13052 -1.13087
          -0.680673 -0.624716 -0.701896 -0.750283 -0.624716 -0.652342
          -0.750283 -0.680673 -0.589371 -0.497885 -0.624716 -0.540991
          0.167727 0.0941603 0.157778 0.25432 -0.589371 -0.497885
          -0.540991 -0.516463 -0.750283 -0.652342 -0.74517 -0.680673
          -0.750283 -0.74517 -0.773249 -0.680673 1.53837 1.51115
          1.65267 1.59578 -0.10608 -0.15829 -0.103565 -0.0665337
          -1.12604 -1.1349 -1.12627 -1.13082 1.3658 1.23858
          1.10918 1.36561 1.3658 1.10918 1.24102 1.36561
          -0.15829 -0.133678 -0.14598 -0.0946761 1.69668 1.5561
          1.64719 1.71781 -0.867566 -0.849266 -0.895068 -0.800895
          1.5561 1.69668 1.59578 1.71781 1.76111 1.69668
          1.71781 1.81351 -0.86422 -0.846644 -0.801634 -0.759307
          0.360327 0.285413 0.352982 0.416224 -0.00516023 0.215311
          0.195354 0.157778 1.89605 1.94509 1.95211 1.94817
          1.7903 1.84313 1.76022 1.6753 -0.260464 -0.236551
          -0.379639 -0.326607 -0.712925 -0.666373 -0.704614 -0.630091
          -0.42142 -0.592942 -0.60257 -0.546765 -0.473892 -0.42142
          -0.60257 -0.546765 -0.546765 -0.473892 -0.608938 -0.60257
          -0.546765 -0.671386 -0.60257 -0.608938 -0.716274 -0.671386
          -0.546765 -0.608938 -0.716274 -0.671386 -0.60257 -0.546765
          -0.546765 -0.67509 -0.60257 -0.716274 2.10335 2.11155
          2.09747 2.04031 -0.395565 -0.361431 -0.314918 -0.380621
          -0.592942 -0.67509 -0.60257 -0.546765 -0.323724 -0.459932
          -0.42142 -0.379886 1.21542 1.08346 1.07544 1.03208
          1.00011 1.08346 1.07544 1.18186 1.7903 1.91203
          1.87832 1.84397 1.06639 1.18186 1.21679 1.1531
          1.06639 1.00011 1.18186 1.1531 -0.310567 -0.332616
          -0.319843 -0.372721 0.830437 0.813037 0.842115 0.653264
          -1.10889 -1.09393 -1.12044 -1.10819 -0.0401906 -0.0143042
          -0.058432 -0.084285 -0.885602 -0.875966 -0.791267 -0.806808
          1.6896 1.57455 1.71781 1.74209 1.81379 1.6896
          1.81382 1.74209 -0.360852 -0.379886 -0.485872 -0.469631
          -0.665505 -0.716274 -0.608938 -0.762226 0.475347 0.282314
          0.48361 0.469028 -1.02696 -0.93916 -1.02112 -0.974703
          -0.22772 -0.379886 -0.350307 -0.290885 -0.379886 -0.546765
          -0.485872 -0.469631 -1.02696 -0.93916 -0.992494 -1.02112
          -1.13884 -1.13082 -1.13421 -1.13418 -1.13418 -1.13421
          -1.13884 -1.13799 1.81379 1.74209 1.81382 1.7903
          -0.803147 -0.910515 -0.849266 -0.849714 -0.375156 -0.314918
          -0.266146 -0.380621 -0.375156 -0.314918 -0.272863 -0.266146
          0.988245 0.93758 1.0193 1.12416 0.988245 0.990943
          0.93758 1.12416 -0.589371 -0.485896 -0.470608 -0.516463
          -0.589371 -0.497885 -0.516463 -0.470608 -0.560752 -0.643506
          -0.572695 -0.615241 -0.593392 -0.497885 -0.624716 -0.589371
          1.917 1.91203 1.9288 1.91649 1.99431 2.04711
          2.04718 2.01221 -0.459932 -0.423532 -0.592942 -0.581238
          0.025035 0.164546 0.282314 0.168031 2.02627 2.04142
          2.12334 2.04711 -0.0685765 -0.0882344 0.0844741 0.025035
          2.05199 2.06627 2.12329 2.10279 -0.447808 -0.467039
          -0.543667 -0.525649 1.38557 1.5561 1.4178 1.51462
          1.38557 1.4564 1.4178 1.5561 1.4564 1.51567
          1.5561 1.38557 -0.961593 -0.875966 -0.885602 -0.962722
          1.5561 1.51567 1.69668 1.52233 1.69668 1.52233
          1.64719 1.5561 1.5561 1.63429 1.64719 1.71781
          -0.88369 -0.840197 -0.847736 -0.792856 -1.05959 -1.10963
          -1.06388 -1.09673 -1.10792 -1.12604 -1.11521 -1.09673
          0.291124 0.288513 0.481869 0.453197 0.291124 0.288513
          0.483109 0.481869 -0.222739 -0.191247 -0.249986 -0.207319
          -0.984041 -0.936173 -0.961802 -0.867566 0.481869 0.288513
          0.483109 0.453197 0.481869 0.662099 0.475347 0.652838
          0.481869 0.662099 0.662797 0.475347 1.51567 1.42249
          1.59578 1.51115 1.51567 1.42249 1.4564 1.59578
          -0.024542 0 -0.0260409 -0.0250458 -0.0245388 -0.0250458
          -0.032129 0 2.03097 2.10279 2.11155 2.09747
          1.4184 1.41079 1.26309 1.22555 1.4184 1.34396
          1.24339 1.26309 1.41079 1.41683 1.4184 1.26309
          1.93899 2.03097 1.96815 1.98205 1.41079 1.55134
          1.4184 1.41683 -0.801634 -0.841123 -0.79656 -0.75767
          1.94817 1.96815 2.03097 1.98205 1.53837 1.51115
          1.59578 1.4564 -0.882717 -0.925889 -0.803147 -0.847493
          -0.0250458 -0.0245388 0 0 -1.01235 -0.953821
          -0.958737 -1.02334 0.105877 0.070095 0.102868 0.224806
          -0.565742 -0.563079 -0.460253 -0.455721 -0.455721 -0.460253
          -0.504466 -0.487029 -0.212325 -0.262841 -0.0723265 -0.0956363
          -0.455721 -0.415527 -0.366911 -0.487029 -0.459932 -0.586159
          -0.620987 -0.553598 -0.459932 -0.581238 -0.620987 -0.586159
          -0.410748 -0.415527 -0.366911 -0.455721 -1.09692 -1.08369
          -1.07587 -1.11049 -0.331415 -0.354419 -0.361431 -0.286805
          -0.895068 -0.953749 -0.86543 -0.90005 -1.08471 -1.0239
          -1.04012 -1.07587 -0.359668 -0.331415 -0.371606 -0.28944
          1.98846 2.04656 2.06627 2.00681 -0.0036774 -0.0718907
          0.070095 0.102868 0.647563 0.514661 0.550593 0.655168
          0.148091 0.0687832 0.273135 0.303109 -0.956961 -0.88369
          -0.962701 -0.881613 1.22074 1.04712 1.03886 1.14735
          -0.77357 -0.882717 -0.803147 -0.847493 -0.174494 -0.135516
          -0.100673 -0.171628 -0.657779 -0.704614 -0.606738 -0.7108
          -0.0944656 -0.0580352 -0.0389618 -0.0580778 -0.888644 -0.951595
          -0.917892 -0.869098 -0.0840872 0.0941603 -0.173142 0.0195096
          -0.945405 -0.963537 -0.942546 -0.998166 -1.03505 -0.985977
          -1.03781 -0.951595 -0.951595 -0.985977 -1.03781 -0.985347
          -0.951595 -0.985977 -0.985347 -0.926588 -0.665505 -0.788346
          -0.716274 -0.762226 1.88336 1.87832 1.83279 1.79745
          -0.603389 -0.680571 -0.737575 -0.788346 -1.1202 -1.10889
          -1.06991 -1.09011 0.568122 0.469028 0.662797 0.475347
          -1.12213 -1.13275 -1.10963 -1.12406 -0.826828 -0.884212
          -0.936173 -0.849266 -0.849266 -0.884212 -0.936173 -0.935717
          0.469028 0.282314 0.351904 0.363125 -0.849266 -0.935717
          -0.936173 -0.895068 -0.867566 -0.826828 -0.936173 -0.849266
          -0.803147 -0.849266 -0.748962 -0.849714 2.04142 2.11979
          2.09401 2.12334 2.04142 2.09401 2.02627 2.12334
          1.53596 1.38913 1.44473 1.53891 2.04142 2.00861
          2.02627 1.95943 2.04142 2.11979 2.12334 2.11494
          -0.380621 -0.313891 -0.371997 -0.266146 -0.266146 -0.313497
          -0.371997 -0.380621 -0.361431 -0.295772 -0.266146 -0.380621
          -0.380621 -0.372721 -0.485896 -0.467039 -1.13561 -1.1071
          -1.12721 -1.12756 -0.266652 -0.222739 -0.313891 -0.283796
          -0.222739 -0.249986 -0.313891 -0.283796 -0.222739 -0.207319
          -0.249986 -0.283796 1.60442 1.63277 1.70657 1.66253
          -1.11972 -1.12877 -1.12026 -1.1291 -1.13799 -1.11972
          -1.12026 -1.13052 0.558058 0.715955 0.734424 0.701274
          0.734424 0.701274 0.887579 0.85072 0.715955 0.841573
          0.887579 0.701274 -1.13275 -1.12756 -1.14115 -1.1349
          -1.12756 -1.13561 -1.14115 -1.1349 0.734424 0.715955
          0.887579 0.701274 -0.032129 -0.0582118 -0.0250458 -0.0621598
          0.568122 0.475347 0.662797 0.498809 0.559962 0.54982
          0.662797 0.469028 -0.762226 -0.870565 -0.788346 -0.839382
          -0.614662 -0.503416 -0.446417 -0.593398 -0.75591 -0.704614
          -0.7108 -0.791267 1.21679 1.18186 1.24082 1.1531
          -0.888644 -0.796305 -0.79408 -0.788346 2.02507 2.01143
          1.98205 2.04554 -0.79408 -0.796305 -0.680571 -0.788346
          2.02507 1.9791 2.0408 2.04065 2.02507 1.98205
          1.9791 1.9791 2.04554 2.02507 2.0408 2.04065
          2.02507 1.9791 1.9791 2.04065 1.21542 1.03208
          1.03886 1.04712 1.21542 1.03208 1.21446 1.03886
          1.21542 1.21446 1.03208 1.04243 1.21542 1.4178
          1.41683 1.21446 1.21542 1.37992 1.4178 1.21446
          -0.176552 -0.0882344 -0.217498 -0.262841 -0.262841 -0.0685765
          -0.176552 -0.0882344 -1.11165 -1.13081 -1.10889 -1.11049
          1.04243 0.860861 1.03208 0.845586 0.845586 1.03208
          1.03886 0.860861 -0.459932 -0.581238 -0.546765 -0.620987
          -0.592942 -0.699613 -0.546765 -0.581238 -0.648259 -0.581238
          -0.699613 -0.592942 -0.610499 -0.589968 -0.517364 -0.603389
          0.662099 0.833553 0.652838 0.845586 -0.384524 -0.262841
          -0.323724 -0.24624 1.03208 0.833553 1.0193 0.845586
          1.03208 0.845586 1.0193 0.832093 0.105877 0.102868
          0.105101 0.224806 -0.849032 -0.880859 -0.811176 -0.873521
          -0.605686 -0.565645 -0.565742 -0.667253 -0.610887 -0.510283
          -0.449962 -0.553598 -0.610887 -0.62348 -0.510283 -0.553598
          -1.13832 -1.13538 -1.1349 -1.12909 0.291124 0.224806
          0.105101 0.288513 -0.961802 -1.00764 -0.935717 -0.936173
          -0.0882344 -0.0685765 -0.176552 0.025035 -1.11521 -1.13418
          -1.10889 -1.12044 -0.394325 -0.516463 -0.371997 -0.433933
          -0.462169 -0.551896 -0.621601 -0.573164 -0.149544 -0.123609
          -0.084285 -0.143159 -0.0371014 -0.00847001 -0.00222902 -0.0285603
          1.83677 1.85818 1.91561 1.89605 -1.13227 -1.13884
          -1.14588 -1.13173 -1.13227 -1.13173 -1.14588 -1.13495
          -1.13495 -1.13173 -1.14588 -1.14317 1.74209 1.6753
          1.7903 1.62844 1.66463 1.62844 1.74209 1.7903
          -1.13173 -1.13884 -1.13418 -1.13082 -1.13173 -1.13082
          -1.13418 -1.11521 1.36561 1.38557 1.51462 1.52233
          -1.08417 -1.04785 -1.04155 -1.04979 -1.08417 -1.04155
          -1.08672 -1.07335 -0.956961 -0.881613 -0.847736 -0.88369
          -1.10678 -1.08417 -1.11475 -1.12126 -0.252972 -0.276106
          -0.266652 -0.325468 -0.217498 -0.379886 -0.290885 -0.360852
          0.475347 0.282314 0.351904 0.48361 -0.657779 -0.630091
          -0.569304 -0.606738 -0.572695 -0.467039 -0.606738 -0.569304
          -1.09692 -1.11313 -1.11042 -1.12026 -0.788346 -0.892945
          -0.870565 -0.847837 -1.07656 -1.07992 -1.10666 -1.10792
          -0.572695 -0.657779 -0.569304 -0.606738 -1.10792 -1.07992
          -1.10666 -1.1078 -1.08085 -1.04785 -1.08672 -1.08417
          -1.08085 -1.08417 -1.10149 -1.07377 -0.179429 -0.171628
          -0.211183 -0.100673 1.36561 1.23858 1.10918 1.23496
          1.36561 1.23858 1.23496 1.38557 1.36561 1.30879
          1.24102 1.45466 1.24102 1.36561 1.45466 1.4792
          1.37992 1.30879 1.36561 1.45466 0.988245 0.93758
          0.832093 0.83647 0.83647 0.662797 0.739804 0.70671
          0.93758 0.83647 0.739804 0.70671 0.00797098 0.105101
          0.215002 0.146292 0.146292 0.105101 0.215002 0.303109
          -1.07046 -1.10889 -1.08695 -1.07793 0.506003 0.269333
          0.360895 0.388691 0.562318 0.506003 0.360895 0.388691
          0.562318 0.360895 0.433358 0.388691 -0.847736 -0.792856
          -0.77883 -0.846966 -1.02577 -1.06714 -1.08441 -1.04012
          1.5561 1.51462 1.63429 1.71781 1.71781 1.51462
          1.63429 1.6753 -0.378284 -0.326607 -0.449962 -0.408731
          1.71781 1.63429 1.67008 1.6753 -0.945405 -0.90005
          -0.888644 -0.949907 -1.13595 -1.1349 -1.12604 -1.13082
          -1.10666 -1.10211 -1.12406 -1.10803 -0.603389 -0.680571
          -0.620987 -0.737575 -0.788346 -0.737575 -0.716274 -0.839382
          -0.685864 -0.80429 -0.737575 -0.796305 -0.685864 -0.80429
          -0.699613 -0.737575 -0.989246 -0.963537 -0.924358 -0.945405
          1.83282 1.90057 1.89198 1.81382 1.83282 1.89904
          1.90057 1.81382 1.89904 1.83094 1.90057 1.81382
          -1.08222 -1.04905 -1.1089 -1.07142 1.90057 1.83094
          1.91649 1.81382 1.90057 1.84313 1.81382 1.91649
          1.90057 1.91649 1.93899 1.90816 1.90816 1.90057
          1.81382 1.81379 1.90057 1.89198 1.81382 1.81379
          1.28935 1.37031 1.3944 1.175 1.90147 1.92573
          1.96301 1.88188 -0.769458 -0.794129 -0.700148 -0.774123
          -0.667253 -0.774123 -0.643321 -0.700148 1.65267 1.71521
          1.78754 1.75653 -0.925889 -0.910515 -0.803147 -0.849714
          -1.03123 -0.998765 -0.949907 -1.01114 -0.998765 -0.90005
          -0.888644 -0.945405 1.83282 1.81382 1.73139 1.71521
          1.83282 1.81382 1.71521 1.78754 1.78754 1.83282
          1.75653 1.71521 1.81518 1.90131 1.8842 1.83282
          1.88582 1.90131 1.81518 1.83282 1.78832 1.81518
          1.8842 1.83282 1.88582 1.90131 1.8842 1.81518
          -0.503416 -0.323724 -0.423532 -0.354446 -0.503416 -0.459932
          -0.423532 -0.323724 -0.323724 -0.423532 -0.42142 -0.459932
          -0.958737 -0.929422 -0.967376 -0.89299 -0.958737 -0.929422
          -0.987972 -0.967376 -1.04012 -1.02112 -1.01657 -1.0015
          -1.02696 -1.02112 -1.02577 -0.974703 -0.958737 -0.922852
          -0.953821 -0.876853 -0.922852 -0.953821 -1.02334 -0.958737
          -0.603389 -0.553598 -0.680571 -0.492427 -0.154028 -0.222739
          -0.179655 -0.175074 -0.207319 -0.154028 -0.157499 -0.194325
          -0.620987 -0.469631 -0.603389 -0.546765 -0.665505 -0.603389
          -0.608938 -0.716274 -0.546765 -0.603389 -0.608938 -0.485872
          -0.603389 -0.620987 -0.680571 -0.553598 -0.459932 -0.503416
          -0.581238 -0.586159 2.04718 2.04711 2.07562 2.01221
          -0.0599512 -0.0621598 -0.032129 -0.0250458 -1.04914 -1.08627
          -1.08344 -1.06675 -0.0270135 0 0 -0.0430308
          -0.513482 -0.470608 -0.589371 -0.568469 -1.1077 -1.12544
          -1.12213 -1.12406 -1.11263 -1.11706 -1.12544 -1.10631
          -1.12604 -1.11213 -1.10792 -1.1078 1.70657 1.63277
          1.74814 1.66253 -0.593392 -0.513482 -0.589371 -0.568469
          0.598091 0.494116 0.514661 0.68783 0.68783 0.598091
          0.647563 0.514661 -0.19082 -0.24717 -0.272863 -0.249986
          -1.10146 -1.11305 -1.12026 -1.11584 1.79745 1.7903
          1.73409 1.68961 1.92573 1.9791 1.9791 1.94003
          -1.11972 -1.10678 -1.09692 -1.11313 -0.86543 -0.796305
          -0.80429 -0.795337 -0.260464 -0.1821 -0.236551 -0.326607
          1.62844 1.68961 1.56397 1.6753 -0.86422 -0.906916
          -0.841123 -0.846644 -0.86422 -0.926708 -0.906916 -0.846644
          -0.947155 -0.926708 -0.906916 -0.86422 -1.11972 -1.11313
          -1.12608 -1.12711 -1.11972 -1.10678 -1.11313 -1.12711
          -0.0278639 -0.0123778 -0.0389618 -0.0580778 -0.0389618 -0.0123778
          -0.076386 -0.0580778 -0.551896 -0.449962 -0.375589 -0.432786
          -0.462169 -0.432786 -0.449962 -0.551896 -0.462169 -0.551896
          -0.449962 -0.621601 -1.13418 -1.14484 -1.13799 -1.1506
          -0.752531 -0.803147 -0.748962 -0.849714 -0.752531 -0.803147
          -0.678307 -0.748962 -0.0685765 -0.106809 -0.236551 -0.24624
          -0.0685765 -0.236551 -0.0718907 -0.24624 -0.0685765 -0.24624
          -0.0718907 -0.222251 -0.0956363 -0.222251 -0.24624 -0.0685765
          -0.0956363 -0.24624 -0.262841 -0.0685765 -0.0956363 -0.222251
          -0.262841 -0.24624 -0.24624 -0.262841 -0.323724 -0.222251
          -0.24624 -0.236551 -0.0718907 -0.222251 -0.24624 -0.375589
          -0.236551 -0.222251 -0.211183 -0.262145 -0.295772 -0.266146
          -1.12721 -1.11504 -1.10889 -1.09202 -0.211183 -0.174494
          -0.149544 -0.100673 -0.097455 -0.0930104 -0.0861697 -0.141753
          -0.0861697 -0.0930104 -0.123609 -0.141753 -0.149544 -0.0861697
          -0.123609 -0.141753 -0.149544 -0.0861697 -0.084285 -0.123609
          -0.830437 -0.89299 -0.794129 -0.800314 -0.0861697 -0.0930104
          -0.0492764 -0.123609 -0.0861697 -0.0582118 -0.0492764 -0.0930104
          1.72946 1.66463 1.68961 1.64709 -0.93916 -0.926114
          -0.907578 -0.866727 -0.907578 -0.926114 -0.992494 -0.943555
          -0.866727 -0.852965 -0.926114 -0.907578 0.489621 0.559962
          0.49707 0.642558 0.559962 0.489621 0.49707 0.469028
          -1.01114 -0.961802 -0.976381 -1.00764 -1.01114 -0.917065
          -0.976381 -0.961802 -0.876171 -0.976381 -0.917065 -0.961802
          -0.876171 -0.961802 -0.917065 -0.895068 -0.929906 -0.984041
          -1.01497 -0.961802 -0.592942 -0.67509 -0.546765 -0.699613
          -1.10792 -1.12909 -1.12604 -1.1078 -0.746678 -0.780209
          -0.67509 -0.699613 -0.746678 -0.780209 -0.699613 -0.80429
          -0.80429 -0.780209 -0.699613 -0.839382 -0.154028 -0.0979218
          -0.0791758 -0.102152 -0.154028 -0.102152 -0.0791758 -0.146496
          -0.699613 -0.780209 -0.716274 -0.839382 -0.699613 -0.780209
          -0.67509 -0.716274 -0.699613 -0.67509 -0.546765 -0.716274
          -0.589371 -0.516463 -0.590591 -0.485896 -0.568469 -0.589371
          -0.590591 -0.485896 -0.590591 -0.485896 -0.48275 -0.568469
          -1.02195 -1.03184 -1.01045 -1.06388 -0.390274 -0.433246
          -0.354419 -0.395565 -0.0401906 -0.0229973 0 -0.0245388
          -0.0229973 0 0 -0.0245388 -0.0245388 0
          -0.0270135 -0.0229973 -0.051575 -0.0245388 -0.0270135 -0.0229973
          -0.641772 -0.552338 -0.612851 -0.643288 -0.694047 -0.641772
          -0.612851 -0.643288 -0.0535907 -0.0270135 -0.0665337 -0.0430308
          -0.0665337 -0.103565 -0.0535907 -0.0430308 -0.0665337 -0.103565
          -0.0979218 -0.0535907 -0.0535907 -0.10608 -0.0979218 -0.0665337
          1.95795 1.96248 1.98437 1.9288 1.93899 1.95795
          1.98437 1.9288 -0.359668 -0.390274 -0.331415 -0.314081
          1.91649 1.95795 1.9288 1.917 1.95795 1.917
          1.91649 1.88195 1.95795 1.96248 1.9288 1.917
          -1.08222 -1.07587 -1.0239 -1.02438 -1.08222 -1.07587
          -1.04012 -1.0239 -0.962722 -0.961593 -1.02438 -1.0239
          -0.847736 -0.714006 -0.792856 -0.760958 -0.0580352 -0.0646586
          -0.030091 -0.0278639 -0.462169 -0.432786 -0.551896 -0.594233
          -0.174494 -0.10608 -0.100673 -0.135516 -0.568469 -0.476973
          -0.527732 -0.561488 -0.151989 -0.0945631 -0.135516 -0.12574
          -0.151989 -0.0945631 -0.096908 -0.135516 -0.135516 -0.096908
          -0.133678 -0.10608 0.0326147 -0.0840872 0.0195096 0.196126
          0.187026 0.0326147 0.0195096 0.196126 -1.12044 -1.11961
          -1.12534 -1.10666 1.06277 0.964154 1.10918 1.07544
          -0.0808166 -0.0704409 -0.10608 -0.051575 -0.956961 -0.895268
          -0.964579 -0.954481 -0.0505998 -0.0945631 -0.0718477 -0.0808166
          0.964154 1.07544 1.00011 0.859824 0.494116 0.360327
          0.352982 0.416224 1.10918 1.23496 1.07544 1.04243
          0.494116 0.360327 0.463576 0.352982 1.00011 1.08346
          1.03208 1.07544 0.187026 0.352982 0.196126 0.25432
          0.453197 0.352982 0.491304 0.25432 0.453197 0.361071
          0.491304 0.352982 -1.08695 -1.12044 -1.10889 -1.09393
          -0.372606 -0.318496 -0.280035 -0.314918 -1.13799 -1.11972
          -1.13052 -1.12608 -1.13799 -1.12608 -1.13052 -1.12534
          -0.0979218 -0.058432 -0.084285 -0.0861697 -0.058432 -0.0401906
          -0.084285 -0.0861697 -0.084285 -0.0143042 -0.058432 -0.0667112
          -0.459932 -0.592942 -0.546765 -0.581238 -0.0599512 -0.0401906
          -0.0621598 -0.0250458 -1.12266 -1.12128 -1.13874 -1.13564
          1.93899 2.00681 1.96815 2.02495 1.93899 1.98437
          2.00681 2.02495 1.98437 1.98437 2.00681 2.02495
          1.98437 1.98437 2.02495 2.02504 2.00681 1.98437
          2.10138 2.02495 2.10279 2.00681 2.10138 2.02495
          2.10279 2.02495 2.10138 2.09814 2.02495 1.98437
          2.10138 2.09814 1.98205 2.02507 1.96301 1.94003
          2.02495 2.00681 1.96815 2.03097 2.02495 2.02504
          2.09406 2.09747 -1.11584 -1.12026 -1.11042 -1.13052
          -1.13173 -1.11395 -1.10666 -1.10787 -1.12862 -1.11645
          -1.13379 -1.11263 1.4184 1.55134 1.41079 1.44669
          1.44669 1.28711 1.41079 1.4184 1.44669 1.28711
          1.4184 1.22555 1.4184 1.28711 1.41079 1.22555
          -0.620987 -0.553598 -0.469631 -0.459932 -0.394513 -0.394325
          -0.37308 -0.42744 1.51462 1.71781 1.57455 1.6753
          1.5561 1.51462 1.71781 1.57455 -1.10803 -1.10666
          -1.10211 -1.08953 -0.0143042 -0.024542 0.000948014 -0.0122043
          2.00681 2.10138 2.06627 2.10279 1.4178 1.37992
          1.57455 1.52316 -0.885602 -0.967376 -0.89299 -0.962722
          -0.885602 -0.89299 -0.811141 -0.794129 -0.447808 -0.543667
          -0.485896 -0.525649 -1.00016 -0.985977 -1.03505 -0.951595
          -0.960625 -1.00016 -1.03505 -0.951595 -0.746878 -0.796305
          -0.79408 -0.869098 -0.0811408 -0.0667112 -0.0497382 -0.0967612
          -0.599053 -0.52839 -0.652342 -0.539283 0.167727 0.0434342
          0.157778 0.0941603 -0.0497382 -0.0667112 -0.076386 -0.0123778
          -0.0811408 -0.076386 -0.0667112 -0.0967612 -0.643321 -0.590591
          -0.516463 -0.565645 -0.951595 -0.960625 -0.925889 -0.869098
          -0.90005 -0.960625 -0.951595 -0.869098 -0.90005 -0.960625
          -0.869098 -0.849714 -0.173142 0.0941603 -0.0892965 0.0195096
          -0.0548072 -0.0667112 -0.0497382 -0.00445242 -0.942546 -0.892945
          -0.963905 -0.963537 -0.173142 -0.0892965 -0.274683 -0.258514
          -0.942546 -0.888644 -0.951595 -0.917892 1.6395 1.6896
          1.78754 1.71521 -0.024542 -0.0250458 -0.0260409 -0.0492764
          1.6896 1.57455 1.55134 1.6395 1.6896 1.6395
          1.71781 1.57455 -0.248114 -0.281814 -0.274965 -0.188494
          -1.11263 -1.12862 -1.12544 -1.13379 1.6896 1.81382
          1.71521 1.73139 1.6896 1.81382 1.78754 1.71521
          -1.05651 -0.998765 -1.03505 -0.998166 -1.04742 -0.998765
          -1.03505 -1.05651 -0.423532 -0.354446 -0.49828 -0.503416
          -0.998765 -0.960625 -1.03505 -0.951595 -0.998765 -0.960625
          -0.951595 -0.90005 -0.998765 -0.951595 -0.888644 -0.90005
          -0.935717 -0.960625 -0.90005 -0.849714 -0.951595 -0.926588
          -0.917892 -0.869098 -0.916534 -0.929422 -0.880859 -0.967376
          -0.880859 -0.916534 -0.849032 -0.929422 -0.951595 -0.925889
          -0.926588 -0.869098 -0.00445242 -0.0380729 -0.0667112 -0.0123778
          0.148091 0.0687832 0.252378 0.273135 -0.00445242 -0.0667112
          -0.0497382 -0.0123778 -0.0548072 -0.0380729 -0.0667112 -0.00445242
          -0.0811408 -0.076386 -0.0497382 -0.0667112 -0.565645 -0.485896
          -0.460253 -0.563079 -0.605686 -0.565645 -0.504466 -0.565742
          -0.605686 -0.565645 -0.539283 -0.504466 1.50407 1.3658
          1.36561 1.3809 -0.0840872 0.070095 0.0941603 0.0195096
          1.50407 1.3809 1.36561 1.52233 -0.450311 -0.539283
          -0.516463 -0.565645 -0.450311 -0.565645 -0.516463 -0.504466
          -0.450311 -0.539283 -0.565645 -0.504466 1.51567 1.69668
          1.59578 1.5561 1.59578 1.6395 1.78754 1.71521
          1.59578 1.42249 1.4564 1.51115 -0.610887 -0.685354
          -0.699179 -0.571006 -0.423532 -0.49828 -0.595206 -0.503416
          1.88195 1.91203 1.91649 1.84313 -0.277549 -0.176552
          -0.179374 -0.341636 -0.239155 -0.277549 -0.179374 -0.341636
          -1.12932 -1.13275 -1.10846 -1.12213 -1.10889 -1.13418
          -1.13173 -1.14317 -0.19697 -0.205618 -0.262145 -0.266283
          -0.262145 -0.19697 -0.266283 -0.314081 -1.13275 -1.12604
          -1.10846 -1.10963 -0.657779 -0.704614 -0.630091 -0.606738
          -0.0749921 -0.14598 -0.0946761 -0.103565 1.71781 1.81382
          1.78754 1.6896 1.79745 1.88336 1.87832 1.89003
          -0.354419 -0.433246 -0.361431 -0.395565 -0.0380729 -0.0143042
          -0.00445242 -0.0548072 0.58157 0.498809 0.39627 0.578553
          -0.084285 -0.0426216 -0.0548072 -0.0800788 -0.0800788 -0.0548072
          -0.084285 -0.0978631 -0.974703 -0.929422 -0.916534 -0.967376
          -0.0143042 0 -0.0380729 0 0 0
          -0.0143042 0 0 0 0 -0.0143042
          0 0.000948014 0 -0.0143042 0 0
          0.000948014 -0.0143042 -0.384524 -0.459932 -0.503416 -0.323724
          0 -0.0229973 -0.0401906 -0.0143042 0 0
          -0.0229973 -0.0143042 -0.0229973 0 -0.0380729 -0.0143042
          1.55042 1.57455 1.6395 1.55134 -0.0143042 0
          0 -0.00445242 -0.906916 -0.987319 -0.947155 -0.929701
          -0.9239 -0.960482 -0.929701 -0.984145 -0.929701 -0.947155
          -0.906916 -0.86422 -0.722719 -0.800314 -0.751434 -0.718463
          -0.906916 -0.960482 -0.987319 -0.929701 -1.12721 -1.11504
          -1.13536 -1.12692 -1.12721 -1.13561 -1.1349 -1.14029
          0.288513 0.391246 0.490675 0.453197 1.89605 1.82278
          1.94509 1.89198 1.89198 1.83215 1.89605 1.82278
          0.481869 0.453197 0.490675 0.662099 -1.0015 -0.962722
          -0.93618 -0.958975 1.4291 1.37031 1.56397 1.3944
          1.56397 1.37031 1.57344 1.3944 0.157778 0.215311
          0.195354 0.291865 -0.961802 -0.984041 -1.01497 -1.04283
          -1.1349 -1.12721 -1.12962 -1.12287 1.92573 1.9791
          1.98205 1.94003 0.667341 0.798318 0.662099 0.655168
          1.04243 0.977767 0.798318 0.859824 0.798318 0.860861
          1.04243 0.859824 -1.06633 -1.07377 -1.09692 -1.10678
          -1.07377 -1.06883 -1.06633 -1.09692 -1.07377 -1.06883
          -1.09692 -1.09595 1.9791 1.9791 1.98205 1.94003
          -1.10889 -1.06016 -1.08471 -1.09202 -1.06016 -1.03094
          -1.09202 -1.06445 -1.12213 -1.12406 -1.10963 -1.10666
          -0.811176 -0.750283 -0.680673 -0.769458 -0.849032 -0.750283
          -0.811176 -0.769458 -0.890416 -0.9239 -0.961593 -0.941717
          -0.849032 -0.811176 -0.866727 -0.873521 -0.849032 -0.750283
          -0.866727 -0.811176 1.41683 1.4178 1.57455 1.53891
          -1.12026 -1.1291 -1.1415 -1.13262 -0.194325 -0.157499
          -0.207319 -0.251084 -0.194325 -0.207319 -0.283796 -0.251084
          -0.194325 -0.207319 -0.222739 -0.283796 -1.12026 -1.13262
          -1.13052 -1.11584 -0.194325 -0.157499 -0.251084 -0.177216
          1.41683 1.57455 1.55134 1.53891 -0.849266 -0.826828
          -0.748962 -0.743985 -1.12126 -1.07335 -1.10374 -1.1071
          1.4564 1.24082 1.31556 1.33583 1.21542 1.24082
          1.18361 1.31556 1.21542 1.31556 1.18361 1.41079
          1.31556 1.29245 1.16605 1.28711 -0.0123778 0
          0 -0.0278639 -0.0123778 -0.0143042 0 -0.00445242
          1.40219 1.4564 1.55042 1.41079 -0.024542 0
          0.000948014 -0.0260409 1.94509 2.00861 1.95211 1.94817
          1.95943 2.02627 1.94509 2.00861 1.95943 2.02627
          1.93833 1.94509 0.25432 0.223329 0.386022 0.224806
          1.91561 1.93833 1.99431 1.94509 -1.07793 -1.05651
          -1.08531 -1.08695 -1.07793 -1.08531 -1.11521 -1.08695
          2.05199 2.00681 2.10279 2.02495 -1.08695 -1.08531
          -1.11521 -1.09673 -1.0663 -1.09202 -1.10374 -1.06445
          -1.13067 -1.12877 -1.11165 -1.13564 -1.0663 -1.06445
          -1.10374 -1.05123 2.03117 2.12646 2.04142 2.05199
          2.03117 2.04142 2.03097 2.05199 2.05199 2.04142
          2.03097 2.11483 2.04142 2.05199 2.11979 2.11483
          2.04142 2.12646 2.11979 2.05199 2.05199 2.12646
          2.11979 2.11483 2.05199 2.12329 2.12646 2.11483
          -1.08344 -1.11282 -1.07206 -1.06675 -0.211183 -0.248114
          -0.149544 -0.188363 -0.211183 -0.248114 -0.188363 -0.266146
          -0.885602 -0.962722 -0.875966 -0.868497 -0.875966 -0.958975
          -0.86422 -0.868497 -0.875966 -0.801634 -0.868497 -0.86422
          -0.801634 -0.770226 -0.868497 -0.86422 -0.868497 -0.770226
          -0.823936 -0.86422 -0.920145 -0.868497 -0.823936 -0.86422
          -0.868497 -0.958975 -0.86422 -0.920145 -0.62348 -0.685864
          -0.553598 -0.680571 -0.814626 -0.891684 -0.84509 -0.776937
          -0.873521 -0.811176 -0.865373 -0.868497 -0.873521 -0.774123
          -0.811176 -0.868497 1.52316 1.4291 1.37992 1.37031
          1.4291 1.37031 1.52316 1.56397 -0.610887 -0.553598
          -0.449962 -0.492427 -0.610887 -0.553598 -0.492427 -0.680571
          -0.610887 -0.62348 -0.553598 -0.680571 -0.907578 -0.868497
          -0.865373 -0.93618 0.662099 0.453197 0.490675 0.655168
          0.148091 0.273135 0.377404 0.291124 1.07544 1.23496
          1.03208 1.04243 -0.553598 -0.379639 -0.492427 -0.410816
          0.668802 0.58157 0.78162 0.578553 -0.895268 -0.890416
          -0.791267 -0.885602 0.652838 0.753173 0.668802 0.58157
          1.78832 1.73139 1.83282 1.82278 1.78832 1.83282
          1.8842 1.82278 1.78832 1.8842 1.85818 1.82278
          1.85818 1.94509 1.82278 1.8842 0.224806 0.0941603
          0.25432 0.223329 0.157778 0.223329 0.338667 0.25432
          1.81379 1.83215 1.82278 1.74814 1.82278 1.83215
          1.83677 1.74814 1.76701 1.82278 1.83677 1.74814
          1.16296 1.16605 1.28711 1.18361 1.16296 1.16605
          1.18361 1.03394 1.16296 1.18361 1.0193 1.03394
          1.16296 1.0193 1.18361 1.05157 -0.175074 -0.194325
          -0.185183 -0.133957 1.18361 1.0193 1.04712 1.05157
          1.0193 1.04712 1.03208 1.18361 1.18361 1.04712
          1.03208 1.21542 1.18361 1.16605 1.0193 1.03394
          1.26309 1.21542 1.22074 1.03886 1.98437 2.02853
          2.06131 1.98437 -0.252972 -0.185183 -0.210131 -0.266652
          -0.210131 -0.185183 -0.252972 -0.129841 -0.194536 -0.210131
          -0.252972 -0.129841 -0.210131 -0.281814 -0.194536 -0.252972
          -0.210131 -0.266652 -0.194325 -0.175074 -0.210131 -0.266146
          -0.266652 -0.175074 -0.175074 -0.266146 -0.188363 -0.210131
          -1.01235 -0.953821 -0.987972 -0.958737 -0.210131 -0.188363
          -0.149544 -0.248114 -0.210131 -0.266146 -0.188363 -0.248114
          -0.248114 -0.266146 -0.313497 -0.210131 -0.313497 -0.266146
          -0.266652 -0.210131 -0.0267296 -0.00647402 -0.0484198 -0.0342029
          -0.0267296 -0.00647402 -0.0342029 -0.00942474 0.481869 0.469028
          0.377404 0.282314 -0.0490048 -0.00942474 -0.0342029 -0.0138309
          -0.0138309 -0.0270135 -0.0342029 -0.0490048 -0.0342029 -0.0270135
          -0.0138309 0 0 -0.0342029 -0.0138309 0
          -0.0430308 -0.0270135 -0.0342029 0 -0.0270135 -0.0665337
          -0.0430308 -0.0342029 -0.0270135 -0.0665337 -0.0342029 -0.0490048
          -0.0401906 -0.0426216 -0.0143042 -0.084285 -0.830437 -0.775399
          -0.847736 -0.794661 -0.0342029 -0.00942474 0 -0.0138309
          -0.350307 -0.379886 -0.473892 -0.416868 -0.290885 -0.379886
          -0.350307 -0.416868 -0.290885 -0.379886 -0.416868 -0.360852
          -0.416868 -0.379886 -0.485872 -0.360852 -0.416868 -0.546765
          -0.485872 -0.379886 -0.416868 -0.379886 -0.473892 -0.546765
          -0.379886 -0.42142 -0.473892 -0.546765 -0.252972 -0.325468
          -0.313497 -0.389929 -0.657779 -0.666373 -0.569304 -0.630091
          -0.666373 -0.543652 -0.569304 -0.630091 -0.503416 -0.510283
          -0.586159 -0.410816 1.18652 1.24339 1.0911 1.17371
          1.0235 1.0911 1.17371 1.18652 1.24339 1.17371
          1.14735 1.0911 1.0235 1.17371 1.05157 1.18652
          -0.314918 -0.361431 -0.266146 -0.380621 1.06277 1.00011
          0.964154 1.07544 0.550593 0.361071 0.411117 0.491304
          0.491304 0.361071 0.411117 0.25432 -0.0808166 -0.051575
          -0.10608 -0.100673 -0.0285603 -0.0195266 -0.00611242 -0.0394255
          -0.0394255 -0.00611242 -0.0285603 0 0.453197 0.662099
          0.481869 0.491304 0.453197 0.662099 0.491304 0.655168
          0.491304 0.662099 0.652838 0.655168 0.491304 0.662099
          0.481869 0.652838 -1.12604 -1.10963 -1.09673 -1.10846
          -0.800895 -0.826828 -0.849266 -0.743985 -0.794129 -0.704614
          -0.774123 -0.806808 -0.794129 -0.806808 -0.774123 -0.873521
          1.83279 1.7903 1.87832 1.73409 -0.084285 -0.0426216
          -0.0143042 -0.0548072 -0.171628 -0.225044 -0.211183 -0.174494
          -0.687888 -0.752531 -0.678307 -0.621601 -0.752531 -0.748962
          -0.678307 -0.621601 -0.752531 -0.748962 -0.621601 -0.62348
          -0.752531 -0.62348 -0.621601 -0.746878 -0.752531 -0.621601
          -0.685354 -0.746878 -0.685354 -0.621601 -0.610887 -0.746878
          -0.571006 -0.621601 -0.610887 -0.685354 -0.571006 -0.685354
          -0.656534 -0.621601 -0.524484 -0.571006 -0.656534 -0.621601
          -0.524484 -0.621601 -0.656534 -0.573164 -0.449962 -0.571006
          -0.524484 -0.621601 -0.571006 -0.621601 -0.449962 -0.610887
          -0.621601 -0.62348 -0.449962 -0.610887 -0.621601 -0.62348
          -0.610887 -0.746878 -0.885602 -0.93618 -0.868497 -0.873521
          -1.13832 -1.14115 -1.1349 -1.13538 -0.551896 -0.432786
          -0.375589 -0.547456 -0.926588 -0.925889 -0.91903 -0.869098
          -0.869098 -0.925889 -0.91903 -0.849714 -0.869098 -0.849714
          -0.91903 -0.845006 -0.869098 -0.960625 -0.925889 -0.849714
          -0.869098 -0.796305 -0.888644 -0.90005 1.92573 1.92573
          1.87832 1.88188 1.37031 1.28935 1.4291 1.37992
          -0.331415 -0.390274 -0.433246 -0.361431 0.481869 0.453197
          0.386022 0.291124 -1.11961 -1.13421 -1.13418 -1.12534
          -1.13418 -1.13082 -1.13421 -1.11961 -0.02854 -0.0245388
          -0.0621598 -0.032129 1.4291 1.37031 1.3944 1.28935
          1.92573 1.90147 1.87832 1.88188 -0.86543 -0.870565
          -0.90005 -0.949907 1.87832 1.7903 1.78842 1.73409
          -0.590591 -0.707837 -0.641772 -0.700148 -0.707837 -0.794129
          -0.800314 -0.700148 -0.775399 -0.791267 -0.7108 -0.700148
          -0.791267 -0.704614 -0.7108 -0.700148 1.88195 1.79197
          1.77496 1.9288 -0.097455 -0.0582118 -0.0621598 -0.0861697
          -0.0621598 -0.0582118 -0.0250458 -0.0861697 -1.01937 -0.984041
          -1.01497 -0.929906 -0.376901 -0.337935 -0.325468 -0.433933
          0.912449 0.910491 1.0235 0.78162 -0.895068 -0.953749
          -0.917065 -0.86543 -0.86543 -0.90005 -0.796305 -0.795337
          0.653264 0.859824 0.681063 0.667341 0.483109 0.667341
          0.653264 0.681063 0.653264 0.483109 0.681063 0.503453
          0.653264 0.433358 0.483109 0.503453 0.483109 0.360895
          0.433358 0.653264 0.483109 0.506003 0.360895 0.653264
          0.667341 0.506003 0.483109 0.653264 0.577023 0.506003
          0.667341 0.653264 0.577023 0.653264 0.667341 0.693819
          0.577023 0.506003 0.653264 0.693819 -0.967376 -1.02577
          -1.0239 -0.962722 -0.967376 -1.02577 -1.03094 -1.0239
          -0.971894 -0.971224 -1.03123 -0.982387 -1.08662 -1.12213
          -1.10666 -1.10211 -0.0791758 -0.0278639 -0.0380729 -0.0430308
          1.4564 1.33583 1.31556 1.40219 0.252378 0.420265
          0.273135 0.303109 -0.103565 -0.0963933 -0.146496 -0.0791758
          -0.769458 -0.680673 -0.683439 -0.750283 1.917 1.9288
          1.9288 1.91203 1.7903 1.90816 1.91203 1.84313
          -0.86543 -0.949907 -0.917065 -0.839382 1.175 1.21814
          1.12293 1.05637 -1.06388 -1.09497 -1.10846 -1.10963
          1.93412 1.83094 1.91649 1.90057 -0.084285 -0.102152
          -0.0979218 -0.143159 1.98846 1.95846 1.93412 1.96844
          -1.12213 -1.09497 -1.10963 -1.10846 -1.12213 -1.09497
          -1.10846 -1.12932 -0.372721 -0.319843 -0.385426 -0.455721
          -0.389929 -0.371997 -0.313497 -0.385426 -0.460253 -0.385426
          -0.389929 -0.504466 -1.09497 -1.0977 -1.10846 -1.12932
          0.469028 0.54982 0.662797 0.475347 -0.847736 -0.791267
          -0.846966 -0.775399 -0.593398 -0.551896 -0.375589 -0.547456
          -0.361431 -0.381395 -0.380621 -0.447808 -0.840197 -0.760958
          -0.847736 -0.792856 -0.840197 -0.760958 -0.881613 -0.847736
          -0.794661 -0.847736 -0.881613 -0.760958 -0.794661 -0.775399
          -0.847736 -0.760958 1.94817 1.95549 2.00861 2.03097
          1.78754 1.83282 1.82752 1.75653 -1.04283 -0.984041
          -1.03143 -1.00764 -0.460253 -0.433933 -0.371997 -0.516463
          -0.460253 -0.450311 -0.433933 -0.516463 -0.389929 -0.450311
          -0.433933 -0.460253 -0.389929 -0.433933 -0.371997 -0.460253
          1.30124 1.4291 1.38913 1.28935 -0.376901 -0.433933
          -0.389929 -0.450311 -0.376901 -0.442633 -0.433933 -0.450311
          -0.376901 -0.442633 -0.411059 -0.433933 1.917 1.9288
          1.91203 1.88195 1.87832 1.90816 1.92573 1.91203
          1.917 1.88195 1.91203 1.91649 -0.442633 -0.52839
          -0.411059 -0.433933 -0.442633 -0.52839 -0.433933 -0.539283
          -0.442633 -0.433933 -0.450311 -0.539283 -0.450311 -0.433933
          -0.516463 -0.539283 -0.433933 -0.52839 -0.516463 -0.539283
          -0.433933 -0.52839 -0.540991 -0.516463 -0.433933 -0.540991
          -0.497885 -0.516463 1.94817 1.96815 1.95549 2.03097
          0.215311 0.0844741 0.223329 0.0941603 -0.411059 -0.52839
          -0.540991 -0.433933 -1.11163 -1.13052 -1.12534 -1.11282
          -1.11282 -1.08344 -1.08953 -1.10446 0.0174048 0.00797098
          0.146292 0.0687832 0.0174048 0.146292 0.252378 0.0687832
          -0.106809 0.0687832 -0.0678035 0.00797098 -0.106809 0.105101
          -0.0678035 0.0687832 0.0687832 0.105101 -0.0678035 0.00797098
          0.0687832 0.105101 0.303109 0.105877 0.93758 1.0193
          1.03394 0.83647 0.93758 0.83647 1.03394 0.903992
          0.93758 0.83647 0.903992 0.739804 0.83647 1.0193
          1.03394 0.903992 0.845586 0.83647 1.0193 0.832093
          0.662797 0.845586 0.832093 0.83647 0.832093 0.701274
          0.662797 0.83647 0.832093 0.701274 0.83647 0.70671
          0.83647 0.701274 0.662797 0.70671 0.662797 0.845586
          0.83647 0.833553 0.83647 0.833553 0.668802 0.662797
          0.83647 0.833553 0.763471 0.668802 0.845586 0.833553
          1.0193 0.83647 -0.332616 -0.415527 -0.274965 -0.319843
          -0.410748 -0.332616 -0.319843 -0.415527 -0.410748 -0.319843
          -0.366911 -0.415527 -0.319843 -0.410748 -0.366911 -0.455721
          0.0640076 -0.0723265 -0.0882344 0.0844741 -0.372721 -0.410748
          -0.319843 -0.455721 -0.372721 -0.332616 -0.319843 -0.410748
          -0.331415 -0.390274 -0.361431 -0.354419 -0.0956363 -0.274683
          -0.0723265 -0.212325 -0.319843 -0.274965 -0.281814 -0.366911
          -0.319843 -0.415527 -0.274965 -0.366911 -1.12287 -1.1071
          -1.11049 -1.10678 -1.12287 -1.10678 -1.11049 -1.12711
          -1.11049 -1.1071 -1.07587 -1.10678 -1.10678 -1.06633
          -1.07587 -1.11049 -1.11049 -1.09202 -1.07587 -1.1071
          -1.11049 -1.09202 -1.08471 -1.07587 -0.875966 -0.929701
          -0.958975 -0.961593 -0.651747 -0.718463 -0.641772 -0.615241
          -1.11049 -1.08369 -1.08222 -1.11972 -1.09692 -1.08369
          -1.11049 -1.11972 1.96815 1.93412 1.90057 1.89904
          0.489621 0.49707 0.558058 0.642558 1.96844 1.95846
          1.93412 1.97551 1.89904 1.96815 1.93412 1.96844
          -0.133957 -0.102152 -0.143159 -0.175074 1.75653 1.78754
          1.82271 1.82752 -0.895068 -0.935717 -0.90005 -0.849266
          -1.08672 -1.04155 -1.05123 -1.07335 -1.04155 -0.985129
          -1.01073 -1.0176 -1.04155 -1.01073 -1.07335 -1.06633
          0.215002 0.360895 0.303109 0.190096 1.90057 1.90131
          1.89198 1.95549 0.105877 0.070095 0.105101 0.102868
          0.550593 0.655168 0.514661 0.491304 -1.02948 -0.956961
          -1.01073 -1.04155 -1.04155 -0.956961 -1.01073 -0.985129
          -0.595206 -0.581238 -0.614662 -0.648259 -1.12711 -1.10678
          -1.11313 -1.12544 -0.984145 -0.960482 -1.0176 -1.02314
          -0.961593 -0.960482 -1.0176 -0.984145 1.92573 2.02495
          1.98205 1.9791 -1.0239 -0.961593 -1.02438 -1.0176
          -1.0176 -1.0239 -1.07587 -1.02438 -1.0239 -0.961593
          -1.0176 -1.01073 0.68783 0.514661 0.647563 0.655168
          0.68783 0.514661 0.655168 0.608061 0.68783 0.494116
          0.514661 0.608061 0.598091 0.463576 0.514661 0.494116
          -1.08531 -1.05651 -1.04742 -1.08729 -1.08695 -1.05651
          -1.08531 -1.09673 -1.06388 -1.0707 -1.09673 -1.10963
          -1.06388 -1.0707 -1.05651 -1.09673 -1.0707 -1.08729
          -1.05651 -1.09673 -1.0707 -1.08729 -1.09673 -1.10846
          -1.0707 -1.10846 -1.09673 -1.10963 -1.0707 -1.08499
          -1.08729 -1.10846 -1.0707 -1.08499 -1.10846 -1.0977
          -1.0707 -1.0977 -1.10846 -1.09497 1.21814 1.37992
          1.21542 1.21446 1.21814 1.21446 1.21542 1.04243
          1.23496 1.21814 1.21542 1.04243 1.23496 1.37992
          1.21542 1.21814 1.23496 1.21814 1.36561 1.37992
          1.23496 1.21814 1.24102 1.36561 1.21814 1.30879
          1.24102 1.36561 1.21814 1.30879 1.36561 1.37992
          -1.13082 -1.12604 -1.11961 -1.11521 -1.09673 -1.12604
          -1.11521 -1.11961 -0.507901 -0.543652 -0.487029 -0.560799
          -0.467039 -0.455721 -0.563079 -0.507901 -0.507901 -0.415527
          -0.487029 -0.543652 -0.849266 -0.849714 -0.796305 -0.748962
          -0.849266 -0.90005 -0.796305 -0.849714 -0.849266 -0.935717
          -0.90005 -0.849714 -0.849714 -0.849266 -0.935717 -0.925889
          -0.849714 -0.910515 -0.849266 -0.925889 -0.849266 -0.910515
          -0.935717 -0.925889 -0.849266 -0.910515 -0.884212 -0.935717
          -0.880859 -0.967376 -0.89299 -0.885602 -0.880859 -0.967376
          -0.885602 -0.962722 -0.880859 -0.929422 -0.89299 -0.967376
          -0.89299 -0.876853 -0.929422 -0.880859 1.55042 1.4564
          1.6395 1.57455 1.4564 1.55042 1.6395 1.59578
          1.4564 1.53837 1.55042 1.59578 1.53837 1.59578
          1.65267 1.55042 1.53837 1.55042 1.65267 1.59758
          1.53837 1.55042 1.59758 1.44669 -1.10851 -1.11628
          -1.12862 -1.11263 1.59758 1.55042 1.65267 1.71521
          1.55042 1.59578 1.65267 1.71521 1.55042 1.6395
          1.59578 1.71521 -1.12862 -1.12213 -1.12544 -1.13379
          0 0 -0.0143042 -0.0250458 0 -0.0250458
          -0.0143042 -0.0401906 -0.0401906 -0.0245388 0 -0.0250458
          -0.0143042 -0.0250458 -0.024542 -0.0401906 -0.0143042 -0.0250458
          0.000948014 -0.024542 -0.0143042 0 0.000948014 -0.0250458
          -0.0250458 0 0.000948014 -0.024542 0 -0.00585858
          0 -0.0250458 0 -0.00585858 -0.0250458 -0.032129
          -0.032129 -0.00585858 -0.0250458 -0.0582118 -0.0250458 -0.00585858
          -0.0260409 -0.0582118 -0.0250458 -0.0582118 -0.0260409 -0.0492764
          -0.0250458 -0.0582118 -0.0492764 -0.0861697 0 -0.00585858
          -0.0260409 -0.0250458 0.0941603 0.0844741 0.223329 0.105877
          -0.956961 -0.890416 -0.941717 -0.88369 -0.956961 -0.847736
          -0.890416 -0.88369 -0.956961 -0.895268 -0.890416 -0.847736
          -0.895268 -0.961593 -0.956961 -0.890416 -0.895268 -0.890416
          -0.847736 -0.775399 -0.895268 -0.791267 -0.890416 -0.775399
          -0.890416 -0.791267 -0.847736 -0.775399 -0.890416 -0.791267
          -0.846966 -0.847736 -0.890416 -0.847736 -0.846966 -0.88369
          -0.941717 -0.890416 -0.846966 -0.88369 -0.890416 -0.846966
          -0.9239 -0.941717 -1.11463 -1.0977 -1.09497 -1.12932
          1.66463 1.62844 1.7903 1.68961 -0.375589 -0.223941
          -0.222251 -0.258256 -0.9239 -0.863214 -0.846966 -0.890416
          -0.9239 -0.906916 -0.863214 -0.929701 1.43571 1.60442
          1.52752 1.63277 1.52752 1.63277 1.66253 1.63519
          1.48789 1.63277 1.52752 1.63519 -0.19082 -0.207257
          -0.14598 -0.206198 -0.572695 -0.525649 -0.543667 -0.467039
          2.00681 2.06627 2.05199 2.10279 -0.964579 -0.885602
          -0.887682 -0.89299 -0.964579 -0.89299 -0.887682 -0.958737
          -0.964579 -0.887682 -0.930871 -0.958737 -0.958737 -0.857877
          -0.887682 -0.930871 -0.958737 -0.857877 -0.89299 -0.887682
          -0.887682 -0.800314 -0.857877 -0.89299 -0.447808 -0.467039
          -0.485896 -0.543667 0.475347 0.386022 0.491304 0.338667
          0.291124 0.282314 0.386022 0.481869 -1.03462 -0.951595
          -1.03781 -0.985347 -1.11645 -1.11706 -1.11263 -1.10149
          -1.11706 -1.11475 -1.12126 -1.10678 -0.985347 -1.03462
          -1.01923 -1.03781 -0.998166 -0.951595 -1.03462 -0.985347
          -1.13081 -1.13067 -1.13884 -1.13595 -1.12287 -1.12711
          -1.11049 -1.13067 -1.12287 -1.13067 -1.13081 -1.13595
          -1.13081 -1.13067 -1.13564 -1.13884 0.828881 0.655168
          0.920525 0.860861 0.854408 0.781435 0.920525 0.828881
          1.0351 0.854408 0.920525 1.00411 -1.08222 -1.02438
          -1.04012 -1.0015 -1.08222 -1.02438 -1.0015 -1.04905
          -1.0015 -1.0239 -0.962722 -1.02438 -1.02438 -0.962722
          -1.0015 -0.958975 -0.481701 -0.395732 -0.325622 -0.384602
          -0.394055 -0.395732 -0.384602 -0.325622 -1.01657 -0.966454
          -0.943555 -1.0015 -1.01657 -1.0015 -0.943555 -1.0007
          -0.691136 -0.80429 -0.699613 -0.685864 -0.375156 -0.394325
          -0.394513 -0.470608 -0.156252 -0.154028 -0.103565 -0.146496
          0.506003 0.409391 0.360895 0.269333 -0.154028 -0.0791758
          -0.103565 -0.146496 0.360895 0.409391 0.288513 0.269333
          0.409391 0.391246 0.288513 0.269333 0.577023 0.490675
          0.483109 0.506003 0.667341 0.483109 0.577023 0.490675
          0.490675 0.416224 0.453197 0.391246 0.608061 0.416224
          0.490675 0.391246 1.07544 1.04243 1.03208 0.859824
          1.63429 1.45466 1.4792 1.67008 1.63429 1.45466
          1.67008 1.55691 1.6753 1.63429 1.67008 1.55691
          1.63429 1.55691 1.6753 1.52316 1.51462 1.63429
          1.6753 1.52316 1.51462 1.55691 1.63429 1.52316
          1.51462 1.45466 1.63429 1.55691 -1.02908 -0.997365
          -0.980392 -1.00016 -1.02908 -1.04742 -0.997365 -1.05661
          -1.13799 -1.1291 -1.12877 -1.1415 -1.12877 -1.1291
          -1.14815 -1.1415 -1.12877 -1.12197 -1.14815 -1.1291
          -0.712925 -0.704614 -0.660161 -0.630091 -0.630091 -0.641354
          -0.660161 -0.712925 -0.0892965 -0.274683 -0.161167 -0.0723265
          -0.0723265 -0.0956363 -0.0882344 0.0844741 -0.447808 -0.381395
          -0.380621 -0.467039 -0.467039 -0.433246 -0.447808 -0.381395
          -0.433246 -0.447808 -0.525649 -0.467039 -0.390274 -0.395565
          -0.354419 -0.403315 -0.0723265 -0.274683 -0.161167 -0.212325
          -0.433246 -0.48275 -0.525649 -0.447808 -0.751434 -0.667561
          -0.718463 -0.794661 -0.718463 -0.667561 -0.641772 -0.615241
          -0.987319 -0.926708 -0.906916 -0.947155 -0.987319 -0.926708
          -0.947155 -1.0146 -0.960482 -0.926708 -0.987319 -1.0146
          -0.987319 -0.960482 -1.0146 -1.03065 -0.614662 -0.800895
          -0.691136 -0.717461 -0.960482 -0.926708 -0.906916 -0.987319
          -0.958975 -0.987319 -0.947155 -1.0007 -0.958975 -1.02438
          -0.987319 -1.0007 -0.961593 -0.987319 -0.958975 -1.02438
          -1.02438 -1.0007 -1.04905 -0.987319 1.04243 0.977767
          0.931257 0.798318 0.931257 0.860861 1.04243 0.798318
          0.931257 0.828881 0.798318 0.749164 0.828881 0.655168
          0.798318 0.749164 0.828881 0.655168 0.860861 0.798318
          0.798318 0.860861 0.662099 0.655168 0.798318 0.662099
          0.860861 0.845586 0.749164 0.608061 0.655168 0.798318
          2.10335 2.04031 2.02507 2.04554 -0.598024 -0.589968
          -0.517364 -0.664582 -0.598024 -0.481701 -0.517364 -0.589968
          -0.481701 -0.492427 -0.517364 -0.589968 -0.481701 -0.395732
          -0.492427 -0.589968 -0.492427 -0.610887 -0.680571 -0.589968
          -1.13052 -1.13262 -1.14484 -1.12964 -1.13052 -1.12964
          -1.14484 -1.13087 -1.13052 -1.13262 -1.1415 -1.14484
          -1.13052 -1.1415 -1.13799 -1.14484 -0.102152 -0.0667112
          -0.084285 -0.058432 0.338667 0.491304 0.411117 0.25432
          0.411117 0.157778 0.338667 0.25432 0.411117 0.157778
          0.291865 0.338667 -1.11282 -1.13087 -1.12044 -1.13003
          0.338667 0.291865 0.39627 0.215311 -1.14317 -1.10889
          -1.12044 -1.13003 0.215311 0.282314 0.351904 0.338667
          0.416224 0.352982 0.453197 0.391246 0.416224 0.285413
          0.352982 0.391246 0.157778 0.215311 0.291865 0.338667
          -1.08953 -1.08253 -1.07206 -1.10666 -0.0245388 -0.0285603
          0 0 -0.0285603 0 0 0
          -0.0285603 -0.00611242 0 0 -0.0285603 -0.00611242
          -0.00847001 0 -0.0285603 -0.00847001 -0.00222902 0
          -0.0270135 -0.0285603 -0.00222902 0 -0.0285603 -0.0270135
          0 0 -0.0195266 -0.00611242 -0.00847001 -0.0285603
          -0.0505998 -0.0195266 -0.00847001 -0.0285603 -0.936452 -1.01045
          -1.01923 -0.942546 -0.684281 -0.612851 -0.591251 -0.643288
          -0.684281 -0.643288 -0.591251 -0.561488 -0.643288 -0.612851
          -0.591251 -0.561488 0.781435 0.860861 0.800478 0.858087
          0.781435 0.800478 0.686588 0.858087 0.781435 0.800478
          0.655168 0.686588 0.781435 0.860861 0.655168 0.800478
          0.655168 0.652838 0.686588 0.800478 0.686588 0.652838
          0.753173 0.800478 0.686588 0.800478 0.753173 0.858087
          0.800478 0.753173 0.807915 0.652838 -0.615241 -0.7108
          -0.643506 -0.651747 -0.394325 -0.516463 -0.433933 -0.497885
          -0.966454 -0.93618 -0.943555 -1.0015 -0.394513 -0.313891
          -0.37308 -0.394325 -0.870565 -0.839382 -0.814626 -0.897867
          -1.08499 -1.11213 -1.10846 -1.12188 -1.08499 -1.10196
          -1.11213 -1.12188 -1.08499 -1.08729 -1.11213 -1.10196
          -1.08499 -1.08729 -1.10846 -1.11213 -1.10846 -1.11213
          -1.08729 -1.12604 -1.12188 -1.12314 -1.10196 -1.11213
          -1.12314 -1.10196 -1.11213 -1.10413 -1.12314 -1.11213
          -1.1078 -1.10413 0 0 -0.0430308 -0.0278639
          -0.0278639 -0.0430308 -0.0342029 0 -1.12721 -1.11504
          -1.12962 -1.10889 -1.1078 -1.11213 -1.07992 -1.10413
          -1.11213 -1.07992 -1.10792 -1.1078 -1.11213 -1.10196
          -1.07992 -1.10413 -1.11213 -1.07992 -1.10196 -1.0749
          -0.15829 -0.135516 -0.10608 -0.174494 -0.800895 -0.849266
          -0.795337 -0.743985 -0.795337 -0.90005 -0.796305 -0.849266
          -0.849266 -0.796305 -0.795337 -0.748962 -0.795337 -0.80429
          -0.685864 -0.796305 -0.685864 -0.795337 -0.796305 -0.748962
          -0.895068 -0.90005 -0.795337 -0.849266 -0.895068 -0.849266
          -0.795337 -0.800895 -0.19082 -0.179655 -0.15829 -0.103565
          -0.19082 -0.15829 -0.14598 -0.103565 -0.15829 -0.19082
          -0.14598 -0.206198 -0.230557 -0.206198 -0.19082 -0.15829
          -0.230557 -0.15829 -0.19082 -0.179655 -0.15829 -0.206198
          -0.216222 -0.230557 -1.11263 -1.12213 -1.12544 -1.12862
          1.4184 1.60442 1.63277 1.55134 -1.12213 -1.12862
          -1.12932 -1.13275 1.4184 1.44669 1.60442 1.62788
          1.44669 1.59758 1.60442 1.62788 1.55042 1.62788
          1.6896 1.6395 -1.08417 -1.07335 -1.1071 -1.10678
          -1.08417 -1.07335 -1.10678 -1.06633 -1.08417 -1.06633
          -1.10678 -1.07377 -1.08417 -1.10678 -1.10149 -1.07377
          0.190096 0.269333 0.360895 0.288513 0.190096 0.360895
          0.303109 0.288513 0.360895 0.190096 0.388691 0.269333
          0.190096 0.183378 0.388691 0.269333 0.190096 0.183378
          0.269333 0.0879617 0.190096 0.0879617 0.269333 0.0352962
          0.190096 0.183378 0.0879617 0.0435163 0.0435163 -0.0678035
          0.0879617 0.190096 -1.08531 -1.04742 -1.07992 -1.08729
          -1.1071 -1.10374 -1.06445 -1.07335 -1.1071 -1.10374
          -1.09202 -1.06445 -1.06445 -1.07335 -1.10374 -1.05123
          -1.04155 -0.985129 -1.0176 -1.03009 -1.13067 -1.13799
          -1.12877 -1.13564 -1.13081 -1.11049 -1.11165 -1.13067
          -1.04155 -1.0025 -0.985129 -1.03009 -1.06445 -1.0239
          -1.07587 -1.07335 -0.360852 -0.379886 -0.469631 -0.323366
          -0.780209 -0.862205 -0.84509 -0.839382 -0.84509 -0.862205
          -0.909379 -0.839382 -0.84509 -0.839382 -0.909379 -0.938354
          -0.24624 -0.176552 -0.277549 -0.323366 -0.780209 -0.84509
          -0.716274 -0.839382 -0.938354 -0.891684 -0.909379 -0.84509
          -0.897867 -0.891684 -0.938354 -0.84509 -0.264494 -0.176552
          -0.217498 -0.323366 2.04718 2.11494 2.11053 2.07562
          -0.0749921 -0.0490048 -0.0342029 -0.0698736 -0.945405 -0.998765
          -0.949907 -1.00984 -0.945405 -0.998166 -0.998765 -1.00984
          -1.00984 -0.963537 -0.945405 -0.998166 0.988245 0.841573
          1.00011 0.842115 0.988245 0.841573 0.842115 0.832093
          1.06277 0.842115 1.00011 0.841573 -1.02195 -1.00984
          -1.05959 -1.06388 -1.05959 -1.00984 -1.05651 -1.06388
          -1.03123 -1.00984 -1.05651 -1.05959 -1.03123 -1.00984
          -0.998765 -1.05651 -1.00984 -0.998765 -0.949907 -1.03123
          -1.00984 -0.998166 -0.998765 -1.05651 -1.00984 -0.998166
          -1.05651 -1.06388 1.06277 0.830437 0.842115 0.841573
          -0.80429 -0.839382 -0.699613 -0.737575 0.25432 0.352982
          0.196126 0.224806 -0.154028 -0.146496 -0.157499 -0.102152
          -0.154028 -0.102152 -0.157499 -0.194325 1.53891 1.48789
          1.41683 1.44473 -0.194325 -0.222739 -0.154028 -0.175074
          -0.156252 -0.179655 -0.103565 -0.154028 -0.895068 -0.795337
          -0.80429 -0.800895 -0.154028 -0.0979218 -0.103565 -0.0791758
          -1.13799 -1.12026 -1.1415 -1.13052 -1.13799 -1.1291
          -1.1415 -1.12026 -1.12026 -1.12877 -1.13799 -1.1291
          -1.13052 -1.12026 -1.12608 -1.11972 -1.11972 -1.12026
          -1.12608 -1.11313 -1.11972 -1.09692 -1.12026 -1.11313
          -0.513482 -0.497885 -0.589371 -0.470608 -0.513482 -0.568469
          -0.476973 -0.470608 -0.75767 -0.712925 -0.704614 -0.801634
          -1.12026 -1.11305 -1.11295 -1.13262 -1.12026 -1.11305
          -1.13262 -1.11584 -1.08695 -1.11961 -1.12044 -1.09393
          -0.00516023 -0.158079 -0.0723265 -0.161167 -1.12544 -1.11706
          -1.12756 -1.10678 -1.10678 -1.11706 -1.11313 -1.12544
          -1.10678 -1.10149 -1.11313 -1.11706 -0.593392 -0.497885
          -0.589371 -0.513482 -1.11263 -1.11706 -1.13379 -1.12544
          -1.13379 -1.11706 -1.12756 -1.12544 -1.13379 -1.11706
          -1.12126 -1.12756 -1.13379 -1.11475 -1.12126 -1.11706
          -0.788346 -0.90005 -0.796305 -0.870565 -0.788346 -0.888644
          -0.90005 -0.870565 -0.0840872 -0.173142 -0.0956363 -0.222251
          -0.892945 -0.870565 -0.843822 -0.788346 -0.0840872 -0.354446
          -0.173142 -0.222251 -0.870565 -0.892945 -0.888644 -0.945405
          -0.888644 -0.945405 -0.949907 -0.870565 -0.870565 -0.888644
          -0.90005 -0.949907 -1.06675 -1.07206 -1.04914 -1.05959
          0.25432 0.352982 0.224806 0.453197 -0.870565 -0.892945
          -0.945405 -0.924358 -0.870565 -0.924358 -0.938354 -0.897867
          -0.707837 -0.722719 -0.641772 -0.700148 -0.707837 -0.800314
          -0.722719 -0.700148 1.64719 1.63429 1.78898 1.76111
          -0.615241 -0.675075 -0.700307 -0.714006 1.5561 1.71781
          1.59578 1.6395 1.5561 1.57455 1.71781 1.6395
          1.5561 1.57455 1.71781 1.71781 1.71781 1.5561
          1.64719 1.71781 1.71781 1.57455 1.71781 1.6395
          1.59578 1.6395 1.71781 1.78754 1.59578 1.71781
          1.7537 1.78754 1.71781 1.69668 1.59578 1.7537
          -0.257693 -0.319843 -0.274965 -0.248114 -0.188494 -0.281814
          -0.274965 -0.194536 -0.188494 -0.274965 -0.174972 -0.194536
          -0.188494 -0.194536 -0.174972 -0.123609 -1.01559 -0.953821
          -1.01235 -1.02334 -0.694047 -0.722719 -0.751434 -0.667561
          -1.09202 -1.11504 -1.10889 -1.08431 -1.09393 -1.10963
          -1.08662 -1.09673 -1.10889 -1.09202 -1.08471 -1.11049
          -1.10889 -1.08431 -1.10589 -1.08471 -1.11451 -1.08431
          -1.10589 -1.10889 -1.10889 -1.11504 -1.11451 -1.08431
          -0.929701 -0.841123 -0.875966 -0.801634 -0.929701 -0.960482
          -0.961593 -0.984145 -0.929701 -0.960482 -0.987319 -0.961593
          -0.929701 -0.987319 -0.958975 -0.961593 -0.929701 -0.987319
          -0.947155 -0.958975 -0.929701 -0.947155 -0.86422 -0.958975
          -0.0840872 -0.258256 -0.223941 -0.142666 -0.0840872 -0.223941
          -0.222251 -0.0718907 1.64709 1.68961 1.60977 1.53596
          1.64709 1.68961 1.73409 1.60977 1.60977 1.68961
          1.73409 1.65206 1.60977 1.56397 1.68961 1.65206
          1.68961 1.56397 1.60977 1.53596 -0.1821 -0.212676
          -0.0678035 -0.326607 -0.292848 -0.326607 -0.329892 -0.212676
          1.6753 1.55691 1.65371 1.52316 1.6753 1.67008
          1.65371 1.55691 1.68961 1.7903 1.73409 1.78842
          1.89605 1.83215 1.83677 1.82278 -1.08134 -1.11282
          -1.06675 -1.10819 -1.06675 -1.11282 -1.09393 -1.10819
          -1.08627 -1.04277 -1.04914 -1.08344 -1.04283 -1.00764
          -1.04742 -1.07793 -1.07793 -1.07046 -1.04283 -1.00764
          -1.07793 -1.07046 -1.06991 -1.04283 -1.09011 -1.07793
          -1.06991 -1.04283 -1.09011 -1.04283 -1.06991 -1.01497
          -1.09011 -1.0635 -1.04283 -1.01497 -1.0635 -1.04283
          -1.01497 -1.01937 -1.0635 -1.03143 -1.04283 -1.01937
          -1.01937 -1.03143 -1.04283 -0.984041 -1.01937 -1.04283
          -1.01497 -0.984041 -1.04283 -1.03067 -1.06991 -1.01497
          -1.03067 -1.04283 -0.976381 -1.01497 -1.03067 -1.00764
          -0.976381 -1.04283 -1.01114 -1.03067 -1.04283 -1.00764
          -1.07046 -1.01114 -1.04283 -1.00764 -1.07046 -1.01114
          -1.06991 -1.04283 -1.01114 -1.03067 -1.06991 -1.04283
          1.71781 1.79197 1.77496 1.88195 1.71781 1.79197
          1.84313 1.6753 1.71781 1.79197 1.88195 1.84313
          1.71781 1.63429 1.77496 1.79197 1.71781 1.63429
          1.79197 1.67008 -0.909379 -1.00623 -0.917065 -0.976381
          -0.375589 -0.326607 -0.236551 -0.223941 1.0911 1.17371
          1.14735 1.04712 1.17371 1.0911 1.0235 1.04712
          -0.194325 -0.157499 -0.177216 -0.133957 -0.133957 -0.154028
          -0.102152 -0.175074 -1.01235 -0.958737 -1.03094 -0.990689
          0.48361 0.351904 0.498809 0.578553 -1.02334 -0.958737
          -1.01235 -0.990689 1.56307 1.53891 1.66463 1.64709
          1.66463 1.53891 1.68961 1.64709 1.66463 1.53891
          1.62844 1.68961 1.53891 1.56397 1.62844 1.68961
          1.53891 1.56397 1.68961 1.53596 1.64709 1.53891
          1.68961 1.53596 1.53596 1.4291 1.53891 1.56397
          2.03787 2.03117 2.07781 2.13214 1.53891 1.4291
          1.62844 1.56397 1.4291 1.4178 1.53891 1.62844
          1.53891 1.4178 1.57455 1.62844 1.53891 1.57455
          1.55134 1.62844 -1.06633 -1.04601 -1.0176 -1.08369
          1.21679 1.12416 1.1531 1.26476 1.1531 1.12416
          1.29245 1.26476 -1.06633 -1.02314 -1.0176 -1.04601
          1.1531 1.12416 1.16605 1.29245 1.1531 1.0193
          1.16605 1.12416 1.1531 1.16605 1.0193 1.18361
          -0.292848 -0.295763 -0.329892 -0.408731 0.647563 0.550593
          0.686588 0.655168 -0.408731 -0.524484 -0.462169 -0.449962
          -0.408731 -0.462169 -0.524484 -0.573164 1.41683 1.4291
          1.30124 1.22074 1.41683 1.4291 1.22074 1.21446
          -0.706495 -0.684281 -0.761579 -0.643288 -0.706495 -0.761579
          -0.75319 -0.643288 -0.706495 -0.761579 -0.797427 -0.75319
          -0.598024 -0.609731 -0.589968 -0.720252 -0.598024 -0.720252
          -0.589968 -0.664582 -0.811141 -0.707837 -0.761579 -0.790747
          -0.720252 -0.680571 -0.589968 -0.610499 -0.609731 -0.680571
          -0.589968 -0.720252 -0.643288 -0.761579 -0.75319 -0.707837
          -0.643288 -0.684281 -0.761579 -0.707837 -0.707837 -0.684281
          -0.761579 -0.790747 -0.410816 -0.262841 -0.459932 -0.384524
          0.910491 0.974223 1.0235 0.78162 1.0911 0.974223
          1.0235 0.910491 1.0911 0.910491 1.0235 1.04712
          1.0911 0.974223 0.910491 1.04712 -0.503416 -0.510283
          -0.384524 -0.375589 1.05157 1.04712 1.0235 0.910491
          1.05157 0.910491 1.0235 0.912449 0.910491 0.833553
          0.903992 0.83647 0.070095 0.0941603 0.224806 0.223329
          -0.589371 -0.624716 -0.701896 -0.683439 -0.589371 -0.624716
          -0.683439 -0.680673 -0.643321 -0.680673 -0.589371 -0.683439
          -0.683439 -0.624716 -0.701896 -0.680673 -0.683439 -0.680673
          -0.701896 -0.750283 -0.811141 -0.701896 -0.683439 -0.707837
          -0.811141 -0.683439 -0.769458 -0.707837 -0.811141 -0.701896
          -0.769458 -0.683439 -0.963905 -1.01045 -1.03184 -1.04173
          -0.963905 -0.963537 -1.03184 -1.01045 -0.942546 -0.963537
          -0.963905 -1.01045 -1.04173 -1.01045 -1.03184 -1.06388
          -1.04173 -1.01045 -1.06388 -1.0652 -1.04173 -1.01923
          -1.01045 -1.0652 -1.0663 -0.990689 -1.02135 -1.01051
          -1.0663 -0.990689 -1.06445 -1.02135 -1.06445 -1.02135
          -1.0239 -1.07335 -1.02135 -0.990689 -0.964579 -1.01051
          -1.01051 -0.977787 -0.964579 -1.02135 0.653257 0.841573
          0.681063 0.842115 0.715955 0.681063 0.841573 0.842115
          0.715955 0.842115 0.841573 0.701274 0.715955 0.681063
          0.842115 0.701274 0.701274 0.681063 0.842115 0.832093
          0.701274 0.842115 0.841573 0.832093 0.681063 0.832093
          0.845586 0.842115 0.681063 0.842115 0.845586 0.859824
          -0.599053 -0.540991 -0.52839 -0.593162 -0.599053 -0.593162
          -0.52839 -0.539283 -0.599053 -0.539283 -0.652342 -0.593162
          -0.680673 -0.599053 -0.652342 -0.593162 -0.680673 -0.593162
          -0.652342 -0.662766 -0.593162 -0.539283 -0.652342 -0.662766
          -0.593162 -0.516463 -0.52839 -0.539283 -0.593162 -0.540991
          -0.52839 -0.516463 0.0941603 -0.0956363 0.0844741 0.105877
          1.94509 2.00861 2.01221 1.95211 1.88582 1.89904
          1.95539 1.90131 0.070095 -0.0956363 0.0941603 0.105877
          0.352982 0.180975 0.196126 0.285413 0.196126 0.352982
          0.285413 0.288513 1.88582 1.95943 1.90131 1.95539
          0.352982 0.453197 0.391246 0.288513 0.285413 0.352982
          0.391246 0.288513 0.352982 0.361071 0.491304 0.25432
          -0.0808166 -0.0371014 -0.096908 -0.0704409 -0.096908 -0.0704409
          -0.10608 -0.0808166 -0.0505998 -0.0945631 -0.0808166 -0.096908
          -0.0945631 -0.0808166 -0.096908 -0.135516 -1.09322 -1.08441
          -1.0667 -1.03468 -0.775399 -0.700307 -0.7108 -0.77883
          0.420265 0.54136 0.49707 0.503453 -0.423532 -0.382148
          -0.49828 -0.354446 -0.643288 -0.612851 -0.527732 -0.568469
          -0.873521 -0.907578 -0.849032 -0.880859 -0.907578 -0.880859
          -0.873521 -0.966454 -0.239155 -0.325622 -0.277549 -0.384602
          -0.873521 -0.868497 -0.865373 -0.907578 -0.916534 -0.880859
          -0.907578 -0.966454 -0.907578 -0.916534 -0.849032 -0.880859
          -0.916534 -0.866727 -0.907578 -0.849032 -0.907578 -0.852965
          -0.926114 -0.865373 -0.897867 -0.891684 -0.84509 -0.814626
          -0.603389 -0.589968 -0.517364 -0.446988 -0.404598 -0.485872
          -0.520837 -0.469631 -0.520837 -0.469631 -0.446988 -0.404598
          0.469028 0.363125 0.351904 0.48361 0.48361 0.282314
          0.351904 0.469028 0.469028 0.363125 0.48361 0.568122
          -0.517364 -0.394055 -0.384602 -0.446988 -0.446988 -0.589968
          -0.517364 -0.394055 -0.603389 -0.589968 -0.446988 -0.394055
          -0.603389 -0.394055 -0.446988 -0.469631 -0.603389 -0.492427
          -0.394055 -0.469631 -0.603389 -0.589968 -0.394055 -0.492427
          -0.394055 -0.589968 -0.517364 -0.492427 -0.492427 -0.410816
          -0.394055 -0.469631 -0.323366 -0.394055 -0.410816 -0.469631
          -0.469631 -0.323366 -0.394055 -0.404598 -0.469631 -0.394055
          -0.446988 -0.404598 -0.446988 -0.394055 -0.341636 -0.404598
          -0.446988 -0.394055 -0.384602 -0.341636 -0.239155 -0.394055
          -0.341636 -0.384602 -0.239155 -0.277549 -0.394055 -0.384602
          -0.239155 -0.277549 -0.341636 -0.394055 -0.277549 -0.176552
          -0.341636 -0.394055 -0.394055 -0.176552 -0.341636 -0.264494
          -0.394055 -0.264494 -0.341636 -0.404598 -0.323366 -0.264494
          -0.394055 -0.404598 -0.323366 -0.176552 -0.394055 -0.264494
          -0.89299 -0.876853 -0.880859 -0.830822 -0.857877 -0.922852
          -0.958737 -0.830822 -0.800314 -0.707837 -0.830822 -0.811141
          -0.857877 -0.800314 -0.75319 -0.830822 -0.857877 -0.75319
          -0.797427 -0.830822 -0.857877 -0.830822 -0.89299 -0.800314
          1.1531 1.26476 1.29245 1.33583 1.21679 1.26476
          1.1531 1.33583 1.24082 1.21679 1.1531 1.33583
          -0.830822 -0.811141 -0.89299 -0.800314 1.28846 1.21679
          1.24082 1.33583 1.28846 1.21679 1.33583 1.34734
          1.21679 1.26476 1.33583 1.34734 1.33583 1.42249
          1.4564 1.51567 -1.04601 -1.0007 -1.04905 -1.07142
          -1.04601 -1.04905 -1.08222 -1.07142 -1.02438 -1.04905
          -1.08222 -1.04601 -1.02438 -0.987319 -1.04905 -1.04601
          -1.02314 -0.987319 -1.02438 -1.04601 -0.987319 -1.0007
          -1.04905 -1.04601 -0.987319 -1.0146 -1.0007 -1.04601
          -0.700182 -0.800895 -0.691136 -0.614662 -0.614662 -0.700182
          -0.648259 -0.691136 -0.614662 -0.581238 -0.691136 -0.648259
          -0.615241 -0.643506 -0.606738 -0.651747 -0.394325 -0.433933
          -0.42744 -0.497885 -1.12909 -1.1349 -1.13536 -1.12627
          -1.12909 -1.13275 -1.1349 -1.12604 -1.12314 -1.12747
          -1.1078 -1.12909 -1.12314 -1.12909 -1.1078 -1.11213
          -1.12909 -1.12314 -1.12188 -1.11213 -0.151989 -0.205618
          -0.135516 -0.19697 -1.13832 -1.12747 -1.12314 -1.12909
          -0.0270135 -0.0229973 0 -0.0430308 -0.0270135 -0.0229973
          0 0 -1.12438 -1.13028 -1.13408 -1.13884
          0.353601 0.240111 0.306036 0.259453 0.259453 0.240111
          0.306036 0.140069 1.9455 1.89136 1.917 1.88195
          1.64599 1.4792 1.63429 1.50407 1.64599 1.63429
          1.64719 1.50407 -0.606738 -0.637707 -0.630091 -0.563079
          -1.1349 -1.12692 -1.12962 -1.12721 1.50407 1.36561
          1.51462 1.52233 1.50407 1.36561 1.45466 1.51462
          -0.510283 -0.449962 -0.410816 -0.375589 -1.00764 -0.960625
          -0.997365 -0.998765 -1.00764 -0.997365 -1.04742 -0.998765
          -1.04742 -0.997365 -1.03505 -0.998765 -0.997365 -1.04742
          -1.03505 -1.05661 -1.00016 -0.997365 -1.03505 -1.05661
          -1.03505 -0.997365 -1.00016 -0.960625 -0.997365 -0.960625
          -1.03505 -0.998765 -0.997365 -0.925889 -1.00016 -0.960625
          -0.997365 -0.935717 -0.925889 -0.960625 -0.997365 -0.935717
          -0.910515 -0.925889 -0.997365 -0.973045 -0.910515 -0.935717
          -0.102152 -0.0667112 -0.076386 -0.0967612 -0.0667112 -0.102152
          -0.133957 -0.0967612 0.338667 0.215311 0.498809 0.351904
          0.338667 0.215311 0.39627 0.498809 0.498809 0.291865
          0.39627 0.338667 0.411117 0.291865 0.498809 0.338667
          0.498809 0.491304 0.411117 0.338667 0.411117 0.58157
          0.491304 0.498809 0.411117 0.498809 0.39627 0.58157
          0.411117 0.291865 0.39627 0.498809 0.491304 0.652838
          0.498809 0.58157 0.498809 0.58157 0.652838 0.668802
          0.498809 0.215311 0.39627 0.351904 0.498809 0.351904
          0.39627 0.578553 -1.09393 -1.11961 -1.12044 -1.10666
          -1.09393 -1.11282 -1.12044 -1.10819 -1.11282 -1.13087
          -1.12534 -1.12044 0.842115 0.813037 0.681063 0.653264
          0.842115 0.859824 0.681063 0.813037 0.813037 0.859824
          0.681063 0.653264 0.859824 0.813037 0.667341 0.653264
          0.859824 0.798318 0.667341 0.813037 0.859824 0.798318
          0.813037 0.763847 0.813037 0.798318 0.667341 0.763847
          0.763847 0.667341 0.813037 0.693819 0.813037 0.693819
          0.667341 0.653264 1.56397 1.6753 1.68813 1.57344
          1.56397 1.6753 1.68961 1.68813 1.7903 1.68813
          1.68961 1.6753 1.7903 1.76022 1.68813 1.6753
          -0.276106 -0.251084 -0.266652 -0.337935 -0.276106 -0.251084
          -0.337935 -0.339919 -0.337935 -0.251084 -0.339147 -0.339919
          -0.337935 -0.339919 -0.339147 -0.411059 2.04142 2.03097
          2.00861 1.95549 2.04142 1.95549 2.00861 1.95943
          -0.337935 -0.313891 -0.37308 -0.339147 -0.339147 -0.337935
          -0.313891 -0.283796 -0.337935 -0.251084 -0.283796 -0.339147
          -0.266652 -0.251084 -0.283796 -0.337935 -0.337935 -0.266652
          -0.313891 -0.283796 1.92573 1.9288 1.91203 1.9288
          1.9288 1.92573 1.91203 1.92573 1.9288 1.92573
          1.93899 1.91203 1.91203 1.95795 1.93899 1.9288
          1.92573 1.93899 1.91203 1.94003 1.92573 1.94003
          1.91203 1.92573 1.91203 1.94003 1.90816 1.92573
          1.91203 1.93899 1.90816 1.94003 1.91203 1.84313
          1.81382 1.90057 1.91203 1.84313 1.90057 1.91649
          1.03886 0.860861 0.920525 0.858087 0.920525 0.781435
          0.858087 0.860861 0.920525 0.655168 0.781435 0.860861
          0.828881 0.655168 0.781435 0.920525 0.956597 0.781435
          0.858087 0.920525 0.920525 0.956597 1.01471 0.858087
          0.956597 1.01471 1.05637 0.920525 0.956597 1.05637
          1.13145 0.920525 -1.13227 -1.13874 -1.14588 -1.13408
          0.506003 0.490675 0.483109 0.409391 0.360895 0.409391
          0.483109 0.288513 -0.0379752 0.00567184 -0.176552 0.025035
          -0.0221902 -0.0630469 0.0473313 -0.0977819 -0.181104 -0.0977819
          -0.0630469 -0.0221902 -0.181104 -0.0977819 -0.239155 -0.179374
          -0.181104 -0.179374 -0.0630469 -0.0977819 -0.0977819 -0.0630469
          -0.0379752 -0.179374 -0.0977819 -0.0630469 0.0473313 -0.0379752
          -0.030091 -0.0430308 -0.0646586 -0.0342029 -0.0963933 -0.0791758
          -0.0646586 -0.0944656 -0.104373 -0.103565 -0.0822399 -0.156252
          -0.0401906 -0.0492764 -0.024542 -0.0426216 -0.845827 -0.800314
          -0.830437 -0.794661 -0.381395 -0.372721 -0.467039 -0.455721
          -0.461085 -0.381395 -0.467039 -0.455721 -0.461085 -0.372721
          -0.381395 -0.455721 -0.381395 -0.332616 -0.310567 -0.372721
          0.608061 0.416224 0.514661 0.490675 -1.0176 -0.961593
          -0.984145 -0.985129 -1.11049 -1.11972 -1.12877 -1.13067
          -1.11049 -1.11972 -1.13067 -1.12711 -1.13067 -1.11972
          -1.13799 -1.12711 -1.13067 -1.12711 -1.13799 -1.13421
          -1.13067 -1.13799 -1.13884 -1.13421 -1.13595 -1.13067
          -1.13884 -1.13421 -1.13595 -1.12711 -1.13067 -1.13421
          -1.13067 -1.13799 -1.13564 -1.13884 1.76111 1.71781
          1.78898 1.88195 1.83094 1.88195 1.71781 1.76111
          1.69668 1.71781 1.64719 1.76111 -0.262841 -0.217498
          -0.212325 -0.0882344 -0.217498 -0.262841 -0.212325 -0.323366
          -0.217498 -0.212325 -0.379886 -0.323366 -0.217498 -0.212325
          -0.290885 -0.379886 -0.212325 -0.290885 -0.158079 -0.217498
          -0.212325 -0.217498 -0.158079 -0.0882344 1.3809 1.23858
          1.36561 1.38557 -0.212325 -0.22772 -0.158079 -0.290885
          -0.22772 -0.379886 -0.290885 -0.212325 -0.379886 -0.22772
          -0.42142 -0.212325 -0.379886 -0.212325 -0.42142 -0.274683
          -0.274683 -0.379886 -0.212325 -0.262841 -0.212325 -0.262841
          -0.379886 -0.323366 -0.212325 -0.22772 -0.42142 -0.274683
          -0.274683 -0.22772 -0.161167 -0.212325 -0.888644 -0.917892
          -0.942546 -0.84867 -0.84867 -0.917892 -0.841647 -0.869098
          -0.850377 -0.79408 -0.764546 -0.84867 -0.850377 -0.84867
          -0.841647 -0.79408 1.95549 2.00861 1.94509 1.94817
          -0.752531 -0.847493 -0.803147 -0.849714 -1.13884 -1.13799
          -1.14815 -1.1506 -1.13799 -1.12877 -1.14815 -1.1506
          -1.13799 -1.12877 -1.1506 -1.1415 -1.14484 -1.1415
          -1.13799 -1.1506 -1.1506 -1.12877 -1.14815 -1.1415
          1.81382 1.71781 1.84313 1.74209 1.81382 1.84313
          1.7903 1.74209 1.74209 1.84313 1.7903 1.6753
          1.74209 1.71781 1.84313 1.6753 1.57455 1.71781
          1.74209 1.6753 1.57455 1.74209 1.62844 1.6753
          -1.12608 -1.13052 -1.12534 -1.10803 -1.10969 -1.13052
          -1.12608 -1.10803 -1.10969 -1.13052 -1.10803 -1.11163
          -1.10803 -1.13052 -1.12534 -1.11163 -1.10803 -1.11163
          -1.12534 -1.11282 -1.08953 -1.11163 -1.10803 -1.11282
          -0.954481 -0.961593 -1.01073 -0.956961 -0.993426 -1.04277
          -0.971224 -1.03428 -1.04277 -1.08627 -1.08134 -1.03428
          -1.04277 -1.08134 -1.06675 -1.03428 -1.04277 -1.06675
          -1.03123 -1.03428 -1.03428 -1.04277 -0.971224 -1.03123
          0.353601 0.49707 0.54982 0.377404 0.503453 0.54136
          0.49707 0.54982 0.420265 0.54136 0.375367 0.49707
          -1.1349 -1.12962 -1.12899 -1.13595 -1.1349 -1.12692
          -1.12899 -1.12962 1.86394 1.83094 1.89904 1.78754
          1.89904 1.83282 1.86394 1.78754 1.89904 1.83282
          1.88582 1.86394 -0.0278639 0 -0.0342029 -0.030091
          0 0 -0.0342029 -0.030091 0 -0.00647402
          -0.0342029 -0.030091 -0.0342029 -0.00647402 -0.0484198 -0.030091
          -0.394513 -0.375043 -0.33122 -0.323621 0.377404 0.54982
          0.353601 0.469028 0.377404 0.483109 0.291124 0.303109
          -0.156252 -0.24717 -0.19082 -0.191247 -0.154028 -0.156252
          -0.191247 -0.146496 0.490675 0.391246 0.288513 0.409391
          0.252378 0.420265 0.375367 0.273135 0.273135 0.146292
          0.252378 0.303109 0.252378 0.273135 0.259453 0.0779313
          0.148091 0.273135 0.353601 0.377404 -0.0278639 -0.0389618
          0 -0.0580352 -0.0278639 0 0 -0.0389618
          -0.0389618 0 0 -0.0580352 1.33583 1.1531
          1.31556 1.29245 1.24082 1.1531 1.31556 1.33583
          1.24082 1.1531 1.16605 1.31556 1.31556 1.1531
          1.16605 1.29245 -0.830822 -0.876853 -0.880859 -0.811141
          -0.830822 -0.922852 -0.958737 -0.876853 -0.830822 -0.797427
          -0.922852 -0.876853 -0.876853 -0.797427 -0.761579 -0.830822
          -0.876853 -0.830822 -0.761579 -0.790747 -0.830822 -0.75319
          -0.797427 -0.761579 -0.830822 -0.707837 -0.75319 -0.761579
          -0.143068 -0.0840872 -0.173142 0.0195096 -0.850377 -0.764546
          -0.74553 -0.720252 -0.74553 -0.764546 -0.598024 -0.720252
          -0.720252 -0.764546 -0.598024 -0.609731 -0.609731 -0.699179
          -0.720252 -0.764546 -0.609731 -0.699179 -0.680571 -0.720252
          -0.680571 -0.720252 -0.699179 -0.79408 -0.720252 -0.764546
          -0.699179 -0.79408 2.08832 2.02507 2.0408 2.04554
          2.08832 2.09747 2.0408 2.02507 2.09406 2.02507
          2.0408 2.09747 2.09406 2.02504 2.02507 2.09747
          2.09406 2.02504 1.9791 2.02507 2.09406 1.9791
          2.0408 2.02507 1.9791 2.02504 2.02495 2.02507
          1.98205 1.9791 2.02495 2.02507 2.02507 2.02504
          2.02495 2.09747 -1.06016 -1.09202 -1.08431 -1.0551
          -1.0335 -1.06016 -1.08431 -1.0551 -1.08431 -1.0335
          -1.06714 -1.06016 -1.06016 -1.0663 -1.09202 -1.0551
          -0.989246 -0.971224 -1.03123 -0.971894 -1.03184 -1.06388
          -1.08662 -1.0665 -1.03184 -1.08662 -1.05963 -1.0665
          -1.03184 -1.06388 -1.05963 -1.08662 -1.05959 -1.08662
          -1.05963 -1.06388 -1.05959 -1.10963 -1.08662 -1.06388
          -1.08662 -1.10963 -1.05959 -1.09673 -1.08662 -1.10963
          -1.09497 -1.06388 -1.09497 -1.12213 -1.10963 -1.08662
          -1.0665 -1.05963 -1.09164 -1.08662 -1.08662 -1.05963
          -1.09164 -1.08253 -1.04914 -1.08344 -1.07206 -1.06675
          1.95846 1.93412 1.9882 1.98846 1.93412 1.95795
          1.9882 1.98846 1.93412 1.91649 1.95795 1.98846
          0.832093 1.0193 1.03208 1.08346 0.988245 1.0193
          0.832093 1.08346 0.54982 0.49707 0.353601 0.469028
          -1.1089 -1.12197 -1.12128 -1.13564 -1.11165 -1.1089
          -1.12128 -1.13564 -1.11165 -1.1089 -1.13564 -1.12877
          -1.11165 -1.12197 -1.1089 -1.12877 -1.1089 -1.12197
          -1.13564 -1.12877 -0.326607 -0.449962 -0.375589 -0.236551
          -0.379639 -0.236551 -0.449962 -0.326607 -0.379639 -0.326607
          -0.449962 -0.378284 -0.236551 -0.326607 -0.151099 -0.223941
          -0.326607 -0.151099 -0.0678035 -0.236551 -0.212676 -0.151099
          -0.0678035 -0.326607 -0.326607 -0.305608 -0.212676 -0.151099
          -0.326607 -0.305608 -0.151099 -0.223941 -0.326607 -0.305608
          -0.329892 -0.212676 -1.00623 -1.03067 -1.01114 -0.976381
          -0.10608 -0.051575 -0.0535907 -0.100673 -0.10608 -0.0535907
          -0.0979218 -0.100673 0.68783 0.647563 0.781435 0.655168
          -0.49828 -0.548444 -0.595206 -0.614662 -0.527732 -0.476973
          -0.495461 -0.561488 -0.0535907 -0.0229973 -0.0401906 -0.0245388
          -0.503416 -0.49828 -0.595206 -0.614662 -0.103565 -0.0979218
          -0.0535907 -0.0791758 -0.103565 -0.0535907 -0.0430308 -0.0791758
          -0.0791758 -0.0430308 -0.0380729 -0.0535907 -0.258256 -0.264982
          -0.41916 -0.473971 -0.258256 -0.41916 -0.354446 -0.473971
          -0.382148 -0.41916 -0.49828 -0.354446 -0.700148 -0.643321
          -0.637707 -0.590591 -0.395565 -0.514974 -0.48275 -0.403315
          -0.651747 -0.700148 -0.637707 -0.590591 -0.667253 -0.704614
          -0.637707 -0.630091 1.9455 1.88195 1.91649 1.91948
          1.9455 1.95795 1.91948 1.91649 1.9455 1.95795
          1.9882 1.91948 1.91948 1.95795 1.9882 1.93412
          1.95846 1.91948 1.9882 1.93412 1.95846 1.91948
          1.93412 1.89347 1.93412 1.89347 1.91948 1.83094
          1.93412 1.91948 1.91649 1.83094 1.91948 1.95795
          1.93412 1.91649 1.91948 1.91649 1.83094 1.88195
          1.91948 1.88195 1.83094 1.85599 1.89347 1.91948
          1.83094 1.85599 0.0779313 0.0687832 0.252378 0.148091
          0.0779313 0.0687832 0.148091 -0.0630469 -0.0221902 -0.0630469
          0.0779313 0.0473313 -0.0379752 -0.0630469 0.0779313 0.106764
          0.0779313 0.148091 0.025035 -0.0630469 -0.150911 -0.154028
          -0.179655 -0.175074 -0.150911 -0.0979218 -0.103565 -0.154028
          -0.0979218 -0.154028 -0.150911 -0.175074 -0.667253 -0.637707
          -0.563079 -0.630091 1.62788 1.71521 1.6896 1.6395
          1.62788 1.59758 1.70571 1.71521 1.60442 1.59758
          1.70571 1.62788 1.62788 1.60442 1.70657 1.70571
          -1.13275 -1.13379 -1.12862 -1.14115 -1.13275 -1.12862
          -1.12932 -1.14115 -0.630091 -0.641354 -0.560799 -0.660161
          -0.630091 -0.560799 -0.565742 -0.660161 -0.641354 -0.543652
          -0.630091 -0.560799 -0.958975 -0.93618 -1.0015 -1.0007
          -1.13538 -1.12909 -1.12188 -1.12604 -0.958975 -0.920145
          -0.93618 -1.0007 -0.432786 -0.449962 -0.375589 -0.326607
          -0.305608 -0.432786 -0.375589 -0.326607 -0.326607 -0.329892
          -0.305608 -0.432786 0.106764 0.233816 0.240111 0.168031
          -1.13227 -1.13408 -1.14588 -1.13884 0.148091 0.353601
          0.240111 0.233816 0.377404 0.353601 0.148091 0.233816
          0.377404 0.353601 0.233816 0.282314 0.282314 0.469028
          0.353601 0.233816 0.282314 0.469028 0.233816 0.363125
          0.233816 0.469028 0.353601 0.363125 0.353601 0.363125
          0.240111 0.233816 0.233816 0.363125 0.240111 0.168031
          2.04711 2.11494 2.08402 2.11053 2.04718 2.04711
          2.08402 2.11053 2.04718 2.11494 2.04711 2.11053
          2.04718 2.11494 2.07562 2.04711 -0.0540615 -0.0698736
          -0.0484198 -0.0822399 2.04711 2.04031 2.07562 2.00861
          2.11494 2.04031 2.04711 2.00861 2.00861 2.11979
          2.04711 2.11494 2.00861 2.11979 2.04142 2.04711
          2.04711 2.11979 2.04142 2.11494 2.11494 2.04031
          2.07562 2.04711 1.38913 1.4291 1.44533 1.28935
          1.38913 1.28935 1.44533 1.29336 1.29336 1.1614
          1.38913 1.28935 2.05199 2.12329 2.07781 2.13214
          2.07781 2.12329 2.13995 2.13214 -0.953749 -0.949907
          -0.90005 -0.998765 -0.953749 -0.998765 -0.90005 -0.960625
          -0.953749 -0.90005 -0.935717 -0.960625 -0.953749 -0.935717
          -0.997365 -0.960625 -1.00764 -0.953749 -0.997365 -0.960625
          -1.00764 -0.998765 -0.953749 -0.960625 -1.00764 -0.935717
          -0.997365 -0.953749 -0.449962 -0.379639 -0.553598 -0.510283
          -0.449962 -0.379639 -0.510283 -0.410816 -0.510283 -0.379639
          -0.553598 -0.410816 -0.394325 -0.313891 -0.37308 -0.337935
          -0.371997 -0.313891 -0.394325 -0.337935 -0.174494 -0.225044
          -0.211183 -0.19697 -0.174494 -0.19697 -0.211183 -0.262145
          -1.13275 -1.12604 -1.13538 -1.10846 -1.13538 -1.13275
          -1.12909 -1.12604 -1.12932 -1.13275 -1.13538 -1.10846
          -1.13538 -1.12604 -1.12188 -1.10846 -1.12932 -1.13538
          -1.12188 -1.10846 -1.12932 -1.14115 -1.13538 -1.13275
          -0.962722 -0.93618 -0.873521 -0.966454 -0.966454 -0.93618
          -0.873521 -0.907578 -0.93618 -0.868497 -0.873521 -0.907578
          -0.962722 -0.958975 -0.875966 -0.93618 -0.93618 -0.920145
          -0.943555 -1.0007 -1.0015 -0.93618 -0.943555 -1.0007
          -0.93618 -0.920145 -0.865373 -0.943555 -0.394055 -0.325622
          -0.384602 -0.277549 -0.394055 -0.395732 -0.325622 -0.277549
          -0.867817 -0.895068 -0.961802 -0.876171 -0.961802 -0.867566
          -0.895068 -0.867817 -0.867817 -0.800895 -0.79789 -0.774606
          0.0174048 0.0687832 0.0779313 -0.0630469 1.3809 1.38557
          1.36561 1.52233 -0.0882344 -0.00656958 0.0640076 0.00567184
          0.025035 -0.0882344 0.0640076 0.00567184 0.025035 0.0640076
          0.164546 0.00567184 0.0640076 -0.00656958 0.164546 0.00567184
          0.0640076 -0.00656958 0.195354 0.164546 0.215311 0.0640076
          0.195354 0.164546 0.0640076 0.0844741 0.215311 0.157778
          -0.310567 -0.332616 -0.279389 -0.319843 -0.760049 -0.720252
          -0.664582 -0.702508 -0.760049 -0.720252 -0.702508 -0.788346
          -0.760049 -0.788346 -0.702508 -0.762226 -0.279389 -0.332616
          -0.257693 -0.319843 -0.279389 -0.319843 -0.257693 -0.248114
          -1.02112 -1.02696 -1.0667 -1.03468 -1.08441 -1.02112
          -1.0667 -1.03468 -1.02112 -1.08441 -1.09322 -1.03468
          -1.0698 -1.02112 -1.09322 -1.03468 -1.0698 -1.02112
          -1.03468 -1.01657 -1.0698 -1.04012 -1.02112 -1.01657
          -1.0698 -1.04012 -1.08441 -1.02112 -1.0698 -1.08441
          -1.09322 -1.02112 -1.04012 -1.02696 -1.08441 -1.02112
          -1.08441 -1.02696 -1.0667 -1.02112 -1.03468 -1.02112
          -0.992494 -1.01657 -1.01657 -1.02112 -0.992494 -0.943555
          -1.01657 -0.966454 -1.02112 -0.943555 -1.02112 -0.966454
          -1.01657 -1.0015 -1.02112 -0.966454 -0.992494 -0.943555
          -1.02112 -0.93916 -0.992494 -0.966454 -1.02112 -0.93916
          -0.966454 -0.974703 -1.02112 -0.966454 -1.02577 -0.974703
          -0.77883 -0.791267 -0.75591 -0.7108 -0.7108 -0.700307
          -0.75591 -0.77883 -0.593398 -0.748962 -0.62348 -0.551896
          -0.62348 -0.510283 -0.593398 -0.551896 -0.62348 -0.449962
          -0.510283 -0.551896 -0.62348 -0.449962 -0.551896 -0.621601
          -0.621601 -0.748962 -0.551896 -0.62348 -0.621601 -0.748962
          -0.678307 -0.551896 -0.594233 -0.621601 -0.678307 -0.551896
          -0.594233 -0.547456 -0.551896 -0.678307 -0.551896 -0.594233
          -0.621601 -0.573164 -0.510283 -0.449962 -0.375589 -0.551896
          -0.593398 -0.510283 -0.375589 -0.551896 -0.225044 -0.19697
          -0.174494 -0.171628 -0.225044 -0.205618 -0.19697 -0.171628
          -0.171628 -0.205618 -0.19697 -0.135516 -0.171628 -0.19697
          -0.174494 -0.135516 -0.19697 -0.135516 -0.15829 -0.174494
          -0.19697 -0.15829 -0.230557 -0.174494 -0.19697 -0.225044
          -0.211183 -0.262145 -0.262145 -0.182455 -0.216222 -0.19697
          -0.201846 -0.205618 -0.19697 -0.266283 -0.19697 -0.201846
          -0.266283 -0.314081 -0.19697 -0.201846 -0.314081 -0.286805
          -0.470608 -0.460818 -0.394513 -0.375043 -0.470608 -0.394513
          -0.375156 -0.375043 -0.470608 -0.375043 -0.375156 -0.476973
          -0.470608 -0.460818 -0.375043 -0.476973 -0.375043 -0.439577
          -0.40716 -0.346252 -0.375043 -0.439577 -0.346252 -0.372606
          -0.346252 -0.375043 -0.372606 -0.280035 -0.346252 -0.272863
          -0.375043 -0.280035 -0.346252 -0.33122 -0.375043 -0.272863
          -0.375043 -0.272863 -0.33122 -0.323621 -0.375043 -0.323621
          -0.313891 -0.272863 -0.375043 -0.314918 -0.280035 -0.272863
          -0.372606 -0.314918 -0.280035 -0.375043 -0.806808 -0.801634
          -0.868497 -0.875966 -0.806808 -0.770226 -0.868497 -0.801634
          -0.174494 -0.10608 -0.15829 -0.150911 -0.149544 -0.150911
          -0.0979218 -0.100673 1.73243 1.78754 1.82271 1.75653
          1.65267 1.78754 1.73243 1.75653 1.65267 1.69449
          1.73243 1.78754 1.51115 1.69449 1.73243 1.65267
          -0.10608 -0.103565 -0.15829 -0.150911 -0.10608 -0.103565
          -0.150911 -0.0979218 -0.150911 -0.10608 -0.0979218 -0.100673
          -1.12213 -1.11628 -1.11463 -1.12862 -1.12213 -1.11463
          -1.12932 -1.12862 -0.319843 -0.281814 -0.313497 -0.385426
          -0.372721 -0.319843 -0.313497 -0.385426 -0.313497 -0.371997
          -0.372721 -0.385426 -0.319843 -0.281814 -0.385426 -0.366911
          -0.385426 -0.281814 -0.389929 -0.366911 -0.385426 -0.366911
          -0.389929 -0.504466 -0.385426 -0.366911 -0.504466 -0.487029
          -0.161167 -0.158079 -0.0723265 -0.212325 -0.390274 -0.433246
          -0.361431 -0.354419 0.475347 0.481869 0.491304 0.386022
          0.481869 0.453197 0.491304 0.386022 0.491304 0.453197
          0.25432 0.386022 1.88582 1.89904 1.90131 1.83282
          1.90131 1.89904 1.90057 1.83282 0.386022 0.291124
          0.453197 0.288513 -0.0979218 -0.058432 -0.0861697 -0.100673
          -0.0979218 -0.0599512 -0.058432 -0.100673 -0.0599512 -0.058432
          -0.0535907 -0.0979218 -0.0599512 -0.0401906 -0.0535907 -0.058432
          -0.058432 -0.0401906 -0.0861697 -0.0599512 -0.058432 -0.0599512
          -0.0861697 -0.100673 -0.0401906 -0.0535907 -0.058432 -0.0229973
          -0.0143042 -0.0229973 -0.0401906 -0.058432 -0.0143042 -0.0229973
          -0.058432 -0.0380729 -0.058432 -0.0143042 -0.0380729 -0.0667112
          -0.058432 -0.0535907 -0.0380729 -0.0229973 -0.0791758 -0.0535907
          -0.0380729 -0.058432 -0.0791758 -0.0535907 -0.058432 -0.0979218
          -0.354446 -0.264982 -0.258514 -0.382148 -0.354446 -0.264982
          -0.382148 -0.41916 -0.264982 -0.143068 -0.258514 -0.382148
          -0.382148 -0.323724 -0.423532 -0.258514 -0.568469 -0.552338
          -0.612851 -0.527732 -0.568469 -0.552338 -0.527732 -0.476973
          -0.552338 -0.439577 -0.527732 -0.476973 -0.476973 -0.439577
          -0.527732 -0.495461 -0.998166 -1.03462 -1.06388 -1.01045
          -0.998166 -1.03462 -1.03505 -1.06388 -0.998166 -1.03505
          -1.03462 -0.951595 -1.03462 -1.03505 -1.03781 -0.951595
          -1.03462 -1.03781 -1.03505 -1.0707 -1.03462 -1.0707
          -1.03505 -1.06388 -1.01045 -1.03462 -1.01923 -0.985347
          -1.06445 -1.01051 -1.02135 -1.05123 -1.02948 -1.01051
          -1.05123 -1.02135 -1.04155 -1.02948 -1.05123 -1.02135
          -1.07335 -1.04155 -1.05123 -1.02135 -1.07335 -1.04155
          -1.02135 -1.01073 -1.02135 -1.01073 -1.0239 -1.07335
          -1.01073 -1.0239 -0.964579 -1.02135 -1.02135 -0.956961
          -0.964579 -1.01073 -0.977787 -0.956961 -1.02135 -1.01073
          -1.02948 -0.977787 -1.02135 -1.01073 -1.04155 -1.02948
          -1.02135 -1.01073 -1.02948 -0.977787 -1.01051 -1.02135
          -0.977787 -0.956961 -0.964579 -1.02135 0.655168 0.514661
          0.490675 0.608061 0.655168 0.453197 0.490675 0.514661
          0.514661 0.655168 0.453197 0.491304 0.514661 0.361071
          0.491304 0.453197 0.514661 0.352982 0.361071 0.453197
          0.416224 0.352982 0.514661 0.453197 0.514661 0.416224
          0.453197 0.490675 0.514661 0.463576 0.361071 0.352982
          0.647563 0.463576 0.550593 0.514661 1.78754 1.69449
          1.80015 1.7537 -0.467039 -0.461085 -0.507901 -0.569304
          -0.467039 -0.461085 -0.455721 -0.507901 -0.461085 -0.410748
          -0.455721 -0.507901 -0.410748 -0.415527 -0.455721 -0.507901
          -0.455721 -0.415527 -0.487029 -0.507901 -0.630091 -0.507901
          -0.569304 -0.563079 -0.560799 -0.507901 -0.630091 -0.563079
          -0.560799 -0.543652 -0.630091 -0.507901 -0.630091 -0.543652
          -0.569304 -0.507901 -0.685864 -0.62348 -0.553598 -0.586159
          -0.685864 -0.62348 -0.586159 -0.593398 -0.691136 -0.593398
          -0.685864 -0.586159 -0.691136 -0.699613 -0.586159 -0.685864
          -0.586159 -0.62348 -0.510283 -0.593398 -0.586159 -0.62348
          -0.553598 -0.510283 -0.586159 -0.510283 -0.553598 -0.410816
          -0.470608 -0.516463 -0.371997 -0.394325 -0.394325 -0.380621
          -0.371997 -0.470608 -0.394325 -0.313891 -0.371997 -0.380621
          -0.862268 -0.84867 -0.760049 -0.843822 -0.862268 -0.843822
          -0.942546 -0.84867 -0.862268 -0.942546 -0.936452 -0.84867
          -0.862268 -0.84867 -0.936452 -0.850377 -0.84867 -0.917892
          -0.936452 -0.850377 -0.850377 -0.917892 -0.841647 -0.84867
          -0.942546 -0.917892 -0.936452 -0.84867 -0.843822 -0.892945
          -0.942546 -0.84867 -0.843822 -0.788346 -0.84867 -0.760049
          -0.788346 -0.720252 -0.84867 -0.760049 -0.788346 -0.720252
          -0.79408 -0.84867 -0.84867 -0.79408 -0.764546 -0.720252
          -0.84867 -0.720252 -0.74553 -0.760049 -0.80429 -0.86543
          -0.737575 -0.796305 -0.80429 -0.839382 -0.737575 -0.86543
          -0.86543 -0.839382 -0.737575 -0.796305 0.196126 0.224806
          0.352982 0.288513 0.224806 0.288513 0.196126 0.102868
          0.224806 0.102868 0.105101 0.288513 -1.06675 -1.11282
          -1.07206 -1.09393 -1.06675 -1.09393 -1.07206 -1.05959
          0.070095 0.0941603 0.25432 0.224806 1.82278 1.83282
          1.8842 1.90131 1.93833 1.8842 1.90131 1.94509
          1.93833 1.90131 1.95943 1.94509 1.93833 1.8842
          1.95943 1.90131 1.95549 1.95943 1.90131 1.94509
          1.95539 1.95943 1.90131 1.95549 0.215311 0.223329
          0.282314 0.338667 0.215311 0.0844741 0.282314 0.223329
          0.223329 0.105877 0.0844741 0.282314 0.338667 0.282314
          0.386022 0.223329 0.338667 0.386022 0.25432 0.223329
          0.224806 0.105877 0.223329 0.291124 -1.08253 -1.08662
          -1.05963 -1.07206 -1.08253 -1.08662 -1.07206 -1.10666
          -1.09393 -1.08662 -1.10666 -1.07206 -1.07206 -1.11282
          -1.10666 -1.09393 -1.09393 -1.08662 -1.07206 -1.05959
          1.94817 2.01143 2.04031 2.01221 1.94817 2.01221
          2.04031 2.00861 1.94817 2.01221 2.00861 1.95211
          1.94817 2.01143 2.01221 1.95211 -0.0698736 -0.103565
          -0.0430308 -0.0791758 -0.0698736 -0.0430308 -0.0646586 -0.0791758
          -0.0963933 -0.0698736 -0.0646586 -0.0791758 -0.0963933 -0.103565
          -0.0698736 -0.0791758 -0.0698736 -0.0342029 -0.0430308 -0.0665337
          -0.0698736 -0.0490048 -0.0342029 -0.0665337 -0.800314 -0.830437
          -0.775399 -0.718463 -0.024542 -0.0426216 -0.0122043 -0.0143042
          -0.143159 -0.0800788 -0.084285 -0.129841 -0.143159 -0.123609
          -0.084285 -0.0800788 -0.084285 -0.0861697 -0.0800788 -0.123609
          -0.084285 -0.0861697 -0.0492764 -0.0800788 -0.0800788 -0.0861697
          -0.0492764 -0.123609 -0.895268 -0.830437 -0.775399 -0.847736
          -0.895268 -0.791267 -0.775399 -0.830437 -0.895268 -0.885602
          -0.791267 -0.830437 -0.895268 -0.887682 -0.885602 -0.830437
          -0.887682 -0.89299 -0.885602 -0.830437 -0.885602 -0.89299
          -0.794129 -0.830437 -0.830437 -0.885602 -0.791267 -0.794129
          -0.830437 -0.791267 -0.775399 -0.794129 -0.830437 -0.794129
          -0.775399 -0.700148 -0.718463 -0.830437 -0.775399 -0.700148
          -0.606738 -0.543667 -0.563079 -0.467039 -0.543667 -0.467039
          -0.460253 -0.563079 -0.606738 -0.651747 -0.637707 -0.543667
          -0.395565 -0.48275 -0.380621 -0.375156 -0.447808 -0.48275
          -0.380621 -0.395565 -0.361431 -0.447808 -0.380621 -0.395565
          -0.433246 -0.447808 -0.361431 -0.395565 -0.433246 -0.48275
          -0.447808 -0.395565 -0.433246 -0.514974 -0.48275 -0.395565
          -0.395565 -0.314918 -0.372606 -0.375156 -0.395565 -0.375156
          -0.372606 -0.476973 -0.395565 -0.372606 -0.403315 -0.476973
          -0.403315 -0.395565 -0.318496 -0.372606 -0.403315 -0.354419
          -0.318496 -0.395565 -0.395565 -0.354419 -0.318496 -0.314918
          -0.395565 -0.314918 -0.318496 -0.372606 -0.212325 -0.158079
          -0.0723265 -0.0882344 -0.212325 -0.262841 -0.0882344 -0.0723265
          -0.0723265 -0.262841 -0.0882344 -0.0956363 -0.0723265 0.0941603
          -0.00516023 0.0434342 0.0473313 0.0779313 0.140069 0.240111
          0.0473313 0.106764 0.0779313 0.240111 0.106764 0.0779313
          0.240111 0.233816 0.106764 0.148091 0.0779313 0.233816
          0.106764 0.148091 0.025035 0.0779313 0.0779313 0.148091
          0.240111 0.233816 0.148091 0.240111 0.353601 0.0779313
          0.148091 0.0779313 0.353601 0.259453 0.0779313 0.240111
          0.353601 0.259453 0.0779313 0.240111 0.259453 0.140069
          0.833553 1.03208 1.04712 0.934743 0.934743 1.03208
          1.04712 1.03886 0.934743 1.14735 1.03886 1.04712
          0.934743 1.14735 1.01471 1.03886 0.934743 1.03886
          1.01471 0.858087 0.88187 0.934743 1.01471 0.858087
          0.88187 0.800478 0.934743 0.858087 0.934743 0.800478
          0.88187 0.807915 0.934743 0.800478 1.03886 0.858087
          0.800478 0.934743 1.03886 0.860861 0.800478 0.845586
          0.934743 0.860861 0.934743 0.845586 1.03886 0.860861
          0.934743 1.03208 1.03886 0.845586 -0.384524 -0.510283
          -0.410816 -0.375589 1.71521 1.83282 1.75653 1.81518
          1.71521 1.81518 1.75653 1.70571 1.71521 1.83282
          1.81518 1.70571 -0.962722 -0.961593 -1.0239 -0.954481
          -0.961593 -0.885602 -0.954481 -0.962722 -0.961593 -0.875966
          -0.954481 -0.885602 -0.961593 -0.875966 -0.890416 -0.954481
          -0.961593 -0.890416 -0.895268 -0.954481 -0.954481 -0.890416
          -0.895268 -0.885602 -0.954481 -0.885602 -0.895268 -0.887682
          -0.964579 -0.954481 -0.895268 -0.887682 -0.964579 -0.885602
          -0.954481 -0.887682 -0.964579 -0.954481 -0.885602 -0.89299
          -0.964579 -0.962722 -0.954481 -0.89299 -0.954481 -0.962722
          -0.885602 -0.89299 -0.954481 -0.875966 -0.890416 -0.885602
          2.06627 2.10138 2.13269 2.12329 2.06627 2.13269
          2.07781 2.12329 2.07781 2.06627 2.12329 2.05199
          2.06627 2.10138 2.12329 2.10279 2.06627 2.06131
          2.10138 1.98437 -1.10787 -1.07793 -1.08531 -1.11521
          -1.10787 -1.08531 -1.10792 -1.11521 -1.10666 -1.10787
          -1.08531 -1.10792 -1.10666 -1.08531 -1.07656 -1.10792
          -1.10666 -1.10787 -1.07656 -1.08531 -1.10787 -1.08765
          -1.07656 -1.08531 -1.07656 -1.07992 -1.10792 -1.08531
          -1.07656 -1.04742 -1.07992 -1.08531 -1.08531 -1.10792
          -1.11521 -1.09673 -1.11042 -1.10146 -1.09595 -1.09692
          -1.09692 -1.11313 -1.09595 -1.11042 -0.513482 -0.568469
          -0.561488 -0.476973 -0.470608 -0.476973 -0.513482 -0.460818
          -1.1077 -1.10969 -1.12608 -1.12406 -1.12406 -1.10969
          -1.10803 -1.1077 -1.11706 -1.10631 -1.11313 -1.12544
          -1.12608 -1.12544 -1.11313 -1.10631 -1.12608 -1.10631
          -1.11313 -1.10969 -1.10631 -1.10969 -1.12608 -1.1077
          -1.12544 -1.10631 -1.12608 -1.1077 -1.11313 -1.10631
          -1.09595 -1.10969 -1.11313 -1.10149 -1.09595 -1.10631
          -0.513482 -0.470608 -0.394325 -0.497885 -0.513482 -0.394325
          -0.42744 -0.497885 -0.394513 -0.394325 -0.42744 -0.513482
          -0.394513 -0.470608 -0.394325 -0.513482 -0.7108 -0.606738
          -0.657779 -0.643506 -0.0791758 -0.0278639 -0.0580778 -0.0380729
          -0.0791758 -0.0580778 -0.102152 -0.0380729 -0.0380729 -0.0667112
          -0.0580778 -0.102152 -0.0667112 -0.0380729 -0.0580778 -0.0123778
          -0.0667112 -0.0580778 -0.076386 -0.0123778 -0.0580778 -0.0667112
          -0.076386 -0.102152 -0.0580778 -0.0580352 -0.0278639 -0.0791758
          0.0687832 0.146292 0.273135 0.303109 0.0687832 0.146292
          0.252378 0.273135 0.303109 0.420265 0.273135 0.503453
          0.303109 0.273135 0.377404 0.503453 0.273135 0.303109
          0.377404 0.291124 0.377404 0.273135 0.353601 0.503453
          0.273135 0.503453 0.49707 0.353601 0.273135 0.49707
          0.375367 0.353601 0.273135 0.353601 0.375367 0.259453
          0.273135 0.148091 0.353601 0.259453 0.273135 0.148091
          0.259453 0.0779313 0.420265 0.49707 0.375367 0.273135
          0.420265 0.503453 0.49707 0.273135 -1.10889 -1.12962
          -1.13081 -1.11451 -1.12962 -1.11504 -1.11451 -1.10889
          -0.722719 -0.643288 -0.75319 -0.707837 -0.722719 -0.707837
          -0.75319 -0.830822 -0.722719 -0.641772 -0.643288 -0.707837
          -0.722719 -0.667561 -0.641772 -0.718463
        </DataArray>
        <DataArray type="Float64" Name="u0" format="ascii" RangeMin="-0.133267" RangeMax="0.726014">
          0.477379 0.526269 0.576506 0.407349 0.233984 0.257074
          0.238684 0.158016 0.172928 0.177514 0.160153 0.187816
          0.332843 0.267714 0.320388 0.298409 0.195518 0.198264
          0.339176 0.128655 0.0922398 0.0550265 0.110876 0.11213
          -0.0414189 0.044791 0.128366 0.0477449 0.457526 0.319383
          0.335556 0.387815 0.283203 0.18332 0.269246 0.234576
          0.00229256 -0.0323988 -0.0606808 0.00815519 0.101692 0.15145
          0.0297149 0.109161 0.00765813 0.0140221 0.028315 0.0441782
          0.168965 0.121469 0.145625 0.112132 0.458089 0.373718
          0.461908 0.526642 0.128655 0.195518 0.198264 0.13459
          0.0209038 -0.0607624 -0.0277683 0.0130412 0.542925 0.40384
          0.491887 0.496235 0.244295 0.181637 0.240642 0.30705
          0.286155 0.237825 0.371903 0.212402 0.180739 0.079169
          0.13282 0.071029 0.701053 0.542691 0.709038 0.705183
          -0.000164951 0.0127683 -0.0801759 -0.0303082 0.45466 0.411928
          0.36166 0.438328 0.230729 0.30705 0.349309 0.253788
          0.217421 0.113519 0.0960629 0.201068 0.130689 0.286155
          0.148226 0.212402 0.169372 0.164186 0.1666 0.17279
          -0.0515571 -0.0801759 -0.000164951 -0.0648303 0.181922 0.180506
          0.193758 0.193318 0.145403 0.099324 0.143686 0.0761817
          0.153728 0.308892 0.374364 0.261654 0.392601 0.332754
          0.244295 0.30705 0.372622 0.257074 0.336885 0.343916
          0.245953 0.197806 0.249546 0.219527 0.193335 0.0771466
          0.16105 0.105463 0.390222 0.394078 0.311359 0.399113
          0.0771644 0.106287 0.118271 0.123387 0.372622 0.351173
          0.317734 0.402724 0.388864 0.417589 0.446707 0.354887
          0.270667 0.272421 0.230411 0.196196 0.0857983 0.105195
          0.113962 0.0209038 0.344774 0.337729 0.278739 0.245796
          0.198264 0.206908 0.112681 0.0824626 0.388683 0.238844
          0.345197 0.476062 0.054551 0.10116 0.0247339 0.109161
          0.16486 0.185367 0.187662 0.096068 0.08759 0.0127683
          0.0452458 0.0166565 0.168965 0.165532 0.194202 0.145625
          0.20704 0.12317 0.311949 0.141115 0.0470043 0.00554623
          0.0486358 -0.00718751 -0.0280559 0.0256823 0.055218 0.00286609
          0.348094 0.368133 0.277479 0.304318 0.254776 0.188752
          0.261824 0.185038 0.334286 0.500981 0.326886 0.44205
          -0.1189 -0.127933 -0.0658888 -0.0681067 0.185038 0.263276
          0.251392 0.209323 0.17279 0.147967 0.166518 0.153
          0.238887 0.20182 0.196263 0.207944 0.19703 0.193335
          0.16105 0.105463 0.474926 0.394078 0.390222 0.399113
          -0.128932 -0.0818359 -0.00588535 -0.0449147 0.17137 0.129918
          0.126494 0.143934 0.0389992 -0.0219125 0.00182079 0.00904144
          0.240259 0.228727 0.218194 0.235505 0.124865 0.181637
          0.117851 0.00800832 0.274181 0.274841 0.206243 0.19703
          0.26683 0.258238 0.264919 0.158713 0.0509295 -0.0401972
          0.0360046 -0.0161619 0.279769 0.211578 0.389827 0.261534
          0.193506 0.193506 0.311359 0.193506 0.245603 0.206809
          0.17137 0.194464 -0.102932 -0.0607624 -0.0885361 -0.0423323
          0.0019014 -0.000539383 0 -0.00257965 0.24366 0.208244
          0.208914 0.229005 0.0824626 -0.04001 0.198264 -0.0474617
          0.44217 0.372622 0.480373 0.45466 -0.0194793 0.170346
          0.00285029 0.131058 0.265826 0.208235 0.214937 0.280936
          0.0222848 0 0.0484699 0 0.171435 0.117393
          0.160153 0.169675 0.311949 0.189242 0.329965 0.141115
          0.198264 0.279769 0.112681 0.206908 0.376374 0.280536
          0.364843 0.334915 0.372622 0.3056 0.257074 0.238684
          0.151948 0.215795 0.235265 0.225716 0.347585 0.280415
          0.320388 0.286476 0.288575 0.27592 0.23471 0.235505
          0.279769 0.261534 0.389827 0.394227 0.112536 0.152232
          0.0665477 0.170921 0.0578659 -0.0161619 0.0470197 -0.0382095
          -0.0296118 -0.0158408 0.101692 -0.00846173 0.404649 0.498836
          0.555537 0.482423 0.163265 0.285644 0.166401 0.327201
          0.496235 0.576437 0.643071 0.533951 0.409685 0.334286
          0.28116 0.484097 0.501687 0.524651 0.44968 0.463114
          0.0019014 0 0.00878838 -0.00257965 0.238844 0.186008
          0.361484 0.314863 -0.130076 -0.128186 -0.0538186 -0.131659
          0.104284 0.105195 0.134253 0.141866 -0.0288902 0.128974
          0.211578 0.119924 0.212652 0.0960629 0.120473 0.0874426
          0.181922 0.178948 0.172928 0.15795 0.270667 0.315947
          0.376374 0.280536 0.245953 0.197806 0.23176 0.249546
          0.253788 0.299053 0.349309 0.230729 0.103863 0.0915026
          0.13966 0.0660439 0.236272 0.201734 0.248905 0.22557
          0.151948 0.141866 0.156717 0.235265 0.187816 0.20182
          0.215453 0.207944 0.603837 0.555537 0.586206 0.712901
          0.250899 0.260191 0.248905 0.182197 0.130594 0.185762
          0.181637 0.0220962 0.208709 0.339227 0.389827 0.373715
          0.0360046 0.0774893 0.113946 0.0098671 -0.0557656 -0.0752176
          0.00945855 0.0547873 0.17471 0.16328 0.169372 0.180128
          0.137762 0.121689 0.117393 0.123209 0.24497 0.288575
          0.245796 0.23471 0.120681 0.106339 0.173956 0.129881
          0.150271 0.236193 0.158586 0.293607 0.118225 0.0740804
          0.0804219 0.0359931 0.250619 0.218066 0.218435 0.301902
          0.286476 0.280415 0.320388 0.267714 0.141866 0.216657
          0.225279 0.160769 0.234576 0.234576 0.234576 0.272421
          0.583709 0.483334 0.482423 0.374364 0.196052 0.16577
          0.169675 0.208914 0.110453 0.0486358 0.113767 0.169053
          -0.0194793 -0.0285253 0.12317 0.20704 0.476062 0.696654
          0.703544 0.641142 0.130874 0.0811437 0.145661 0.130043
          0.153352 0.141749 0.147967 0.134934 -0.127933 -0.052492
          -0.130076 -0.0658888 0.167554 0.179579 0.169372 0.154846
          -0.0171008 0.0358098 0.0374318 0.0279292 0.503551 0.540308
          0.460626 0.38689 -0.122119 0.00633645 -0.0443746 -0.0382095
          0.0509295 0.104284 0.0578659 0.0470197 0.203415 0.128366
          0.237981 0.0477449 0.345308 0.477178 0.374349 0.572815
          0.08759 0.0452458 0.0853681 0.0166565 0.121689 0.137762
          0.136467 0.16577 0.474926 0.441118 0.501895 0.458699
          -0.0280559 -0.00299887 -0.033664 0.0256823 0.399113 0.387815
          0.311359 0.282637 -0.119881 -0.127282 -0.126512 -0.0284574
          0.17425 0.28116 0.276125 0.409685 0.18286 0.159927
          0.166462 0.188625 0.282072 0.21655 0.319383 0.267912
          0.42471 0.454738 0.48037 0.376374 0.123689 0.157521
          0.239659 0.20433 -0.0115162 -0.0579892 -0.0748015 -0.0726572
          -0.0953438 -0.0382728 -0.0367899 -0.0354252 0.239659 0.20433
          0.253697 0.283765 0.185038 0.138454 0.209323 0.18506
          0.500108 0.368363 0.591099 0.564627 -0.0168768 0.0166565
          0.00633645 0.0740804 0.317615 0.465816 0.560566 0.445539
          -0.0401972 -0.127282 -0.0525861 -0.0284574 -0.0950276 -0.0748015
          -0.0354252 -0.0953438 0.118271 0.152649 0.118354 0.123387
          0.169053 0.172218 0.238033 0.21664 0.096068 0.0185148
          0.0642946 0.00945855 0.63083 0.542691 0.64176 0.697082
          0.237981 0.333142 0.329965 0.460286 0.215759 0.232606
          0.185334 0.216435 0.130689 0.286155 0.258244 0.148226
          0.27592 0.294977 0.240259 0.235505 0.521873 0.409685
          0.637193 0.61602 0.177787 0.184506 0.215759 0.185334
          0.603837 0.712901 0.586206 0.722095 -0.0126816 -0.0240264
          -0.00286052 0.00316235 0.339176 0.325379 0.371903 0.237825
          0.583484 0.474926 0.475228 0.542081 0.0636064 0.104284
          0.0107608 0.0470197 0.538118 0.460286 0.63083 0.542691
          0.237981 0.368946 0.314863 0.203415 0.44217 0.428379
          0.368133 0.328671 0.148992 0.167692 0.174612 0.177514
          0.238844 0.203415 0.186008 0.314863 0.566235 0.526269
          0.654031 0.576506 0.174612 0.177514 0.169153 0.148992
          0.376374 0.39061 0.452807 0.364843 0.152229 0.143377
          0.168346 0.152649 0.00229256 -0.0606808 -0.0432089 0.00815519
          0.0662192 0.0169673 0.10098 0.0389992 0.351173 0.257074
          0.253788 0.336885 0.517372 0.698744 0.554677 0.685457
          0.00800832 0.117851 -0.0186939 -0.0164584 0.147867 -0.0578161
          0.068297 0.0436386 0.217644 0.286476 0.238887 0.23471
          -0.0365595 -0.0748015 -0.0115162 -0.0367899 0.270667 0.230411
          0.280536 0.268785 0.129881 0.106339 0.160795 0.104619
          0.240274 0.270667 0.209067 0.165846 0.205207 0.173956
          0.203025 0.167174 0.589482 0.474926 0.475228 0.583484
          0.0358098 0.0774893 0.0374318 0.0279292 -0.106391 -0.125328
          -0.0323988 -0.0730244 0.317734 0.257074 0.3056 0.233984
          0.517372 0.554677 0.445539 0.500981 0.521873 0.484097
          0.384774 0.563634 0.249546 0.197806 0.207377 0.228412
          0.477178 0.345308 0.522672 0.472775 0.395388 0.299638
          0.301773 0.373718 0.185367 0.205372 0.26285 0.269312
          0.259363 0.18615 0.255679 0.251856 0.354887 0.289096
          0.265826 0.268413 -0.0148586 0.00765813 0 -0.0144841
          0.0486358 -0.00718751 -0.0327653 0.0360046 0.384774 0.273244
          0.409685 0.411463 0.0807397 0.136467 0.0714426 0.13712
          0.16486 0.096068 0.187662 0.117498 0.153352 0.164186
          0.17279 0.173 0.294959 0.270667 0.315947 0.376374
          0.0660439 0.145403 0.113962 0.0649561 0.432143 0.299053
          0.432326 0.368363 0.0540416 0.113946 0.105195 0.113962
          0.103863 0.0450981 0.0915026 0.0514415 0.472775 0.339227
          0.578844 0.424977 -0.0818359 -0.0538285 -0.0365529 0.0252257
          -0.0126816 -0.00286052 -0.0205164 0.0019014 -0.0525861 -0.0284574
          -0.0607624 -0.0277683 0.586206 0.583709 0.374364 0.441927
          -0.0277683 0.0098671 0.0155697 0.0279292 0.572815 0.698744
          0.702014 0.692943 0.3056 0.333011 0.328671 0.270998
          -0.0171008 -0.0525861 -0.0277683 0.0098671 0.217421 0.18332
          0.283203 0.166313 0.216435 0.194202 0.232606 0.185334
          0.0342889 0.0574409 0.028315 0.0140221 0.0435622 0.0508581
          0.0855231 0.0742282 0.10775 0.0642946 0.00945855 0.096068
          -0.000663582 0.121709 0.163265 -0.0131994 0.173041 0.211839
          0.195515 0.216435 0.376293 0.473613 0.345197 0.451127
          0.203415 0.112514 0.128366 0.0477449 0.348836 0.230729
          0.299053 0.277729 -0.0126816 -0.020548 -0.0240264 -0.0382728
          0.458089 0.373718 0.526642 0.499489 -0.0454728 -0.0606808
          -0.0432089 0.00229256 -0.0277683 0.0098671 0.0279292 -0.0354252
          -0.0331069 0.0185148 0.0359931 0.08759 0.0920557 0.0845877
          0.16914 0.117074 0.554677 0.44205 0.326886 0.500981
          0.701053 0.539956 0.709038 0.4665 0.217644 0.23471
          0.173956 0.180739 0.408602 0.343228 0.417589 0.390222
          0.0171941 0.163265 0.00285029 -0.000663582 0.0983943 0.0886722
          0.0512105 -0.061984 0.0642946 0.10775 0.105915 0.16486
          0.00878838 0.0174988 0.0452892 0.0547054 0.657557 0.520946
          0.658278 0.672307 0.270998 0.196052 0.217644 0.247711
          0.620367 0.526642 0.533699 0.599127 0.0957739 0.0922398
          0.143934 0.11213 0.0471266 0.0700022 0.0975126 0.0971336
          0.0607489 0.109537 0.13966 0.103863 -0.111952 -0.0443746
          -0.109993 -0.122119 0.533951 0.496235 0.516936 0.643071
          0.0130412 0.0098671 -0.0277683 0.0209038 0.695025 0.542925
          0.622191 0.555537 0.0827109 0.0313912 0.0975126 0.0471266
          0.054551 0.109161 0.15145 0.178872 0.343916 0.36166
          0.258765 0.278739 0.276521 0.308892 0.356278 0.153728
          0.121709 0.285644 0.163265 0.327201 0.209804 0.17973
          0.212652 0.0874426 0.112681 -0.04001 0.0824626 -0.0474959
          0.311359 0.335164 0.305763 0.193506 0.416411 0.492783
          0.277729 0.432143 0.183178 0.188423 0.19375 0.181922
          0 0 0.0222848 0 0.457526 0.387815
          0.404221 0.474926 0.315947 0.376374 0.395929 0.399897
          0.261654 0.364277 0.170346 0.163265 0.277729 0.416411
          0.217546 0.327877 -0.100392 -0.0482987 -0.0295207 -0.0501823
          -0.122095 -0.0538285 -0.0365529 -0.0818359 0.0107608 0.104284
          -0.0161619 0.0470197 0.17137 0.126494 0.185038 0.143934
          0.457526 0.474926 0.441118 0.501895 0.185762 0.130684
          0.136757 0.0220962 0.48037 0.376374 0.452807 0.364843
          -0.0481754 -0.0565269 -0.0568878 0.13459 -0.0525861 -0.0284574
          -0.119881 -0.0607624 0.0665477 0.110453 0.0470043 0.152232
          0.343916 0.258765 0.24453 0.260874 0.139827 0.0975126
          0.126155 0.130874 0.15297 0.267072 0.269356 0.187251
          0.0560741 0.0220962 0.130594 0.0250515 0.576437 0.666629
          0.533951 0.553382 0.129141 0.14902 0.147113 0.250628
          0.472775 0.424977 0.578844 0.710123 0.0470197 0.127111
          0.140684 0.057422 0.106287 0.140542 0.143848 0.152649
          0.188761 0.209323 0.261416 0.206243 -0.0401972 -0.128186
          -0.0161619 -0.0538186 -0.0186939 -0.0164584 0.117851 0.108892
          0.193506 0.267912 0.222369 0.21655 0.172928 0.175656
          0.181922 0.180128 0.0898911 0.141866 0.0636064 0.156717
          0.099324 0.0915026 0.0547054 0.0452892 0.307201 0.28116
          0.177901 0.334286 0.505653 0.422856 0.285644 0.420039
          0.709038 0.4665 0.578245 0.705183 0.0171941 0.153728
          0.163265 0.166401 0.0771644 0.0346219 0.0855231 0.0435622
          0.432143 0.46044 0.349309 0.348836 0.0250515 0.0566149
          0.130594 0.0560741 0.307201 0.177901 0.269518 0.257122
          0.170804 0.196263 0.169675 0.186348 0.491887 0.498836
          0.404649 0.349891 0.339176 0.371903 0.520384 0.416411
          0.111257 0.0644315 0.0802511 0.109537 0.491 0.581837
          0.552352 0.465399 0.509965 0.508874 0.461807 0.59459
          0.169053 0.212099 0.230366 0.134253 0.344774 0.337729
          0.286476 0.341916 0.508874 0.461908 0.395929 0.523184
          -0.127933 -0.128932 -0.052492 -0.0449147 -0.0327653 -0.0501823
          0.0390515 0.0374318 0.173193 0.0991233 0.125349 0.153858
          0.253788 0.136757 0.257074 0.225286 0.0774893 0.12311
          0.188511 0.166261 0.167692 0.181922 0.177514 0.172928
          0.553382 0.491887 0.576437 0.690279 0.351173 0.257074
          0.336885 0.372622 -0.0818359 0.0252257 -0.0365529 -0.00588535
          0.188423 0.171138 0.191011 0.180506 -0.0449147 -0.052492
          0.0470043 0.0536057 0.123339 0.0857983 0.105195 0.113962
          0.475228 0.383928 0.451908 0.474586 0.110453 0.116656
          0.134253 0.0360046 0.0477449 0.0845378 0.203415 0.112514
          0.209562 0.260874 0.156925 0.183089 0.181922 0.19375
          0.18229 0.191011 0.560566 0.465816 0.684195 0.527923
          0.480039 0.458699 0.584148 0.55343 0.538118 0.692943
          0.516531 0.572815 0.23471 0.288575 0.235505 0.203025
          0.244901 0.152232 0.238033 0.169053 0.0807397 0.0714426
          0.0758894 0.13712 0.15297 0.267072 0.269312 0.269356
          0.451127 0.553202 0.564165 0.551693 0 0
          0 0.0222848 0.589482 0.533699 0.565696 0.475228
          0.48037 0.39061 0.452807 0.376374 -0.126512 -0.132434
          -0.088756 -0.0513797 0.00613925 0.0100932 0.0244272 0.0277173
          0.153 0.139827 0.134934 0.130874 0.496235 0.542925
          0.576437 0.491887 0.110453 0.0486358 0.169053 0.116656
          0.528544 0.610188 0.48037 0.522544 0.136467 0.117393
          0.169675 0.154597 -0.0367899 -0.0126816 -0.0148586 -0.0115162
          0.551693 0.509302 0.376293 0.483334 0.477178 0.460286
          0.538118 0.542691 0.477178 0.702014 0.538118 0.572815
          0.17425 0.276125 0.147113 0.277729 0.238844 0.361484
          0.254887 0.345197 0.477379 0.349722 0.422856 0.346798
          0.244901 0.170921 0.238033 0.152232 0.28116 0.384774
          0.273244 0.409685 0.279769 0.325688 0.195943 0.206908
          0.0484699 0.0802511 0.0816611 0.0356243 0.0827109 0.139827
          0.130043 0.0975126 -0.0525861 -0.0401972 -0.0284574 0.0360046
          0.315947 0.399113 0.39061 0.317265 0.44968 0.463114
          0.446707 0.388864 0.17425 0.409685 0.276125 0.327877
          0.0289583 0.0252257 -0.0303082 -0.0538285 0.477178 0.702014
          0.522672 0.705183 0.0155697 0.0130412 -0.0277683 0.00316235
          0.476062 0.361484 0.553202 0.539956 0.134934 0.118174
          0.147967 0.0975126 -0.102932 -0.0885361 -0.0785707 -0.0423323
          0.26683 0.158713 0.193335 0.183164 0.153728 0.261654
          0.245913 0.202133 -0.0186939 -0.0327675 0.108892 -0.0453011
          0.257122 0.0887269 0.189242 0.113661 0.153 0.147967
          0.130874 0.134934 0.349309 0.421332 0.46044 0.432326
          0.0740804 0.187113 0.118225 0.183164 0.118271 0.143848
          0.152649 0.106287 0.209804 0.212652 0.120473 0.0874426
          0.348836 0.217546 0.230729 0.277729 0.232606 0.245603
          0.223532 0.19541 0.128655 0.198264 0.195909 0.112681
          0.583484 0.501895 0.474926 0.542081 0.151547 0.185334
          0.177787 0.19541 0.121709 0.163265 0.166401 -0.000663582
          0.16328 0.145661 0.173365 0.166462 -0.0648303 0.00945855
          -0.0840805 0.0127683 0.16486 0.10775 0.203472 0.096068
          0.10116 0.126057 0.158016 0.178872 -0.12951 -0.12508
          -0.122119 -0.0168768 -0.0148586 -0.0367899 -0.0485207 -0.020548
          0.0166565 -0.0303082 -0.0331069 0.0127683 0.328671 0.239659
          0.253697 0.283765 0.139017 0.130594 0.207633 0.167424
          0.128655 -0.0481754 0.13459 -0.0474617 0.373718 0.283203
          0.387594 0.299638 0.328671 0.304318 0.277479 0.253697
          0.564627 0.368363 0.591099 0.471473 0.181922 0.191011
          0.18229 0.193758 0.245603 0.206809 0.251392 0.224739
          0.225286 0.317734 0.268148 0.233984 0.0740804 -0.0168768
          0.0578659 0.00633645 0.0771466 0.118225 0.0359931 0.0185148
          0.0555938 0.10091 0.0708915 -0.000164951 0.188752 0.123149
          0.165532 0.182197 0.117877 0.0452458 0.0853681 0.08759
          0.364843 0.373512 0.39061 0.452807 0.675159 0.465399
          0.551926 0.540308 -0.000164951 -0.0840805 0.0127683 -0.0648303
          0.106339 0.173956 0.157308 0.120681 0.118271 0.151547
          0.143377 0.120011 -0.0538186 -0.0161619 0.0509295 -0.0382095
          0.277729 0.108892 0.327877 0.217546 0.217421 0.18332
          0.166313 0.113519 0.296311 0.229005 0.247711 0.235742
          0.0662192 -0.0120033 0.0389992 0.0577682 -0.0115162 0.00613925
          0.0100932 -0.0148586 -0.033115 0.0844691 -0.0321081 -0.0208577
          0.187816 0.215453 0.205207 0.207944 0.187662 0.08759
          0.118225 0.117498 0.695025 0.712901 0.603837 0.722095
          0.0102294 -0.0557656 0.00945855 0.0547873 0.147867 0.257122
          0.16556 0.330553 0.0714426 0.123689 0.13712 0.133288
          0.657557 0.673207 0.637193 0.502812 0.484097 0.657557
          0.637193 0.502812 0.0289583 -0.0538285 -0.0303082 -0.0460202
          0.124865 0.230729 0.181637 0.272319 0.388683 0.345197
          0.506516 0.476062 0.16914 0.233867 0.221732 0.205372
          0.139282 0.187113 0.0740804 0.183164 -0.0117854 0.00765813
          -0.0115162 -0.0144841 0.166462 0.16328 0.17471 0.180128
          0.209269 0.155598 0.163942 0.269246 0.376632 0.250628
          0.411463 0.368363 0.392657 0.335694 0.286476 0.341916
          0.096068 0.15297 0.185367 0.187662 0.516255 0.432167
          0.564627 0.540798 -0.0538186 -0.0401972 0.0509295 -0.0161619
          0.184506 0.216435 0.194202 0.173041 -0.0229897 -0.0284562
          0.141115 -0.0397156 0.399897 0.42471 0.495762 0.389267
          0.482423 0.374364 0.356278 0.441927 0.474926 0.394078
          0.404221 0.441118 0.0376237 0.0660439 0.00316235 0.0649561
          0.203472 0.188752 0.16486 0.185038 0.0471266 0.0348273
          0.0971336 0.0811437 0.317615 0.560566 0.394227 0.445539
          0.148011 0.221732 0.182197 0.16914 0.153352 0.147967
          0.141749 0.173 0.0389992 -0.0515571 -0.0219125 -0.0120033
          0.00316235 -0.0240264 -0.00286052 -0.00690965 0.0389992 0.0169673
          0.10091 0.0555938 0.387815 0.335164 0.394078 0.311359
          0.148028 0.148992 0.169153 0.129881 0.130874 0.118354
          0.158522 0.152229 0.286155 0.371903 0.258244 0.212402
          0.269312 0.203472 0.268345 0.260191 -0.0168768 -0.0365529
          -0.122119 -0.0443746 0.327877 0.28116 0.17425 0.409685
          0.0209038 -0.0607624 0.0130412 -0.0185362 -0.119881 -0.126512
          -0.0607624 -0.0284574 0.39061 0.390222 0.388864 0.317265
          0.343916 0.477897 0.421332 0.492079 0.253552 0.152232
          0.259363 0.244901 0.0829014 0.0758476 0.0356243 0.0644315
          0.260874 0.207633 0.24453 0.29765 0.539956 0.578245
          0.4665 0.564165 -0.0185965 -0.0284562 0.171797 -0.0229897
          0.225286 0.158016 0.233984 0.178872 0.104284 0.141866
          0.160769 0.156717 0.169372 0.166518 0.176707 0.175656
          -0.12508 -0.103051 -0.111952 -0.0365529 0.198031 0.18739
          0.205207 0.218194 0.203198 0.188423 0.201398 0.223532
          0.207633 0.226725 0.29765 0.260874 0.257413 0.240259
          0.206879 0.228412 0.0547873 -0.0584268 -0.0752176 0.00753187
          -0.0148586 -0.0367899 -0.0748015 -0.065013 0.130689 -0.00969368
          0.173799 -0.0186939 0.261654 0.308892 0.374364 0.327201
          0.40147 0.498836 0.349891 0.382239 -0.0326251 0.0845378
          0.186008 -0.0194793 0 0 0 0.00613925
          0.315947 0.280536 0.270667 0.230411 0.477379 0.422856
          0.566235 0.526269 0.404221 0.338076 0.432863 0.38125
          0.402724 0.351173 0.510427 0.372622 0.615925 0.530358
          0.634897 0.710123 0.238887 0.207944 0.217644 0.23471
          0.329965 0.189242 0.311949 0.345308 0.172972 0.17137
          0.190034 0.143934 -0.0658888 -0.052492 -0.130076 -0.0538186
          0.188761 0.206243 0.261416 0.19703 0.0555938 0.055218
          0.0919467 0.0389992 0.347512 0.503551 0.491 0.552352
          -0.0321081 -0.0208577 0.130689 0.0377004 0.110453 0.134253
          0.0509295 0.0360046 0.539956 0.451127 0.4665 0.361484
          0.348094 0.368133 0.304318 0.328671 0.15145 0.27013
          0.268257 0.225286 0.0660439 0.145403 0.0649561 0.0761817
          0.15795 0.160153 0.172928 0.138486 0.314863 0.329965
          0.237981 0.128366 0.0649561 0.145403 0.143686 0.0761817
          0.245796 0.230153 0.278739 0.209562 0.0954567 0.133288
          0.13712 0.136467 0.345197 0.347512 0.388683 0.473613
          -0.000164951 -0.0801759 0.0127683 -0.0840805 -0.0648303 0.00945855
          -0.0897965 -0.0840805 0.0886722 -0.0517243 -0.0327675 -0.0370501
          0.00753187 0.0185148 0.0418954 -0.0182043 0.113962 0.0934466
          0.0649561 0.0540416 -0.0284562 -0.0340695 -0.0254253 0.121136
          0.301902 0.343228 0.390222 0.289096 0.527923 0.646271
          0.666764 0.673207 0.348094 0.328671 0.277479 0.253697
          -0.0354252 -0.0367899 0.0100932 0.0155697 0.0108447 0.0388059
          0.00316235 0.0130412 0.188444 0.145625 0.165532 0.168965
          -0.0367899 -0.0148586 -0.0748015 -0.0115162 0.476062 0.696654
          0.539956 0.703544 0.701053 0.539956 0.696654 0.709038
          0.269312 0.185367 0.268345 0.203472 0.105429 0.194208
          0.116656 0.12311 0.48037 0.501687 0.548184 0.452807
          0.117851 0.136757 0.0878293 0.00251873 -0.11324 -0.122225
          -0.0327653 -0.1189 0.0247339 0.0502769 0.0372527 0.130684
          0.269312 0.269356 0.187662 0.185367 0.367694 0.392657
          0.337729 0.411928 0.40147 0.40384 0.491887 0.542925
          0.0824626 -0.04001 -0.0474617 -0.0474959 0.345197 0.361484
          0.451127 0.553202 0.240259 0.182059 0.204545 0.228727
          0.112514 0.0845378 0.203415 0.186008 0.196196 0.272421
          0.230411 0.234576 0.156925 0.180739 0.209562 0.13282
          0.269312 0.269356 0.268345 0.187662 0.166518 0.16328
          0.172442 0.175656 0.143934 0.126494 0.185038 0.138454
          0.113962 0.0934466 0.0660439 0.0649561 0.293607 0.388683
          0.345197 0.347512 0.315947 0.282637 0.399113 0.317265
          0.203198 0.180068 0.19541 0.205167 0.139282 0.15297
          0.0740804 0.187113 0.377788 0.315893 0.304318 0.332843
          0.151547 0.180068 0.143377 0.120011 0.237981 0.16556
          0.128366 0.333142 0.232606 0.238917 0.194464 0.194202
          0.152649 0.143848 0.168346 0.169031 0.160153 0.177514
          0.169153 0.187816 0.207633 0.24453 0.167424 0.130594
          0.0698984 0.0768571 0.162981 0.0250515 0.160511 0.0698984
          0.162981 0.124865 0.193318 0.204545 0.198031 0.218194
          0.18286 0.166462 0.197806 0.188625 0.141866 0.216657
          0.160769 0.238356 0.268257 0.225286 0.268148 0.178872
          0.247711 0.196237 0.208914 0.23176 0.0827109 0.0975126
          0.126155 0.139827 0.24497 0.288575 0.23471 0.203025
          0.0297149 0.109161 0.054551 -0.00846173 -0.131659 -0.132434
          -0.128186 -0.0538186 0 0.0547054 0.0174988 0.00878838
          0.290634 0.245796 0.260874 0.226725 0.0458227 0.150271
          0.158586 0.172868 0.141115 0.0917604 -0.0397156 -0.0284562
          0.0209038 0.0366677 0.0327665 -0.0209055 0.129881 0.104619
          0.160795 0.120312 0.399113 0.383928 0.313847 0.395929
          -0.0449147 -0.00588535 -0.052492 0.0536057 0.0247339 0.0494826
          0.0502769 0.130684 0.201398 0.183085 0.183178 0.178948
          0.183178 0.183085 0.181922 0.178948 0.117074 0.096068
          0.0708915 0.08759 -0.0482987 -0.100392 -0.0295207 -0.0320968
          -0.0370501 -0.0158408 0.0878293 -0.0296118 0.17137 0.129918
          0.143934 0.0957739 0.22557 0.188444 0.211839 0.236272
          0.421482 0.477897 0.421332 0.343916 0.508874 0.474926
          0.509965 0.399113 0.337729 0.411928 0.438328 0.344774
          0.141115 0.12317 -0.0229897 -0.0285253 0.392657 0.320388
          0.367694 0.286476 0.300169 0.17973 0.245913 0.212652
          0.148028 0.129881 0.167174 0.120312 0.364843 0.268785
          0.334915 0.280536 0.245913 0.276521 0.404649 0.356278
          0.154597 0.135998 0.170804 0.157544 0.188423 0.171214
          0.191011 0.171138 -0.0342884 0.128974 0.112681 0.0223666
          0.315947 0.282637 0.272421 0.313847 0.712961 0.551693
          0.583709 0.719557 0.160153 0.154846 0.157544 0.135998
          -0.108758 -0.0525861 -0.0277683 -0.0354252 0.234576 0.234576
          0.272421 0.283203 0.373718 0.301773 0.395388 0.380334
          0.526642 0.516936 0.603631 0.616494 0.0342889 0.0358098
          0.00486405 0.028315 0.188423 0.215759 0.201398 0.223532
          0.166518 0.173041 0.158522 0.147967 0.0547873 -0.0752176
          0.00945855 0.00753187 0.0844691 0.130689 0.212402 0.237825
          0.0774893 0.153858 0.12311 0.166261 0.136467 0.117393
          0.154597 0.121689 0.1823 0.123689 0.13712 0.239659
          0.197806 0.195952 0.228412 0.219527 -0.0557656 -0.033664
          -0.0584268 0.0256823 0.29089 0.294977 0.240259 0.280415
          0.496235 0.645948 0.62833 0.643071 0.257413 0.240259
          0.228412 0.290625 0.45466 0.428379 0.36166 0.411928
          0.328671 0.377788 0.304318 0.270998 -0.128932 -0.0818359
          -0.12951 -0.052492 -0.052492 -0.00588535 -0.0168768 0.0665477
          0.147867 0.0887269 0.16556 0.257122 0.172972 0.143934
          0.190034 0.136202 0.0682129 0.0579845 0.0957739 0.0346219
          0.286476 0.238887 0.280415 0.267714 0.583709 0.551693
          0.483334 0.509302 0.215453 0.204545 0.193318 0.218194
          0.0171941 0.163265 -0.000663582 0.166401 0.465399 0.347512
          0.293607 0.294303 0.599127 0.461908 0.526642 0.475228
          0.276125 0.27013 0.368363 0.250628 0.166462 0.180128
          0.195952 0.173365 0.377788 0.304318 0.304287 0.332843
          0.503551 0.584036 0.535403 0.69147 0.30287 0.237285
          0.269246 0.303986 0.117877 0.117074 0.0452458 0.08759
          0.00815519 0.00229256 -0.0454728 -0.0432089 0.503551 0.37001
          0.553382 0.535403 -0.0658888 -0.128186 -0.130076 -0.122225
          0.35344 0.217421 0.314828 0.201068 0.152232 0.170921
          0.251856 0.244901 0.217546 0.108892 0.327877 0.195518
          -0.0501823 -0.0295207 0.0390515 0.0374318 -0.052492 -0.130076
          -0.0538186 -0.131659 0.105463 0.0771466 0.0418954 0.117498
          0.0829014 0.0519787 0.0356243 0.0441782 0.18286 0.153867
          0.166462 0.159927 0.245913 0.37001 0.404649 0.349891
          0.187113 0.187251 0.269356 0.262477 0.183164 0.187251
          0.187113 0.262477 0.186008 0.203415 0.112514 0.314863
          0.183089 0.258765 0.24453 0.185762 0.208938 0.185967
          0.228727 0.258456 -0.00846173 0.101692 0.00251873 -0.0158408
          0.130689 0.173799 0.286155 0.217546 0.0063197 0.114131
          0.16481 -0.0185965 0.69147 0.503551 0.674729 0.553382
          0.430173 0.44217 0.368133 0.328671 0.523184 0.395929
          0.454738 0.516936 -0.00588535 0.0665477 0.0536057 0.112536
          0.0063197 -0.0167663 0.114131 -0.0185965 0.311442 0.376374
          0.270667 0.399897 -0.119881 -0.126512 -0.0885361 -0.0607624
          0.258244 0.173799 0.160511 0.272319 0.0112062 0.0303563
          0.149429 0.00285029 -0.0285253 -0.0229897 0.141115 -0.0397156
          0.217644 0.245796 0.23471 0.180739 0.158713 0.118225
          0.0804219 0.0771466 0.106287 0.0771644 0.114495 0.0742282
          0.195952 0.180128 0.20182 0.204545 0.618914 0.432143
          0.59157 0.603846 -0.0148586 -0.0126816 -0.0367899 -0.020548
          -0.00846173 0.0247339 0.109161 0.054551 0.117498 0.19703
          0.206243 0.122618 0.587716 0.474926 0.509965 0.508874
          0.0486358 0.0374318 0.105429 0.116656 0.0758894 0.143772
          0.0807397 0.13712 0.152229 0.118271 0.143377 0.152649
          0.123339 0.0857983 0.113962 0.187575 0.599127 0.461908
          0.475228 0.589482 0.517372 0.554677 0.500981 0.685457
          0.165532 0.129918 0.139782 0.145625 0.41749 0.35344
          0.320545 0.314828 0.117193 0.166401 0.153728 0.0171941
          0.117498 0.118225 0.193335 0.0771466 0.130874 0.118174
          0.139782 0.0971336 0.294959 0.273528 0.311442 0.399897
          0.117851 0.253788 0.18863 0.136757 0.432326 0.349309
          0.421332 0.336885 0.666629 0.533951 0.655136 0.632325
          0.510427 0.432326 0.526328 0.372622 -0.0331069 0.0359931
          -0.0443746 0.0166565 0.106339 0.079169 0.0954567 0.133288
          0.491 0.552352 0.503551 0.465399 0.16328 0.152229
          0.180506 0.173365 0.311949 0.189242 0.141115 0.0917604
          -0.0126816 -0.065013 -0.020548 -0.0382728 0.0853681 0.0252257
          0.048454 -0.0365529 0.526642 0.461908 0.451908 0.475228
          0.695025 0.555537 0.603837 0.712901 0.237915 0.202133
          0.37001 0.376293 0.376293 0.473613 0.237915 0.345197
          -0.0288902 -0.0342884 0.119924 -0.0391606 0.303986 0.209269
          0.237285 0.269246 0.260676 0.237285 0.269246 0.30287
          0.722095 0.583709 0.719557 0.712901 0.187251 0.267072
          0.269356 0.262477 0.187251 0.178216 0.229013 0.267072
          0.26683 0.264919 0.270067 0.193335 0.343228 0.301902
          0.250619 0.289096 0.0771466 0.0185148 0.0251875 0.0418954
          0.0682129 -0.00299887 0.0579845 0.0346219 0.0607489 0.0802511
          0.0222848 0.0277173 0.117498 0.096068 0.08759 0.0185148
          0.203198 0.201398 0.19375 0.223532 -0.122119 -0.130573
          -0.0382095 -0.122298 0.0277173 0.00613925 0 0
          0.460286 0.333142 0.542691 0.477178 0.399897 0.40384
          0.41749 0.320545 0.620367 0.549512 0.533699 0.526642
          0.00251873 0.0247339 0.0220962 0.136757 0.282637 0.234576
          0.193506 0.230411 -0.0953438 -0.065013 -0.0367899 -0.0382728
          -0.0148586 -0.065013 -0.0485207 -0.0367899 -0.000663582 0.121709
          -0.0131994 -0.0126079 0.204545 0.204545 0.193318 0.215453
          0.141866 0.123339 0.0898911 0.105195 0.696654 0.543584
          0.476062 0.539956 0.0102294 0.0256823 0.0547873 0.055218
          -0.0354252 -0.0367899 -0.0115162 0.0100932 -0.0382095 -0.128471
          0.00229256 -0.122298 0.506516 0.476062 0.703544 0.641142
          0.205207 0.187816 0.207944 0.173956 0.339176 0.286155
          0.416411 0.195518 0.230411 0.193506 0.282637 0.301902
          0.160511 0.173799 0.124865 0.272319 0.0279292 0.0774893
          0.0374318 0.0098671 0.404221 0.441118 0.432863 0.501895
          0.130594 0.24453 0.181637 0.185762 -0.108758 -0.108082
          -0.0354252 -0.0953438 0.0509295 0.0665477 0.0578659 0.110453
          0.147113 0.276125 0.368363 0.299053 0.230411 0.230411
          0.280536 0.230411 0.0804219 0.00229256 0.00815519 0.0771466
          0.45466 0.36166 0.477897 0.438328 0.123387 0.140542
          0.106287 0.152649 0.714042 0.578245 0.716643 0.721535
          0.0771466 0.118225 0.0804219 0.0359931 0.0578659 0.00633645
          0.0470197 0.00229256 0.096068 0.10775 0.0642946 0.16486
          0.0366677 0.0898911 0.105195 0.0327665 -0.0303082 0.0252257
          -0.0365529 -0.0538285 0.247082 0.208434 0.245953 0.195749
          0.483334 0.404649 0.374364 0.261654 0.0289583 0.0252257
          0.0452458 -0.0303082 -0.0331069 0.0359931 0.0166565 0.08759
          0.177514 0.181922 0.18229 0.193758 0.169675 0.117393
          0.160153 0.154597 0.39061 0.315947 0.280536 0.376374
          0.416411 0.502812 0.327877 0.492783 0.170804 0.169675
          0.160153 0.154597 0.269312 0.187662 0.268345 0.185367
          0.232606 0.194464 0.245603 0.17137 0.105463 0.117498
          0.0418954 0.122618 0.587716 0.508874 0.509965 0.59459
          0.0353563 0.00753187 0.0418954 -0.0602992 0.152229 0.118271
          0.171138 0.143377 0.299053 0.253788 0.349309 0.351173
          0.15795 0.177514 0.138486 0.172928 -0.0401972 -0.128186
          -0.0525861 -0.127282 0.589482 0.475228 0.565696 0.583484
          0.0289583 0.0452458 0.0127683 -0.0303082 0.282072 0.267912
          0.335556 0.311359 0.367694 0.337729 0.333011 0.411928
          0.368133 0.277479 0.304318 0.296311 0.709794 0.472775
          0.578844 0.712817 0.721535 0.477379 0.566235 0.576506
          0.096068 0.117074 0.156523 0.185367 0.483334 0.404649
          0.482423 0.374364 0.109161 0.18863 0.225286 0.136757
          0.311949 0.349722 0.346798 0.224316 -0.052492 -0.0818359
          -0.12951 -0.0168768 0.474926 0.387815 0.394078 0.399113
          0.117498 0.0771466 0.193335 0.105463 -0.11621 -0.128186
          -0.127282 -0.0525861 0.208938 0.165049 0.182059 0.185967
          0.318274 0.44205 0.326886 0.554677 0.270667 0.294959
          0.240274 0.311442 0.0660439 0.0607489 0.13966 0.103863
          0.611773 0.502812 0.637193 0.629611 0.165532 0.121469
          0.129918 0.145625 0.344774 0.245796 0.278739 0.260874
          0.701053 0.4665 0.709038 0.542691 0.187816 0.193318
          0.215453 0.20182 0.188752 0.260191 0.248905 0.254776
          0.261654 0.364277 0.163265 0.327201 0.185334 0.194202
          0.194464 0.165532 -0.0117854 -0.0547892 -0.0365595 -0.0320968
          0.0983943 0.0512105 0.0886722 0.129141 0.501687 0.524651
          0.550847 0.44968 0.0071006 0.166401 0.0171941 -0.000663582
          0.0327665 -0.0209055 0.0636064 0.0107608 0.176476 0.150219
          0.182059 0.208938 0.123149 0.129918 0.188752 0.165532
          0.0376237 0.0019014 0.0244272 0.0209124 0.148011 0.16914
          0.182197 0.10098 0.185334 0.232606 0.19541 0.194464
          0.719557 0.713145 0.564165 0.716643 0.261534 0.195909
          0.31981 0.317615 0.454738 0.461807 0.501687 0.39061
          0.206569 0.147001 0.155598 0.132312 0.18739 0.169153
          0.173956 0.167174 0.238356 0.258238 0.251263 0.156717
          0.542691 0.543584 0.539956 0.4665 0.166518 0.17279
          0.176707 0.184506 0.201734 0.194202 0.238917 0.22557
          0.160795 0.106339 0.180739 0.104619 0.39061 0.280536
          0.364843 0.376374 0.348094 0.328671 0.253697 0.283765
          -0.00325904 0.131058 -0.0194793 0.0112062 -0.12951 -0.052492
          -0.0168768 -0.0382095 0.388864 0.317265 0.289096 0.268413
          0.0853681 -0.0168768 0.0665477 0.0740804 0.458955 0.499489
          0.373718 0.458089 0.152649 0.118271 0.143377 0.143848
          0.245796 0.217644 0.230153 0.180739 0.586206 0.583709
          0.482423 0.374364 0.112536 0.0665477 0.0536057 0.170921
          0.0389992 0.10091 0.10098 0.123149 0.112514 0.20704
          -0.0285253 -0.0194793 0.201398 0.183085 0.188423 0.183178
          0.0774893 0.0934466 0.166261 0.113946 0.240259 0.290625
          0.257413 0.29089 0.0108447 0.0649561 0.0857983 0.0388059
          0.40384 0.314828 0.349891 0.491887 0.409685 0.28116
          0.384774 0.484097 0.0482068 0.123689 0.10116 0.126057
          0.108892 -0.0453011 0.0886722 0.0804092 0.0579845 0.0550265
          0.11213 0.0508581 -0.122095 -0.103051 -0.0365529 -0.0538285
          0.156925 0.13282 0.183089 0.071029 0.0937305 0.12311
          0.105429 0.116656 0.128974 0.261534 0.211578 0.279769
          -0.0288902 -0.0342884 0.128974 0.119924 0.188444 0.148011
          0.121469 0.145625 0.603631 0.59459 0.605988 0.523184
          0.17425 -0.0568878 0.105133 0.0804092 0.438328 0.392657
          0.344774 0.44975 -0.052492 -0.0818359 -0.0168768 -0.00588535
          -0.0326251 0.0845378 -0.0194793 -0.00325904 0.0930218 0.079169
          0.180739 0.071029 -0.0161619 0.0107608 0.0470197 -0.0454728
          0.0824626 0.068297 -0.0584419 -0.0565269 0.0758476 0.0675574
          0.0644315 0.111257 0.555537 0.542925 0.622191 0.498836
          0.250628 0.27013 0.368363 0.376632 0.538118 0.477178
          0.542691 0.702014 -0.061984 -0.0568878 -0.0687295 0.105133
          0.0209038 -0.0284574 -0.0277683 -0.0607624 0.0662192 0.0389992
          0.10098 0.123149 0.315947 0.395929 0.454738 0.39061
          0.372622 0.36166 0.257074 0.258765 0.136467 0.157308
          0.196052 0.169675 0.15795 0.167692 0.177514 0.172928
          0.475228 0.383928 0.461908 0.451908 -0.033115 -0.0321081
          0.128655 -0.0481754 0.555537 0.498836 0.603837 0.482423
          0.278414 0.247711 0.23176 0.235742 0.157544 0.170804
          0.169372 0.154846 0.30705 0.336885 0.349309 0.253788
          0.492079 0.45466 0.372622 0.36166 0.0649561 0.0660439
          0.00316235 0.0130412 0.054551 0.10116 0.109161 0.178872
          0.540798 0.351173 0.432167 0.432326 0.0418954 0.0185148
          0.0251875 -0.0182043 -0.0953438 -0.0871916 -0.065013 -0.0382728
          0.177901 0.068297 0.0824626 -0.0565269 -0.0115162 -0.0117854
          -0.0365595 0.0140221 0.457237 0.332754 0.46044 0.348836
          0.0844691 0.130689 0.237825 0.128655 0.238887 0.20182
          0.228412 0.207377 0.311442 0.294959 0.240274 0.216007
          0.151948 0.123339 0.0898911 0.141866 0.286476 0.335694
          0.288575 0.341916 0.311359 0.267912 0.335164 0.193506
          0.16481 0.114131 0.275032 0.171797 0.318274 0.326886
          0.177901 0.206908 0.00892697 0.158586 0.0112062 0.0458227
          -0.0568878 -0.0565269 -0.0687295 0.105133 0.317615 0.520411
          0.394227 0.560566 0.701053 0.543584 0.539956 0.542691
          0.346798 0.405571 0.420039 0.526269 0.0327665 0.105195
          0.0366677 0.0209038 0.131058 0.170346 0.254887 0.186008
          0.193335 0.270067 0.274841 0.16105 0.153858 0.173193
          0.12311 0.193086 0.172972 0.151547 0.17137 0.143934
          0.055218 0.0579845 0.0957739 0.0682129 0.23471 0.205207
          0.173956 0.203025 0.173365 0.180128 0.195952 0.204545
          0.472775 0.578844 0.407349 0.576506 0.27592 0.294977
          0.280415 0.240259 0.0829014 0.0356243 0.0816611 0.0644315
          0.0166565 -0.0365529 -0.0331069 -0.0303082 0.392657 0.396695
          0.335694 0.341916 -0.111952 -0.0331069 -0.0443746 0.0166565
          0.36166 0.3056 0.363754 0.372622 0.0222848 0
          0 0.0752352 0.313847 0.283203 0.373718 0.269246
          -0.0284574 0.0327665 -0.0513797 -0.0209055 0.0919467 0.126494
          0.123149 0.129918 0.196196 0.283203 0.272421 0.234576
          -0.00325904 0.236193 0.131058 0.00892697 0.475228 0.533699
          0.565696 0.474586 0.477379 0.364277 0.422856 0.349722
          0.555537 0.583709 0.586206 0.712901 0.709794 0.702014
          0.522672 0.572815 0.44205 0.307201 0.257122 0.326886
          0.240259 0.208938 0.228727 0.258456 0.517372 0.694104
          0.710123 0.698744 0.110453 0.0470043 0.0486358 0.0509295
          0.0389992 0.0169673 0.10098 0.10091 0.388864 0.373512
          0.317265 0.268413 0.549512 0.458089 0.533699 0.526642
          0.315947 0.39061 0.454738 0.376374 0.08759 0.118225
          0.187113 0.187662 -0.0443746 0.0185148 -0.0323988 0.0359931
          0.131058 0.186008 -0.0194793 0.170346 0.327201 0.308892
          0.166401 0.261654 0.17471 0.153 0.169372 0.16328
          0.00800832 0.0220962 0.117851 0.136757 0.117851 0.0220962
          0.181637 0.136757 0.373718 0.458955 0.395388 0.499489
          0.430173 0.363754 0.478524 0.480373 0.388683 0.345197
          0.473613 0.506516 0.377788 0.332843 0.304287 0.367694
          0.169675 0.196052 0.136467 0.16577 0.409685 0.484097
          0.637193 0.502812 0.535403 0.37001 0.553382 0.491887
          -0.0277683 0.0130412 -0.0607624 -0.0423323 0.0828364 0.201068
          0.0303563 0.0463607 0.183089 0.238684 0.258765 0.185762
          0.0209124 0.0452892 0.0376237 0.0388059 0.712901 0.712961
          0.704115 0.551693 0.552352 0.641142 0.697242 0.581837
          0.0389992 0.055218 0.00182079 -0.0219125 -0.0401972 -0.0513797
          -0.0284574 -0.0161619 0.618914 0.629611 0.492783 0.603846
          0.270667 0.196196 0.230411 0.165846 0.491887 0.553382
          0.41749 0.460626 0.500981 0.673207 0.502812 0.527923
          0.0771644 0.118271 0.118354 0.123387 0.474926 0.501895
          0.457526 0.542081 -0.122119 -0.12951 -0.0382095 -0.130573
          0.48037 0.376374 0.364843 0.334915 0.458089 0.451908
          0.526642 0.461908 0.165532 0.168965 0.194202 0.201734
          0.428379 0.3056 0.363754 0.36166 0.576437 0.533951
          0.496235 0.41749 -0.0681067 0.00554623 -0.0658888 -0.00765868
          0.392657 0.411928 0.438328 0.337729 0.551693 0.584036
          0.704115 0.535403 0.476062 0.238844 0.361484 0.368946
          0.361484 0.186008 0.20704 0.314863 0.31981 0.195909
          0.325379 0.317615 0.394227 0.445539 0.530358 0.317615
          -0.131659 -0.0538186 -0.0382095 -0.130573 0.245796 0.288575
          0.286476 0.23471 0.0577682 0.0389992 0.0700022 0.00904144
          -0.0342884 -0.04001 0.112681 -0.0474959 0.177787 0.19541
          0.180068 0.151547 0.247711 0.186348 0.208914 0.207377
          0.510427 0.351173 0.432326 0.372622 0.165532 0.201734
          0.194202 0.194464 0.139017 0.0560741 0.130594 0.0566149
          0.721535 0.566235 0.723765 0.654031 -0.0295207 0.0358098
          0.0390515 0.0374318 0.201734 0.248905 0.238917 0.194464
          0.347512 0.503551 0.552352 0.473613 0.131058 0.237915
          0.345197 0.254887 0.376157 0.44205 0.395931 0.520946
          0.594527 0.542925 0.495762 0.472255 0.0108447 -0.00690965
          0.00316235 0.0388059 0.0771644 0.0435622 0.0855231 0.0742282
          0.208709 0.171797 0.339227 0.275032 0.339227 0.275032
          0.407349 0.373715 0.339227 0.171797 0.407349 0.275032
          0.110453 0.134253 0.230366 0.160769 0.500981 0.673207
          0.694104 0.685457 -0.0658888 -0.052492 -0.0538186 -0.00718751
          0.208709 0.275032 0.339227 0.373715 -0.0161619 0.104284
          0.0509295 0.0470197 0.368363 0.411463 0.471473 0.409685
          0.258244 0.272319 0.160511 0.332754 0.620367 0.616494
          0.526642 0.599127 0.00815519 -0.0454728 0.057422 -0.0432089
          0.138201 0.285644 0.166401 0.163265 -0.111952 -0.0365529
          -0.103051 -0.0303082 -0.0144841 -0.0579892 -0.0115162 -0.0726572
          0.503551 0.465399 0.540308 0.38689 0.646271 0.492783
          0.486593 0.618914 0 0 0 -0.000539383
          0.147967 0.145625 0.173041 0.118174 0.0857983 0.113962
          0.187575 0.143686 -0.0365595 -0.0748015 -0.0367899 -0.0354252
          0.117525 0.139017 0.156925 0.207633 0.182059 0.152649
          0.184175 0.169031 -0.127933 -0.128932 -0.130076 -0.052492
          0.399113 0.387815 0.313847 0.383928 0.37001 0.202133
          0.201068 0.245913 0.394078 0.38125 0.441118 0.458699
          0.334286 0.326886 0.198264 0.13459 0.173041 0.194202
          0.185334 0.139782 0.166261 0.193086 0.12311 0.188511
          0.130689 -0.0321081 0.195518 0.128655 0.317734 0.363754
          0.233984 0.3056 0.23471 0.27592 0.280415 0.235505
          0.709794 0.576506 0.714042 0.721043 0.0098671 0.0774893
          0.0374318 0.0360046 0.407349 0.522672 0.311949 0.472775
          -0.0115162 0.0140221 0.028315 0.00765813 0.491887 0.498836
          0.349891 0.40147 0.327201 0.121709 0.285644 0.299283
          0.166518 0.176707 0.183085 0.184506 0.552352 0.697242
          0.584036 0.69147 0.110453 0.169053 0.230366 0.134253
          0.117193 0.153728 0.0565896 0.0171941 -0.00286052 -0.00257965
          0.0019014 0.0209124 0.0342889 0.028315 0.00486405 0.0140221
          0.347585 0.294977 0.280415 0.27592 0.451908 0.474586
          0.533699 0.475228 0.152232 0.110453 0.113767 0.169053
          0.311442 0.376374 0.399897 0.42471 0.0452458 0.0252257
          -0.0365529 -0.0303082 0.120681 0.0954567 0.117393 0.157308
          0.288575 0.27592 0.280415 0.23471 0.131058 0.345197
          0.237915 0.236193 -0.0277683 -0.0171008 0.0098671 -0.0354252
          0.0366677 0.0857983 0.105195 0.123339 0.0662192 0.0389992
          -0.0120033 0.0169673 -0.128186 -0.0513797 -0.0401972 -0.0161619
          0.501687 0.59149 0.524651 0.463114 -0.0365595 -0.0354252
          -0.0482987 -0.0950276 0.27013 0.268257 0.225286 0.351173
          -0.05098 -0.0148586 -0.0748015 -0.065013 0.719557 0.712961
          0.564165 0.713145 0.245796 0.260874 0.156925 0.209562
          0.173956 0.217644 0.157308 0.171435 0.361484 0.254887
          0.364277 0.20704 0.358861 0.402724 0.478524 0.363754
          0.201068 0.0828364 0.0960629 0.0463607 0.555537 0.483334
          0.583709 0.712901 -0.0326251 0.112514 -0.0285253 -0.0194793
          0.17425 0.327877 0.276125 0.277729 -0.0443746 -0.0323988
          -0.122298 0.00229256 0.193335 0.274841 0.19703 0.16105
          -0.0295207 -0.0482987 0.00486405 0.0358098 0.19703 0.117498
          0.105463 0.122618 0.339176 0.237825 0.371903 0.286155
          0.522544 0.501687 0.454738 0.523184 0.461807 0.501687
          0.523184 0.454738 0.286155 0.348836 0.486593 0.416411
          0.177901 0.068297 0.257122 0.113661 0.460626 0.395388
          0.499489 0.41749 0.583484 0.501895 0.542081 0.580093
          0.187251 0.139282 0.259363 0.262477 0.368363 0.27013
          0.432167 0.376632 0.162981 0.167424 0.240642 0.130594
          -0.0414189 -0.0523907 0.128366 0.044791 0.36166 0.411928
          0.337729 0.344774 0.308892 0.285644 0.441927 0.327201
          -0.0698807 -0.0475923 -0.0240264 -0.0785707 0.0845378 0.186008
          -0.0194793 0.131058 0.505653 0.441927 0.285644 0.422856
          0.354887 0.388864 0.289096 0.268413 0.10091 0.0708915
          -0.000164951 0.0289583 0.147113 0.0886722 -0.0327675 -0.0370501
          0.173041 0.165532 0.194202 0.139782 0.188444 0.201734
          0.165532 0.148011 0.153858 0.0774893 0.12311 0.0675574
          0.583709 0.483334 0.374364 0.509302 0.0930218 0.156925
          0.117525 0.0560741 0.0342889 0.0574409 0.0358098 0.028315
          0.0844988 0.0771466 0.00815519 0.0251875 0.465399 0.491
          0.293607 0.347512 0.509302 0.477379 0.566235 0.578245
          0.279451 0.268413 0.280936 0.214937 0.247082 0.23176
          0.245953 0.208434 0.50375 0.417589 0.446707 0.388864
          0.0660439 0.00316235 0.0155697 0.0112358 -0.0897965 -0.106391
          -0.109993 0.0185148 0.294959 0.270667 0.376374 0.399897
          0.311442 0.334915 0.376374 0.42471 0.193506 0.305763
          0.222369 0.267912 0.335694 0.27592 0.280415 0.288575
          0.267072 0.187251 0.259363 0.262477 0.203198 0.177787
          0.188423 0.223532 0.153858 0.173193 0.0991233 0.12311
          0.232606 0.245603 0.19541 0.17137 0.655136 0.540308
          0.551926 0.499489 0.223532 0.245603 0.237216 0.19541
          0.540798 0.351173 0.432326 0.510427 0.540798 0.432326
          0.526328 0.510427 0.510427 0.372622 0.526328 0.492079
          0.0477449 0.0845378 0.112514 -0.0326251 0.0098671 -0.0171008
          0.0279292 -0.0354252 0.116656 0.0774893 0.188511 0.113946
          0.27013 0.18863 0.147113 0.188323 0.457526 0.441118
          0.404221 0.501895 0.138454 0.0922398 0.0547873 0.105915
          0.178948 0.175656 0.181922 0.172928 0.4665 0.477178
          0.522672 0.542691 0.173365 0.206879 0.204545 0.195952
          0.148028 0.174612 0.169153 0.148992 0.0971336 0.0880873
          0.129918 0.0682129 0.0071006 0.166401 0.117193 0.0171941
          0.709038 0.564165 0.706821 0.713145 0.473613 0.706821
          0.553202 0.551693 0.402724 0.351173 0.540798 0.510427
          0.517372 0.694104 0.530358 0.710123 0.165532 0.139782
          0.173041 0.145625 0.712901 0.712961 0.551693 0.583709
          0.0346219 0.0579845 0.0855231 0.0435622 0.272319 0.230729
          0.181637 0.30705 0.194464 0.17137 0.129918 0.126494
          0.148357 0.112536 0.0853681 0.048454 0.505427 0.460286
          0.63083 0.538118 0.280536 0.230411 0.270667 0.230411
          0.0771466 0.0185148 0.0418954 0.117498 0.273244 0.0886722
          0.276125 0.129141 -0.127282 -0.0513797 -0.0284574 -0.0401972
          0.151547 0.185334 0.19541 0.17137 0.156925 0.0930218
          0.160795 0.180739 0.0450981 0 0.0174988 0.0222848
          0.0458227 0.158586 0.0561909 0.172868 -0.1189 -0.127933
          -0.122225 -0.0658888 0.484097 0.307201 0.44205 0.334286
          0.522672 0.709794 0.714042 0.705183 0.144416 0.157544
          0.1666 0.154846 0.117851 -0.0164584 0.00800832 0.00251873
          -0.0523907 -0.0497639 0.189242 0.0887269 0.184506 0.216435
          0.185334 0.194202 0.270998 0.230153 0.3056 0.333011
          -0.0818359 -0.0365529 -0.12508 -0.0168768 0.722095 0.586206
          0.583709 0.712901 0.374364 0.308892 0.356278 0.441927
          0.105915 0.110876 0.122618 0.188761 0.526642 0.461908
          0.599127 0.603631 0.156925 0.0560741 0.071029 0.183089
          0.173956 0.180739 0.157308 0.217644 0.390222 0.394078
          0.343228 0.301902 0.578245 0.477379 0.716643 0.721535
          0.40384 0.399897 0.495762 0.389267 0.117074 0.0452458
          0.0127683 0.0289583 0.160769 0.141866 0.238356 0.156717
          -0.0816843 -0.0365595 -0.0482987 -0.0950276 -0.00325904 0.131058
          0.0112062 0.00892697 0.0127683 -0.0331069 0.0166565 0.08759
          0.343916 0.36166 0.278739 0.344774 0.00800832 0.136757
          0.117851 0.00251873 0.237285 0.209269 0.163942 0.269246
          -0.0117854 -0.0144841 0.00714858 0.00765813 0.492079 0.343916
          0.477897 0.36166 0.15795 0.154846 0.172928 0.160153
          0.183164 0.258238 0.158713 0.140684 0.445539 0.527923
          0.560566 0.500981 0.407349 0.275032 0.405571 0.373715
          0.10091 0.156523 0.0708915 0.117074 0.136467 0.154597
          0.137762 0.121689 -0.0303082 -0.103051 -0.0801759 -0.0460202
          0.714042 0.578245 0.721535 0.576506 0.15795 0.167692
          0.148992 0.177514 0.0486358 0.0374318 0.116656 0.0360046
          0.315947 0.399113 0.395929 0.39061 -0.0284574 -0.0209055
          -0.0607624 -0.0185362 0.522544 0.496235 0.495762 0.645948
          0.0807397 0.0954567 0.0714426 0.136467 -0.0854006 -0.106391
          0.0185148 -0.0182043 0.205372 0.182197 0.156523 0.26285
          0.712901 0.551693 0.483334 0.583709 0.0886722 0.0512105
          -0.0517243 0.00586034 0.105133 0.17425 0.13459 0.28116
          0.048454 -0.00588535 0.112536 0.0665477 0.136202 0.143934
          0.190034 0.11213 0.238887 0.196263 0.217644 0.207944
          0.260676 0.282072 0.313847 0.269246 0.508874 0.509965
          0.461807 0.399113 0.117498 0.0418954 0.122618 0.105915
          0.118271 0.0855231 0.151547 0.120011 0.451127 0.551693
          0.364277 0.376293 0.0971336 0.0346219 0.0855231 0.118271
          0.332843 0.247711 0.267714 0.298409 0.484097 0.657557
          0.502812 0.500981 0.0360046 0.113946 0.105195 0.0540416
          0.461908 0.373718 0.383928 0.395929 -0.00765868 0.0486358
          -0.0327653 0.0374318 0.162981 0.130594 0.240642 0.181637
          0.390222 0.311359 0.394078 0.301902 0.383928 0.385207
          0.451908 0.474586 0.301902 0.193506 0.250619 0.218066
          0.144416 0.123209 0.146472 0.135998 -0.12951 -0.052492
          -0.0382095 -0.0538186 0.158522 0.151547 0.171138 0.152229
          0.165049 0.123387 0.150219 0.152649 0.278414 0.235742
          0.247082 0.296311 0.157308 0.136467 0.117393 0.169675
          0.376293 0.345197 0.237915 0.254887 0.117193 0.166401
          0.308892 0.153728 0.526328 0.336885 0.421332 0.372622
          0.424412 0.20449 0.307201 0.28116 0.234576 0.272421
          0.269246 0.283203 0.367694 0.304287 0.286476 0.267714
          0.584148 0.501895 0.583484 0.580093 0.0844691 0.212402
          0.325379 0.237825 0.198264 0.387406 0.206908 0.326886
          -0.00969368 0.0377004 0.11677 0.0330385 0.23471 0.24497
          0.203025 0.245796 0.129881 0.160795 0.167174 0.120312
          0.0108537 -0.0168768 0.0578659 0.0665477 0.339227 0.407349
          0.472775 0.578844 0.0771644 0.0346219 0.118271 0.0855231
          0.483334 0.376293 0.327201 0.509302 -0.0382095 -0.0161619
          0.0470197 -0.0454728 0.276521 0.382239 0.404649 0.356278
          0.334286 0.307201 0.44205 0.326886 0.540308 0.371953
          0.551926 0.458955 0.301773 0.206569 0.209269 0.299638
          0.108892 0.147113 0.277729 0.17425 0.173956 0.171435
          0.157308 0.120681 0.463114 0.417589 0.480039 0.50375
          -0.0126079 -0.0185965 0.16481 0.171797 0.461908 0.508874
          0.395929 0.399113 0.496235 0.576437 0.645948 0.643071
          0.407349 0.477379 0.311949 0.522672 0.225286 0.257074
          0.233984 0.158016 0.163265 0.224316 0.170346 -0.0131994
          0.269518 0.20449 0.177901 0.307201 0.185762 0.136757
          0.181637 0.0220962 0.40147 0.491887 0.498836 0.542925
          0.183085 0.172442 0.177787 0.188423 0.345197 0.238844
          0.361484 0.476062 0.00800832 0.0220962 0.181637 0.117851
          0.209562 0.278739 0.260874 0.258765 0.163265 0.261654
          0.149429 0.170346 0.166462 0.17471 0.195952 0.180128
          0.522672 0.311949 0.349722 0.477379 -0.131659 -0.132434
          -0.0538186 -0.0161619 0.203198 0.19541 0.223532 0.205167
          0.15721 0.140684 0.160769 0.251263 0.712817 0.578844
          0.576506 0.721043 0.201734 0.188444 0.165532 0.168965
          0.139282 0.187113 0.183164 0.187251 0.0289583 -0.0303082
          0.0127683 -0.0460202 0.520411 0.465816 0.684195 0.560566
          0.315947 0.283203 0.387594 0.272421 0.0844988 0.0771466
          0.0251875 0.105463 0.208434 0.23176 0.245953 0.197806
          0.208434 0.197806 0.245953 0.195749 0.23176 0.180665
          0.197806 0.208434 -0.0648303 -0.0557656 -0.0752176 0.00945855
          -0.0648303 0.0102294 -0.0557656 0.00945855 0.0102294 0.0256823
          -0.0557656 0.0547873 0.0660439 0.0607489 0.0244272 0.0112358
          0.325379 0.317615 0.465816 0.31981 0.212652 0.273528
          0.120473 0.133766 0.237285 0.163942 0.21495 0.269246
          0.372622 0.343916 0.421332 0.492079 0.0360046 0.113946
          0.134253 0.105195 0.672307 0.657557 0.500981 0.673207
          0.164186 0.1666 0.17279 0.181061 -0.0115162 0.0100932
          -0.0126816 -0.0148586 0.540308 0.458955 0.551926 0.499489
          0.0802511 0.0277173 0.0484699 0.0222848 0.364843 0.280536
          0.39061 0.317265 0.374349 0.572815 0.516531 0.517372
          0.0920557 0.10091 0.0169673 -0.000164951 0.148357 0.187251
          0.183531 0.117877 0.112681 0.195909 0.317615 0.198264
          0.130689 0.217546 0.195518 0.108892 0.319383 0.267912
          0.335556 0.282072 0.158713 0.158259 0.0804219 0.140684
          0.117074 0.0708915 0.0452458 0.08759 0.259363 0.152232
          0.251856 0.244901 0.0880873 0.0919467 0.123149 0.129918
          0.542691 0.368946 0.543584 0.4665 -0.0367899 -0.0126816
          -0.0115162 0.0100932 0.526269 0.405571 0.576506 0.407349
          0.244901 0.169053 0.238033 0.230366 0.193335 0.118225
          0.158713 0.0771466 0.15795 0.183178 0.167692 0.181922
          0.188423 0.191011 0.19375 0.181922 0.666629 0.533951
          0.632325 0.643071 0.112536 0.139282 0.0665477 0.152232
          0.334286 0.484097 0.500981 0.44205 0.00945855 -0.0752176
          -0.0897965 -0.0854006 0.299638 0.132312 0.18332 0.217421
          -0.0168768 0.0578659 0.0665477 0.0740804 0.26683 0.158713
          0.264919 0.193335 0.0844691 0.237825 0.325379 0.195909
          0.0342889 0.0937305 0.0390515 0.0358098 0.186348 0.180665
          0.196237 0.164869 0.276125 0.28116 0.273244 0.409685
          0.656898 0.505427 0.63083 0.692943 -0.0331069 0.0185148
          -0.0443746 0.0359931 0.151547 0.143377 0.171214 0.171138
          0.337729 0.286476 0.278739 0.245796 0.111257 0.0675574
          0.0644315 0.109537 0.552352 0.697242 0.69147 0.675159
          0.16914 0.182197 0.156523 0.205372 0.230153 0.238684
          0.333011 0.278739 0.00892697 0.150271 0.158586 0.0458227
          0.18863 0.136757 0.253788 0.225286 -0.0171008 -0.0327653
          -0.0525861 0.0360046 -0.11324 -0.100392 -0.0482987 -0.108082
          0.0509295 0.0327665 0.104284 -0.0161619 0.339176 0.371903
          0.416411 0.286155 0.334286 0.28116 0.327877 0.409685
          0.388864 0.417589 0.390222 0.463114 0.457526 0.404221
          0.432863 0.501895 0.458089 0.37796 0.451908 0.461908
          0.162981 0.0768571 0.130594 0.0250515 0.13712 0.123689
          0.0758894 0.157521 -0.0365529 0.0252257 0.048454 -0.00588535
          0.3056 0.372622 0.317734 0.363754 0.374364 0.376293
          0.261654 0.327201 0.217644 0.286476 0.23471 0.245796
          0.0561909 0.252819 0.202133 0.201068 0.0660439 0.0376237
          0.0112358 0.0244272 0.198031 0.205207 0.193318 0.215453
          0.372631 0.50631 0.421332 0.421482 -0.0365595 -0.0144841
          -0.0115162 -0.0726572 0.491 0.641142 0.552352 0.581837
          -0.05098 -0.0144841 -0.0148586 0 0.237825 0.286155
          0.130689 0.212402 0.145625 0.139782 0.173041 0.118174
          0.0983943 -0.061984 -0.0687295 0.105133 -0.000663582 0.163265
          0.00285029 -0.0131994 0.475228 0.387815 0.457526 0.474926
          0.172442 0.158522 0.177787 0.171138 0.160511 0.162981
          0.244295 0.124865 0.474586 0.387815 0.457526 0.475228
          -0.103051 -0.0331069 -0.0897965 -0.109993 0.474586 0.457526
          0.565696 0.475228 0.148028 0.169153 0.18739 0.167174
          0.00613925 0 0 0 0.152229 0.143377
          0.171138 0.168346 0.501687 0.44968 0.550847 0.452807
          0.428379 0.411928 0.377788 0.333011 0.0844691 -0.0321081
          0.128655 -0.033115 -0.12951 -0.0538186 -0.0382095 -0.131659
          0.16486 0.209323 0.188761 0.206243 0.177787 0.215759
          0.188423 0.223532 0.0649561 0.0857983 0.0130412 0.0108447
          0.394227 0.530358 0.424977 0.387406 0.329965 0.349722
          0.311949 0.20704 0.00316235 0.0209124 0.0376237 0.0388059
          0.563634 0.520946 0.564528 0.658278 0.505427 0.516531
          0.656898 0.54103 0.144416 0.15796 0.1666 0.157544
          0.0844691 -0.0321081 0.130689 0.128655 0.657557 0.484097
          0.658278 0.520946 0.238844 0.254887 0.131058 0.345197
          0.496235 0.542925 0.645948 0.576437 0.542925 0.669866
          0.645948 0.576437 0.36166 0.411928 0.333011 0.337729
          0.0714426 0.133288 0.0494826 0.123689 -0.0474617 -0.0481754
          0.13459 -0.0565269 0.394227 0.317615 0.387406 0.279769
          0.110453 0.0509295 0.160769 0.15721 0.160153 0.196263
          0.171435 0.169675 0.17279 0.1666 0.195515 0.181061
          0.0714426 0.0494826 0.0482068 0.123689 0.478524 0.402724
          0.525444 0.516255 0.193506 0.21655 0.282072 0.267912
          0.387815 0.399113 0.474926 0.475228 0.151547 0.136202
          0.172972 0.180068 0.182197 0.123149 0.165532 0.148011
          0.229005 0.16577 0.208914 0.196237 0.0436386 0.105133
          0.068297 0.177901 0.376293 0.473613 0.584036 0.535403
          0.00800832 0.0220962 0.136757 0.00251873 0.399113 0.313847
          0.387815 0.282637 0.376374 0.454738 0.395929 0.399897
          0.294959 0.376374 0.315947 0.399897 0.167424 0.24453
          0.240642 0.130594 0.196052 0.208914 0.217644 0.247711
          0.201398 0.188423 0.19375 0.183178 0.387815 0.385207
          0.475228 0.474586 0.00633645 0.0166565 0.0359931 0.0740804
          0.520411 0.666764 0.684195 0.465816 0.10098 0.0920557
          0.10091 0.0169673 -0.0295207 -0.0482987 0.0358098 -0.0501823
          0.345308 0.0917604 0.189242 0.311949 0.22557 0.188444
          0.201734 0.168965 0.0700022 0.0880873 0.0971336 0.0682129
          0.399897 0.389267 0.311442 0.42471 0.16486 0.185038
          0.188752 0.126494 0.139282 0.0578659 0.15721 0.183164
          0.26653 0.206569 0.252819 0.294303 0.055218 0.0957739
          0.0922398 0.126494 0.304318 0.24366 0.247711 0.229005
          0.180739 0.079169 0.133288 0.13282 0.38689 0.294303
          0.26653 0.252819 0.0155697 -0.0354252 -0.0382728 -0.0277683
          -0.0525861 -0.127282 -0.119881 -0.0284574 0.339227 0.325688
          0.279769 0.424977 0.37001 0.376293 0.483334 0.535403
          0.172928 0.170804 0.180128 0.20182 0.712901 0.551693
          0.704115 0.483334 0.19703 0.117498 0.193335 0.105463
          0.432326 0.432143 0.585277 0.575595 0.129881 0.173956
          0.167174 0.160795 0.542691 0.4665 0.709038 0.705183
          0.125349 0.0758476 0.0829014 0.111257 0.112681 0.113661
          -0.0391606 -0.0474959 0.203472 0.26285 0.260191 0.269312
          0.374349 0.333142 0.477178 0.345308 0.169372 0.167554
          0.154846 0.172928 0.0771644 0.114495 0.118271 0.106287
          0.128366 -0.0523907 0.0887269 0.044791 0.203415 0.314863
          0.237981 0.128366 0.0829014 0.0441782 0.0356243 0.0758476
          0.672307 0.44205 0.554677 0.500981 0.175656 0.176707
          0.178948 0.183085 0.183178 0.183085 0.188423 0.181922
          0.188423 0.183085 0.215759 0.177787 0.167554 0.179579
          0.178948 0.176707 0.333142 0.189242 0.374349 0.257122
          0.333142 0.189242 0.345308 0.374349 0.0919467 0.055218
          0.129918 0.0880873 0.496235 0.41749 0.387594 0.399897
          0.364843 0.279451 0.280536 0.317265 0.445539 0.560566
          0.530358 0.694104 0.640978 0.551926 0.549512 0.499489
          0.328671 0.270998 0.24366 0.253697 0.194202 0.165532
          0.185334 0.139782 0.0893929 0.0313912 0.0577682 0.0700022
          0.173365 0.176476 0.206879 0.195952 0 0.00613925
          0 0 0.428379 0.372622 0.44217 0.45466
          0.509302 0.578245 0.716643 0.564165 -0.0525861 -0.11621
          -0.0401972 -0.0327653 -0.108758 -0.119881 -0.102932 -0.0607624
          0.173 0.195515 0.17279 0.173041 0.177787 0.184506
          0.185334 0.158522 0.315893 0.247711 0.278414 0.296311
          0.117525 0.0560741 0.139017 0.0566149 0.41749 0.299638
          0.460626 0.395388 0.22557 0.168965 0.211839 0.188444
          0.124865 0.230729 0.173799 0.117851 0.00765813 0.00714858
          0.0307875 0 0.44205 0.257122 0.395931 0.318274
          -0.0607624 -0.126512 -0.088756 -0.0284574 0.133766 0.294959
          0.273528 0.165846 0.186008 0.20704 -0.0194793 0.170346
          0.465399 0.371953 0.551926 0.540308 0.600635 0.509302
          0.441927 0.505653 0.212652 0.133766 0.120473 0.0960629
          0.486593 0.457237 0.46044 0.348836 0.0127683 -0.103051
          -0.0840805 -0.0303082 0.236193 0.293607 0.345197 0.347512
          0.188423 0.171214 0.203198 0.191011 0.147867 -0.0578161
          -0.0316434 0.068297 0.267714 0.196263 0.247711 0.217644
          0.217421 0.201068 0.0960629 0.212652 0.348836 0.258244
          0.272319 0.173799 0.162981 0.0768571 0.167424 0.130594
          0.143772 0.196052 0.13712 0.157521 0.288575 0.280415
          0.286476 0.23471 -0.00718751 -0.0401972 -0.0658888 -0.0327653
          0.187251 0.18615 0.259363 0.139282 0.0102294 0.055218
          0.0389992 -0.0219125 0.158713 0.0844988 0.16105 0.0771466
          0.516936 0.643071 0.496235 0.62833 0.631716 0.645948
          0.495762 0.594527 0.26683 0.262477 0.183164 0.269356
          0.139827 0.130043 0.145661 0.159927 -0.0401972 -0.128186
          -0.0538186 -0.0658888 0 0 0 0.00878838
          0.0845877 0.0252257 0.117877 0.0452458 0.373718 0.283203
          0.299638 0.269246 -0.0658888 -0.0401972 -0.122225 -0.0327653
          0.539956 0.451127 0.553202 0.564165 0.502812 0.334286
          0.409685 0.484097 0.361484 0.314863 0.349722 0.4665
          0.364843 0.373512 0.317265 0.39061 0.702014 0.477178
          0.542691 0.705183 0.0857983 0.0209038 0.113962 0.0540416
          0.08759 0.118225 0.15297 0.187113 0.128974 0.211578
          0.119924 0.279769 0.318274 0.374349 0.554677 0.517372
          -0.0454728 0.0107608 0.0470197 -0.0432089 0.237825 0.339176
          0.325379 0.317615 0.587716 0.474926 0.589482 0.583484
          -0.0295207 -0.0876838 -0.0501823 -0.00765868 0.477178 0.329965
          0.4665 0.522672 0.112681 0.317615 0.279769 0.198264
          0.176476 0.150219 0.173365 0.182059 -0.0953438 -0.065013
          -0.0748015 -0.0367899 -0.0117854 -0.0547892 -0.0144841 -0.0365595
          0.210866 0.21655 0.282072 0.193506 -0.0303082 0.0452458
          0.0166565 -0.0365529 -0.0453011 -0.0481754 0.0804092 -0.0321081
          0.10098 0.16914 0.10091 0.0920557 0.00945855 0.0185148
          0.0642946 0.00753187 0.349722 0.477379 0.407349 0.346798
          -0.108082 -0.0171008 -0.0525861 -0.0354252 0.0358098 0.0675574
          0.0774893 0.0279292 0.0174988 0 0.0450981 0.0547054
          -0.0171008 -0.0525861 0.0098671 0.0360046 0.351173 0.253788
          0.349309 0.336885 0.343916 0.29765 0.351222 0.260874
          0.712901 0.712961 0.583709 0.719557 0.112514 0.186008
          0.20704 -0.0194793 0.0540416 0.0857983 0.0209038 0.0649561
          0.068297 0.105133 -0.0655243 0.177901 0.201734 0.168965
          0.194202 0.22557 -0.0897965 -0.106391 0.0185148 -0.0854006
          0.0804092 -0.0568878 0.105133 0.13459 0.269312 0.269356
          0.185367 0.15297 0.367694 0.304287 0.267714 0.332843
          0.40384 0.314828 0.491887 0.41749 0.0828364 0.202133
          0.0303563 0.201068 0.0829014 0.0758476 0.0644315 0.111257
          0.204545 0.228727 0.204545 0.215453 0.270667 0.376374
          0.334915 0.280536 0.540798 0.432326 0.564627 0.575595
          0.0975126 0.0893929 0.126155 0.134934 0.701053 0.542691
          0.539956 0.4665 0.347512 0.552352 0.388683 0.473613
          0.10116 0.123689 0.158016 0.126057 0.169372 0.153352
          0.160877 0.164186 -0.122119 -0.0168768 -0.0443746 0.00633645
          0.0560741 0.0372527 0.130594 0.0220962 0.272319 0.30705
          0.46044 0.349309 0.240274 0.270667 0.165846 0.216007
          0.103863 0.0915026 0.0660439 0.0514415 0.240642 0.24453
          0.30705 0.181637 0.460286 0.237981 0.475537 0.329965
          -0.0370501 0.147113 0.0392936 0.101692 0.257122 0.333142
          0.16556 0.330553 0.0471266 0.0313912 0.0700022 0.00904144
          0.0484699 0.0277173 0.0356243 0.0222848 0.105429 0.0937305
          0.194208 0.12311 0.205207 0.177514 0.187816 0.169153
          0.539956 0.564165 0.553202 0.703544 0.721535 0.576506
          0.654031 0.721043 0.0845378 0.238844 0.131058 -0.00325904
          0.278414 0.249546 0.245953 0.23176 -0.12951 -0.131659
          -0.0382095 -0.130573 0.17973 0.245913 0.212652 0.0565896
          0.0127683 0.0452458 0.0166565 -0.0303082 0.572815 0.692943
          0.516531 0.698744 0.0649561 0.0857983 0.0209038 0.0130412
          0.0644315 0.0356243 0.0816611 0.0802511 0.538118 0.333142
          0.477178 0.374349 0.148028 0.174612 0.18739 0.169153
          -0.102932 -0.119881 -0.0885361 -0.0607624 0.332843 0.315893
          0.247711 0.298409 0.152229 0.171138 0.180506 0.152649
          0.0512105 -0.0517243 -0.0630916 -0.061984 0.16486 0.185367
          0.203472 0.187662 0.194464 0.248905 0.238917 0.254776
          0.0577682 -0.0120033 0.00904144 0.0313912 0.137762 0.169675
          0.136467 0.16577 0.0700022 0.0389992 0.00182079 0.00904144
          0.152232 0.170921 0.238033 0.169053 0.563634 0.424412
          0.520946 0.484097 0.0774893 0.12311 0.116656 0.188511
          0.0250515 0.0220962 0.181637 0.00800832 0.587716 0.509965
          0.59149 0.59459 0.209323 0.270875 0.16486 0.268345
          0.16486 0.270875 0.209323 0.206243 0.347585 0.320388
          0.392657 0.286476 0.0388059 0.0376237 0.00316235 0.0649561
          0.210866 0.193506 0.282072 0.193506 0.399897 0.376374
          0.454738 0.42471 0.354887 0.268413 0.265826 0.280936
          0.0665477 0.152232 0.0536057 0.170921 0.141621 0.0827109
          0.139827 0.130043 0.555537 0.491887 0.542925 0.498836
          0.157308 0.217644 0.196052 0.169675 0.655136 0.540308
          0.499489 0.533951 0.141621 0.139827 0.157185 0.153867
          0.055218 0.0922398 0.0547873 0.126494 0.0389992 0.0919467
          0.123149 0.0880873 0.64244 0.457237 0.56349 0.486593
          0.496235 0.40384 0.41749 0.399897 0.250619 0.301902
          0.218435 0.289096 0.584148 0.474926 0.583484 0.501895
          0.484097 0.28116 0.307201 0.334286 0.0853681 0.0740804
          0.0665477 0.139282 0.221732 0.182197 0.188444 0.148011
          0.721535 0.566235 0.654031 0.576506 0.344774 0.286476
          0.337729 0.245796 0.0607489 0.0752352 0.0222848 0.0802511
          0.522544 0.610188 0.48037 0.501687 0.358861 0.268148
          0.344425 0.317734 0.478524 0.402724 0.516255 0.480373
          0.151547 0.19541 0.180068 0.172972 0.0857983 0.0649561
          0.143686 0.0761817 0.158586 0.202133 0.0561909 0.252819
          0.123689 0.126057 0.0758894 0.157521 0.520411 0.684195
          0.634897 0.560566 0.0845378 0.203415 0.186008 0.238844
          0.183164 0.140684 0.158713 0.118225 0.477178 0.329965
          0.522672 0.311949 0.203472 0.156523 0.185367 0.10775
          0.258765 0.183089 0.24453 0.260874 0.603631 0.508874
          0.589482 0.59459 0.119924 0.0687574 -0.0254253 0.121136
          0.08759 0.118225 0.0185148 0.0359931 -0.0115162 0.00613925
          0.00765813 0.0100932 0.0983943 0.28116 0.105133 0.20449
          0.113946 0.0934466 0.166261 0.17088 0.270667 0.230411
          0.209067 0.165846 0.19858 0.19858 0.208235 0.214937
          0.0127683 0.00945855 -0.0840805 -0.0331069 0.334286 0.177901
          0.307201 0.326886 -0.106391 -0.0730244 -0.0323988 -0.0182043
          0.170346 0.224316 0.349722 0.20704 0.286476 0.217644
          0.238887 0.267714 0.566235 0.422856 0.420039 0.526269
          0.0342889 0.0358098 0.0991233 0.0937305 0.23471 0.280415
          0.286476 0.238887 0.177901 0.0824626 0.068297 0.113661
          0.118271 0.106287 0.152649 0.123387 0.491887 0.576437
          0.496235 0.41749 0.203198 0.177787 0.19541 0.180068
          0.36166 0.333011 0.278739 0.337729 -0.0365595 -0.0367899
          -0.0115162 -0.0354252 -0.0326251 0.0845378 0.112514 0.186008
          0.198264 0.13459 0.177901 0.0824626 0.162798 0.17471
          0.169372 0.157544 0.229005 0.23176 0.247711 0.235742
          0.229005 0.196237 0.247711 0.23176 0.0807397 0.117393
          0.136467 0.121689 -0.0120033 -0.0581836 0.0169673 -0.0515571
          0.16328 0.130874 0.158522 0.152229 0.358861 0.363754
          0.344425 0.402724 -0.12951 -0.052492 -0.0538186 -0.131659
          -0.0285253 -0.0397156 0.141115 -0.0414189 0.105195 0.0898911
          0.141866 0.0327665 0.69147 0.535403 0.553382 0.690279
          0.156925 0.160795 0.156445 0.226725 0.198264 0.317615
          0.387406 0.326886 0.177514 0.193758 0.18229 0.198031
          0.0471266 0.00904144 0.0700022 0.0348273 0.300169 0.349891
          0.382239 0.40147 -0.0321081 0.0844691 0.130689 -0.0208577
          0.124865 0.173799 0.230729 0.272319 0.168965 0.112132
          0.145625 0.111914 0.343916 0.36166 0.344774 0.438328
          0.0297149 0.15145 0.054551 0.109161 0.343916 0.260874
          0.24453 0.29765 0.390222 0.394078 0.408602 0.343228
          0.394078 0.38125 0.408602 0.343228 0.432326 0.351173
          0.432167 0.368363 0.118354 0.0811437 0.125307 0.145661
          0.114495 0.143848 0.118271 0.106287 0.156925 0.209562
          0.183089 0.13282 0.527923 0.666764 0.684195 0.673207
          0.0642946 0.105915 0.117498 0.16486 0.171797 0.0917604
          0.141115 -0.0284562 0.325379 0.371903 0.465816 0.339176
          0.584036 0.697242 0.704115 0.69147 -0.0168768 -0.0365529
          0.048454 -0.00588535 0.473613 0.553202 0.451127 0.551693
          0.134253 0.212099 0.225279 0.201181 0.42471 0.376374
          0.48037 0.334915 0.0166565 0.0853681 0.0740804 -0.0168768
          0.0698984 0.162981 0.124865 0.0250515 0.0665477 0.15721
          0.110453 0.152232 0.198031 0.215453 0.193318 0.218194
          0.477178 0.311949 0.522672 0.345308 0.147867 0.257122
          0.330553 0.376157 0.269518 0.257122 0.147867 0.376157
          -0.0568878 -0.0565269 0.105133 0.13459 0.196052 0.208244
          0.157521 0.143772 -0.00765868 0.0549394 0.0486358 0.0390515
          0.575595 0.59157 0.432326 0.432143 -0.0538186 -0.128186
          -0.130076 -0.0658888 0.31981 0.520411 0.394227 0.317615
          0.0102294 0.0547873 0.00945855 0.10775 0.0983943 0.0512105
          -0.0630916 -0.061984 0.522544 0.516936 0.523184 0.454738
          0 0.0174988 0 0.00878838 0.18286 0.195749
          0.197806 0.179546 0.69147 0.553382 0.674729 0.690279
          0.311359 0.193506 0.267912 0.193506 0.0130412 -0.0423323
          -0.00690965 0.0108447 0.180068 0.19541 0.205167 0.172972
          0.215453 0.240259 0.218194 0.235505 -0.0474959 0.113661
          -0.0418792 -0.0584419 0.314828 0.35344 0.491887 0.41749
          0.0920557 0.117074 0.10091 0.0708915 0.0353563 -0.0446746
          -0.0584268 0.00753187 0.106339 0.180739 0.157308 0.160795
          0.17425 0.108892 0.0804092 0.195518 0.0804219 0.140684
          0.057422 0.0470197 0.543584 0.368946 0.476062 0.539956
          0.600665 0.457237 0.64244 0.486593 0.317615 0.339176
          0.465816 0.445539 -0.108082 -0.0482987 -0.0354252 -0.0950276
          0.17137 0.185038 0.206809 0.143934 0.118271 0.0957739
          0.151547 0.0855231 0.411463 0.276125 0.409685 0.368363
          0.0574409 0.0441782 0.028315 0.0140221 0.055218 -0.0280559
          0.00286609 -0.0219125 -0.0397156 -0.0497639 0.0917604 -0.0523907
          0.526269 0.505653 0.566235 0.654031 -0.108758 -0.11621
          -0.119881 -0.0525861 0.315947 0.454738 0.395929 0.376374
          0.373718 0.380334 0.458089 0.37796 0.120473 0.133766
          0.273528 0.165846 0.117525 0.0560741 0.156925 0.139017
          0.0130412 0.0098671 0.0540416 0.0155697 0.672307 0.554677
          0.685457 0.500981 0.554677 0.326886 0.445539 0.500981
          -0.128932 -0.0818359 -0.052492 -0.00588535 0.424977 0.517372
          0.710123 0.472775 0.263276 0.254776 0.261824 0.185038
          0.206809 0.185038 0.17137 0.194464 -0.122095 -0.0365529
          -0.12508 -0.0818359 -0.122095 -0.103051 -0.12508 -0.0365529
          0 0.0356243 0 0 0.164869 0.154597
          0.186348 0.170804 0.458089 0.37796 0.461908 0.373718
          0.0829014 0.0902995 0.0816611 0.0356243 0.0108537 -0.052492
          -0.00718751 -0.0538186 0.141866 0.0898911 0.104284 0.0327665
          0.505653 0.566235 0.509302 0.422856 0.0700022 0.118174
          0.0975126 0.0971336 0.373718 0.269246 0.301773 0.303986
          0.185367 0.267952 0.205372 0.269312 0.503551 0.552352
          0.69147 0.675159 0.572815 0.698744 0.709794 0.702014
          0.105195 0.113962 0.113946 0.201181 0.701053 0.543584
          0.696654 0.539956 0.208244 0.16577 0.196052 0.208914
          0.347512 0.491 0.388683 0.552352 0.326886 0.177901
          0.198264 0.13459 0.474926 0.458699 0.584148 0.509965
          0.147867 -0.0316434 0.16556 0.0887269 0.238887 0.207377
          0.228412 0.249546 0.300169 0.17973 0.212652 0.209804
          -0.0443746 0.0359931 0.00229256 0.00633645 0.252819 0.217421
          0.35344 0.201068 0.432326 0.421332 0.46044 0.555583
          0.326886 0.177901 0.257122 0.318274 0.719557 0.583709
          0.726014 0.509302 0.583709 0.551693 0.509302 0.719557
          0.153 0.166518 0.169372 0.16328 0.387815 0.319383
          0.335556 0.311359 0.0898911 0.104284 0.0636064 0.141866
          0.0130412 0.0857983 0.0209038 0.0108447 0.113519 0.0828364
          0.0960629 0.201068 0.445539 0.694104 0.517372 0.500981
          0.620393 0.56349 0.555583 0.46044 0.501895 0.432863
          0.457526 0.542081 0.335556 0.267912 0.335164 0.311359
          0.301773 0.395388 0.26653 0.299638 0.313847 0.283203
          0.387594 0.373718 0.583484 0.475228 0.565696 0.542081
          0.151948 0.123339 0.141866 0.215795 0.17973 0.0565896
          0.212652 0.0874426 0.212652 0.0565896 0.0960629 0.0874426
          0.173 0.181061 0.195515 0.211839 0.317265 0.268413
          0.301902 0.289096 -0.0953438 -0.0277683 -0.0382728 -0.0354252
          0.263276 0.267997 0.251392 0.209323 0.253788 0.181637
          0.185762 0.136757 -0.0171008 0.00486405 0.0279292 -0.0354252
          0.106339 0.079169 0.133288 0.180739 0.38689 0.252819
          0.26653 0.206569 -0.106391 -0.0730244 -0.0182043 -0.0602992
          0.555537 0.690279 0.576437 0.491887 0.318274 0.326886
          0.387406 0.517372 0.196263 0.170804 0.20182 0.207377
          0.367694 0.304287 0.333011 0.337729 0.24497 0.245796
          0.226725 0.180739 0.071029 0.079169 0.13282 0.0502769
          0.349309 0.30705 0.46044 0.421332 0.0827109 0.0893929
          0.126155 0.0975126 0.538118 0.702014 0.542691 0.697082
          0.141866 0.104284 0.0636064 0.156717 0.262477 0.139282
          0.259363 0.253552 0.646271 0.629611 0.492783 0.618914
          -0.0681067 -0.0449147 -0.0658888 0.00554623 0.145403 0.0915026
          0.099324 0.0761817 -0.0953438 -0.0367899 -0.0748015 -0.0354252
          0.551693 0.706821 0.704115 0.584036 0.39061 0.373512
          0.317265 0.388864 0.245796 0.230153 0.209562 0.180739
          0.0807397 0.117393 0.0954567 0.136467 0.276125 0.147113
          0.368363 0.27013 -0.0446746 -0.0854006 -0.0584268 0.00753187
          0.0771466 0.08759 0.118225 0.0185148 0.327877 0.409685
          0.471473 0.492783 0.0098671 0.0155697 0.0279292 0.0540416
          0.351222 0.226725 0.260874 0.29765 0.520411 0.560566
          0.634897 0.530358 0.172928 0.154846 0.170804 0.160153
          0.474926 0.457526 0.475228 0.542081 0.17471 0.169372
          0.170804 0.175656 0.203472 0.10775 0.185367 0.096068
          0.0277173 0.0356243 0 0 0.0130412 -0.0185362
          -0.0607624 -0.0423323 0.599127 0.533699 0.565696 0.589482
          0.520411 0.600665 0.684195 0.666764 0.535403 0.491887
          0.553382 0.690279 0.0829014 0.0902995 0.0356243 0.0519787
          0.364843 0.279451 0.268785 0.280536 -0.05098 -0.0579892
          -0.0148586 -0.0144841 0.185334 0.194464 0.17137 0.129918
          0.377788 0.304318 0.270998 0.304287 0.22557 0.168965
          0.173041 0.211839 0.0256823 -0.033664 -0.0584268 0.0353563
          0.424412 0.28116 0.307201 0.484097 0.0714426 0.123689
          0.0758894 0.13712 0.105195 0.113962 0.201181 0.187575
          0.0845877 0.183531 0.16914 0.117074 0.153728 0.261654
          0.163265 0.166401 0.438328 0.421482 0.344774 0.477897
          0.631716 0.62833 0.522544 0.645948 0.374364 0.261654
          0.245913 0.153728 0.383928 0.451908 0.37796 0.461908
          0.383928 0.385207 0.37796 0.451908 -0.0401972 -0.128186
          -0.0658888 -0.122225 0.483334 0.376293 0.261654 0.374364
          0.586206 0.374364 0.482423 0.441927 0.374364 0.404649
          0.482423 0.356278 0.196263 0.217644 0.171435 0.169675
          0.267912 0.222369 0.338076 0.305763 0.349891 0.245913
          0.276521 0.404649 0.411463 0.273244 0.409685 0.276125
          0.345308 0.189242 0.318274 0.374349 0.542691 0.477178
          0.522672 0.705183 0.542691 0.329965 0.4665 0.477178
          0.118225 0.193335 0.187113 0.187662 -0.0115162 0.00765813
          0.028315 0.0100932 -0.0115162 0.00486405 0.0100932 0.028315
          0.105195 0.141866 0.104284 0.0327665 0.19703 0.206243
          0.193335 0.117498 0.183164 0.187113 0.269356 0.262477
          0.113519 0.0960629 0.133766 0.217421 0.0853681 -0.0365529
          0.048454 -0.0168768 0.486593 0.348836 0.432143 0.492783
          0.509965 0.480039 0.463114 0.390222 0.521873 0.411463
          0.409685 0.530506 -0.0126816 -0.0382728 -0.0240264 0.00316235
          0.334286 0.177901 0.326886 0.13459 0.376293 0.37001
          0.347512 0.473613 0.245953 0.195749 0.197806 0.18286
          0.0127683 0.00945855 0.08759 0.096068 0.332843 0.304318
          0.304287 0.247711 0.163265 0.364277 0.170346 0.224316
          0.096068 0.15297 0.117074 0.185367 0.0971336 0.0771644
          0.118271 0.118354 0.328671 0.270998 0.253697 0.239659
          0.237915 0.376293 0.347512 0.473613 0.268413 0.317265
          0.279451 0.280936 -0.128932 -0.12508 -0.12951 -0.0818359
          0.0389992 0.0169673 0.0555938 -0.000164951 0.521873 0.530506
          0.409685 0.61602 0.548184 0.501687 0.550847 0.452807
          0.257413 0.219527 0.25696 0.228412 0.240274 0.270667
          0.334915 0.268785 0.0549394 0.0390515 0.105429 0.0486358
          0.177901 0.113661 0.257122 0.318274 0.349891 0.276521
          0.382239 0.404649 0.0463607 0.153728 0.202133 0.149429
          0.230411 0.301902 0.19858 0.218066 0.16328 0.175656
          0.169372 0.180128 0.157308 0.0954567 0.117393 0.136467
          0.496235 0.516936 0.399897 0.387594 0.257122 0.0887269
          0.16556 0.189242 -0.0482987 -0.0365595 -0.0320968 0.00486405
          0.0223666 0.0844691 0.195909 0.128655 0.193318 0.180128
          0.180506 0.204545 0.209269 0.147001 0.155598 0.206569
          0.247711 0.208914 0.186348 0.23176 0.477379 0.407349
          0.576506 0.522672 -0.0481754 0.13459 -0.0568878 0.0804092
          0.188444 0.121469 0.165532 0.145625 0.113661 0.0917604
          0.189242 0.195943 0.195952 0.188625 0.206879 0.219527
          0.276521 0.245913 0.300169 0.17973 0.119924 -0.0342884
          0.128974 0.112681 0.183085 0.197736 0.215759 0.184506
          0.129881 0.106339 0.173956 0.160795 0.128366 0.044791
          0.237981 0.0477449 0.173 0.211839 0.195515 0.173041
          0.173 0.211839 0.173041 0.168965 0.18286 0.179546
          0.197806 0.153867 0.236272 0.250899 0.248905 0.201734
          0.166518 0.173041 0.184506 0.158522 -0.0284574 -0.0209055
          -0.0185362 0.0209038 0.576506 0.526269 0.654031 0.542112
          -0.00718751 -0.0401972 0.0509295 -0.0538186 0.620367 0.549512
          0.526642 0.499489 0.520411 0.600665 0.666764 0.48131
          0.344774 0.392657 0.337729 0.341916 0.387594 0.299638
          0.41749 0.395388 -0.103051 -0.0331069 -0.109993 -0.111952
          -0.0365529 -0.111952 -0.122119 -0.0443746 0.345308 0.195943
          0.189242 0.0917604 0.616494 0.526642 0.599127 0.603631
          -0.0953438 -0.108758 -0.102932 -0.0277683 0.237915 0.37001
          0.347512 0.376293 0.0209038 -0.0284574 -0.0607624 -0.0185362
          0.153728 0.166401 0.308892 0.261654 0.581837 0.697242
          0.552352 0.675159 0.236193 0.345197 0.237915 0.347512
          0.20449 0.0436386 0.068297 0.177901 0.0700022 0.0682129
          0.0971336 0.0348273 0.364277 0.477379 0.509302 0.564165
          0.208709 0.211578 0.339227 0.121136 0.203472 0.187662
          0.206243 0.16486 -0.127933 -0.0449147 -0.052492 -0.0658888
          0.15145 0.225286 0.268257 0.178872 0.0108537 0.0509295
          0.0578659 -0.0382095 0.0098671 0.0279292 0.0774893 0.0540416
          0.105915 0.110876 0.188761 0.138454 0.399113 0.395929
          0.282637 0.315947 0.0771466 0.0844988 0.16105 0.105463
          0.477379 0.526269 0.566235 0.576506 -0.0326251 0.186008
          0.112514 -0.0194793 0.118354 0.0811437 0.145661 0.130874
          0.186348 0.17471 0.207377 0.197806 0.23471 0.280415
          0.238887 0.235505 0.260676 0.21655 0.282072 0.210866
          0.247082 0.235742 0.23176 0.208434 0.217546 0.416411
          0.348836 0.286155 0.201734 0.248905 0.194464 0.188752
          0.328671 0.24366 0.304318 0.253697 0.193506 0.282072
          0.311359 0.193506 0.270875 0.274181 0.261416 0.206243
          0.206243 0.274841 0.261416 0.19703 0.430173 0.328671
          0.368133 0.348094 0.0675574 0.0758476 0.0644315 0.028315
          0.0348273 0.0682129 0.0971336 0.0346219 0.206569 0.0458227
          0.0561909 0.172868 0.195952 0.17471 0.207377 0.20182
          0.0665477 0.0470043 0.0536057 0.152232 0.173 0.173041
          0.141749 0.168965 0.0185148 0.00945855 -0.0897965 -0.0854006
          -0.0327653 -0.0681067 -0.0658888 -0.00765868 0.280536 0.19858
          0.279451 0.230411 0.290634 0.286476 0.344774 0.245796
          -0.130573 -0.0161619 -0.0454728 -0.132317 0.344774 0.341916
          0.351222 0.44975 0.290634 0.288575 0.286476 0.245796
          0.341916 0.286476 0.344774 0.290634 0.333011 0.304287
          0.278739 0.337729 0.250628 0.268257 0.27013 0.376632
          0.339227 0.345308 0.472775 0.407349 0.195952 0.20182
          0.207377 0.228412 0.139017 0.130594 0.183089 0.207633
          0.139017 0.0560741 0.183089 0.130594 0.526328 0.432326
          0.336885 0.372622 0.166518 0.17279 0.184506 0.173041
          0.335556 0.338076 0.404221 0.335164 0.130689 0.11677
          0.173799 -0.00969368 0.372622 0.258765 0.257074 0.343916
          0.171138 0.152229 0.180506 0.172442 0.432326 0.526328
          0.555583 0.575595 0.0127683 -0.0840805 -0.0801759 -0.0303082
          0.539956 0.709038 0.578245 0.564165 -0.0115162 0.00765813
          -0.0148586 -0.0144841 0.709794 0.712817 0.576506 0.721043
          0.215453 0.228727 0.204545 0.218194 -0.0117854 0.0140221
          -0.0115162 0.00765813 0.260676 0.210866 0.282072 0.21495
          0.125349 0.0758476 0.111257 0.0675574 0.169153 0.129881
          0.173956 0.167174 0.139282 0.15721 0.0665477 0.152232
          0.128974 0.261534 0.279769 0.112681 0.538118 0.542691
          0.63083 0.697082 0.166462 0.17471 0.197806 0.195952
          0.273244 0.17425 0.0983943 0.28116 0.215759 0.232606
          0.19541 0.185334 0.248905 0.201734 0.238917 0.22557
          0.505427 0.538118 0.63083 0.692943 -0.0115162 0.0140221
          0.00486405 0.028315 0.0450981 0.0752352 0.0222848 0.0514415
          0.244901 0.170921 0.251856 0.238033 0.0360046 0.0774893
          0.116656 0.113946 0.151547 0.118271 0.171138 0.152229
          0.08759 0.187113 0.15297 0.187662 0.388864 0.373512
          0.268413 0.280936 0.48037 0.610188 0.548184 0.501687
          0.550847 0.524651 0.587098 0.509731 0.424412 0.28116
          0.384774 0.20449 0.206243 0.19703 0.188761 0.122618
          0.0845378 0.186008 0.131058 0.238844 0.325379 0.339176
          0.465816 0.317615 0.00586034 0.0886722 0.147113 -0.0370501
          0.40147 0.40384 0.349891 0.491887 -0.0365595 -0.0547892
          -0.0144841 -0.0726572 0.185367 0.26285 0.203472 0.269312
          0.672307 0.484097 0.500981 0.657557 0.209269 0.299638
          0.155598 0.269246 0.521873 0.384774 0.409685 0.411463
          0.254776 0.245603 0.238917 0.194464 0.0855231 0.0508581
          0.120011 0.114495 0.325688 0.517372 0.472775 0.345308
          -0.0144841 -0.0547892 -0.0579892 -0.0726572 0.20182 0.204545
          0.193318 0.215453 0.500108 0.411463 0.591099 0.368363
          0.178948 0.175656 0.172928 0.167554 -0.122119 -0.12951
          -0.0168768 -0.0382095 0.136467 0.0954567 0.0714426 0.13712
          0.221732 0.250899 0.236272 0.188444 0.0893929 0.0577682
          0.111914 0.0700022 0.317615 0.520411 0.560566 0.465816
          0.294959 0.196196 0.270667 0.165846 -0.0131994 -0.0229897
          0.12317 -0.0285253 0.475228 0.457526 0.565696 0.542081
          0.461908 0.399113 0.475228 0.508874 0.311949 0.407349
          0.171797 0.346798 0.178216 0.255679 0.229013 0.267072
          0.328671 0.270998 0.304318 0.24366 0.0566149 0.130594
          0.139017 0.0768571 -0.0840805 -0.103051 -0.0801759 -0.0303082
          0.270667 0.280536 0.334915 0.268785 0.327201 0.364277
          0.163265 0.224316 0.163265 0.170346 0.00285029 -0.0131994
          0.645948 0.496235 0.495762 0.542925 0.27013 0.268257
          0.351173 0.376632 0.45466 0.372622 0.480373 0.492079
          0.167554 0.175656 0.172928 0.169372 0.472775 0.572815
          0.712817 0.709794 0.48131 0.600665 0.666764 0.520384
          0.195518 0.286155 0.130689 0.237825 0.149429 0.261654
          0.163265 0.153728 0.0166565 -0.0365529 0.0853681 -0.0168768
          0.35344 0.201068 0.314828 0.245913 0.17973 0.153728
          0.0565896 0.117193 0.0752352 0.0222848 0.0484699 0
          -0.100392 -0.11324 -0.0501823 -0.0876838 0.0774893 0.166261
          0.188511 0.113946 0.110453 0.0578659 0.0509295 0.15721
          0.618914 0.492783 0.432143 0.603846 0.508874 0.474926
          0.475228 0.589482 0.420039 0.346798 0.299283 0.405571
          0.0804219 0.158259 0.158713 0.0844988 0.0983943 0.17425
          0.105133 0.28116 0.522672 0.329965 0.4665 0.311949
          0.117074 0.117877 0.183531 0.205372 0.0700022 0.0313912
          0.0577682 0.00904144 0.509965 0.390222 0.461807 0.399113
          0.299053 0.277729 0.432143 0.348836 -0.0117854 -0.0144841
          -0.0115162 -0.0365595 0.0771644 0.118271 0.114495 0.0855231
          -0.0168768 0.0166565 -0.0443746 0.00633645 0.716643 0.477379
          0.566235 0.721535 0.236193 0.388683 0.345197 0.293607
          -0.00718751 -0.0401972 -0.0538186 -0.0658888 0.17279 0.195515
          0.179579 0.176707 0.167554 0.176707 0.178948 0.175656
          0.204545 0.182059 0.180506 0.204545 0.204545 0.182059
          0.204545 0.228727 0.176707 0.166518 0.183085 0.175656
          0.00815519 0.00229256 0.0804219 0.0470197 0.260676 0.21495
          0.282072 0.269246 0.247711 0.235742 0.278414 0.296311
          0.549512 0.458089 0.526642 0.499489 0.564528 0.424412
          0.376157 0.520946 0.0463607 0.0171941 0.153728 0.149429
          0.151547 0.17137 0.19541 0.172972 0.0540416 0.0098671
          0.0130412 0.0209038 0.206569 0.172868 0.0561909 0.252819
          0.0740804 0.15297 0.118225 0.187113 0.105133 -0.0687295
          -0.0655243 -0.0565269 0.157544 0.154597 0.164869 0.170804
          0.283203 0.18332 0.234576 0.166313 0.112681 0.195909
          0.261534 0.317615 -0.108082 -0.0950276 -0.0354252 -0.0953438
          0.0983943 0.105133 0.0436386 0.20449 0.150219 0.145661
          0.125307 0.176476 -0.0557656 0.0256823 -0.0584268 0.0547873
          0.173799 0.117851 0.188323 0.108892 0.153867 0.139827
          0.159927 0.130043 0.616494 0.516936 0.603631 0.619954
          0.195952 0.204545 0.20182 0.228412 0.392657 0.337729
          0.438328 0.344774 0.329965 0.333142 0.345308 0.477178
          -0.0397156 -0.0418792 0.0917604 -0.0497639 -0.12951 -0.0818359
          -0.12508 -0.0168768 0.526642 0.516936 0.616494 0.499489
          -0.0303082 -0.0538285 -0.103051 -0.0460202 0.118271 0.114495
          0.143377 0.143848 0.267714 0.290625 0.320388 0.298409
          0.480039 0.417589 0.463114 0.390222 -0.00718751 -0.00765868
          0.0486358 -0.0327653 -0.0171008 0.0098671 0.0374318 0.0360046
          -0.0331069 -0.111952 -0.103051 -0.0303082 0.269246 0.155598
          0.163942 0.234576 0.492783 0.348836 0.432143 0.416411
          0.631716 0.522544 0.495762 0.645948 0.18739 0.205207
          0.177514 0.198031 0.131058 0.149429 0.00285029 0.0112062
          0.188423 0.203198 0.19375 0.191011 0.326886 0.339176
          0.445539 0.334286 0.0063197 0.121709 -0.000663582 -0.0126079
          0.186008 0.112514 0.20704 0.314863 0.170346 0.149429
          0.00285029 0.131058 0.111257 0.0675574 0.109537 0.153858
          0.22557 0.173041 0.216435 0.211839 0.334286 0.500981
          0.445539 0.326886 0.128974 0.195909 0.261534 0.112681
          0.347512 0.37001 0.503551 0.473613 0.502812 0.673207
          0.637193 0.629611 0.18286 0.188625 0.197806 0.219527
          0.20449 0.0436386 0.147867 0.068297 0.348836 0.173799
          0.230729 0.217546 0.048454 -0.00588535 0.0665477 -0.0168768
          0.182197 0.188752 0.248905 0.201734 0.182197 0.188752
          0.201734 0.165532 0.140684 0.0578659 0.0470197 0.0804219
          0.335694 0.280415 0.286476 0.288575 0.300169 0.245913
          0.276521 0.349891 -0.0320968 0.0140221 0.0342889 0.00486405
          0.117074 0.15297 0.117877 0.205372 0.12311 0.173193
          0.194208 0.193086 -0.0327653 -0.0501823 0.0374318 -0.0171008
          -0.00325904 0.238844 0.131058 0.236193 0.0857983 0.113962
          0.143686 0.0649561 0.194202 0.201734 0.238917 0.194464
          0.0130412 0.0660439 0.0155697 0.0540416 0.37001 0.503551
          0.35344 0.38689 0.0130412 -0.0185362 -0.0423323 0.0108447
          0.483334 0.551693 0.704115 0.535403 0.0578659 -0.0382095
          0.0470197 0.00633645 0.37001 0.35344 0.314828 0.245913
          -0.0194793 0.131058 0.00285029 0.0112062 0.563634 0.424412
          0.564528 0.520946 0.376293 0.551693 0.483334 0.535403
          -0.0726572 -0.0748015 -0.0365595 -0.0950276 0.465399 0.503551
          0.491 0.347512 0.672307 0.520946 0.500981 0.484097
          0.253788 0.225286 0.257074 0.351173 -0.0854006 -0.0182043
          0.00753187 -0.0602992 0.294959 0.283203 0.272421 0.196196
          0.156925 0.180739 0.160795 0.226725 0.0740804 0.0578659
          0.140684 0.0804219 0.0471266 0.0700022 0.0971336 0.0348273
          0.110453 0.134253 0.160769 0.0509295 0.173 0.17279
          0.147967 0.173041 0.166518 0.16328 0.153 0.130874
          0.141621 0.126155 0.157185 0.139827 0.0250515 0.0566149
          0.0768571 0.130594 0.0108447 0.0388059 0.0130412 0.0649561
          0.399897 0.40384 0.320545 0.294959 0.278414 0.23176
          0.245953 0.247082 0.280536 0.230411 0.279451 0.268785
          0.230411 0.282637 0.280536 0.317265 0.48037 0.454738
          0.39061 0.376374 0.162981 0.130594 0.124865 0.0250515
          0.269356 0.274181 0.268345 0.187662 0.209323 0.138454
          0.188761 0.18506 0.610188 0.598111 0.548184 0.501687
          0.0971336 0.0682129 0.139782 0.0957739 0.105463 0.0771466
          0.0251875 0.0418954 0.500108 0.411463 0.432167 0.376632
          0.205207 0.187816 0.177514 0.193318 0.126494 0.138454
          0.0547873 0.105915 0.367694 0.267714 0.320388 0.332843
          0.0171941 0.149429 0.163265 0.153728 0.59149 0.463114
          0.509965 0.524651 0.521873 0.484097 0.637193 0.409685
          0 0 0.0484699 0 0.587716 0.474926
          0.584148 0.509965 0.0807397 0.136467 0.13712 0.143772
          0.125349 0.0991233 0.0675574 0.153858 -0.05098 -0.0496443
          -0.0579892 0 0.0853681 0.139282 0.187251 0.15297
          0.139282 0.187251 0.183164 0.262477 0.272319 0.349309
          0.230729 0.30705 0.198264 0.339176 0.326886 0.334286
          0.575595 0.432326 0.564627 0.585277 0.373512 0.44968
          0.446707 0.388864 0.244901 0.15721 0.230366 0.253552
          0.553382 0.37001 0.35344 0.491887 0.539956 0.361484
          0.553202 0.451127 0.273244 0.0983943 0.0886722 0.129141
          0.16328 0.166518 0.169372 0.175656 0.0540416 0.0649561
          0.0209038 0.0130412 0.301773 0.373718 0.303986 0.380334
          0.15796 0.169372 0.1666 0.157544 -0.0295207 -0.0501823
          -0.0327653 -0.00765868 0.223532 0.19541 0.237216 0.205167
          0.202133 0.245913 0.37001 0.261654 0.314828 0.217421
          0.212652 0.201068 0.17425 0.0804092 0.13459 0.195518
          0.0098671 0.0774893 0.113946 0.0540416 0.37001 0.201068
          0.35344 0.245913 0.124865 0.181637 0.230729 0.117851
          0.166462 0.188625 0.173365 0.195952 -0.0131994 -0.0126079
          0.121709 0.12317 0.598111 0.524651 0.550847 0.501687
          -0.0818359 -0.0365529 -0.0168768 -0.00588535 0.0714426 0.123689
          0.0482068 0.0758894 0.173799 -0.00969368 0.11677 0.124865
          0.0917604 -0.0418792 -0.0397156 -0.0284562 0.157185 0.153
          0.160877 0.17471 0.311949 0.349722 0.407349 0.346798
          0.475537 0.237981 0.368946 0.329965 0.00633645 0.0359931
          0.00229256 0.0740804 0.238887 0.196263 0.267714 0.217644
          0.563634 0.484097 0.384774 0.424412 0.152649 0.123387
          0.150219 0.118354 0.445539 0.694104 0.530358 0.517372
          0.185038 0.17137 0.194464 0.126494 -0.0117854 0.00714858
          0.0307875 0.00765813 0.151948 0.0898911 0.0636064 0.156717
          0.361484 0.20704 0.349722 0.314863 0.00229256 0.0740804
          0.0578659 0.00633645 0.0100932 0.00613925 0.00765813 0.0277173
          0.0360046 0.0098671 0.113946 0.0540416 0.169153 0.129881
          0.171435 0.173956 0.345308 0.572815 0.472775 0.477178
          0.185038 0.209323 0.251392 0.18506 0.206908 0.318274
          0.325688 0.113661 0.0804092 -0.0453011 -0.0568878 -0.0481754
          -0.0414189 0.112514 -0.0285253 -0.0326251 -0.0497639 0.0917604
          0.189242 0.113661 0.0222848 0.0174988 0.0514415 0.0244272
          0.486593 0.348836 0.46044 0.432143 0.0845877 0.148357
          0.183531 0.117877 0.0687574 -0.0288902 0.211578 0.119924
          0.206243 0.16486 0.187662 0.117498 0.44205 0.326886
          0.257122 0.318274 0.0330385 0.0698984 0.160511 0.124865
          0.180128 0.173365 0.180506 0.204545 0.20704 0.12317
          0.224316 0.349722 0.249546 0.228412 0.25696 0.219527
          0.333142 0.329965 0.542691 0.477178 0.387815 0.313847
          0.282072 0.282637 0.411463 0.273244 0.276125 0.250628
          0.503551 0.473613 0.535403 0.584036 0 0.0174988
          0 0.0222848 -0.0171008 0.0279292 0.0374318 0.0098671
          0.147867 0.068297 0.257122 0.177901 0.206243 0.187662
          0.193335 0.117498 0.20449 0.068297 0.147867 0.177901
          0.0389992 0.0555938 0.10091 0.123149 0.483334 0.376293
          0.404649 0.261654 0.177901 0.105133 -0.0655243 -0.0565269
          0.477379 0.346798 0.526269 0.407349 0.141621 0.0827109
          0.126155 0.139827 0.048454 -0.0168768 0.0665477 0.0853681
          0.373718 0.303986 0.380334 0.37796 0.522672 0.311949
          0.4665 0.349722 0.716643 0.566235 0.723765 0.721535
          0.522544 0.501687 0.523184 0.605988 0.716643 0.566235
          0.719557 0.723765 0.17425 0.28116 0.273244 0.276125
          0.177787 0.183085 0.215759 0.184506 0.40384 0.314828
          0.41749 0.320545 0.373718 0.380334 0.395388 0.458955
          -0.0515571 -0.0581836 0.0169673 -0.000164951 0.672307 0.500981
          0.685457 0.673207 0.237981 0.128366 0.16556 0.044791
          0.327877 0.409685 0.277729 0.471473 0.535403 0.704115
          0.483334 0.712901 0.474926 0.394078 0.441118 0.458699
          0.15796 0.146472 0.162798 0.157544 0.346798 0.224316
          0.327201 0.299283 0.172928 0.167554 0.154846 0.15795
          0.290634 0.245796 0.344774 0.260874 0.238844 0.345197
          0.131058 0.236193 0.0740804 0.0578659 0.0804219 0.00229256
          0.273244 0.129141 0.276125 0.250628 0.496235 0.399897
          0.495762 0.40384 0.121709 0.224316 0.327201 0.163265
          0.445539 0.560566 0.694104 0.500981 0.0642946 0.10775
          0.0547873 0.105915 0.173365 0.145661 0.150219 0.176476
          0.139827 0.130874 0.130043 0.0975126 0.183164 0.158713
          0.193335 0.118225 0.0359931 0.0740804 0.0804219 0.00229256
          0.367694 0.337729 0.286476 0.304287 -0.0871916 -0.0698807
          -0.0382728 -0.0785707 0.0708915 0.117074 0.0127683 0.0289583
          0.373512 0.279451 0.364843 0.317265 0.0130412 0.0388059
          0.00316235 0.0649561 0.208709 0.0687574 0.211578 0.121136
          -0.108758 -0.0525861 -0.119881 -0.0607624 0.524651 0.55343
          0.587098 0.50375 0.477897 0.343916 0.344774 0.438328
          -0.100392 -0.0501823 -0.0295207 -0.0876838 0.36166 0.363754
          0.44217 0.372622 -0.109993 -0.106391 -0.0323988 0.0185148
          0.599127 0.475228 0.533699 0.589482 -0.000164951 0.0127683
          -0.0303082 -0.0460202 0.129141 0.0392936 0.00586034 0.147113
          0.162798 0.160877 0.169372 0.17471 0.383928 0.399113
          0.387815 0.475228 0.257413 0.208938 0.240259 0.258456
          0.620367 0.499489 0.526642 0.616494 0.0771644 0.118354
          0.125307 0.123387 0.376157 0.395931 0.505427 0.54103
          0.517372 0.694104 0.698744 0.685457 0.428379 0.363754
          0.44217 0.36166 0.169372 0.179579 0.1666 0.154846
          0.153858 0.12311 0.0991233 0.0675574 0.327877 0.471473
          0.277729 0.492783 0.228412 0.240259 0.215453 0.238887
          0.368363 0.411463 0.591099 0.471473 0.10116 0.158016
          0.109161 0.178872 0.388864 0.390222 0.289096 0.317265
          0.0579845 0.0508581 0.0855231 0.0435622 0.530358 0.694104
          0.634897 0.710123 0.0807397 0.136467 0.143772 0.121689
          0.615925 0.49059 0.634897 0.530358 0.0771466 0.0359931
          0.0804219 0.00229256 0.603631 0.461908 0.599127 0.589482
          0.181637 0.24453 0.253788 0.185762 0.0353563 -0.0584268
          0.0256823 0.00753187 0.068297 0.0824626 -0.0584419 0.113661
          0.230729 0.117851 0.188323 0.173799 0.150219 0.165049
          0.182059 0.208938 0.0660439 0.0915026 0.145403 0.0761817
          0.709794 0.578844 0.522672 0.576506 0.472775 0.710123
          0.578844 0.712817 0.59459 0.461807 0.463114 0.501687
          -0.0296118 0.101692 0.0297149 -0.00846173 0.409685 0.502812
          0.471473 0.492783 0.128655 -0.0481754 0.0804092 0.13459
          0.00945855 0.0185148 0.08759 0.096068 0.584148 0.458699
          0.474926 0.501895 0.372622 0.36166 0.258765 0.343916
          0.37001 0.473613 0.376293 0.535403 0.40384 0.41749
          0.491887 0.496235 0.550847 0.59149 0.587098 0.524651
          -0.05098 0 -0.0148586 0 0.165532 0.201734
          0.194464 0.188752 0.208244 0.16577 0.208914 0.229005
          0.17279 0.166518 0.147967 0.173041 0.128655 0.198264
          0.112681 -0.04001 0.0223666 0.128655 0.112681 -0.04001
          0.0374318 0.0937305 0.116656 0.12311 0.387815 0.282072
          0.311359 0.282637 0.130874 0.0971336 0.158522 0.118354
          0.311359 0.282072 0.193506 0.282637 0.118225 0.140684
          0.158713 0.0804219 0.371903 0.286155 0.486593 0.416411
          0.245796 0.209562 0.156925 0.180739 0.486593 0.348836
          0.492783 0.416411 0.215759 0.232606 0.223532 0.19541
          -0.0284574 -0.0513797 -0.088756 -0.0209055 0.148357 0.048454
          0.0853681 0.0252257 0.13712 0.136467 0.196052 0.143772
          0.392601 0.244295 0.240642 0.30705 0.136467 0.196052
          0.143772 0.16577 0.399897 0.40384 0.273528 0.389267
          0.12311 0.194208 0.116656 0.193086 0.147867 0.068297
          -0.0316434 0.0887269 0.334286 0.13459 0.339176 0.195518
          -0.0171008 0.0374318 -0.0327653 0.0360046 0.394078 0.387815
          0.311359 0.399113 0.491887 0.576437 0.41749 0.553382
          0.165532 0.148011 0.123149 0.121469 0.603837 0.482423
          0.586206 0.555537 0.176707 0.179579 0.178948 0.197736
          0.404221 0.387815 0.394078 0.474926 0.555537 0.622191
          0.603837 0.498836 0.182059 0.165049 0.169031 0.185967
          0.260676 0.21655 0.319383 0.282072 0.0470197 0.0107608
          0.057422 -0.0432089 0.0107608 -0.0513797 -0.0299594 -0.0454728
          -0.108758 -0.0354252 -0.0277683 -0.0953438 0.182197 0.156523
          0.188752 0.123149 -0.0331069 -0.0303082 -0.103051 0.0127683
          0.454738 0.501687 0.48037 0.39061 0.15795 0.167692
          0.172928 0.181922 -0.0454728 -0.0299594 0.0107608 -0.0432089
          0.0675574 0.0358098 0.0991233 0.0574409 0.492783 0.502812
          0.646271 0.416411 0.0356243 0.0277173 0.0802511 0.0644315
          0.526642 0.451908 0.533699 0.475228 0.00286609 0.0348273
          0.0682129 0.00182079 0.171435 0.129881 0.120681 0.173956
          -0.0277683 0.0098671 0.0130412 0.0155697 0.472255 0.40147
          0.40384 0.338599 0.0774893 0.153858 0.166261 0.0934466
          0.160769 0.216657 0.225279 0.238356 0.576506 0.405571
          0.526269 0.542112 0.164186 0.181061 0.17279 0.173
          0.483334 0.37001 0.404649 0.376293 0.35344 0.503551
          0.460626 0.38689 0.0477449 -0.0326251 0.112514 -0.0414189
          -0.0280559 0.0256823 -0.0557656 0.0102294 0.230366 0.212099
          0.225279 0.134253 0.319383 0.282072 0.311359 0.387815
          0.376157 0.520946 0.54103 0.564528 0.158586 0.347512
          0.202133 0.252819 0.18739 0.173956 0.205207 0.167174
          0.235505 0.205207 0.238887 0.23471 0.474586 0.385207
          0.457526 0.387815 0.23471 0.207944 0.217644 0.173956
          0.319383 0.282072 0.335556 0.311359 0.206908 0.195943
          0.119924 0.113661 0.106339 0.079169 0.180739 0.0930218
          0.603631 0.461908 0.589482 0.508874 0.387406 0.318274
          0.325688 0.206908 0.10091 0.0555938 0.0169673 -0.000164951
          0.0388059 0.0376237 0.0649561 0.0761817 0.105429 0.172218
          0.116656 0.194208 0.206879 0.240259 0.204545 0.228412
          0.371903 0.286155 0.457237 0.486593 -0.102932 -0.0277683
          -0.0607624 -0.0423323 -0.108758 -0.0607624 -0.102932 -0.0277683
          0.136467 0.154597 0.169675 0.137762 0.367694 0.377788
          0.333011 0.304287 0.0360046 0.0327665 0.0509295 -0.0161619
          0.105915 0.117498 0.206243 0.122618 0.587716 0.474926
          0.583484 0.584148 0.458089 0.451908 0.533699 0.526642
          0.371903 0.258244 0.457237 0.286155 0.461908 0.387594
          0.516936 0.499489 0.055218 -0.00299887 0.0579845 0.0682129
          0.376293 0.254887 0.237915 0.364277 0.166313 0.234576
          0.283203 0.196196 0.218194 0.18739 0.205207 0.235505
          0.516531 0.333142 0.538118 0.374349 0.277479 0.208244
          0.24366 0.229005 0.317265 0.373512 0.279451 0.280936
          0.15795 0.148992 0.138486 0.177514 0.273244 0.28116
          0.0983943 0.20449 -0.0126079 -0.0185965 0.171797 -0.0229897
          0.207944 0.20182 0.196263 0.187816 0.225286 0.317734
          0.268257 0.268148 0.314828 0.294959 0.273528 0.217421
          0.160511 0.272319 0.244295 0.332754 0.645948 0.62833
          0.522544 0.496235 0.257122 0.113661 0.189242 0.318274
          0.0740804 0.08759 0.0853681 0.0166565 0.404221 0.335556
          0.335164 0.387815 -0.0186939 -0.00969368 0.124865 0.00455765
          -0.0148586 0 0 0 0.128655 0.198264
          0.339176 0.317615 -0.0168768 -0.12508 -0.122119 -0.0365529
          0.432326 0.575595 0.555583 0.59157 0.260191 0.182197
          0.250899 0.26285 0.492079 0.36166 0.477897 0.45466
          0.145661 0.0811437 0.125307 0.130043 0.3056 0.428379
          0.328671 0.333011 0.387406 0.517372 0.325688 0.318274
          0.0471266 0.0971336 0.0975126 0.0811437 0.131058 0.237915
          0.149429 0.0112062 0.394227 0.530358 0.387406 0.317615
          0.333011 0.428379 0.328671 0.377788 0.188625 0.195952
          0.197806 0.219527 0.0660439 0.0607489 0.0112358 0.0155697
          -0.0579892 -0.0144841 -0.0115162 -0.0148586 0.387594 0.373718
          0.395388 0.499489 -0.0295207 0.0342889 0.0390515 0.0358098
          0.20704 0.311949 0.12317 0.349722 0.520411 0.560566
          0.530358 0.394227 0.505427 0.538118 0.692943 0.516531
          0.245796 0.278739 0.260874 0.209562 0.118271 0.139782
          0.151547 0.0957739 0.121469 0.129918 0.123149 0.165532
          0.105915 0.206243 0.188761 0.122618 0.521873 0.384774
          0.484097 0.409685 0.257122 0.189242 0.16556 0.333142
          0.26653 0.147001 0.209269 0.206569 0.21495 0.163942
          0.234576 0.269246 0.640978 0.549512 0.620367 0.499489
          0.193318 0.181922 0.177514 0.193758 0.416411 0.334286
          0.327877 0.502812 0.0327665 0.0898911 0.104284 0.0636064
          0.160153 0.177514 0.138486 0.169153 0.138486 0.129881
          0.120681 0.169153 -0.0117854 -0.0547892 -0.0195698 -0.0144841
          0.18739 0.177514 0.205207 0.169153 0.153 0.16328
          0.166462 0.130874 0.166462 0.153 0.17471 0.16328
          0.00815519 0.0804219 0.057422 0.0470197 0.327877 0.334286
          0.409685 0.502812 0.337729 0.304287 0.278739 0.286476
          0.187251 0.178216 0.259363 0.18615 0.195749 0.141621
          0.179546 0.153867 0.18286 0.197806 0.166462 0.153867
          0.106339 0.133288 0.0954567 0.157308 0.0920557 0.117074
          0.16914 0.10091 0.472255 0.338599 0.40384 0.389267
          0.148357 0.0853681 0.187251 0.117877 0.169372 0.17279
          0.1666 0.179579 0.0244272 0.0019014 0.0174988 0.00878838
          0.0983943 0.105133 -0.0687295 0.0436386 0.0771466 0.00229256
          0.00815519 -0.0323988 0.0771466 0.0185148 -0.0323988 0.0251875
          0.37001 0.503551 0.553382 0.35344 0.245953 0.18286
          0.197806 0.219527 -0.1189 -0.0658888 -0.122225 -0.0327653
          0.363754 0.428379 0.328671 0.3056 0.539956 0.314863
          0.361484 0.4665 0.235505 0.18739 0.205207 0.203025
          -0.130573 -0.132317 -0.131659 -0.0161619 0.206908 0.325688
          0.195943 0.113661 0.555537 0.483334 0.586206 0.583709
          -0.0327653 -0.0501823 -0.0681067 -0.00765868 0.209323 0.267997
          0.18506 0.188761 0.543584 0.368946 0.539956 0.4665
          0.116656 0.188511 0.212099 0.134253 0.28116 0.177901
          0.13459 0.105133 0 0.0174988 0.0222848 0.0244272
          0.157185 0.134934 0.153352 0.153 0.118271 0.152649
          0.152229 0.118354 0.134253 0.105195 0.104284 0.0360046
          0.157185 0.153352 0.160877 0.153 0.311949 0.346798
          0.171797 0.224316 -0.05098 -0.0579892 -0.0144841 0
          0.315947 0.399897 0.387594 0.294959 0.178948 0.197736
          0.201398 0.183085 0.148357 0.112536 0.178216 0.0853681
          0.196052 0.169675 0.217644 0.208914 0.500981 0.334286
          0.502812 0.484097 0.130689 0.0377004 0.11677 -0.00969368
          0.112681 0.261534 0.279769 0.317615 0.0388059 0.0649561
          0.0857983 0.0761817 0.0389992 -0.0120033 0.00904144 0.0577682
          0.399113 0.313847 0.282637 0.395929 0.476062 0.539956
          0.553202 0.703544 0.16486 0.188752 0.203472 0.126494
          0.399897 0.40384 0.294959 0.273528 -0.00765868 0.0374318
          -0.0327653 0.0390515 0.516255 0.402724 0.432167 0.540798
          0.457237 0.258244 0.332754 0.348836 0.695025 0.622191
          0.603837 0.555537 0.695025 0.690279 0.669866 0.555537
          0.491887 0.498836 0.555537 0.404649 0.0740804 0.15297
          0.139282 0.0853681 0.244295 0.162981 0.240642 0.181637
          0.096068 0.08759 0.15297 0.187662 0.106339 0.157308
          0.0954567 0.120681 -0.1189 -0.0681067 -0.0658888 -0.0327653
          0.180128 0.166462 0.16328 0.173365 0.180128 0.16328
          0.180506 0.173365 0.0174988 0.0450981 0.0915026 0.0547054
          0.483334 0.509302 0.327201 0.374364 0.0855231 0.0508581
          0.11213 0.120011 0.0071006 0.121709 0.166401 -0.000663582
          0.158522 0.151547 0.177787 0.171138 0.177787 0.151547
          0.171214 0.171138 0.18739 0.177514 0.174612 0.198031
          0.50375 0.417589 0.388864 0.463114 0.278414 0.249546
          0.23176 0.247711 0.172928 0.178948 0.167554 0.15795
          0.0155697 0.0660439 0.0934466 0.0540416 0.505653 0.566235
          0.422856 0.420039 -0.0167663 0.0687574 0.114131 0.121136
          0.19703 0.274181 0.193335 0.206243 0.477379 0.346798
          0.422856 0.526269 0.24453 0.181637 0.240642 0.130594
          0.566235 0.477379 0.509302 0.422856 0.0560741 0.130684
          0.071029 0.183089 0.13966 0.0915026 0.145403 0.0660439
          0.372631 0.50631 0.544752 0.421332 0.16486 0.203472
          0.10775 0.126494 0.17088 0.13966 0.145403 0.0934466
          -0.0547892 -0.0594745 -0.0144841 -0.0579892 0.17088 0.113946
          0.0934466 0.113962 0.123689 0.157521 0.13712 0.239659
          0.17973 0.245913 0.0565896 0.153728 0.499489 0.373718
          0.461908 0.387594 0.238887 0.249546 0.267714 0.196263
          0.158016 0.123689 0.13282 0.1823 0.152232 0.169053
          0.113767 0.170921 0.195518 0.339176 0.286155 0.237825
          0.361484 0.349722 0.364277 0.4665 0.502812 0.673207
          0.646271 0.527923 0.59149 0.55343 0.587098 0.524651
          0.294977 0.29089 0.240259 0.258456 0.187113 0.15297
          0.269356 0.187251 -0.00969368 0.0330385 0.11677 0.124865
          0.318274 0.345308 0.374349 0.517372 0.15796 0.160877
          0.164186 0.169372 0.15796 0.164186 0.1666 0.169372
          0.172928 0.177514 0.138486 0.160153 -0.0443746 -0.0382095
          0.00229256 -0.122298 0 0 -0.0148586 0
          0.0346219 -0.00299887 0.0579845 0.0435622 0.158522 0.183085
          0.184506 0.166518 0.236272 0.188444 0.201734 0.22557
          0 0.0519787 0.0356243 0.0531873 0.392601 0.544752
          0.494421 0.421332 0.153858 0.0675574 0.109537 0.13966
          0.472255 0.40384 0.495762 0.389267 -0.131659 -0.0161619
          -0.0538186 -0.130573 0 0 0 -0.020548
          0.709794 0.712817 0.578844 0.576506 0.334286 0.13459
          0.198264 0.339176 0.421482 0.50631 0.421332 0.477897
          0.0374318 0.0774893 0.116656 0.0360046 0.201068 0.202133
          0.0303563 0.0463607 0.610188 0.598111 0.501687 0.605988
          0.315947 0.272421 0.387594 0.395929 -0.00765868 0.0486358
          0.0374318 0.0390515 0.290625 0.249546 0.298409 0.267714
          0.209562 0.278739 0.258765 0.238684 0.0486358 0.0390515
          0.105429 0.0374318 0.566235 0.420039 0.505653 0.526269
          0.18739 0.169153 0.205207 0.173956 0.205207 0.169153
          0.187816 0.173956 -0.0161619 0.0509295 0.0578659 0.0470197
          0.232606 0.194202 0.194464 0.185334 0.130689 0.286155
          0.195518 0.217546 0.252819 0.201068 0.35344 0.202133
          0.599127 0.526642 0.533699 0.475228 0.0934466 0.13966
          0.166261 0.17088 0.139282 0.0578659 0.0665477 0.15721
          0.277479 0.24366 0.304318 0.229005 0.00613925 0.0222848
          0.0277173 0.0244272 -0.0370501 0.101692 0.0392936 -0.0296118
          0.477897 0.343916 0.421482 0.344774 -0.04001 0.128655
          -0.033115 0.0223666 0 0 0.0222848 0.0244272
          0.00613925 0 0.0222848 0.0244272 0.138486 0.129881
          0.169153 0.148992 0.416411 0.327877 0.277729 0.492783
          0.0824626 0.113661 0.112681 -0.0474959 0.20449 0.384774
          0.273244 0.28116 0.209562 0.238684 0.183089 0.13282
          0.424412 0.484097 0.384774 0.28116 0.509302 0.477379
          0.578245 0.564165 0.151547 0.129918 0.17137 0.0957739
          0.117851 0.181637 0.253788 0.136757 0.123149 0.126494
          0.188752 0.129918 0.129918 0.0880873 0.139782 0.118174
          0.583709 0.374364 0.441927 0.509302 0.10775 0.126494
          0.138454 0.16486 0.268413 0.19858 0.279451 0.280536
          0.169675 0.170804 0.160153 0.196263 0.128655 0.339176
          0.237825 0.317615 -0.108758 -0.0525861 -0.0607624 -0.0277683
          -0.0168768 -0.0365529 -0.0443746 0.0166565 0.0477449 0.112514
          0.128366 -0.0414189 -0.0295207 0.00486405 0.0342889 0.0358098
          0.237915 0.347512 0.202133 0.158586 0.158586 0.131058
          0.0112062 0.237915 0.00892697 0.150271 0.0112062 0.158586
          0.0019014 -0.00257965 0.00878838 0.0209124 0.274181 0.274841
          0.261416 0.206243 0.228412 0.206879 0.195952 0.204545
          0.113519 0.133766 0.166313 0.217421 0.314828 0.201068
          0.212652 0.245913 0.178948 0.183085 0.181922 0.175656
          0.217421 0.132312 0.18332 0.113519 0.252819 0.347512
          0.38689 0.294303 0.347512 0.465399 0.38689 0.294303
          0.465816 0.666764 0.684195 0.527923 0.0771466 -0.0323988
          0.00815519 0.0251875 0.228412 0.240259 0.204545 0.215453
          0.472775 0.407349 0.522672 0.576506 0.620393 0.59157
          0.46044 0.555583 0.168965 0.194202 0.173041 0.145625
          0.354887 0.373512 0.388864 0.280936 0.17471 0.169372
          0.175656 0.180128 0.0063197 -0.0185965 0.16481 -0.0126079
          0.201398 0.183085 0.215759 0.188423 0.183085 0.176707
          0.178948 0.197736 0.172868 0.206569 0.26653 0.294303
          0.128655 0.13459 0.198264 -0.0474617 0.10775 0.126494
          0.105915 0.138454 0.553382 0.576437 0.666629 0.690279
          0.24453 0.29765 0.372631 0.343916 0.173799 0.188323
          0.277729 0.217546 0.0845378 0.131058 -0.0194793 -0.00325904
          0.217546 0.173799 0.230729 0.277729 0.116656 0.113946
          0.188511 0.134253 0.0360046 -0.0401972 0.0327665 -0.0161619
          0.0360046 -0.0284574 0.0327665 -0.0401972 0.148028 0.129881
          0.169153 0.167174 0.133766 0.196196 0.294959 0.165846
          0.166313 0.196196 0.283203 0.294959 0.133766 0.166313
          0.294959 0.196196 0.270998 0.239659 0.3056 0.230153
          0.270998 0.230153 0.196052 0.239659 0.714042 0.576506
          0.721535 0.721043 0.276125 0.147113 0.27013 0.250628
          0.586206 0.483334 0.482423 0.583709 0.238844 0.388683
          0.345197 0.236193 0.20433 0.233984 0.126057 0.178872
          0.268148 0.233984 0.20433 0.178872 -0.0327675 -0.0164584
          0.0878293 -0.0158408 0.193318 0.204545 0.193758 0.198031
          0.233984 0.20433 0.283765 0.268148 0.3056 0.238684
          0.239659 0.233984 0.327877 0.409685 0.276125 0.277729
          -0.0327653 -0.0658888 -0.00718751 -0.00765868 -0.126512 -0.088756
          -0.0885361 -0.0607624 0.30705 0.343916 0.421332 0.336885
          0.0845877 0.117877 0.183531 0.117074 0.15795 0.154846
          0.160153 0.135998 0.15795 0.135998 0.160153 0.138486
          0.372631 0.544752 0.392601 0.421332 0.118271 0.0855231
          0.120011 0.114495 -0.128932 -0.00588535 -0.052492 -0.0449147
          0.36166 0.238684 0.257074 0.258765 0.270667 0.268785
          0.240274 0.209067 0.048454 0.0665477 0.112536 0.0853681
          0.325379 0.48131 0.520411 0.465816 0.325379 0.465816
          0.520411 0.31981 0.121689 0.136467 0.143772 0.16577
          0.499489 0.458955 0.549512 0.458089 0.193335 0.158713
          0.16105 0.0771466 0.690279 0.69147 0.535403 0.704115
          0.37001 0.38689 0.35344 0.252819 0.235265 0.258238
          0.238356 0.156717 0.37001 0.252819 0.35344 0.202133
          0.0675574 0.0644315 0.0277173 0.028315 0.00182079 0.055218
          0.0880873 0.0682129 -0.0953438 -0.0382728 -0.0277683 -0.102932
          0.0063197 0.16481 0.138201 0.121709 0.0389992 0.055218
          0.0880873 0.00182079 -0.0953438 -0.0871916 -0.0382728 -0.102932
          0.118225 0.15297 0.0740804 0.08759 0.176707 0.195515
          0.179579 0.197736 -0.0131994 0.121709 0.224316 0.12317
          0.134934 0.0893929 0.118174 0.0975126 0.335164 0.267912
          0.338076 0.305763 0.0482068 0.0494826 0.0247339 0.123689
          0.356278 0.374364 0.245913 0.153728 0.14902 0.147113
          0.250628 0.27013 0.153728 0.308892 0.356278 0.374364
          0.00316235 0.0019014 0.0376237 0.0209124 0.27013 0.14902
          0.268257 0.250628 -0.0726572 -0.0748015 -0.0115162 -0.0365595
          0.674729 0.503551 0.69147 0.675159 0.0682129 0.0346219
          0.0957739 0.0855231 0.0682129 0.0855231 0.0957739 0.118271
          0.129141 0.0392936 0.147113 0.14902 0.15721 0.0578659
          0.104284 0.140684 0.0307875 0.0140221 0.00765813 0.0441782
          0.0662192 0.123149 0.10098 0.112132 0.106339 0.133288
          0.157308 0.180739 0.123339 0.113962 0.105195 0.187575
          0.153352 0.147967 0.153 0.134934 0.079169 0.0494826
          0.13282 0.0502769 0.461908 0.37796 0.383928 0.373718
          0.578844 0.472775 0.522672 0.576506 0.188444 0.148011
          0.145625 0.168965 0.432167 0.27013 0.351173 0.376632
          0.430173 0.358861 0.478524 0.363754 0.130689 0.173799
          0.217546 0.108892 0.152649 0.145661 0.150219 0.173365
          -0.0186939 0.117851 0.173799 0.108892 0.217546 0.327877
          0.286155 0.195518 -0.0331069 -0.0365529 -0.111952 -0.0303082
          -0.0454728 -0.128471 -0.0432089 -0.0606808 0.0920557 -0.000164951
          0.0169673 0.0289583 0.17471 0.175656 0.170804 0.180128
          0.117498 0.0418954 0.105915 0.0642946 0.160153 0.154846
          0.170804 0.157544 0.0922398 0.110876 0.105915 0.138454
          0.00945855 0.00753187 0.0642946 0.0547873 0.40147 0.542925
          0.498836 0.472255 0.451127 0.564165 0.364277 0.551693
          0.279451 0.19858 0.268413 0.214937 0.260191 0.156523
          0.182197 0.26285 0.329965 0.345308 0.311949 0.477178
          0.121709 -0.0126079 0.224316 0.12317 0.0893929 0.0313912
          0.0700022 0.0975126 0.134934 0.0975126 0.147967 0.130874
          0.535403 0.404649 0.37001 0.491887 0.237915 0.347512
          0.345197 0.473613 0.0360046 0.105195 0.104284 0.0327665
          0.180739 0.230153 0.157308 0.217644 0.46044 0.432143
          0.432326 0.59157 0.0374318 0.12311 0.116656 0.0774893
          0.460286 0.329965 0.475537 0.542691 0.282637 0.301902
          0.390222 0.317265 0.230411 0.193506 0.301902 0.218066
          0.151547 0.118271 0.143377 0.171138 0.152649 0.143377
          0.168346 0.143848 0.118271 0.120011 0.143377 0.114495
          0.0330385 0.0698984 0.124865 0.00455765 0.00455765 0.124865
          -0.0186939 0.00800832 0.128655 -0.0321081 0.195518 0.0804092
          0.697082 0.64176 0.701053 0.542691 0.183178 0.19375
          0.18229 0.181922 0.209323 0.270875 0.261416 0.206243
          0.329965 0.189242 0.345308 0.333142 0.00945855 0.00753187
          -0.0752176 -0.0854006 0.188423 0.180506 0.191011 0.181922
          -0.0229897 -0.0284562 0.12317 0.141115 0.311359 0.193506
          0.282072 0.267912 0.317734 0.344425 0.268257 0.268148
          0.00800832 0.124865 -0.0186939 0.117851 0.351173 0.317734
          0.268257 0.225286 0.587716 0.584148 0.59149 0.509965
          -0.0295207 0.0358098 0.0374318 -0.0501823 0.166462 0.157185
          0.197806 0.17471 0.103863 0.0752352 0.0514415 0.0607489
          0.103863 0.0514415 0.0660439 0.0607489 -0.11324 -0.11621
          -0.0501823 -0.0327653 0.616494 0.516936 0.619954 0.632325
          0.0636064 0.127111 0.0470197 0.057422 0.170346 0.349722
          0.364277 0.20704 0.361484 0.20704 0.364277 0.349722
          0.329965 0.4665 0.311949 0.349722 0.225286 0.233984
          0.268148 0.178872 -0.0321081 -0.00969368 0.130689 -0.0186939
          0.719557 0.564165 0.509302 0.716643 -0.033115 -0.0474617
          0.128655 -0.04001 -0.033115 -0.0481754 0.128655 -0.0474617
          0.318274 0.374349 0.44205 0.554677 0.564165 0.709038
          0.706821 0.703544 0.148357 0.178216 0.229013 0.187251
          0.162798 0.146472 0.164869 0.157544 0.17279 0.181061
          0.195515 0.173 0.395929 0.461807 0.454738 0.39061
          0.187662 0.187113 0.269356 0.274181 0.395929 0.399113
          0.461807 0.39061 0.432143 0.349309 0.432326 0.299053
          0.216657 0.134253 0.225279 0.201181 0.240259 0.294977
          0.228727 0.235505 0.313847 0.282072 0.272421 0.234576
          -0.0117854 0.0140221 0.00765813 0.0307875 0.148357 0.229013
          0.183531 0.187251 0.524651 0.509965 0.55343 0.50375
          0.622191 0.669866 0.594527 0.542925 0.112132 0.123149
          0.10098 0.148011 0.237915 0.347512 0.37001 0.202133
          0.202133 0.347512 0.37001 0.252819 0.174612 0.177514
          0.18739 0.169153 0.0954567 0.079169 0.0714426 0.133288
          0.629611 0.673207 0.646271 0.502812 0.327201 0.285644
          0.166401 0.308892 0.376293 0.451127 0.345197 0.254887
          0.235742 0.196237 0.23176 0.208434 0.345197 0.451127
          0.473613 0.553202 0.17471 0.170804 0.207377 0.20182
          0.368363 0.277729 0.409685 0.471473 0.229005 0.196237
          0.23176 0.235742 0.345308 0.517372 0.472775 0.572815
          0.153352 0.17279 0.147967 0.173 0.147967 0.118174
          0.139782 0.130874 0.166518 0.153 0.147967 0.130874
          0.147967 0.173041 0.139782 0.118174 0.578844 0.542112
          0.576506 0.721043 0 0.0547054 0 0.0174988
          -0.0897965 0.0185148 -0.109993 -0.0331069 0.183164 0.258238
          0.26683 0.158713 0.542691 0.460286 0.63083 0.475537
          0.173 0.147967 0.141749 0.173041 0.0878293 -0.0164584
          0.117851 0.00251873 -0.0340695 0.119924 -0.0254253 0.121136
          0.177901 -0.0655243 0.068297 -0.0565269 0 0
          0 0.0174988 0.134934 0.0893929 0.141749 0.118174
          0.141749 0.0893929 0.111914 0.118174 0.0348273 0.00286609
          0.0682129 0.0346219 0.0971336 0.129918 0.139782 0.0682129
          0.551693 0.706821 0.584036 0.473613 0.0452892 0.0174988
          0.0915026 0.0547054 0.0244272 0.0019014 0 0.0174988
          -0.0186939 -0.0164584 0.108892 -0.0327675 0.0303563 0.0171941
          0.149429 0.00285029 0.0463607 0.0171941 0.149429 0.0303563
          0.163265 0.149429 0.00285029 0.170346 0.196052 0.208244
          0.143772 0.16577 0.395929 0.508874 0.461807 0.399113
          0.148992 0.167692 0.148028 0.174612 0.0827109 0.0471266
          0.0975126 0.0811437 0.116656 0.194208 0.21664 0.193086
          0.116656 0.193086 0.21664 0.212099 0.238887 0.205207
          0.207944 0.23471 0.535403 0.483334 0.37001 0.404649
          0.150219 0.152649 0.173365 0.182059 0.116656 0.172218
          0.21664 0.194208 0.116656 0.193086 0.212099 0.188511
          -0.05098 -0.0148586 -0.0485207 0 -0.0816843 -0.0726572
          -0.0365595 -0.0950276 -0.0391606 0.113661 -0.0418792 -0.0474959
          0.209269 0.206569 0.155598 0.299638 0.180128 0.175656
          0.170804 0.172928 0.148357 0.0853681 0.117877 0.0252257
          0.303986 0.301773 0.209269 0.269246 0.254776 0.194464
          0.188752 0.185038 0.311949 0.141115 0.329965 0.20704
          0.432167 0.411463 0.368363 0.376632 0.00285029 -0.0194793
          -0.0131994 0.170346 0.525444 0.500108 0.432167 0.376632
          0.17471 0.170804 0.20182 0.180128 0.171138 0.143377
          0.171214 0.168346 -0.0284574 0.0327665 -0.0161619 -0.0513797
          0.157544 0.144416 0.135998 0.154846 -0.132317 -0.132434
          -0.131659 -0.0161619 0.158522 0.0971336 0.139782 0.118354
          0.18332 0.206569 0.155598 0.132312 0.229005 0.208914
          0.247711 0.196237 0.00455765 0.00800832 0.0250515 0.124865
          0.00753187 -0.0182043 0.0418954 -0.0602992 0 0.0531873
          0.0484699 0 0.695025 0.669866 0.542925 0.555537
          -0.0321081 -0.0186939 0.108892 -0.0453011 0.476062 0.553202
          0.506516 0.703544 0.00613925 0 0.0277173 0.0222848
          0.313847 0.282072 0.282637 0.272421 0.294959 0.315947
          0.270667 0.272421 0.315947 0.272421 0.395929 0.313847
          0.351222 0.341916 0.344774 0.290634 0.341916 0.288575
          0.286476 0.290634 -0.0342884 0.112681 -0.04001 0.0223666
          -0.0365595 -0.0748015 -0.0354252 -0.0950276 0.675159 0.540308
          0.551926 0.655136 0.39061 0.390222 0.463114 0.388864
          0.278414 0.235742 0.23176 0.247082 0.374364 0.308892
          0.441927 0.327201 0.553382 0.533951 0.576437 0.460626
          0.215759 0.19541 0.223532 0.177787 0.598111 0.59149
          0.550847 0.524651 0.4665 0.451127 0.364277 0.361484
          0.0855231 0.0508581 0.114495 0.0742282 0.139282 0.15297
          0.187113 0.187251 0.203198 0.177787 0.223532 0.19541
          0.215759 0.185334 0.19541 0.177787 0.15721 0.0578659
          0.0665477 0.110453 0.480039 0.417589 0.390222 0.408602
          0.0930218 0.180739 0.156925 0.071029 0.117525 0.156925
          0.226725 0.207633 0.117525 0.156925 0.156445 0.226725
          0.702014 0.709794 0.522672 0.705183 0.505427 0.692943
          0.656898 0.516531 -0.052492 -0.00588535 0.0470043 0.0536057
          0.206569 0.172868 0.252819 0.294303 0.516531 0.692943
          0.656898 0.681499 0.516531 0.692943 0.681499 0.698744
          0.598111 0.59149 0.524651 0.501687 0.697082 0.702014
          0.542691 0.705183 0.172928 0.170804 0.187816 0.160153
          -0.11621 -0.128186 -0.0525861 -0.0401972 0.416411 0.277729
          0.348836 0.432143 0.128655 -0.0474617 0.198264 -0.04001
          0.101692 0.109161 0.0297149 -0.00846173 0.153728 0.261654
          0.202133 0.149429 0.166518 0.172442 0.158522 0.183085
          0.404221 0.335164 0.394078 0.387815 0.0209038 -0.0185362
          0.0130412 0.0108447 -0.108082 -0.100392 -0.0482987 -0.0950276
          0.0185148 0.0418954 0.117498 0.0642946 0.343916 0.260874
          0.344774 0.278739 0.166313 0.234576 0.234576 0.283203
          0.0983943 0.0886722 0.105133 0.17425 0.276125 0.129141
          0.147113 0.250628 0.276125 0.409685 0.368363 0.277729
          0.344774 0.396695 0.341916 0.44975 0.392657 0.396695
          0.341916 0.344774 0.318274 0.554677 0.326886 0.517372
          0.343916 0.260874 0.351222 0.344774 0.517372 0.326886
          0.445539 0.554677 0.392657 0.396695 0.344774 0.44975
          0.315947 0.294959 0.387594 0.283203 0.124865 0.0698984
          0.0250515 0.00455765 -0.00765868 -0.0295207 0.0390515 -0.0327653
          0.125349 0.0991233 0.0758476 0.0675574 0.0802511 0.0607489
          0.0752352 0.103863 -0.0391606 -0.0342884 0.112681 -0.0474959
          0.0327665 0.0366677 0.0636064 -0.0209055 0.111257 0.0644315
          0.0816611 0.0802511 0.30705 0.421332 0.349309 0.336885
          0.0920557 0.0708915 0.10091 0.0289583 -0.11324 -0.11621
          -0.0327653 -0.122225 0.367694 0.286476 0.320388 0.267714
          0.106339 0.160795 0.157308 0.173956 0.00753187 0.00945855
          0.0185148 -0.0854006 0.151948 0.215795 0.141866 0.235265
          0.0758476 0.0441782 0.0644315 0.028315 0.00554623 -0.00765868
          0.0486358 -0.00718751 0.00554623 -0.00765868 0.0549394 0.0486358
          0.0360046 0.113946 0.116656 0.134253 0.0937305 0.173193
          0.194208 0.12311 0.0758894 0.143772 0.13712 0.157521
          0.00586034 -0.0517243 0.0886722 -0.0370501 0.240259 0.258456
          0.228727 0.294977 0.208938 0.182059 0.240259 0.228727
          0.0470197 0.104284 0.0578659 0.140684 0.299053 0.277729
          0.368363 0.432143 0.207633 0.24453 0.240642 0.167424
          0.286476 0.217644 0.230153 0.245796 0.0561909 0.202133
          0.0303563 0.0828364 0.411463 0.276125 0.368363 0.250628
          0.0920557 0.0845877 0.117074 0.0289583 0.109161 0.225286
          0.15145 0.178872 0.109161 0.158016 0.225286 0.178872
          0.193318 0.193758 0.177514 0.198031 0.128366 0.0887269
          0.16556 0.044791 0.237981 0.128366 0.329965 0.333142
          0.0758894 0.123689 0.0482068 0.126057 0.157521 0.123689
          0.126057 0.20433 -0.00846173 0.0247339 0.00251873 0.109161
          0.109161 0.158016 0.136757 0.225286 0.581837 0.552352
          0.503551 0.675159 0.421332 0.50631 0.544752 0.477897
          0.421332 0.477897 0.544752 0.492079 0.421332 0.544752
          0.555583 0.492079 0.128655 0.0844691 -0.033115 0.0223666
          -0.0854006 -0.106391 -0.0182043 -0.0602992 0.0388059 0.0452892
          0.0376237 0.0761817 0.0247339 0.0372527 0.0220962 0.136757
          0.18863 0.225286 0.253788 0.351173 0.0561909 0.252819
          0.201068 0.0828364 0.457526 0.385207 0.319383 0.387815
          0.277729 0.108892 0.17425 0.327877 0.619954 0.643071
          0.516936 0.62833 0.390222 0.509965 0.480039 0.408602
          0.261824 0.188752 0.203472 0.185038 0.205207 0.215453
          0.218194 0.235505 0.432326 0.540798 0.526328 0.575595
          0.237915 0.376293 0.364277 0.170346 0.193318 0.172928
          0.20182 0.187816 0.225286 0.136757 0.257074 0.158016
          0.18863 0.27013 0.225286 0.351173 0.00486405 0.0675574
          0.0155697 0.028315 0.526328 0.432326 0.421332 0.336885
          0.339176 0.13459 0.198264 0.195518 0.188444 0.148011
          0.165532 0.121469 0.0971336 0.0682129 0.0957739 0.118271
          0.0971336 0.0957739 0.139782 0.118271 0.317734 0.363754
          0.268148 0.233984 0.509965 0.458699 0.584148 0.480039
          0.117074 0.0845877 0.0452458 0.0289583 0.280536 0.282637
          0.315947 0.317265 0.40147 0.300169 0.349891 0.338599
          0.373512 0.388864 0.446707 0.354887 0.304287 0.304318
          0.270998 0.247711 0.24453 0.207633 0.240642 0.29765
          0.240642 0.29765 0.372631 0.24453 0.39061 0.280536
          0.315947 0.317265 0.183164 0.140684 0.118225 0.0740804
          0.104619 0.106339 0.180739 0.0930218 -0.108758 -0.11621
          -0.0525861 -0.108082 0.388864 0.417589 0.289096 0.390222
          -0.0382095 0.0470197 0.00229256 -0.0454728 0.328671 0.3056
          0.270998 0.239659 0.59459 0.508874 0.589482 0.587716
          0.508874 0.474926 0.589482 0.587716 0.0509295 0.0578659
          0.104284 0.15721 0.473613 0.551693 0.451127 0.376293
          0.10116 0.123689 0.0247339 0.158016 0.293607 0.491
          0.388683 0.347512 0.505653 0.441927 0.422856 0.509302
          -0.0557656 -0.0584268 -0.0752176 0.0547873 0.158713 0.158259
          0.16105 0.0844988 0.183089 0.207633 0.24453 0.260874
          0.00815519 0.0470197 0.057422 -0.0454728 0.311949 0.0917604
          0.141115 0.171797 0.474926 0.390222 0.509965 0.399113
          0.317265 0.19858 0.268413 0.280536 0.290634 0.288575
          0.245796 0.24497 0.141866 0.235265 0.238356 0.156717
          0.141866 0.216657 0.238356 0.235265 -0.11621 -0.127282
          -0.119881 -0.0525861 0.510427 0.402724 0.516255 0.540798
          0.424412 0.307201 0.376157 0.520946 0.363754 0.283765
          0.233984 0.3056 0.527923 0.339176 0.416411 0.334286
          0.0804219 0.0844988 0.158713 0.0771466 0.445539 0.339176
          0.527923 0.334286 -0.128186 -0.0513797 -0.127282 -0.0401972
          0.12317 -0.0284562 0.171797 0.141115 0.0108537 0.0665477
          0.0578659 0.0509295 0.317265 0.301902 0.390222 0.289096
          0.152232 0.113767 0.0536057 0.170921 0.387594 0.299638
          0.320545 0.41749 0.244295 0.272319 0.181637 0.30705
          0.118174 0.0880873 0.139782 0.0971336 -0.0295207 -0.0320968
          0.0342889 -0.0482987 -0.0474617 0.13459 0.0824626 -0.0565269
          0.0824626 0.13459 0.177901 -0.0565269 0.113661 0.0824626
          -0.0584419 -0.0474959 0.0971336 0.0346219 0.118271 0.0771644
          0.0348273 0.0346219 0.0971336 0.0771644 0.0811437 0.0348273
          0.0971336 0.0771644 0.395929 0.508874 0.523184 0.461807
          -0.0474959 -0.0474617 0.0824626 -0.0565269 0.0824626 -0.0565269
          -0.0584419 -0.0474959 0.0971336 0.118271 0.139782 0.118354
          0.00892697 0.131058 0.0112062 0.150271 0.00892697 0.236193
          0.131058 0.150271 0.238887 0.207377 0.196263 0.20182
          0.204545 0.204545 0.180506 0.193318 0.509302 0.566235
          0.716643 0.578245 0.716643 0.509302 0.719557 0.566235
          0.232606 0.238917 0.245603 0.194464 0.185334 0.194464
          0.19541 0.17137 0.185038 0.194464 0.188752 0.126494
          0.185334 0.165532 0.194464 0.129918 0.245953 0.249546
          0.25696 0.219527 -0.0397156 -0.0523907 0.189242 0.141115
          0.458955 0.373718 0.380334 0.458089 0.147001 0.206569
          0.0458227 0.132312 0.0714426 0.079169 0.0494826 0.133288
          0.188752 0.248905 0.194464 0.254776 0.483334 0.404649
          0.555537 0.482423 0.695025 0.690279 0.555537 0.712901
          0.112681 -0.04001 0.198264 0.0824626 0.0971336 0.0880873
          0.139782 0.129918 0.136202 0.0957739 0.143934 0.11213
          0.172972 0.151547 0.143934 0.136202 0.334286 0.28116
          0.13459 0.17425 0.334286 0.177901 0.13459 0.28116
          0.237981 0.16556 0.333142 0.330553 0.460286 0.329965
          0.542691 0.333142 0.327201 0.261654 0.166401 0.163265
          0.237981 0.330553 0.333142 0.460286 0.0185148 0.0418954
          0.0642946 0.00753187 0.235505 0.205207 0.23471 0.203025
          0 0 0 0.0222848 0.535403 0.584036
          0.704115 0.69147 0.110453 0.169053 0.134253 0.116656
          0.123149 0.126494 0.156523 0.188752 0.185334 0.165532
          0.129918 0.139782 0.709794 0.522672 0.714042 0.576506
          -0.0648303 -0.0752176 -0.0897965 0.00945855 0.145625 0.121469
          0.118174 0.111914 0.461908 0.508874 0.475228 0.589482
          0.185367 0.15297 0.205372 0.267952 0.225286 0.257074
          0.351173 0.317734 0.380334 0.371953 0.395388 0.458955
          0.0560741 0.0372527 0.130684 0.130594 0.373715 0.405571
          0.407349 0.542112 0.170346 0.237915 0.149429 0.131058
          0.0463607 0.149429 0.202133 0.0303563 0.454738 0.42471
          0.522544 0.399897 0.496235 0.399897 0.522544 0.495762
          0.522544 0.516936 0.454738 0.399897 0.610188 0.62833
          0.522544 0.631716 0.347585 0.294977 0.320388 0.280415
          0.496235 0.516936 0.522544 0.399897 0.44968 0.524651
          0.446707 0.463114 0.610188 0.522544 0.528544 0.631716
          0.195952 0.17471 0.20182 0.180128 0.475228 0.399113
          0.474926 0.508874 -0.00969368 0.0330385 0.124865 0.00455765
          0.16577 0.186348 0.196237 0.164869 0.37001 0.473613
          0.535403 0.503551 -0.0126816 -0.020548 -0.0205164 -0.0240264
          -0.0482987 -0.0365595 0.00486405 -0.0354252 0.0771644 0.0855231
          0.114495 0.0742282 0.156523 0.205372 0.203472 0.185367
          -0.0321081 0.130689 0.108892 -0.0186939 -0.0321081 0.130689
          0.195518 0.108892 0.123149 0.182197 0.10098 0.148011
          0.130689 0.173799 0.108892 -0.0186939 0.0774893 0.0279292
          0.0675574 0.0934466 0.259363 0.178216 0.255679 0.18615
          0.130689 0.0844691 0.212402 -0.0208577 0.36166 0.337729
          0.278739 0.344774 0.153 0.17279 0.169372 0.166518
          0.153 0.153352 0.169372 0.17279 0 0.0174988
          0 0 -0.0186939 -0.00969368 0.173799 0.124865
          0.13459 -0.0565269 0.105133 0.177901 0.457526 0.335556
          0.404221 0.387815 0.105133 0.177901 0.0436386 0.20449
          0.714042 0.578245 0.576506 0.522672 0.0436386 -0.0687295
          -0.0655243 0.105133 0.0577682 0.0662192 0.0880873 0.0389992
          0.0389992 -0.0219125 0.00904144 -0.0120033 0.129141 0.0512105
          0.0886722 0.00586034 0.139782 0.185334 0.151547 0.17137
          -0.0295207 -0.0482987 0.0342889 0.00486405 0.139782 0.185334
          0.177787 0.151547 0.335556 0.267912 0.338076 0.335164
          0.0358098 0.0574409 0.0675574 0.028315 -0.0453011 0.0804092
          0.108892 -0.0321081 0.387594 0.299638 0.395388 0.373718
          0.697082 0.542691 0.701053 0.705183 0.0247339 0.130684
          0.0372527 0.136757 0.0547873 0.0256823 0.0353563 0.0922398
          0.230411 0.282637 0.317265 0.301902 0.282637 0.301902
          0.399113 0.390222 0.201398 0.197736 0.215759 0.183085
          0.0353563 0.0256823 0.0547873 0.00753187 0.0561909 0.201068
          0.202133 0.0828364 0.0922398 0.0550265 0.0353563 0.110876
          -0.0194793 -0.0285253 -0.0131994 0.12317 0.555537 0.576437
          0.669866 0.491887 0.542925 0.496235 0.495762 0.40384
          0.0574409 0.0441782 0.0758476 0.028315 0.0574409 0.0758476
          0.0675574 0.028315 0.472255 0.542925 0.495762 0.40384
          0.40147 0.40384 0.542925 0.472255 0.669866 0.576437
          0.542925 0.491887 0.197806 0.157185 0.179546 0.17471
          0.0920557 0.10091 -0.000164951 0.0289583 0.0374318 0.0937305
          0.105429 0.116656 0.0390515 0.0937305 0.105429 0.0374318
          0.158522 0.185334 0.177787 0.139782 -0.0280559 0.0256823
          0.0102294 0.055218 0.230366 0.169053 0.238033 0.21664
          0.424977 0.517372 0.472775 0.325688 0.311442 0.270667
          0.294959 0.399897 -0.0284574 0.0209038 0.0327665 -0.0209055
          0.539956 0.368946 0.476062 0.361484 0.124865 0.00800832
          0.0250515 0.181637 0.389267 0.273528 0.311442 0.338599
          0.273528 0.389267 0.311442 0.399897 0.120473 0.273528
          0.216007 0.165846 -0.128932 -0.12951 -0.130076 -0.052492
          0.187251 0.112536 0.178216 0.139282 0.0853681 0.112536
          0.187251 0.139282 -0.0579892 -0.0148586 -0.0115162 -0.0748015
          -0.0579892 -0.05098 -0.0148586 -0.0748015 0.0853681 0.0665477
          0.112536 0.139282 -0.12951 -0.130076 -0.052492 -0.131659
          0.00765813 0.00714858 0 0 0 0.00765813
          0 0 0.177787 0.180068 0.171214 0.151547
          0.151547 0.180068 0.171214 0.143377 0.00765813 0
          0 0.00613925 0.24366 0.208914 0.247711 0.229005
          0.157185 0.153 0.17471 0.166462 0.134253 0.188511
          0.212099 0.201181 0.404649 0.37001 0.491887 0.35344
          0.404649 0.382239 0.482423 0.356278 0.404649 0.498836
          0.482423 0.382239 0.263276 0.261824 0.209323 0.185038
          0.263276 0.270875 0.209323 0.261824 0.121709 0.224316
          0.163265 -0.0131994 0.17425 0.0804092 0.105133 0.13459
          0.404649 0.37001 0.245913 0.261654 0.311442 0.273528
          0.216007 0.338599 0.201068 0.0463607 0.0960629 0.212652
          0.0771466 0.117498 0.08759 0.0185148 0.399897 0.516936
          0.454738 0.387594 0.186008 0.170346 0.254887 0.20704
          0.351222 0.290634 0.344774 0.260874 0.0071006 0.0063197
          0.138201 0.121709 0.0071006 0.138201 0.166401 0.121709
          -0.00718751 -0.0327653 0.0360046 -0.0401972 -0.0327653 -0.0401972
          -0.122225 -0.11621 -0.0401972 -0.128186 -0.122225 -0.11621
          0.00182079 0.055218 0.00286609 -0.0219125 0.139782 0.118271
          0.151547 0.158522 0.139782 0.151547 0.177787 0.158522
          0.0155697 -0.0382728 0.00316235 -0.0277683 0.26653 0.206569
          0.301773 0.299638 -0.0401972 -0.0284574 0.0327665 -0.0161619
          0.230411 0.19858 0.280536 0.230411 0.0374318 0.0486358
          -0.0327653 0.0360046 -0.0446746 -0.0854006 0.00753187 -0.0602992
          0.130594 0.183089 0.207633 0.24453 0.203472 0.185367
          0.268345 0.187662 0.16486 0.203472 0.185367 0.096068
          0.373715 0.407349 0.339227 0.542112 0.389827 0.542112
          0.373715 0.339227 0.130594 0.0220962 0.181637 0.0250515
          -0.0454728 -0.128471 -0.0606808 0.00229256 0.268345 0.187662
          0.206243 0.203472 0.165049 0.140542 0.169031 0.185967
          0.187662 0.118225 0.193335 0.117498 -0.0367899 -0.0382728
          -0.065013 -0.0126816 0.208938 0.185967 0.182059 0.228727
          0.193335 0.26683 0.269356 0.274181 0.26683 0.270067
          0.274181 0.193335 0.183164 0.251263 0.26683 0.258238
          0.261534 0.317615 0.394227 0.279769 0.183164 0.251263
          0.258238 0.140684 0.274181 0.270067 0.274841 0.193335
          0.274181 0.274841 0.19703 0.193335 0.674729 0.675159
          0.655136 0.540308 0.00486405 0.0358098 0.0675574 0.028315
          0.170804 0.169372 0.154846 0.172928 0.150271 0.236193
          0.131058 0.158586 0.150271 0.131058 0.0112062 0.158586
          0.0358098 0.0342889 0.0991233 0.0574409 0.371953 0.38689
          0.26653 0.395388 0.0560741 0.130684 0.183089 0.130594
          0.38689 0.371953 0.540308 0.395388 0.301773 0.371953
          0.395388 0.380334 0.0353563 -0.0446746 0.00753187 -0.0602992
          -0.0288902 -0.0391606 0.119924 -0.0340695 0.520411 0.530358
          0.634897 0.394227 0.48037 0.501687 0.452807 0.39061
          0.294959 0.283203 0.166313 0.217421 0.273244 0.17425
          0.276125 0.0886722 -0.0182043 -0.106391 0.0185148 -0.0323988
          0.457237 0.332754 0.494421 0.46044 0.56349 0.457237
          0.494421 0.46044 0.46044 0.56349 0.555583 0.494421
          0.46044 0.544752 0.494421 0.555583 0.421332 0.544752
          0.46044 0.555583 0.421332 0.544752 0.494421 0.46044
          0.46044 0.392601 0.494421 0.421332 0.354887 0.417589
          0.289096 0.388864 0.0470043 -0.00718751 0.0486358 0.0509295
          0.332754 0.392601 0.494421 0.46044 0.286155 0.348836
          0.457237 0.486593 0.376293 0.451127 0.254887 0.364277
          0.361484 0.451127 0.254887 0.345197 0.294959 0.272421
          0.270667 0.196196 0.476062 0.345197 0.506516 0.553202
          0.476062 0.361484 0.345197 0.553202 -0.128186 -0.132434
          -0.0513797 -0.0161619 0.203415 0.112514 0.314863 0.128366
          0.205207 0.238887 0.215453 0.235505 -0.0126816 0.0019014
          0.0112358 0.00316235 0.10775 0.0547873 0.00945855 0.0642946
          0.41749 0.35344 0.299638 0.320545 0.399897 0.41749
          0.387594 0.320545 0.618914 0.486593 0.59157 0.432143
          0.526328 0.421332 0.555583 0.492079 0.472775 0.517372
          0.712817 0.572815 0.245603 0.263276 0.206809 0.254776
          0.600665 0.486593 0.64244 0.64488 0.486593 0.46044
          0.59157 0.432143 0.245603 0.263276 0.251392 0.206809
          0.181922 0.172928 0.180128 0.193318 0.193318 0.180128
          0.181922 0.180506 0.399897 0.320545 0.387594 0.294959
          0.0247339 0.0494826 0.130684 0.158016 0.110453 0.0486358
          0.0360046 0.0509295 0.110453 0.0486358 0.116656 0.0360046
          0.539956 0.709038 0.564165 0.703544 0.539956 0.696654
          0.709038 0.703544 0.183164 0.0578659 0.15721 0.140684
          0.183164 0.251263 0.140684 0.15721 -0.12508 -0.111952
          -0.122119 -0.0365529 0.262477 0.251263 0.26683 0.183164
          0.21495 0.272421 0.234576 0.313847 0.550847 0.524651
          0.509731 0.44968 0.348836 0.258244 0.332754 0.272319
          0.500981 0.694104 0.517372 0.685457 0.59149 0.509965
          0.55343 0.524651 0.334286 0.527923 0.445539 0.500981
          0.394078 0.335164 0.38125 0.343228 0.0108537 -0.0382095
          0.00633645 -0.0168768 0.347512 0.38689 0.37001 0.252819
          0.347512 0.503551 0.37001 0.38689 0.503551 0.465399
          0.38689 0.347512 0.055218 0.0547873 0.10775 0.126494
          0.38689 0.465399 0.371953 0.294303 0.371953 0.294303
          0.26653 0.38689 0.38689 0.206569 0.26653 0.299638
          -0.0515571 -0.0581836 -0.000164951 -0.0801759 0.267714 0.207377
          0.247711 0.196263 0.160153 0.170804 0.187816 0.196263
          0.318274 0.113661 0.345308 0.195943 0.318274 0.113661
          0.189242 0.345308 0.113946 0.166261 0.188511 0.17088
          0.0930218 0.071029 0.156925 0.0560741 0.345308 0.113661
          0.189242 0.195943 0.345308 0.311949 0.472775 0.407349
          0.345308 0.311949 0.522672 0.472775 0.465399 0.581837
          0.540308 0.675159 0.465399 0.581837 0.503551 0.540308
          -0.0205164 0 -0.0475923 -0.020548 -0.0148586 -0.020548
          -0.0485207 0 0.390222 0.343228 0.417589 0.289096
          0.555537 0.535403 0.483334 0.712901 0.555537 0.482423
          0.586206 0.483334 0.535403 0.404649 0.555537 0.483334
          0.282637 0.390222 0.399113 0.317265 0.535403 0.491887
          0.555537 0.404649 0.00753187 -0.0584268 -0.0752176 -0.0854006
          0.39061 0.399113 0.390222 0.317265 0.674729 0.675159
          0.540308 0.503551 0.0482068 0.123689 0.0247339 0.10116
          -0.020548 -0.0148586 0 0 0.201734 0.250899
          0.182197 0.188444 0.326886 0.198264 0.0824626 0.206908
          0.00815519 0.00229256 0.0470197 -0.0454728 -0.0454728 0.0470197
          0.057422 -0.0432089 0.520384 0.416411 0.465816 0.339176
          -0.0454728 -0.133267 -0.0299594 -0.0432089 0.348836 0.230729
          0.349309 0.299053 0.348836 0.272319 0.349309 0.230729
          -0.132317 -0.133267 -0.0299594 -0.0454728 0.118354 0.118271
          0.139782 0.158522 -0.0658888 0.00554623 -0.00718751 -0.00765868
          0.183089 0.209562 0.258765 0.238684 0.185334 0.129918
          0.17137 0.139782 -0.127933 -0.0658888 -0.130076 -0.122225
          0.387815 0.335556 0.335164 0.311359 -0.0474617 0.13459
          0.198264 0.0824626 0.114131 0.121136 0.208709 0.171797
          0.44205 0.307201 0.395931 0.257122 0.0389992 -0.0515571
          -0.0120033 0.0169673 0.374364 0.509302 0.327201 0.441927
          0.054551 0.0482068 0.0247339 0.10116 -0.0171008 -0.0482987
          -0.0354252 -0.108082 -0.109993 0.0185148 -0.0443746 -0.0331069
          0.103863 0.0752352 0.0450981 0.0514415 0.3056 0.239659
          0.283765 0.233984 0.128655 0.317615 0.237825 0.195909
          0.333011 0.377788 0.328671 0.270998 0.196052 0.157521
          0.208244 0.239659 0.239659 0.157521 0.208244 0.253697
          0.239659 0.157521 0.253697 0.20433 0.526328 0.372622
          0.421332 0.492079 0.334915 0.270667 0.240274 0.311442
          0.432326 0.351173 0.336885 0.372622 0.18739 0.205207
          0.203025 0.167174 0.709794 0.572815 0.522672 0.472775
          0.197806 0.17471 0.207377 0.195952 0.0372527 0.0502769
          0.071029 0.130684 0.130684 0.0502769 0.071029 0.13282
          0.572815 0.517372 0.710123 0.698744 0.130684 0.13282
          0.071029 0.183089 0.0560741 0.0372527 0.071029 0.130684
          0.0247339 0.130684 0.136757 0.158016 0.509965 0.480039
          0.584148 0.55343 0.509965 0.584148 0.59149 0.55343
          0.300169 0.276521 0.382239 0.349891 0.509965 0.463114
          0.59149 0.59459 0.509965 0.480039 0.55343 0.50375
          0.0509295 0.134253 0.104284 0.0360046 0.0360046 0.0327665
          0.104284 0.0509295 -0.00718751 -0.0401972 0.0360046 0.0509295
          0.0509295 -0.0161619 0.0578659 -0.0382095 0.153352 0.147967
          0.17279 0.153 0.105195 0.113946 0.134253 0.201181
          0.113946 0.188511 0.134253 0.201181 0.113946 0.17088
          0.188511 0.201181 0.669866 0.542925 0.645948 0.594527
          0.152229 0.171138 0.152649 0.168346 0.180506 0.152229
          0.152649 0.182059 0.63083 0.475537 0.64176 0.542691
          0.64176 0.542691 0.543584 0.701053 0.475537 0.368946
          0.543584 0.542691 0.17471 0.153 0.160877 0.169372
          0.153 0.153352 0.160877 0.169372 0.64176 0.475537
          0.543584 0.542691 -0.0485207 -0.0698807 -0.020548 -0.065013
          0.709794 0.472775 0.522672 0.578844 0.702014 0.477178
          0.522672 0.572815 0.492079 0.36166 0.372622 0.343916
          0.124865 0.173799 -0.0186939 0.117851 -0.0897965 0.0185148
          -0.0331069 0.00945855 0.506516 0.345197 0.473613 0.553202
          0.3056 0.257074 0.317734 0.372622 0.268413 0.373512
          0.317265 0.280936 0.317734 0.257074 0.351173 0.372622
          0.268413 0.19858 0.208235 0.214937 0.268413 0.317265
          0.19858 0.19858 0.280936 0.268413 0.208235 0.214937
          0.268413 0.19858 0.19858 0.214937 0.376293 0.364277
          0.327201 0.509302 0.376293 0.364277 0.261654 0.327201
          0.376293 0.261654 0.364277 0.170346 0.376293 0.37001
          0.404649 0.261654 0.376293 0.202133 0.37001 0.261654
          0.502812 0.527923 0.646271 0.416411 0.416411 0.334286
          0.502812 0.527923 0.177787 0.183085 0.184506 0.158522
          0.170346 0.224316 0.364277 0.349722 0.349722 0.364277
          0.327201 0.224316 0.348836 0.272319 0.46044 0.349309
          0.332754 0.30705 0.46044 0.272319 0.244295 0.272319
          0.30705 0.332754 0.540798 0.432167 0.564627 0.432326
          0.311949 0.477379 0.407349 0.349722 0.217546 0.416411
          0.286155 0.327877 0.364277 0.477379 0.564165 0.349722
          0.364277 0.349722 0.564165 0.4665 0.326886 0.0824626
          0.177901 0.206908 0.268345 0.203472 0.206243 0.16486
          0.0844988 0.0804219 0.00815519 0.0771466 0.27013 0.188323
          0.147113 0.299053 0.27013 0.18863 0.188323 0.299053
          0.15796 0.162798 0.169372 0.157544 0.318274 0.206908
          0.177901 0.113661 0.156925 0.180739 0.13282 0.071029
          0.527923 0.334286 0.502812 0.500981 0.187816 0.193318
          0.205207 0.215453 0.160769 0.140684 0.104284 0.156717
          -0.0370501 0.0878293 0.101692 -0.0296118 -0.0277683 -0.0423323
          0.00316235 0.0130412 -0.0117854 -0.0195698 0.00714858 -0.0144841
          0.528544 0.610188 0.548184 0.48037 0.167692 0.181922
          0.18229 0.177514 0.167692 0.177514 0.18229 0.174612
          0.174612 0.177514 0.18229 0.198031 0.320545 0.217421
          0.294959 0.314828 0.40384 0.314828 0.320545 0.294959
          0.177514 0.181922 0.193318 0.172928 0.177514 0.172928
          0.193318 0.187816 0.158586 0.347512 0.252819 0.294303
          0.0975126 0.0313912 0.0700022 0.0471266 0.0975126 0.0700022
          0.0893929 0.118174 0.0389992 0.0169673 -0.000164951 -0.0515571
          0.130874 0.0975126 0.126155 0.134934 0.0366677 0.123339
          0.105195 0.0898911 0.646271 0.486593 0.64488 0.618914
          0.472775 0.517372 0.710123 0.712817 -0.109993 -0.0323988
          -0.122298 -0.0443746 -0.122119 -0.0382095 -0.0443746 -0.122298
          0.118354 0.145661 0.150219 0.152649 0.372622 0.428379
          0.36166 0.45466 0.120681 0.117393 0.138486 0.160153
          -0.122119 -0.109993 -0.122298 -0.0443746 0.160153 0.117393
          0.138486 0.135998 0.0827109 0.0313912 0.0893929 0.0975126
          0.0827109 0.0975126 0.130043 0.0811437 -0.108758 -0.108082
          -0.0525861 -0.0354252 0.158586 0.236193 0.131058 0.237915
          0.158586 0.236193 0.237915 0.347512 0.158586 0.0303563
          0.0112062 0.0561909 0.0112062 0.158586 0.0561909 0.0458227
          0.202133 0.0303563 0.158586 0.0561909 0.539956 0.709038
          0.4665 0.578245 0.578245 0.522672 0.714042 0.705183
          0.709038 0.578245 0.714042 0.705183 0.20449 0.177901
          0.147867 0.269518 0.269518 0.177901 0.147867 0.257122
          0.23471 0.205207 0.207944 0.173956 -0.0523907 -0.0584419
          0.0887269 -0.0316434 0.044791 -0.0523907 0.0887269 -0.0316434
          0.044791 0.0887269 0.16556 -0.0316434 -0.000164951 -0.0801759
          -0.0840805 -0.0648303 0.194464 0.232606 0.19541 0.17137
          0.38689 0.252819 0.206569 0.299638 0.299638 0.252819
          0.206569 0.217421 0.129141 0.0886722 0.147113 0.00586034
          0.299638 0.206569 0.132312 0.217421 0.333011 0.238684
          0.3056 0.278739 0.175656 0.169372 0.170804 0.172928
          0.228412 0.219527 0.195952 0.206879 0.432326 0.351173
          0.349309 0.336885 0.372622 0.336885 0.421332 0.343916
          0.253788 0.24453 0.336885 0.257074 0.253788 0.24453
          0.30705 0.336885 0.367694 0.377788 0.411928 0.333011
          0.516936 0.395929 0.454738 0.387594 0.516936 0.461908
          0.395929 0.387594 0.461908 0.373718 0.395929 0.387594
          0.151547 0.136202 0.180068 0.120011 0.395929 0.373718
          0.313847 0.387594 0.395929 0.283203 0.387594 0.313847
          0.395929 0.313847 0.282637 0.315947 0.315947 0.395929
          0.387594 0.399897 0.395929 0.454738 0.387594 0.399897
          0.153728 0.0463607 0.0565896 0.0171941 0.268785 0.230411
          0.279451 0.209067 0.187662 0.096068 0.08759 0.117498
          0.0771466 0.117498 0.118225 0.08759 0.655136 0.533951
          0.499489 0.632325 0.123689 0.0494826 0.0247339 0.158016
          0.286476 0.230153 0.278739 0.245796 0.230153 0.238684
          0.3056 0.333011 0.516936 0.387594 0.496235 0.533951
          0.516936 0.387594 0.533951 0.499489 0.499489 0.516936
          0.632325 0.533951 0.619954 0.523184 0.605988 0.516936
          0.603631 0.523184 0.619954 0.516936 0.62833 0.619954
          0.605988 0.516936 0.603631 0.523184 0.605988 0.619954
          0.173799 0.286155 0.258244 0.130689 0.173799 0.348836
          0.258244 0.286155 0.286155 0.258244 0.457237 0.348836
          0.182197 0.260191 0.188752 0.156523 0.182197 0.260191
          0.248905 0.188752 0.17137 0.206809 0.190034 0.143934
          0.245603 0.206809 0.194464 0.254776 0.182197 0.221732
          0.250899 0.26285 0.221732 0.250899 0.188444 0.182197
          0.432326 0.299053 0.351173 0.368363 0.0934466 0.113946
          0.0774893 0.0540416 0.17088 0.0934466 0.145403 0.113962
          0.349309 0.432143 0.432326 0.46044 0.526328 0.432326
          0.555583 0.421332 0.46044 0.432326 0.555583 0.59157
          0.432326 0.349309 0.351173 0.299053 0.348836 0.173799
          0.272319 0.230729 0.509731 0.524651 0.446707 0.44968
          -0.0367899 -0.065013 -0.0485207 -0.020548 0.320388 0.294977
          0.29089 0.280415 0.00765813 0 0 0.0277173
          0.253552 0.15721 0.183164 0.139282 0.188625 0.166462
          0.197806 0.195952 0.153867 0.139827 0.166462 0.159927
          0.170804 0.154597 0.160153 0.135998 0.645948 0.542925
          0.495762 0.594527 0.262477 0.253552 0.183164 0.139282
          -0.0167663 -0.0254253 0.121136 -0.0185965 -0.0185965 -0.0167663
          0.114131 0.121136 0.12311 0.193086 0.116656 0.188511
          0.123387 0.140542 0.152649 0.165049 0.311442 0.294959
          0.216007 0.273528 0.230411 0.19858 0.19858 0.280536
          0.152229 0.130874 0.118354 0.145661 0.258765 0.257074
          0.24453 0.185762 0.273244 0.0983943 0.17425 0.0886722
          0.314828 0.273528 0.212652 0.217421 0.0353563 -0.033664
          -0.0584268 -0.0446746 0.0353563 -0.0194409 -0.033664 -0.0446746
          0.0550265 -0.0194409 -0.033664 0.0353563 0.152229 0.145661
          0.173365 0.16328 0.152229 0.130874 0.145661 0.16328
          0.0222848 0.0174988 0.0450981 0.0514415 0.0450981 0.0174988
          0.0915026 0.0514415 0.0878293 0.147113 0.108892 -0.0327675
          -0.0370501 -0.0327675 0.147113 0.0878293 -0.0370501 0.0878293
          0.147113 0.101692 0.193318 0.204545 0.180506 0.193758
          0.109161 0.0247339 0.136757 0.158016 0.109161 0.0247339
          0.00251873 0.136757 0.334286 0.28116 0.17425 0.327877
          0.334286 0.17425 0.13459 0.327877 0.334286 0.327877
          0.13459 0.195518 0.339176 0.195518 0.327877 0.334286
          0.339176 0.327877 0.416411 0.334286 0.339176 0.195518
          0.416411 0.327877 0.327877 0.416411 0.286155 0.195518
          0.327877 0.17425 0.13459 0.195518 0.327877 0.108892
          0.17425 0.195518 -0.0525861 -0.0327653 -0.0401972 0.0360046
          0.17279 0.195515 0.184506 0.173041 -0.0525861 -0.0171008
          -0.0277683 -0.0354252 -0.0871916 -0.0785707 -0.0382728 -0.102932
          -0.0382728 -0.0785707 -0.0423323 -0.102932 -0.0277683 -0.0382728
          -0.0423323 -0.102932 -0.0277683 -0.0382728 0.00316235 -0.0423323
          0.0708915 0.156523 0.096068 0.117074 -0.0382728 -0.0785707
          -0.0240264 -0.0423323 -0.0382728 -0.0698807 -0.0240264 -0.0785707
          0.389267 0.40384 0.273528 0.338599 0.263276 0.267997
          0.209323 0.270875 0.209323 0.267997 0.251392 0.18506
          0.270875 0.261416 0.267997 0.209323 0.692943 0.702014
          0.538118 0.697082 0.702014 0.692943 0.538118 0.572815
          0.245796 0.156925 0.226725 0.180739 0.245796 0.260874
          0.226725 0.156925 0.207633 0.226725 0.260874 0.156925
          0.207633 0.156925 0.260874 0.183089 0.117525 0.0930218
          0.156445 0.156925 0.332754 0.392601 0.46044 0.30705
          0.160153 0.157544 0.170804 0.135998 0.240642 0.372631
          0.392601 0.30705 0.240642 0.372631 0.30705 0.24453
          0.24453 0.372631 0.30705 0.343916 0.0934466 0.0155697
          0.0607489 0.0660439 0.0934466 0.0660439 0.0607489 0.13966
          0.30705 0.372631 0.421332 0.343916 0.30705 0.372631
          0.392601 0.421332 0.30705 0.392601 0.46044 0.421332
          0.183164 0.140684 0.0740804 0.0578659 0.139282 0.183164
          0.0740804 0.0578659 0.0740804 0.0578659 0.0665477 0.139282
          0.332843 0.315893 0.304318 0.247711 -0.0449147 -0.052492
          0.00554623 0.0470043 -0.0126816 0.00613925 0 -0.0148586
          0.00613925 0 0 -0.0148586 -0.0148586 0
          0.00765813 0.00613925 -0.0115162 -0.0148586 0.00765813 0.00613925
          0.0853681 0.112536 0.178216 0.187251 0.148357 0.0853681
          0.178216 0.187251 0.0100932 0.00765813 0.028315 0.0277173
          0.028315 0.0675574 0.0100932 0.0277173 0.028315 0.0675574
          0.0155697 0.0100932 0.0100932 0.00486405 0.0155697 0.028315
          0.282072 0.210866 0.193506 0.234576 0.282637 0.282072
          0.193506 0.234576 -0.127933 -0.0449147 -0.0658888 -0.0681067
          0.313847 0.282072 0.234576 0.21495 0.282072 0.21495
          0.313847 0.269246 0.282072 0.210866 0.234576 0.21495
          0.151547 0.139782 0.129918 0.0957739 0.151547 0.139782
          0.17137 0.129918 0.126494 0.055218 0.0957739 0.129918
          -0.000164951 -0.0303082 -0.0801759 -0.0460202 0.0752352 0.0802511
          0.0484699 0.0222848 -0.0370501 -0.0327675 0.0878293 -0.0158408
          -0.0171008 0.00486405 -0.0354252 -0.0482987 0.139282 0.152232
          0.18615 0.259363 -0.100392 -0.0816843 -0.0482987 -0.0950276
          -0.100392 -0.0816843 -0.0320968 -0.0482987 -0.0482987 -0.0320968
          0.0342889 0.00486405 0.0223666 0.128655 0.195909 0.112681
          0.128974 0.0223666 0.195909 0.112681 0.215453 0.20182
          0.204545 0.228412 0.238844 0.186008 0.131058 0.254887
          -0.0365595 0.0140221 0.00486405 -0.0115162 0.0389992 0.0555938
          0.123149 0.0919467 -0.0547892 -0.0816843 -0.0726572 -0.0365595
          0.186008 0.254887 0.361484 0.20704 -0.0254253 -0.0288902
          0.119924 -0.0340695 0.131058 0.237915 0.254887 0.170346
          -0.0254253 -0.0288902 0.0687574 0.119924 0.361484 0.451127
          0.364277 0.254887 0.128974 0.119924 0.112681 0.279769
          0.195943 0.119924 0.339227 0.279769 0.195943 0.211578
          0.339227 0.119924 0.207944 0.215453 0.205207 0.238887
          0.113767 0.0549394 0.105429 0.0486358 0.180506 0.152229
          0.182059 0.173365 0.180506 0.173365 0.182059 0.204545
          0.0155697 0.0112358 0.00316235 -0.0382728 0.0112358 -0.0126816
          0.00316235 -0.0382728 0.00316235 0.0019014 0.0112358 0.0376237
          0.348836 0.332754 0.46044 0.272319 -0.0367899 -0.0126816
          -0.065013 -0.020548 0.201398 0.203198 0.19375 0.188423
          0.282637 0.311359 0.399113 0.301902 0.282637 0.193506
          0.311359 0.301902 0.193506 0.193506 0.311359 0.301902
          0.193506 0.193506 0.301902 0.218066 0.311359 0.193506
          0.305763 0.301902 0.343228 0.311359 0.305763 0.301902
          0.343228 0.301902 0.305763 0.250619 0.301902 0.193506
          0.305763 0.250619 0.317265 0.268413 0.279451 0.280536
          0.301902 0.311359 0.399113 0.390222 0.301902 0.218066
          0.218435 0.289096 0.165049 0.152649 0.150219 0.182059
          0.177514 0.148992 0.138486 0.169153 0.179546 0.141621
          0.157185 0.153867 0.555537 0.491887 0.535403 0.690279
          0.690279 0.704115 0.535403 0.555537 0.690279 0.704115
          0.555537 0.712901 0.555537 0.704115 0.535403 0.712901
          0.349309 0.299053 0.432143 0.348836 0.230366 0.160769
          0.225279 0.238356 0.252819 0.299638 0.35344 0.217421
          0.38689 0.252819 0.299638 0.35344 0.206879 0.228412
          0.219527 0.257413 0.0019014 -0.0205164 -0.000539383 -0.00257965
          0.311359 0.305763 0.335164 0.343228 0.37001 0.202133
          0.35344 0.201068 0.10775 0.188752 0.156523 0.126494
          0.10775 0.156523 0.185367 0.096068 0.0108537 0.00633645
          0.0578659 -0.0168768 0.13712 0.157521 0.196052 0.239659
          0.1823 0.13712 0.196052 0.239659 0.225286 0.257074
          0.317734 0.233984 0.099324 0.0376237 0.0452892 0.0761817
          0.264919 0.255812 0.270067 0.158259 0.261534 0.31981
          0.394227 0.317615 0.0452892 0.0376237 0.0915026 0.0174988
          0.099324 0.0915026 0.0376237 0.0761817 0.118225 0.0740804
          0.140684 0.0804219 0.239659 0.1823 0.123689 0.233984
          0.238684 0.1823 0.239659 0.233984 0.238684 0.1823
          0.233984 0.158016 0.237825 0.317615 0.325379 0.195909
          0.0209124 0.0376237 0.0452892 0.00878838 0.328671 0.428379
          0.368133 0.377788 0.237825 0.325379 0.371903 0.212402
          0.328671 0.3056 0.239659 0.283765 0.460626 0.41749
          0.499489 0.533951 -0.0205164 -0.020548 -0.0475923 -0.0240264
          0.41749 0.35344 0.491887 0.460626 0.41749 0.460626
          0.299638 0.35344 -0.0284574 -0.0209055 -0.088756 -0.0607624
          0.153867 0.179546 0.166462 0.157185 0.41749 0.387594
          0.533951 0.496235 0.41749 0.387594 0.499489 0.533951
          0.217644 0.230153 0.196052 0.270998 0.157308 0.230153
          0.196052 0.217644 0.258244 0.130689 0.11677 0.173799
          0.230153 0.1823 0.196052 0.239659 0.230153 0.1823
          0.239659 0.238684 0.230153 0.239659 0.3056 0.238684
          0.13282 0.1823 0.238684 0.158016 0.239659 0.20433
          0.283765 0.233984 0.261824 0.260191 0.203472 0.188752
          0.203472 0.261824 0.268345 0.260191 0.239659 0.123689
          0.20433 0.233984 0.00878838 0.0244272 0.0376237 0.0174988
          0.44205 0.307201 0.376157 0.395931 0.00878838 0.0376237
          0.0452892 0.0174988 0.0209124 0.0244272 0.0376237 0.00878838
          0.099324 0.0915026 0.0452892 0.0376237 0.0804219 0.0578659
          0.0470197 0.00229256 0.0844988 0.0804219 0.057422 0.00815519
          0.0844988 0.0804219 0.158259 0.057422 0.172868 0.150271
          0.158586 0.293607 0.128655 0.198264 0.317615 0.195909
          0.172868 0.293607 0.158586 0.294303 0.127111 0.158259
          0.140684 0.0804219 0.127111 0.0804219 0.140684 0.057422
          0.127111 0.158259 0.0804219 0.057422 0.465399 0.371953
          0.540308 0.38689 0.540308 0.460626 0.499489 0.533951
          0.540308 0.581837 0.503551 0.675159 0.27013 0.15145
          0.268257 0.14902 0.258244 0.11677 0.160511 0.173799
          0.269246 0.272421 0.313847 0.283203 0.409685 0.502812
          0.637193 0.611773 0.61602 0.409685 0.637193 0.611773
          0.180665 0.17471 0.186348 0.197806 0.205207 0.193318
          0.177514 0.198031 -0.0501823 -0.11324 -0.0327653 -0.1189
          -0.0327653 -0.0501823 -0.1189 -0.0681067 0.17471 0.170804
          0.186348 0.207377 -0.109993 0.0185148 -0.0323988 -0.0443746
          0.0758476 0.0991233 0.0574409 0.0675574 0.395388 0.387594
          0.499489 0.41749 0.311442 0.334915 0.270667 0.376374
          0.00554623 -0.052492 -0.00718751 0.0470043 0.0244272 0.0019014
          0.00878838 0.0209124 0.542112 0.578844 0.615925 0.721043
          0.00316235 -0.00286052 0.0209124 -0.00690965 -0.00690965 0.0209124
          0.00316235 0.0388059 0.254776 0.260191 0.261824 0.188752
          0.0019014 0 0.0244272 0 0 0
          0.0019014 0 0 0 0 0.0019014
          0 -0.000539383 0 0.0019014 0 0
          -0.000539383 0.0019014 0.217546 0.348836 0.173799 0.286155
          0 0.00613925 -0.0126816 0.0019014 0 0
          0.00613925 0.0019014 0.00613925 0 0.0244272 0.0019014
          0.553382 0.35344 0.460626 0.491887 0.0019014 0
          0 0.00878838 -0.033664 0.0579845 0.0550265 0.0256823
          -0.0280559 -0.00299887 0.0256823 0.00286609 0.0256823 0.0550265
          -0.033664 0.0353563 0.117877 0.117074 0.0845877 0.0452458
          -0.033664 -0.00299887 0.0579845 0.0256823 0.17279 0.195515
          0.1666 0.179579 0.17279 0.153352 0.169372 0.164186
          0.113661 -0.0418792 0.0917604 0.195943 0.48037 0.522544
          0.501687 0.454738 0.454738 0.42471 0.48037 0.522544
          0.345308 0.195943 0.0917604 0.311949 0.143934 0.126494
          0.138454 0.0922398 0.245913 0.0463607 0.212652 0.0565896
          0.212652 0.0463607 0.0960629 0.0565896 0.394227 0.530358
          0.634897 0.49059 0.156925 0.0930218 0.156445 0.160795
          0.169372 0.17279 0.176707 0.166518 0.230411 0.19858
          0.317265 0.280536 0.141115 0.12317 0.311949 0.171797
          0.170346 -0.0194793 0.12317 0.20704 0.12317 0.224316
          0.170346 0.20704 0.0971336 0.0811437 0.118354 0.130874
          0.0811437 0.0771644 0.0971336 0.118354 0.0811437 0.0771644
          0.118354 0.125307 0.19858 0.19858 0.317265 0.280536
          0.184506 0.194202 0.185334 0.173041 0.194202 0.165532
          0.173041 0.145625 0.197806 0.195952 0.207377 0.228412
          0.206243 0.274181 0.193335 0.187662 0.268345 0.274181
          0.206243 0.187662 0.0102294 -0.0280559 0.055218 -0.0219125
          0.268345 0.206243 0.270875 0.16486 0.268345 0.274181
          0.270875 0.206243 0.404649 0.37001 0.35344 0.349891
          0.152649 0.168346 0.184175 0.169031 0.113962 0.145403
          0.17088 0.187575 0.113962 0.17088 0.201181 0.187575
          0.113962 0.17088 0.113946 0.201181 0.152649 0.169031
          0.182059 0.165049 0.113962 0.145403 0.187575 0.143686
          0.404649 0.35344 0.491887 0.349891 0.130684 0.0372527
          0.136757 0.0220962 0.134934 0.118174 0.141749 0.147967
          0.503551 0.473613 0.584036 0.552352 0.376293 0.473613
          0.551693 0.584036 0.376293 0.584036 0.551693 0.535403
          0.584036 0.697242 0.706821 0.704115 0.0174988 0
          0 0.0222848 0.0174988 0.0019014 0 0.00878838
          0.69147 0.503551 0.553382 0.535403 -0.0205164 0
          -0.000539383 -0.0475923 0.501687 0.463114 0.452807 0.39061
          0.59459 0.59149 0.501687 0.463114 0.59459 0.59149
          0.598111 0.501687 0.279769 0.387406 0.325688 0.206908
          0.548184 0.598111 0.550847 0.501687 0.173956 0.217644
          0.171435 0.207944 0.173956 0.171435 0.187816 0.207944
          0.394078 0.311359 0.343228 0.301902 0.207944 0.171435
          0.187816 0.196263 0.168965 0.173041 0.141749 0.145625
          0.172442 0.171138 0.177787 0.188423 0.168965 0.145625
          0.141749 0.111914 0.474926 0.458699 0.509965 0.394078
          0.474926 0.509965 0.390222 0.394078 0.394078 0.509965
          0.390222 0.408602 0.509965 0.394078 0.480039 0.408602
          0.509965 0.458699 0.480039 0.394078 0.394078 0.458699
          0.480039 0.408602 0.394078 0.38125 0.458699 0.408602
          0.29089 0.240259 0.290625 0.280415 -0.0525861 -0.0284574
          -0.0277683 0.0098671 -0.0525861 -0.0284574 0.0098671 0.0360046
          0.10775 0.126494 0.0547873 0.105915 0.0547873 0.0922398
          0.0353563 0.105915 0.0547873 0.00753187 0.105915 0.0353563
          0.00753187 0.0418954 0.105915 0.0353563 0.105915 0.0418954
          0.122618 0.0353563 0.110876 0.105915 0.122618 0.0353563
          0.105915 0.0922398 0.0353563 0.110876 0.18863 0.253788
          0.299053 0.351173 0.477897 0.44975 0.421482 0.50631
          0.16486 0.206243 0.188761 0.105915 0.16486 0.117498
          0.206243 0.105915 0.201068 0.245913 0.202133 0.0463607
          0.245913 0.0463607 0.201068 0.212652 0.27013 0.299053
          0.147113 0.368363 0.27013 0.299053 0.368363 0.351173
          0.27013 0.18863 0.299053 0.351173 0.209323 0.105915
          0.188761 0.138454 0.311949 0.195943 0.0917604 0.171797
          0.44205 0.395931 0.374349 0.318274 0.254887 0.237915
          0.364277 0.170346 0.299053 0.276125 0.368363 0.277729
          0.576506 0.542112 0.654031 0.721043 0.0555938 0.0102294
          0.00945855 0.10775 0.407349 0.405571 0.576506 0.542112
          0.62833 0.496235 0.516936 0.522544 0.62833 0.516936
          0.605988 0.522544 0.62833 0.605988 0.610188 0.522544
          0.610188 0.501687 0.522544 0.605988 0.206908 0.317615
          0.279769 0.387406 0.394227 0.387406 0.424977 0.279769
          0.399897 0.42471 0.522544 0.495762 0.522544 0.42471
          0.528544 0.495762 0.631716 0.522544 0.528544 0.495762
          0.712961 0.706821 0.704115 0.551693 0.712961 0.706821
          0.551693 0.713145 0.712961 0.551693 0.564165 0.713145
          0.712961 0.564165 0.551693 0.719557 0.0540416 0.113962
          0.0857983 0.0649561 0.551693 0.564165 0.509302 0.719557
          0.564165 0.509302 0.364277 0.551693 0.551693 0.509302
          0.364277 0.376293 0.551693 0.706821 0.564165 0.713145
          0.483334 0.376293 0.374364 0.327201 0.193506 0.21655
          0.267912 0.193506 0.0366677 0.0857983 0.0209038 0.105195
          0.0209038 0.0857983 0.0366677 0.0108447 -0.0185362 0.0209038
          0.0366677 0.0108447 0.0209038 -0.0209055 -0.0185362 0.0366677
          0.0209038 0.105195 0.113962 0.0540416 0.0209038 0.0360046
          0.105195 0.0540416 0.0540416 0.0360046 0.0098671 0.0209038
          0.201734 0.250899 0.248905 0.182197 0.0209038 0.0098671
          -0.0277683 -0.0284574 0.0209038 0.0360046 0.0098671 -0.0284574
          -0.0284574 0.0360046 0.0327665 0.0209038 0.0327665 0.0360046
          0.105195 0.0209038 0.0902995 0.0531873 0.0816611 0.0356243
          0.0902995 0.0531873 0.0356243 0.0519787 0.345308 0.572815
          0.374349 0.517372 0.0441782 0.0519787 0.0356243 0.0307875
          0.0307875 0.00765813 0.0356243 0.0441782 0.0356243 0.00765813
          0.0307875 0 0 0.0356243 0.0307875 0
          0.0277173 0.00765813 0.0356243 0 0.00765813 0.028315
          0.0277173 0.0356243 0.00765813 0.028315 0.0356243 0.0441782
          -0.0126816 -0.00286052 0.0019014 0.00316235 0.0708915 0.0127683
          -0.000164951 0.0289583 0.0356243 0.0519787 0 0.0307875
          0.64244 0.486593 0.56349 0.620393 0.64488 0.486593
          0.64244 0.620393 0.64488 0.486593 0.620393 0.618914
          0.620393 0.486593 0.59157 0.618914 0.620393 0.46044
          0.59157 0.486593 0.620393 0.486593 0.56349 0.46044
          0.486593 0.457237 0.56349 0.46044 0.0366677 0.0898911
          0.0327665 0.0636064 -0.109993 -0.106391 -0.122298 -0.0323988
          -0.106391 -0.125328 -0.122298 -0.0323988 0.173799 0.188323
          0.230729 0.277729 0.722095 0.586206 0.600635 0.583709
          0.726014 0.600635 0.583709 0.722095 0.586206 0.583709
          0.441927 0.600635 0.726014 0.583709 0.719557 0.722095
          0.0486358 -0.00718751 0.0360046 0.0509295 0.238844 0.361484
          0.186008 0.254887 0.208709 0.211578 0.389827 0.339227
          0.339227 0.211578 0.389827 0.279769 -0.0365595 -0.0115162
          0.00486405 -0.0354252 -0.0144841 -0.0594745 -0.0496443 -0.0579892
          -0.0579892 -0.0496443 -0.0144841 0 0.195943 0.311949
          0.345308 0.339227 0.195943 0.311949 0.339227 0.171797
          0.339227 0.311949 0.407349 0.171797 0.339227 0.311949
          0.345308 0.407349 0.170804 0.207377 0.196263 0.186348
          0.130594 0.0372527 0.130684 0.0220962 0.096068 0.0185148
          0.117498 0.0642946 0.096068 0.0642946 0.117498 0.16486
          0.240274 0.294959 0.270667 0.216007 0.00316235 -0.00286052
          0.0019014 0.0209124 -0.108082 -0.11621 -0.0525861 -0.0171008
          -0.00846173 0.109161 0.00251873 0.101692 0.109161 0.136757
          0.00251873 0.101692 0.109161 0.136757 0.101692 0.18863
          0.109161 0.18863 0.101692 0.225286 0.109161 0.101692
          0.15145 0.225286 0.15145 0.101692 0.27013 0.225286
          0.14902 0.101692 0.27013 0.15145 0.14902 0.15145
          0.0297149 0.101692 0.0392936 0.14902 0.0297149 0.101692
          0.0392936 0.101692 0.0297149 -0.0296118 0.147113 0.14902
          0.0392936 0.101692 0.14902 0.101692 0.147113 0.27013
          0.101692 0.18863 0.147113 0.27013 0.101692 0.18863
          0.27013 0.225286 0.10775 0.138454 0.105915 0.16486
          0.15796 0.160877 0.169372 0.162798 0.0878293 -0.0327675
          0.108892 -0.0164584 0.20433 0.123689 0.126057 0.233984
          0.233984 0.123689 0.126057 0.158016 0.233984 0.158016
          0.126057 0.178872 0.233984 0.1823 0.123689 0.158016
          0.233984 0.257074 0.3056 0.238684 0.230411 0.230411
          0.270667 0.209067 0.0463607 0.153728 0.245913 0.202133
          -0.0658888 -0.0449147 -0.052492 -0.00718751 0.345308 0.195943
          0.325688 0.318274 0.20182 0.180128 0.193318 0.204545
          0.193318 0.172928 0.180128 0.20182 -0.05098 -0.0148586
          -0.065013 -0.0485207 0.245913 0.0463607 0.0565896 0.153728
          0.230411 0.268785 0.270667 0.209067 0.258765 0.36166
          0.238684 0.278739 0.270667 0.294959 0.165846 0.216007
          0.0740804 0.15297 0.0853681 0.08759 0.15297 0.096068
          0.117074 0.08759 0.0127683 0.00945855 -0.0331069 0.08759
          0.00945855 0.0185148 -0.0331069 0.08759 0.269246 0.18332
          0.155598 0.234576 -0.0871916 -0.0698807 -0.065013 -0.0382728
          -0.065013 -0.0698807 -0.020548 -0.0382728 0.108319 0.0930218
          0.156445 0.117525 0.151948 0.141866 0.0898911 0.156717
          0.723765 0.566235 0.726014 0.654031 0.183089 0.209562
          0.260874 0.258765 0.258765 0.238684 0.257074 0.185762
          0.128366 0.20704 0.329965 0.141115 0.189242 0.141115
          0.128366 0.329965 0.128366 0.189242 0.329965 0.333142
          0.128366 0.16556 0.189242 0.333142 0.189242 0.0887269
          0.16556 0.128366 0.189242 -0.0523907 0.0887269 0.128366
          0.141115 -0.0523907 0.189242 0.128366 -0.0397156 -0.0523907
          0.141115 0.128366 -0.0397156 0.128366 0.141115 -0.0414189
          -0.0397156 -0.0523907 0.128366 -0.0414189 0.188752 0.194464
          0.129918 0.126494 0.188752 0.194464 0.165532 0.129918
          0.337729 0.392657 0.286476 0.341916 0.249546 0.197806
          0.228412 0.219527 0.0607489 0.0222848 0.0244272 0.0277173
          0.503551 0.552352 0.584036 0.69147 0.376157 0.330553
          0.395931 0.257122 0.0675574 0.109537 0.13966 0.0607489
          0.187662 0.193335 0.187113 0.274181 0.21495 0.234576
          0.234576 0.272421 0.294959 0.315947 0.272421 0.283203
          0.258765 0.278739 0.260874 0.343916 0.0171941 0.149429
          0.00285029 0.163265 0.247711 0.23176 0.186348 0.207377
          0.383928 0.373718 0.313847 0.395929 0.00316235 0.0660439
          0.0155697 0.0130412 0.387815 0.385207 0.383928 0.475228
          0.197806 0.23176 0.207377 0.186348 0.197806 0.23176
          0.186348 0.180665 -0.0161619 -0.0513797 0.0107608 -0.0454728
          0.0636064 0.104284 0.0327665 0.0107608 0.0470197 0.0107608
          0.0636064 0.057422 0.23176 0.196237 0.186348 0.180665
          0.572815 0.477178 0.522672 0.472775 -0.000164951 0.00945855
          -0.0648303 0.0127683 0.117851 0.0878293 0.108892 -0.0164584
          -0.00718751 -0.0538186 0.0509295 0.0108537 -0.0581836 -0.0460202
          -0.000164951 -0.0801759 -0.0581836 -0.0460202 0.0169673 -0.000164951
          0.0289583 -0.000164951 0.0169673 -0.0460202 0.0289583 0.0127683
          -0.000164951 -0.0460202 0.39061 0.461807 0.463114 0.390222
          0.499489 0.516936 0.616494 0.632325 0.160795 0.0930218
          0.104619 0.180739 0.0470197 0.156717 0.104284 0.140684
          0.0470197 0.127111 0.156717 0.140684 0.0636064 0.127111
          0.156717 0.0470197 0.0636064 0.156717 0.104284 0.0470197
          0.356278 0.245913 0.276521 0.153728 0.151948 0.156717
          0.0636064 0.127111 0.151948 0.225716 0.156717 0.127111
          0.151948 0.225716 0.235265 0.156717 0.21495 0.234576
          0.272421 0.269246 0.270667 0.315947 0.230411 0.272421
          0.21495 0.269246 0.272421 0.313847 0.225716 0.255812
          0.235265 0.156717 0.225716 0.255812 0.156717 0.158259
          0.225716 0.156717 0.127111 0.158259 0.127111 0.156717
          0.140684 0.158259 0.156717 0.255812 0.140684 0.158259
          0.156717 0.255812 0.258238 0.140684 0.156717 0.258238
          0.251263 0.140684 0.39061 0.399113 0.461807 0.390222
          0.530358 0.445539 0.387406 0.317615 0.235265 0.255812
          0.258238 0.156717 0.208938 0.182059 0.204545 0.240259
          0.240259 0.29089 0.257413 0.258456 0.424412 0.20449
          0.269518 0.307201 0.424412 0.269518 0.376157 0.307201
          0.28116 0.307201 0.105133 0.20449 0.28116 0.177901
          0.105133 0.307201 0.307201 0.177901 0.105133 0.20449
          0.307201 0.177901 0.257122 0.326886 0.709038 0.564165
          0.713145 0.578245 0.709038 0.578245 0.713145 0.716643
          0.709038 0.578245 0.716643 0.714042 0.578245 0.564165
          0.713145 0.716643 0.349722 0.578245 0.564165 0.4665
          0.522672 0.349722 0.4665 0.578245 0.4665 0.542691
          0.522672 0.578245 0.4665 0.542691 0.578245 0.705183
          0.578245 0.542691 0.522672 0.705183 0.522672 0.349722
          0.578245 0.477379 0.578245 0.477379 0.576506 0.522672
          0.578245 0.477379 0.721535 0.576506 0.349722 0.477379
          0.564165 0.578245 -0.132434 -0.133267 -0.088756 -0.0513797
          -0.132317 -0.132434 -0.0513797 -0.133267 -0.132317 -0.0513797
          -0.0299594 -0.133267 -0.0513797 -0.132317 -0.0299594 -0.0454728
          0.560566 0.465816 0.527923 0.445539 -0.0161619 -0.132317
          -0.0513797 -0.0454728 -0.0161619 -0.132434 -0.0513797 -0.132317
          -0.0658888 -0.0449147 -0.00718751 0.00554623 0.339176 0.371903
          0.465816 0.520384 -0.0513797 -0.088756 -0.0209055 -0.0299594
          -0.0513797 -0.133267 -0.088756 -0.0299594 0.166518 0.147967
          0.158522 0.130874 0.166518 0.130874 0.158522 0.16328
          0.158522 0.147967 0.139782 0.130874 0.130874 0.0971336
          0.139782 0.158522 0.158522 0.173041 0.139782 0.147967
          0.158522 0.173041 0.185334 0.139782 0.0547873 0.0256823
          0.0922398 0.055218 0.0166565 0.0452458 0.0853681 -0.0365529
          0.158522 0.118271 0.151547 0.152229 0.118354 0.118271
          0.158522 0.152229 0.399113 0.383928 0.395929 0.461908
          0.692943 0.538118 0.63083 0.697082 0.475228 0.385207
          0.383928 0.474586 0.461908 0.399113 0.383928 0.475228
          0.0649561 0.0660439 0.0130412 0.0540416 0.632325 0.499489
          0.620367 0.616494 0.183089 0.13282 0.238684 0.130684
          0.0893929 0.0700022 0.111914 0.118174 0.0700022 0.00182079
          0.0880873 0.0682129 0.0700022 0.0880873 0.118174 0.0971336
          0.147867 0.0887269 0.257122 0.068297 0.395929 0.523184
          0.454738 0.461807 0.326886 0.198264 0.177901 0.0824626
          0.208709 0.171797 0.121136 0.339227 0.0577682 0.0389992
          0.0880873 0.0700022 0.0700022 0.0389992 0.0880873 0.00182079
          0.160511 0.272319 0.124865 0.244295 0.16328 0.130874
          0.145661 0.166462 0.00286609 -0.00299887 0.0682129 0.0346219
          0.055218 -0.00299887 0.0682129 0.00286609 0.230411 0.301902
          0.317265 0.19858 0.129918 0.055218 0.0957739 0.0682129
          0.0682129 0.129918 0.139782 0.0957739 0.129918 0.055218
          0.0682129 0.0880873 -0.0185965 0.121136 0.114131 0.171797
          -0.0185965 0.121136 0.171797 -0.0284562 -0.0185965 -0.0254253
          0.121136 -0.0284562 -0.0167663 0.0687574 0.121136 -0.0254253
          0.171435 0.217644 0.157308 0.169675 0.207944 0.217644
          0.171435 0.196263 0.247711 0.208914 0.196263 0.207377
          0.247711 0.208914 0.217644 0.196263 0.208914 0.169675
          0.217644 0.196263 0.208914 0.169675 0.196263 0.186348
          0.208914 0.186348 0.196263 0.207377 0.208914 0.16577
          0.169675 0.186348 0.208914 0.16577 0.186348 0.196237
          0.208914 0.196237 0.186348 0.23176 0.149429 0.202133
          0.376293 0.261654 0.149429 0.261654 0.376293 0.170346
          0.237915 0.149429 0.376293 0.170346 0.237915 0.202133
          0.376293 0.149429 0.237915 0.149429 0.158586 0.202133
          0.237915 0.149429 0.0112062 0.158586 0.149429 0.0303563
          0.0112062 0.158586 0.149429 0.0303563 0.158586 0.202133
          0.172928 0.170804 0.20182 0.187816 0.196263 0.170804
          0.187816 0.20182 -0.128471 -0.125328 -0.0432089 -0.0606808
          -0.0382095 -0.0454728 0.00229256 -0.128471 -0.128471 -0.133267
          -0.0432089 -0.125328 0.130684 0.158016 0.257074 0.136757
          0.130684 0.238684 0.257074 0.158016 0.130684 0.13282
          0.238684 0.158016 0.158016 0.130684 0.13282 0.123689
          0.158016 0.0494826 0.130684 0.123689 0.130684 0.0494826
          0.13282 0.123689 0.130684 0.0494826 0.0502769 0.13282
          0.203472 0.188752 0.156523 0.10775 0.203472 0.188752
          0.10775 0.126494 0.203472 0.260191 0.156523 0.188752
          0.156523 0.26285 0.260191 0.203472 0.553382 0.503551
          0.460626 0.35344 0.503551 0.553382 0.460626 0.540308
          0.503551 0.674729 0.553382 0.540308 0.674729 0.540308
          0.655136 0.553382 0.674729 0.553382 0.655136 0.666629
          0.674729 0.553382 0.666629 0.690279 0.18286 0.195749
          0.179546 0.153867 0.666629 0.553382 0.655136 0.533951
          0.553382 0.540308 0.655136 0.533951 0.553382 0.460626
          0.540308 0.533951 0.179546 0.197806 0.166462 0.157185
          0 0 0.0019014 -0.020548 0 -0.020548
          0.0019014 -0.0126816 -0.0126816 -0.0148586 0 -0.020548
          0.0019014 -0.020548 -0.0205164 -0.0126816 0.0019014 -0.020548
          -0.000539383 -0.0205164 0.0019014 0 -0.000539383 -0.020548
          -0.020548 0 -0.000539383 -0.0205164 0 -0.0507192
          0 -0.020548 0 -0.0507192 -0.020548 -0.0485207
          -0.0485207 -0.0507192 -0.020548 -0.0698807 -0.020548 -0.0507192
          -0.0475923 -0.0698807 -0.020548 -0.0698807 -0.0475923 -0.0240264
          -0.020548 -0.0698807 -0.0240264 -0.0382728 0 -0.0507192
          -0.0475923 -0.020548 0.317615 0.445539 0.387406 0.326886
          0.0389992 0.0102294 -0.0219125 -0.0515571 0.0389992 -0.000164951
          0.0102294 -0.0515571 0.0389992 0.0555938 0.0102294 -0.000164951
          0.0555938 0.055218 0.0389992 0.0102294 0.0555938 0.0102294
          -0.000164951 0.0127683 0.0555938 0.00945855 0.0102294 0.0127683
          0.0102294 0.00945855 -0.000164951 0.0127683 0.0102294 0.00945855
          -0.0648303 -0.000164951 0.0102294 -0.000164951 -0.0648303 -0.0515571
          -0.0219125 0.0102294 -0.0648303 -0.0515571 0.0102294 -0.0648303
          -0.0280559 -0.0219125 0.208434 0.196237 0.23176 0.180665
          0.40384 0.314828 0.294959 0.273528 0.108892 0.0804092
          0.195518 -0.0321081 -0.0280559 -0.0557656 -0.0648303 0.0102294
          -0.0280559 -0.033664 -0.0557656 0.0256823 0.695025 0.669866
          0.622191 0.542925 0.622191 0.542925 0.594527 0.472255
          0.498836 0.542925 0.622191 0.472255 0.12311 0.173193
          0.0991233 0.0937305 -0.122119 -0.0168768 0.00633645 -0.0382095
          0.311359 0.335164 0.394078 0.343228 0.123149 0.10775
          0.10091 0.156523 0.123149 0.156523 0.10091 0.182197
          0.123149 0.10091 0.10098 0.182197 0.182197 0.16914
          0.10091 0.10098 0.182197 0.16914 0.156523 0.10091
          0.10091 0.117074 0.16914 0.156523 0.0108537 -0.0382095
          0.0578659 0.00633645 0.472775 0.325688 0.339227 0.424977
          0.318274 0.517372 0.325688 0.345308 0.24366 0.239659
          0.208244 0.253697 0.141621 0.139827 0.153867 0.130043
          0.139827 0.126155 0.134934 0.130874 0.253697 0.24366
          0.277479 0.208244 0.270998 0.239659 0.24366 0.253697
          0.183085 0.172442 0.181922 0.175656 0.166518 0.16328
          0.158522 0.172442 0.166518 0.172442 0.183085 0.175656
          0.183085 0.172442 0.188423 0.181922 -0.0126079 0.171797
          0.121709 0.224316 0.0063197 0.16481 0.121709 -0.0126079
          0.0071006 0.0063197 0.121709 -0.000663582 0.151547 0.0957739
          0.17137 0.143934 0.151547 0.0957739 0.143934 0.136202
          0.143934 0.129918 0.126494 0.0957739 0.0957739 0.126494
          0.143934 0.0922398 0.500108 0.411463 0.530506 0.591099
          0.471473 0.411463 0.591099 0.530506 0.190034 0.185038
          0.18506 0.143934 0.190034 0.143934 0.18506 0.11213
          0.181637 0.24453 0.30705 0.253788 0.110453 0.160769
          0.230366 0.15721 0.153858 0.0934466 0.0675574 0.13966
          -0.0523907 -0.0497639 0.0887269 -0.0584419 0.0934466 0.0607489
          0.0675574 0.13966 0.0887269 -0.0497639 0.113661 -0.0584419
          -0.0497639 -0.0418792 0.113661 -0.0584419 -0.0397156 0.0917604
          0.189242 -0.0523907 0.141115 0.189242 -0.0397156 0.0917604
          0.0917604 -0.0340695 0.195943 -0.0418792 -0.0284562 -0.0340695
          0.0917604 -0.0418792 0.254887 0.170346 0.364277 0.20704
          0.206569 0.0561909 0.0458227 0.132312 0.206569 0.0561909
          0.132312 0.0828364 0.217421 0.206569 0.132312 0.0828364
          0.206569 0.0828364 0.217421 0.201068 0.252819 0.206569
          0.217421 0.201068 0.252819 0.0828364 0.206569 0.201068
          0.252819 0.0561909 0.206569 0.0828364 0.0954567 0.133288
          0.0714426 0.13712 0.0954567 0.157308 0.133288 0.136467
          0.180506 0.168346 0.171138 0.184175 0.171138 0.168346
          0.191011 0.184175 0.171138 0.171214 0.191011 0.168346
          -0.0182043 0.0185148 0.0251875 -0.0323988 -0.0323988 -0.0730244
          0.0251875 -0.0182043 0.325379 0.371903 0.48131 0.465816
          0.465816 0.339176 0.527923 0.445539 0.0108537 -0.0538186
          0.0509295 -0.0382095 -0.0382095 -0.052492 0.0108537 -0.0538186
          -0.052492 0.0108537 -0.0168768 -0.0382095 -0.0449147 0.0470043
          0.00554623 0.0536057 0.465816 0.371903 0.48131 0.520384
          -0.052492 0.0665477 -0.0168768 0.0108537 0.0845877 0.0252257
          0.0452458 0.0289583 0.0452458 0.0252257 0.0853681 -0.0365529
          0.0579845 -0.0194409 -0.033664 0.0550265 0.0579845 -0.0194409
          0.0550265 0.0508581 -0.00299887 -0.0194409 0.0579845 0.0508581
          0.0579845 -0.00299887 0.0508581 0.0435622 0.124865 0.130594
          0.181637 0.0250515 -0.00299887 -0.0194409 -0.033664 0.0579845
          0.0922398 0.0579845 0.0550265 0.11213 0.0922398 0.0957739
          0.0579845 0.11213 0.055218 0.0579845 0.0922398 0.0957739
          0.0957739 0.11213 0.136202 0.0579845 0.170346 -0.0194793
          -0.0131994 0.12317 -0.0131994 0.224316 0.170346 0.12317
          -0.0131994 -0.0126079 0.12317 -0.0229897 -0.0126079 0.171797
          0.12317 -0.0229897 -0.0126079 0.171797 0.224316 0.12317
          0.12317 0.224316 0.311949 0.171797 0.12317 0.311949
          0.224316 0.349722 -0.0229897 -0.0284562 0.171797 0.12317
          0.354887 0.388864 0.268413 0.280936 0.525444 0.432167
          0.564627 0.516255 0.525444 0.500108 0.564627 0.432167
          0.500108 0.368363 0.564627 0.432167 0.500108 0.411463
          0.368363 0.432167 0.368363 0.27013 0.351173 0.432167
          0.182059 0.169031 0.204545 0.185967 0.182059 0.185967
          0.204545 0.228727 0.182059 0.169031 0.184175 0.204545
          0.182059 0.184175 0.180506 0.204545 0.0660439 0.0376237
          0.00316235 0.0112358 0.424977 0.339227 0.389827 0.279769
          0.389827 0.394227 0.424977 0.279769 0.389827 0.394227
          0.49059 0.424977 0.240259 0.228727 0.215453 0.218194
          0.424977 0.49059 0.615925 0.530358 0.198031 0.205207
          0.215453 0.218194 0.530358 0.517372 0.710123 0.424977
          -0.0340695 0.119924 0.195943 -0.0418792 -0.0340695 -0.0391606
          0.119924 -0.0418792 0.394227 0.530358 0.49059 0.424977
          0.257413 0.25696 0.290625 0.228412 -0.0148586 -0.0144841
          0 0 -0.0144841 0 0 0
          -0.0144841 -0.0496443 0 0 -0.0144841 -0.0496443
          -0.0195698 0 -0.0144841 -0.0195698 0.00714858 0
          0.00765813 -0.0144841 0.00714858 0 -0.0144841 0.00765813
          0 0 -0.0594745 -0.0496443 -0.0195698 -0.0144841
          -0.0547892 -0.0594745 -0.0195698 -0.0144841 0.348094 0.304318
          0.277479 0.328671 0.267072 0.178216 0.255679 0.187251
          0.267072 0.187251 0.255679 0.259363 0.187251 0.178216
          0.255679 0.259363 0.16481 0.224316 0.346798 0.299283
          0.16481 0.346798 0.275032 0.299283 0.16481 0.346798
          0.171797 0.275032 0.16481 0.224316 0.171797 0.346798
          0.171797 0.407349 0.275032 0.346798 0.275032 0.407349
          0.405571 0.346798 0.275032 0.346798 0.405571 0.299283
          0.346798 0.405571 0.526269 0.407349 -0.0365529 -0.0331069
          -0.111952 0.0166565 0.160769 0.140684 0.156717 0.251263
          0.185038 0.138454 0.18506 0.143934 0.230366 0.134253
          0.225279 0.160769 0.36166 0.343916 0.477897 0.438328
          0.16577 0.154597 0.186348 0.164869 0.16577 0.137762
          0.154597 0.164869 0.16577 0.169675 0.154597 0.137762
          0.16577 0.169675 0.186348 0.154597 0.186348 0.154597
          0.169675 0.170804 0.164869 0.146472 0.137762 0.154597
          0.146472 0.137762 0.154597 0.123209 0.146472 0.154597
          0.135998 0.123209 0 0 0.0277173 0.0222848
          0.0222848 0.0277173 0.0356243 0 0.17279 0.195515
          0.176707 0.184506 0.135998 0.154597 0.117393 0.123209
          0.154597 0.117393 0.160153 0.135998 0.154597 0.137762
          0.117393 0.123209 0.154597 0.117393 0.137762 0.121689
          0.0358098 -0.0482987 0.00486405 -0.0171008 0.130594 0.130684
          0.185762 0.0220962 0.185762 0.238684 0.257074 0.130684
          0.130684 0.257074 0.185762 0.136757 0.185762 0.24453
          0.253788 0.257074 0.253788 0.185762 0.257074 0.136757
          0.183089 0.238684 0.185762 0.130684 0.183089 0.130684
          0.185762 0.130594 0.12311 0.0774893 0.0358098 0.0675574
          0.12311 0.0358098 0.0991233 0.0675574 0.0358098 0.12311
          0.0991233 0.0937305 0.0374318 0.0937305 0.12311 0.0358098
          0.0374318 0.0358098 0.12311 0.0774893 0.0358098 0.0937305
          0.0390515 0.0374318 0.153867 0.197806 0.166462 0.179546
          0.555537 0.669866 0.542925 0.491887 0.197806 0.179546
          0.180665 0.17471 0.555537 0.690279 0.669866 0.576437
          0.690279 0.666629 0.669866 0.576437 0.553382 0.576437
          0.41749 0.460626 0.0975126 0.118174 0.147967 0.130874
          0.0975126 0.118174 0.130874 0.0971336 0.0975126 0.0971336
          0.130874 0.0811437 0.0975126 0.130874 0.130043 0.0811437
          0.068297 -0.0584419 0.0887269 0.113661 0.068297 0.0887269
          0.257122 0.113661 0.0887269 0.068297 -0.0316434 -0.0584419
          0.068297 -0.0578161 -0.0316434 -0.0584419 0.068297 -0.0578161
          -0.0584419 -0.0655243 0.068297 -0.0655243 -0.0584419 -0.0565269
          0.068297 -0.0578161 -0.0655243 0.0436386 0.0436386 0.105133
          -0.0655243 0.068297 0.171435 0.157308 0.117393 0.169675
          0.147967 0.141749 0.145625 0.118174 0.147967 0.141749
          0.173041 0.145625 0.145625 0.118174 0.141749 0.111914
          0.0700022 0.00182079 0.0682129 0.0348273 0.172442 0.180506
          0.171138 0.188423 0.183085 0.158522 0.177787 0.172442
          0.0700022 0.00904144 0.00182079 0.0348273 0.145625 0.129918
          0.139782 0.118174 0.618914 0.486593 0.432143 0.492783
          0.372631 0.29765 0.421482 0.343916 0.421482 0.29765
          0.351222 0.343916 0.421482 0.343916 0.351222 0.344774
          0.327877 0.502812 0.409685 0.492783 0.372631 0.421482
          0.421332 0.343916 0.344774 0.44975 0.351222 0.421482
          0.438328 0.44975 0.344774 0.421482 0.629611 0.502812
          0.646271 0.492783 0.509731 0.50375 0.522161 0.446707
          0.0758476 0.0441782 0.0356243 0.0644315 0.333011 0.230153
          0.278739 0.304287 0.333011 0.270998 0.230153 0.304287
          0.304287 0.377788 0.333011 0.270998 0.539956 0.368946
          0.361484 0.314863 0.539956 0.368946 0.314863 0.4665
          0.238844 0.314863 0.361484 0.368946 0.332843 0.304287
          0.267714 0.247711 0.267714 0.304287 0.217644 0.247711
          0.286476 0.304287 0.217644 0.267714 0.286476 0.304287
          0.230153 0.217644 0.304287 0.230153 0.278739 0.286476
          0.304287 0.270998 0.230153 0.217644 0.304287 0.270998
          0.217644 0.247711 0.238844 0.203415 0.314863 0.368946
          0.24453 0.343916 0.30705 0.336885 0.279769 0.119924
          0.112681 0.206908 0.0934466 0.13966 0.145403 0.0660439
          0.0934466 0.0660439 0.145403 0.113962 0.349891 0.498836
          0.404649 0.382239 0.113962 0.113946 0.0934466 0.0540416
          0.153858 0.0774893 0.0675574 0.0934466 0.183089 0.185762
          0.24453 0.130594 0.0934466 0.0155697 0.0675574 0.0607489
          0.180506 0.152649 0.184175 0.182059 0.180506 0.168346
          0.184175 0.152649 0.152649 0.171138 0.180506 0.168346
          0.182059 0.152649 0.173365 0.152229 0.152229 0.152649
          0.173365 0.145661 0.152229 0.118354 0.152649 0.145661
          0.253552 0.251263 0.183164 0.15721 0.253552 0.139282
          0.152232 0.15721 -0.0854006 -0.0182043 0.0185148 0.00753187
          0.152649 0.140542 0.143848 0.169031 0.152649 0.140542
          0.169031 0.165049 0.207944 0.20182 0.215453 0.238887
          0.520411 0.666764 0.465816 0.48131 0.166462 0.139827
          0.153 0.130874 0.130874 0.139827 0.145661 0.166462
          0.130874 0.130043 0.145661 0.139827 0.262477 0.251263
          0.183164 0.253552 0.153867 0.139827 0.157185 0.166462
          0.157185 0.139827 0.153 0.166462 0.157185 0.139827
          0.134934 0.153 0.157185 0.126155 0.134934 0.139827
          0.372622 0.238684 0.257074 0.36166 0.372622 0.3056
          0.238684 0.36166 0.128655 0.237825 0.339176 0.195518
          0.428379 0.36166 0.44217 0.372622 0.128655 0.130689
          0.237825 0.195518 0.36166 0.428379 0.3056 0.333011
          0.3056 0.333011 0.278739 0.36166 0.36166 0.3056
          0.238684 0.278739 0.280415 0.290625 0.320388 0.267714
          0.279769 0.119924 0.206908 0.195943 0.36166 0.428379
          0.333011 0.411928 0.36166 0.411928 0.344774 0.438328
          0.15297 0.117877 0.0853681 0.08759 0.15297 0.117074
          0.117877 0.08759 0.26653 0.206569 0.209269 0.301773
          -0.0365529 -0.0538285 -0.103051 -0.0303082 0.38689 0.395388
          0.540308 0.460626 0.38689 0.35344 0.395388 0.460626
          0.38689 0.35344 0.299638 0.395388 0.395388 0.38689
          0.26653 0.299638 0.395388 0.35344 0.299638 0.460626
          0.540308 0.460626 0.395388 0.499489 0.540308 0.395388
          0.458955 0.499489 0.395388 0.371953 0.540308 0.458955
          -0.126512 -0.0513797 -0.088756 -0.0284574 -0.0607624 -0.0209055
          -0.088756 -0.0185362 -0.0607624 -0.088756 -0.0885361 -0.0185362
          -0.0607624 -0.0185362 -0.0885361 -0.0423323 0.236272 0.250899
          0.201734 0.188444 0.148357 0.117877 0.0845877 0.0252257
          0.173041 0.195515 0.184506 0.216435 0.238887 0.207377
          0.249546 0.196263 0.184506 0.173041 0.185334 0.158522
          0.184506 0.216435 0.215759 0.185334 0.197736 0.216435
          0.215759 0.184506 0.184506 0.195515 0.197736 0.216435
          0.0256823 -0.0584268 0.0547873 0.00753187 0.0256823 -0.00299887
          0.055218 0.00286609 0.0256823 -0.00299887 0.0579845 0.055218
          0.0256823 0.0579845 0.0922398 0.055218 0.0256823 0.0579845
          0.0550265 0.0922398 0.0256823 0.0550265 0.0353563 0.0922398
          0.128655 -0.0321081 0.0804092 -0.0481754 0.128655 0.0804092
          0.195518 0.13459 0.338599 0.273528 0.209804 0.300169
          0.338599 0.273528 0.216007 0.209804 0.209804 0.273528
          0.216007 0.120473 0.209804 0.212652 0.273528 0.120473
          0.273528 0.212652 0.209804 0.300169 0.0983943 -0.061984
          0.105133 0.0886722 0.0512105 0.0886722 -0.0517243 -0.061984
          0.217421 0.0828364 0.113519 0.201068 0.217421 0.132312
          0.113519 0.0828364 0.273528 0.294959 0.216007 0.165846
          0.48037 0.42471 0.528544 0.522544 0.27592 0.240259
          0.280415 0.235505 0.280415 0.240259 0.238887 0.235505
          0.294977 0.347585 0.320388 0.29089 0.160795 0.180739
          0.157308 0.173956 0.173956 0.23471 0.160795 0.180739
          0.173956 0.23471 0.203025 0.160795 0.167174 0.173956
          0.203025 0.160795 0.167174 0.160795 0.203025 0.156445
          0.167174 0.120312 0.160795 0.156445 0.120312 0.160795
          0.156445 0.108319 0.120312 0.104619 0.160795 0.108319
          0.108319 0.104619 0.160795 0.0930218 0.108319 0.160795
          0.156445 0.0930218 0.160795 0.24497 0.203025 0.156445
          0.24497 0.160795 0.226725 0.156445 0.24497 0.180739
          0.226725 0.160795 0.245796 0.24497 0.160795 0.180739
          0.23471 0.245796 0.160795 0.180739 0.23471 0.245796
          0.203025 0.160795 0.245796 0.24497 0.203025 0.160795
          0.299638 0.18332 0.155598 0.269246 0.299638 0.18332
          0.283203 0.217421 0.299638 0.18332 0.269246 0.283203
          0.299638 0.206569 0.155598 0.18332 0.299638 0.206569
          0.18332 0.132312 0.351222 0.290634 0.260874 0.226725
          0.108892 0.0886722 0.17425 0.0804092 0.600635 0.583709
          0.441927 0.509302 0.583709 0.600635 0.726014 0.509302
          0.113962 0.145403 0.143686 0.0649561 0.0649561 0.0934466
          0.0660439 0.0540416 0.201734 0.182197 0.165532 0.148011
          0.712817 0.710123 0.578844 0.721043 0.188444 0.182197
          0.201734 0.148011 0.40147 0.349891 0.40384 0.338599
          0.40384 0.349891 0.273528 0.338599 0.40384 0.349891
          0.314828 0.273528 0.349891 0.212652 0.314828 0.273528
          0.349891 0.212652 0.273528 0.300169 0.338599 0.349891
          0.273528 0.300169 0.300169 0.245913 0.349891 0.212652
          0.457526 0.474926 0.404221 0.441118 0.349891 0.245913
          0.314828 0.212652 0.245913 0.37001 0.349891 0.314828
          0.349891 0.37001 0.35344 0.314828 0.349891 0.35344
          0.491887 0.314828 0.0971336 0.0855231 0.0682129 0.118271
          0.506516 0.703544 0.553202 0.641142 0.553202 0.703544
          0.697242 0.641142 0.0971336 0.0346219 0.0682129 0.0855231
          0.553202 0.703544 0.706821 0.697242 0.553202 0.564165
          0.706821 0.703544 0.553202 0.706821 0.564165 0.551693
          0.0512105 -0.0630916 -0.0517243 0.00586034 0.114131 0.208709
          0.275032 0.171797 0.00586034 0.0392936 -0.0370501 0.147113
          0.00586034 -0.0370501 0.0392936 -0.0296118 0.404649 0.245913
          0.356278 0.374364 0.404649 0.245913 0.374364 0.261654
          0.229013 0.267072 0.267952 0.187251 0.229013 0.267952
          0.183531 0.187251 0.229013 0.267952 0.233867 0.183531
          0.525444 0.376632 0.432167 0.402724 0.525444 0.402724
          0.432167 0.516255 0.185367 0.15297 0.267952 0.269312
          0.402724 0.351173 0.432167 0.540798 0.376632 0.351173
          0.432167 0.402724 0.187251 0.267952 0.183531 0.15297
          0.187251 0.267072 0.267952 0.15297 0.15297 0.267072
          0.267952 0.269312 0.277729 0.416411 0.348836 0.217546
          0.566235 0.505653 0.726014 0.654031 0.600635 0.505653
          0.726014 0.566235 0.600635 0.566235 0.726014 0.509302
          0.600635 0.505653 0.566235 0.509302 0.173799 0.188323
          0.217546 0.108892 0.719557 0.509302 0.726014 0.566235
          0.719557 0.566235 0.726014 0.723765 0.566235 0.477379
          0.716643 0.578245 0.198264 0.317615 0.206908 0.387406
          0.183164 0.26683 0.269356 0.187113 0.183164 0.26683
          0.187113 0.193335 0.118225 0.193335 0.183164 0.187113
          0.187113 0.26683 0.269356 0.193335 0.187113 0.193335
          0.269356 0.274181 0.185367 0.269356 0.187113 0.15297
          0.185367 0.187113 0.187662 0.15297 0.185367 0.269356
          0.187662 0.187113 0.368133 0.304318 0.315893 0.296311
          0.368133 0.377788 0.315893 0.304318 0.328671 0.377788
          0.368133 0.304318 0.296311 0.304318 0.315893 0.247711
          0.296311 0.304318 0.247711 0.229005 0.296311 0.277479
          0.304318 0.229005 0.168965 0.148011 0.121469 0.112132
          0.168965 0.148011 0.145625 0.121469 0.145625 0.121469
          0.129918 0.118174 0.121469 0.148011 0.123149 0.112132
          0.112132 0.0662192 0.123149 0.121469 0.237981 0.368946
          0.329965 0.314863 0.475537 0.329965 0.368946 0.314863
          0.475537 0.314863 0.368946 0.542691 0.475537 0.329965
          0.314863 0.542691 0.542691 0.329965 0.314863 0.4665
          0.542691 0.314863 0.368946 0.4665 0.329965 0.4665
          0.349722 0.314863 0.329965 0.314863 0.349722 0.20704
          0.264919 0.258238 0.255812 0.158713 0.264919 0.158713
          0.255812 0.158259 0.264919 0.158259 0.270067 0.158713
          0.193335 0.264919 0.270067 0.158713 0.193335 0.158713
          0.270067 0.16105 0.158713 0.158259 0.270067 0.16105
          0.158713 0.140684 0.255812 0.158259 0.158713 0.258238
          0.255812 0.140684 0.317615 0.339176 0.445539 0.326886
          0.501687 0.463114 0.44968 0.452807 0.603631 0.461908
          0.508874 0.523184 0.198264 0.339176 0.317615 0.326886
          0.119924 -0.0342884 0.112681 -0.0391606 0.112681 0.119924
          -0.0391606 0.113661 0.603631 0.59459 0.523184 0.508874
          0.119924 0.195943 -0.0418792 0.113661 -0.0391606 0.119924
          -0.0418792 0.113661 0.119924 0.211578 0.339227 0.279769
          -0.0365595 -0.0117854 -0.0320968 0.0140221 -0.0320968 0.0140221
          0.00486405 -0.0365595 -0.0547892 -0.0816843 -0.0365595 -0.0320968
          -0.0816843 -0.0365595 -0.0320968 -0.0482987 0.205167 0.19541
          0.237216 0.224739 0.0127683 -0.103051 -0.0331069 -0.0840805
          0.330553 0.460286 0.538118 0.333142 0.258244 0.148226
          0.11677 0.130689 0.187251 0.178216 0.18615 0.139282
          0.16486 0.209323 0.268345 0.203472 0.209323 0.203472
          0.16486 0.185038 0.61602 0.530506 0.409685 0.591099
          0.16486 0.105915 0.188761 0.209323 0.261824 0.203472
          0.209323 0.185038 0.209323 0.261824 0.268345 0.203472
          0.261824 0.270875 0.209323 0.268345 0.209323 0.261416
          0.267997 0.188761 0.438328 0.44975 0.421482 0.477897
          0.432326 0.432167 0.564627 0.585277 0.603846 0.59157
          0.575595 0.432143 0.575595 0.432143 0.585277 0.603846
          0.572815 0.698744 0.710123 0.712817 0.712817 0.517372
          0.710123 0.572815 0.572815 0.698744 0.712817 0.709794
          0.564627 0.471473 0.591099 0.585277 0.585277 0.432167
          0.564627 0.471473 0.432326 0.432167 0.585277 0.471473
          0.432326 0.471473 0.585277 0.432143 0.432326 0.368363
          0.471473 0.432143 0.432326 0.432167 0.471473 0.368363
          0.471473 0.432167 0.564627 0.368363 0.368363 0.277729
          0.471473 0.432143 0.492783 0.471473 0.277729 0.432143
          0.432143 0.492783 0.471473 0.603846 0.432143 0.471473
          0.585277 0.603846 0.585277 0.471473 0.611773 0.603846
          0.585277 0.471473 0.591099 0.611773 0.61602 0.471473
          0.611773 0.591099 0.61602 0.409685 0.471473 0.591099
          0.61602 0.409685 0.611773 0.471473 0.409685 0.502812
          0.611773 0.471473 0.471473 0.502812 0.611773 0.629611
          0.471473 0.629611 0.611773 0.603846 0.492783 0.629611
          0.471473 0.603846 0.492783 0.502812 0.471473 0.629611
          0.156523 0.26285 0.203472 0.205372 0.16914 0.221732
          0.182197 0.205372 0.117074 0.15297 0.205372 0.185367
          0.16914 0.117074 0.183531 0.205372 0.16914 0.183531
          0.233867 0.205372 0.16914 0.205372 0.156523 0.117074
          0.553202 0.641142 0.697242 0.552352 0.506516 0.641142
          0.553202 0.552352 0.473613 0.506516 0.553202 0.552352
          0.205372 0.185367 0.156523 0.117074 0.388683 0.506516
          0.473613 0.552352 0.388683 0.506516 0.552352 0.491
          0.506516 0.641142 0.552352 0.491 0.552352 0.581837
          0.503551 0.465399 0.0855231 0.11213 0.136202 0.120011
          0.0855231 0.136202 0.151547 0.120011 0.0957739 0.136202
          0.151547 0.0855231 0.0957739 0.0579845 0.136202 0.0855231
          0.0346219 0.0579845 0.0957739 0.0855231 0.0579845 0.11213
          0.136202 0.0855231 0.0579845 0.0508581 0.11213 0.0855231
          0.162981 0.130594 0.181637 0.124865 0.124865 0.162981
          0.244295 0.181637 0.124865 0.272319 0.181637 0.244295
          -0.0365529 -0.111952 -0.0443746 0.0166565 0.160769 0.156717
          0.238356 0.251263 0.157544 0.169372 0.1666 0.154846
          0.157544 0.17471 0.169372 0.170804 0.146472 0.144416
          0.135998 0.157544 0.146472 0.157544 0.135998 0.154597
          0.157544 0.146472 0.164869 0.154597 -0.100392 -0.11324
          -0.0482987 -0.0501823 0.15796 0.144416 0.146472 0.157544
          0.00765813 0.00613925 0 0.0277173 0.00765813 0.00613925
          0 0 0.15795 0.178948 0.183178 0.181922
          0.516531 0.681499 0.656898 0.54103 0.54103 0.681499
          0.656898 0.564528 0.260676 0.237285 0.21495 0.269246
          0.147001 0.0458227 0.206569 0.172868 0.147001 0.206569
          0.26653 0.172868 -0.0443746 0.0359931 -0.0323988 0.00229256
          0.169372 0.179579 0.176707 0.17279 0.172868 0.158586
          0.252819 0.294303 0.172868 0.158586 0.0561909 0.252819
          0.188323 0.147113 0.277729 0.108892 0.180739 0.1823
          0.133288 0.230153 0.180739 0.133288 0.157308 0.230153
          0.157308 0.133288 0.196052 0.230153 0.133288 0.157308
          0.196052 0.136467 0.13712 0.133288 0.196052 0.136467
          0.196052 0.133288 0.13712 0.1823 0.133288 0.1823
          0.196052 0.230153 0.133288 0.123689 0.13712 0.1823
          0.133288 0.13282 0.123689 0.1823 0.133288 0.13282
          0.0494826 0.123689 0.133288 0.079169 0.0494826 0.13282
          0.0660439 0.0376237 0.0915026 0.0761817 0.0376237 0.0660439
          0.0649561 0.0761817 0.424977 0.530358 0.578844 0.710123
          0.424977 0.530358 0.615925 0.578844 0.578844 0.49059
          0.615925 0.424977 0.389827 0.49059 0.578844 0.424977
          0.578844 0.339227 0.389827 0.424977 0.389827 0.542112
          0.339227 0.578844 0.389827 0.578844 0.615925 0.542112
          0.389827 0.49059 0.615925 0.578844 0.339227 0.407349
          0.578844 0.542112 0.578844 0.542112 0.407349 0.576506
          0.578844 0.530358 0.615925 0.710123 0.578844 0.710123
          0.615925 0.721043 0.238887 0.20182 0.215453 0.228412
          0.238887 0.240259 0.215453 0.235505 0.240259 0.228727
          0.204545 0.215453 0.314863 0.112514 0.329965 0.128366
          0.314863 0.20704 0.329965 0.112514 0.112514 0.20704
          0.329965 0.128366 0.20704 0.112514 0.141115 0.128366
          0.20704 0.12317 0.141115 0.112514 0.20704 0.12317
          0.112514 -0.0285253 0.112514 0.12317 0.141115 -0.0285253
          -0.0285253 0.141115 0.112514 -0.0414189 0.112514 -0.0414189
          0.141115 0.128366 0.212652 0.217421 0.133766 0.0960629
          0.212652 0.217421 0.273528 0.133766 0.294959 0.133766
          0.273528 0.217421 0.294959 0.166313 0.133766 0.217421
          0.123339 0.187575 0.105195 0.141866 0.123339 0.187575
          0.141866 0.215795 0.141866 0.187575 0.216657 0.215795
          0.141866 0.215795 0.216657 0.235265 0.509965 0.390222
          0.463114 0.461807 0.509965 0.461807 0.463114 0.59459
          0.141866 0.134253 0.225279 0.216657 0.216657 0.141866
          0.134253 0.201181 0.141866 0.187575 0.201181 0.216657
          0.105195 0.187575 0.201181 0.141866 0.141866 0.105195
          0.134253 0.201181 0.230411 0.234576 0.272421 0.234576
          0.234576 0.230411 0.272421 0.230411 0.234576 0.230411
          0.282637 0.272421 0.272421 0.282072 0.282637 0.234576
          0.230411 0.282637 0.272421 0.280536 0.230411 0.280536
          0.272421 0.230411 0.272421 0.280536 0.315947 0.230411
          0.272421 0.282637 0.315947 0.280536 0.272421 0.283203
          0.387594 0.395929 0.272421 0.283203 0.395929 0.313847
          0.327201 0.224316 0.121709 0.299283 0.121709 0.16481
          0.299283 0.224316 0.121709 0.171797 0.16481 0.224316
          -0.0126079 0.171797 0.16481 0.121709 0.138201 0.16481
          0.299283 0.121709 0.121709 0.138201 0.285644 0.299283
          0.138201 0.285644 0.163265 0.121709 0.138201 0.163265
          0.166401 0.121709 0.167692 0.19375 0.18229 0.183178
          -0.0523907 0.0917604 0.189242 -0.0497639 0.0887269 -0.0497639
          0.189242 0.113661 0.657557 0.673207 0.502812 0.500981
          0.563634 0.484097 0.658278 0.640593 0.521873 0.640593
          0.484097 0.563634 0.521873 0.640593 0.61602 0.637193
          0.521873 0.637193 0.484097 0.640593 0.640593 0.484097
          0.657557 0.637193 0.640593 0.484097 0.658278 0.657557
          0.0484699 0.0277173 0.0802511 0.0356243 0.109537 0.0607489
          0.0802511 0.103863 0.125349 0.0675574 0.111257 0.153858
          -0.0126816 -0.0240264 -0.0205164 -0.00286052 0.0920557 0.117074
          0.0708915 0.0289583 -0.0538186 -0.0161619 -0.0382095 -0.0454728
          -0.130573 -0.0538186 -0.0382095 -0.0454728 -0.130573 -0.0161619
          -0.0538186 -0.0454728 -0.0538186 -0.132434 -0.128186 -0.0161619
          -0.0284562 -0.0340695 0.121136 0.0917604 0.0682129 0.055218
          0.00286609 0.00182079 0.158522 0.152229 0.171138 0.172442
          0.158522 0.152229 0.172442 0.16328 0.172442 0.152229
          0.180506 0.16328 0.172442 0.16328 0.180506 0.180128
          0.172442 0.180506 0.181922 0.180128 0.175656 0.172442
          0.181922 0.180128 0.175656 0.16328 0.172442 0.180128
          0.172442 0.180506 0.188423 0.181922 0.301773 0.299638
          0.209269 0.269246 0.373718 0.269246 0.299638 0.301773
          0.371953 0.395388 0.26653 0.301773 0.416411 0.646271
          0.520384 0.527923 0.646271 0.416411 0.520384 0.492783
          0.646271 0.520384 0.486593 0.492783 0.646271 0.520384
          0.64488 0.486593 0.520384 0.64488 0.666764 0.646271
          0.520384 0.646271 0.666764 0.527923 0.293607 0.236193
          0.158586 0.347512 0.520384 0.600665 0.666764 0.64488
          0.600665 0.486593 0.64488 0.520384 0.486593 0.600665
          0.457237 0.520384 0.486593 0.520384 0.457237 0.371903
          0.371903 0.486593 0.520384 0.416411 0.520384 0.416411
          0.486593 0.492783 0.520384 0.600665 0.457237 0.371903
          0.371903 0.600665 0.48131 0.520384 0.3056 0.283765
          0.328671 0.363754 0.363754 0.283765 0.268148 0.233984
          0.358861 0.317734 0.344425 0.363754 0.358861 0.363754
          0.268148 0.317734 0.461807 0.463114 0.501687 0.39061
          0.109161 0.10116 0.0247339 0.158016 0.181922 0.180506
          0.191011 0.193758 0.180506 0.171138 0.191011 0.193758
          0.180506 0.171138 0.193758 0.184175 0.204545 0.184175
          0.180506 0.193758 0.193758 0.171138 0.191011 0.184175
          0.387594 0.299638 0.283203 0.320545 0.387594 0.283203
          0.294959 0.320545 0.320545 0.283203 0.294959 0.217421
          0.320545 0.299638 0.283203 0.217421 0.35344 0.299638
          0.320545 0.217421 0.35344 0.320545 0.314828 0.217421
          0.173365 0.182059 0.204545 0.206879 0.176476 0.182059
          0.173365 0.206879 0.176476 0.182059 0.206879 0.208938
          0.206879 0.182059 0.204545 0.208938 0.206879 0.208938
          0.204545 0.240259 0.257413 0.208938 0.206879 0.240259
          0.0919467 0.055218 0.0880873 0.0389992 0.396695 0.347585
          0.392657 0.335694 0.347585 0.294977 0.27592 0.335694
          0.347585 0.27592 0.280415 0.335694 0.347585 0.280415
          0.286476 0.335694 0.335694 0.347585 0.392657 0.286476
          0.516531 0.538118 0.477178 0.374349 0.333142 0.460286
          0.538118 0.477178 0.330553 0.460286 0.505427 0.538118
          0.169372 0.176707 0.167554 0.175656 0.169372 0.179579
          0.167554 0.176707 0.526642 0.373718 0.461908 0.499489
          0.461908 0.516936 0.526642 0.499489 0.461908 0.516936
          0.603631 0.526642 0.0222848 0 0.0356243 0.0484699
          0 0 0.0356243 0.0484699 0 0.0531873
          0.0356243 0.0484699 0.0356243 0.0531873 0.0816611 0.0484699
          0.230366 0.169053 0.21664 0.212099 0.374349 0.477178
          0.516531 0.572815 0.374349 0.189242 0.318274 0.257122
          0.153858 0.193086 0.12311 0.166261 0.0934466 0.153858
          0.166261 0.13966 0.0917604 -0.0418792 0.113661 -0.0497639
          0.376157 0.330553 0.505427 0.395931 0.395931 0.269518
          0.376157 0.257122 0.376157 0.395931 0.54103 0.520946
          0.44205 0.395931 0.516531 0.374349 0.0222848 0.0450981
          0 0.0752352 0.0222848 0 0 0.0450981
          0.0450981 0 0 0.0752352 0.552352 0.553202
          0.584036 0.697242 0.473613 0.553202 0.584036 0.552352
          0.473613 0.553202 0.706821 0.584036 0.584036 0.553202
          0.706821 0.697242 0.205372 0.26285 0.203472 0.185367
          0.205372 0.221732 0.182197 0.26285 0.205372 0.233867
          0.221732 0.26285 0.26285 0.233867 0.267952 0.205372
          0.26285 0.205372 0.267952 0.269312 0.205372 0.183531
          0.233867 0.267952 0.205372 0.15297 0.183531 0.267952
          0.0844691 0.128655 0.237825 0.195909 0.358861 0.344425
          0.478524 0.402724 0.478524 0.344425 0.525444 0.402724
          0.402724 0.344425 0.525444 0.376632 0.376632 0.268257
          0.402724 0.344425 0.376632 0.268257 0.351173 0.402724
          0.351173 0.402724 0.268257 0.317734 0.402724 0.344425
          0.268257 0.317734 0.265826 0.268413 0.208235 0.280936
          0.265826 0.289096 0.208235 0.268413 0.218435 0.268413
          0.208235 0.289096 0.218435 0.218066 0.268413 0.289096
          0.218435 0.218066 0.19858 0.268413 0.218435 0.19858
          0.208235 0.268413 0.19858 0.218066 0.301902 0.268413
          0.317265 0.19858 0.301902 0.268413 0.268413 0.218066
          0.301902 0.289096 0.194202 0.173041 0.216435 0.22557
          0.238917 0.194202 0.216435 0.22557 0.216435 0.238917
          0.232606 0.194202 0.194202 0.168965 0.173041 0.22557
          0.367694 0.392657 0.286476 0.337729 0.315893 0.247711
          0.249546 0.278414 0.315893 0.249546 0.298409 0.278414
          0.315893 0.247711 0.298409 0.249546 0.267714 0.249546
          0.298409 0.247711 0.267714 0.207377 0.249546 0.247711
          0.249546 0.207377 0.267714 0.196263 0.249546 0.207377
          0.23176 0.247711 0.23176 0.197806 0.207377 0.249546
          0.278414 0.298409 0.245953 0.249546 0.249546 0.298409
          0.245953 0.25696 0.320388 0.29089 0.290625 0.280415
          0.385207 0.383928 0.319383 0.387815 0.383928 0.282072
          0.319383 0.387815 0.383928 0.313847 0.282072 0.387815
          0.4665 0.564165 0.364277 0.451127 0.539956 0.564165
          0.4665 0.451127 0.477178 0.538118 0.516531 0.572815
          0.180068 0.171214 0.203198 0.188423 0.177787 0.180068
          0.203198 0.188423 0.177787 0.180068 0.188423 0.171138
          0.177787 0.171214 0.180068 0.171138 0.180068 0.171214
          0.188423 0.171138 0.0886722 0.147113 0.108892 0.17425
          0.276125 0.17425 0.147113 0.0886722 0.276125 0.0886722
          0.147113 0.129141 0.17425 0.0886722 -0.0568878 0.0804092
          0.0886722 -0.0568878 0.105133 0.17425 -0.061984 -0.0568878
          0.105133 0.0886722 0.0886722 -0.0453011 -0.061984 -0.0568878
          0.0886722 -0.0453011 -0.0568878 0.0804092 0.0886722 -0.0453011
          -0.0517243 -0.061984 0.290634 0.24497 0.245796 0.226725
          0.00486405 -0.0115162 0.0100932 -0.0354252 0.00486405 0.0100932
          0.0155697 -0.0354252 -0.0185965 0.114131 0.16481 0.171797
          0.11677 0.0330385 0.160511 0.124865 0.18615 0.152232
          0.251856 0.259363 0.0100932 0.00613925 -0.0126816 -0.0148586
          0.173799 0.11677 0.160511 0.124865 0.0675574 0.0155697
          0.0100932 0.0607489 0.0675574 0.0100932 0.0277173 0.0607489
          0.0607489 0.0277173 0.0244272 0.0100932 -0.0321081 -0.0208577
          0.0377004 -0.00969368 -0.0321081 0.0377004 0.130689 -0.00969368
          0.148226 0.0377004 0.11677 0.130689 0.08759 0.118225
          0.0359931 0.0740804 0.0470043 -0.00588535 0.0665477 0.0536057
          0.0166565 0.08759 0.0359931 0.0740804 0.0771466 0.0185148
          0.0359931 -0.0323988 0.260676 0.269246 0.313847 0.30287
          0.260676 0.282072 0.30287 0.313847 0.260676 0.282072
          0.319383 0.30287 0.30287 0.282072 0.319383 0.383928
          0.385207 0.30287 0.319383 0.383928 0.385207 0.30287
          0.383928 0.37796 0.383928 0.37796 0.30287 0.373718
          0.383928 0.30287 0.313847 0.373718 0.30287 0.282072
          0.383928 0.313847 0.30287 0.313847 0.373718 0.269246
          0.30287 0.269246 0.373718 0.303986 0.37796 0.30287
          0.373718 0.303986 0.520946 0.307201 0.376157 0.44205
          0.520946 0.307201 0.44205 0.484097 0.563634 0.484097
          0.520946 0.658278 0.657557 0.484097 0.520946 0.672307
          0.520946 0.44205 0.500981 0.484097 0.0279292 0.0934466
          0.0774893 0.0540416 0.0279292 0.0155697 0.0675574 0.0934466
          0.0155697 0.0934466 0.0279292 0.0540416 0.0771466 0.0359931
          0.00229256 -0.0323988 0.576437 0.533951 0.41749 0.460626
          0.576437 0.666629 0.643071 0.533951 0.669866 0.666629
          0.643071 0.576437 0.576437 0.669866 0.645948 0.643071
          0.17471 0.157185 0.179546 0.160877 0.17471 0.179546
          0.180665 0.160877 -0.0323988 -0.0730244 -0.0606808 0.0251875
          -0.0323988 -0.0606808 0.00815519 0.0251875 -0.0730244 -0.125328
          -0.0323988 -0.0606808 0.0922398 0.138454 0.143934 0.11213
          0.162798 0.157544 0.164869 0.170804 0.0922398 0.110876
          0.138454 0.11213 -0.0327675 0.147113 0.108892 0.0886722
          -0.0453011 -0.0327675 0.108892 0.0886722 0.0886722 -0.0517243
          -0.0453011 -0.0327675 0.672307 0.554677 0.681499 0.685457
          0.167692 0.183178 0.18229 0.181922 0.44205 0.516531
          0.681499 0.554677 0.374349 0.516531 0.44205 0.554677
          0.374349 0.516531 0.554677 0.517372 0.517372 0.572815
          0.516531 0.554677 0.517372 0.572815 0.554677 0.698744
          0.554677 0.572815 0.516531 0.698744 0.516531 0.698744
          0.681499 0.554677 0.554677 0.698744 0.681499 0.685457
          0.524651 0.50375 0.587098 0.522161 0.509731 0.524651
          0.587098 0.522161 0.509731 0.50375 0.524651 0.522161
          0.509731 0.50375 0.446707 0.524651 0.0829014 0.0644315
          0.0816611 0.111257 0.524651 0.388864 0.446707 0.463114
          0.50375 0.388864 0.524651 0.463114 0.463114 0.480039
          0.524651 0.50375 0.463114 0.480039 0.509965 0.524651
          0.524651 0.480039 0.509965 0.50375 0.50375 0.388864
          0.446707 0.524651 0.276521 0.245913 0.17973 0.153728
          0.276521 0.153728 0.17973 0.117193 0.117193 0.308892
          0.276521 0.153728 0.394078 0.38125 0.404221 0.441118
          0.404221 0.38125 0.432863 0.441118 0.209562 0.278739
          0.238684 0.230153 0.209562 0.230153 0.238684 0.1823
          0.209562 0.238684 0.13282 0.1823 0.209562 0.13282
          0.133288 0.1823 0.180739 0.209562 0.133288 0.1823
          0.180739 0.230153 0.209562 0.1823 0.180739 0.13282
          0.133288 0.209562 0.147113 0.276125 0.299053 0.188323
          0.147113 0.276125 0.188323 0.277729 0.188323 0.276125
          0.299053 0.277729 0.160769 0.134253 0.225279 0.141866
          0.104284 0.134253 0.160769 0.141866 -0.0171008 -0.11621
          -0.0525861 -0.0501823 -0.0171008 -0.0501823 -0.0525861 -0.0327653
          0.17471 0.170804 0.162798 0.186348 0.162798 0.17471
          0.157544 0.170804 0.180665 0.17471 0.162798 0.186348
          0.162798 0.170804 0.164869 0.186348 0.180665 0.162798
          0.164869 0.186348 0.180665 0.160877 0.162798 0.17471
          0.126494 0.138454 0.16486 0.185038 0.185038 0.138454
          0.16486 0.209323 0.138454 0.105915 0.16486 0.209323
          0.126494 0.0922398 0.0547873 0.138454 0.138454 0.110876
          0.18506 0.11213 0.143934 0.138454 0.18506 0.11213
          0.138454 0.110876 0.188761 0.18506 0.471473 0.530506
          0.591099 0.409685 0.471473 0.411463 0.530506 0.409685
          0.139017 0.183089 0.156925 0.207633 0.156925 0.0560741
          0.183089 0.139017 0.139017 0.130594 0.167424 0.0768571
          0.424412 0.307201 0.520946 0.484097 0.293607 0.347512
          0.158586 0.294303 0.527923 0.684195 0.560566 0.673207
          0.500981 0.527923 0.560566 0.673207 0.500981 0.560566
          0.694104 0.673207 0.560566 0.684195 0.694104 0.673207
          0.560566 0.684195 0.634897 0.694104 0.530358 0.560566
          0.634897 0.694104 0.560566 0.445539 0.530358 0.394227
          -0.128186 -0.132434 -0.127282 -0.0513797 0.480373 0.402724
          0.516255 0.510427 0.480373 0.402724 0.510427 0.372622
          0.480373 0.372622 0.510427 0.492079 -0.127282 -0.132434
          -0.126512 -0.0513797 -0.127282 -0.0513797 -0.126512 -0.0284574
          0.206809 0.245603 0.237216 0.224739 0.19541 0.206809
          0.237216 0.224739 0.206809 0.19541 0.205167 0.224739
          0.172972 0.206809 0.205167 0.224739 0.172972 0.206809
          0.224739 0.190034 0.172972 0.17137 0.206809 0.190034
          0.172972 0.17137 0.19541 0.206809 0.172972 0.19541
          0.205167 0.206809 0.17137 0.245603 0.19541 0.206809
          0.19541 0.245603 0.237216 0.206809 0.224739 0.206809
          0.251392 0.190034 0.190034 0.206809 0.251392 0.18506
          0.190034 0.185038 0.206809 0.18506 0.206809 0.185038
          0.190034 0.143934 0.206809 0.185038 0.251392 0.18506
          0.206809 0.263276 0.251392 0.185038 0.206809 0.263276
          0.185038 0.254776 0.206809 0.185038 0.194464 0.254776
          -0.0840805 0.00945855 -0.0897965 -0.0331069 -0.0331069 -0.103051
          -0.0897965 -0.0840805 0.117851 0.136757 0.18863 0.0878293
          0.18863 0.188323 0.117851 0.0878293 0.18863 0.147113
          0.188323 0.0878293 0.18863 0.147113 0.0878293 0.101692
          0.101692 0.136757 0.0878293 0.18863 0.101692 0.136757
          0.00251873 0.0878293 -0.0158408 0.101692 0.00251873 0.0878293
          -0.0158408 -0.0164584 0.0878293 0.00251873 0.0878293 -0.0158408
          0.101692 -0.0296118 0.188323 0.147113 0.108892 0.0878293
          0.117851 0.188323 0.108892 0.0878293 -0.11621 -0.0501823
          -0.0171008 -0.108082 -0.11621 -0.11324 -0.0501823 -0.108082
          -0.108082 -0.11324 -0.0501823 -0.0482987 -0.108082 -0.0501823
          -0.0171008 -0.0482987 -0.0501823 -0.0482987 0.0358098 -0.0171008
          -0.0501823 0.0358098 0.0374318 -0.0171008 -0.0501823 -0.11621
          -0.0525861 -0.0327653 -0.0327653 -0.0295207 0.0390515 -0.0501823
          -0.0876838 -0.11324 -0.0501823 -0.1189 -0.0501823 -0.0876838
          -0.1189 -0.0681067 -0.0501823 -0.0876838 -0.0681067 -0.00765868
          0.15721 0.244901 0.230366 0.169053 0.15721 0.230366
          0.110453 0.169053 0.15721 0.169053 0.110453 0.152232
          0.15721 0.244901 0.169053 0.152232 0.169053 0.170921
          0.238033 0.172218 0.169053 0.170921 0.172218 0.113767
          0.172218 0.169053 0.113767 0.105429 0.172218 0.116656
          0.169053 0.105429 0.172218 0.21664 0.169053 0.116656
          0.169053 0.116656 0.21664 0.212099 0.169053 0.212099
          0.134253 0.116656 0.169053 0.0486358 0.105429 0.116656
          0.113767 0.0486358 0.105429 0.169053 0.0642946 0.00753187
          0.105915 0.0547873 0.0642946 0.0418954 0.105915 0.00753187
          -0.0171008 0.00486405 0.0358098 0.0279292 -0.0277683 0.0279292
          0.0155697 -0.0354252 0.640978 0.499489 0.620367 0.632325
          0.655136 0.499489 0.640978 0.632325 0.655136 0.551926
          0.640978 0.499489 0.675159 0.551926 0.640978 0.655136
          0.00486405 0.0675574 0.0358098 0.0279292 0.00486405 0.0675574
          0.0279292 0.0155697 0.0279292 0.00486405 0.0155697 -0.0354252
          0.197806 0.195749 0.208434 0.179546 0.197806 0.208434
          0.180665 0.179546 -0.0513797 -0.0209055 0.0327665 0.0107608
          -0.0161619 -0.0513797 0.0327665 0.0107608 0.0327665 0.104284
          -0.0161619 0.0107608 -0.0513797 -0.0209055 0.0107608 -0.0299594
          0.0107608 -0.0209055 0.0636064 -0.0299594 0.0107608 -0.0299594
          0.0636064 0.057422 0.0107608 -0.0299594 0.057422 -0.0432089
          0.48131 0.666764 0.465816 0.520384 -0.0449147 -0.052492
          -0.00718751 0.00554623 0.472775 0.345308 0.339227 0.325688
          0.345308 0.195943 0.339227 0.325688 0.339227 0.195943
          0.279769 0.325688 0.603631 0.461908 0.523184 0.516936
          0.523184 0.461908 0.395929 0.516936 0.325688 0.318274
          0.195943 0.113661 0.0155697 0.0112358 -0.0382728 -0.0354252
          0.0155697 -0.0367899 0.0112358 -0.0354252 -0.0367899 0.0112358
          0.0100932 0.0155697 -0.0367899 -0.0126816 0.0100932 0.0112358
          0.0112358 -0.0126816 -0.0382728 -0.0367899 0.0112358 -0.0367899
          -0.0382728 -0.0354252 -0.0126816 0.0100932 0.0112358 0.00613925
          0.0019014 0.00613925 -0.0126816 0.0112358 0.0019014 0.00613925
          0.0112358 0.0244272 0.0112358 0.0019014 0.0244272 0.0376237
          0.0112358 0.0100932 0.0244272 0.00613925 0.0607489 0.0100932
          0.0244272 0.0112358 0.0607489 0.0100932 0.0112358 0.0155697
          0.130689 -0.0208577 0.212402 0.148226 0.130689 -0.0208577
          0.148226 0.0377004 -0.0208577 0.0844691 0.212402 0.148226
          0.148226 0.286155 0.258244 0.212402 0.139282 0.112536
          0.178216 0.18615 0.139282 0.112536 0.18615 0.152232
          0.112536 0.170921 0.18615 0.152232 0.152232 0.170921
          0.18615 0.251856 0.270998 0.24366 0.247711 0.304318
          0.270998 0.24366 0.196052 0.247711 0.270998 0.196052
          0.24366 0.239659 0.24366 0.196052 0.208244 0.239659
          0.24366 0.208244 0.196052 0.208914 0.24366 0.208914
          0.196052 0.247711 0.304318 0.24366 0.277479 0.253697
          0.145625 0.112132 0.121469 0.111914 0.0577682 0.112132
          0.111914 0.121469 0.0700022 0.0577682 0.111914 0.121469
          0.118174 0.0700022 0.111914 0.121469 0.118174 0.0700022
          0.121469 0.0880873 0.121469 0.0880873 0.129918 0.118174
          0.0880873 0.129918 0.123149 0.121469 0.121469 0.0389992
          0.123149 0.0880873 0.0662192 0.0389992 0.121469 0.0880873
          0.0577682 0.0662192 0.121469 0.0880873 0.0700022 0.0577682
          0.121469 0.0880873 0.0577682 0.0662192 0.112132 0.121469
          0.0662192 0.0389992 0.123149 0.121469 0.171797 0.121136
          0.0917604 -0.0284562 0.171797 0.195943 0.0917604 0.121136
          0.121136 0.171797 0.195943 0.339227 0.121136 0.211578
          0.339227 0.195943 0.121136 0.119924 0.211578 0.195943
          -0.0340695 0.119924 0.121136 0.195943 0.121136 -0.0340695
          0.195943 0.0917604 0.121136 0.0687574 0.211578 0.119924
          0.114131 0.0687574 0.208709 0.121136 0.499489 0.551926
          0.549512 0.458955 -0.0382095 -0.130573 -0.128471 -0.122298
          -0.0382095 -0.130573 -0.0454728 -0.128471 -0.130573 -0.132317
          -0.0454728 -0.128471 -0.132317 -0.133267 -0.0454728 -0.128471
          -0.0454728 -0.133267 -0.0432089 -0.128471 -0.0323988 -0.128471
          -0.122298 0.00229256 -0.0606808 -0.128471 -0.0323988 0.00229256
          -0.0606808 -0.125328 -0.0323988 -0.128471 -0.0323988 -0.125328
          -0.122298 -0.128471 0.253788 0.18863 0.299053 0.230729
          0.253788 0.18863 0.230729 0.117851 0.181637 0.117851
          0.253788 0.230729 0.181637 0.30705 0.230729 0.253788
          0.230729 0.18863 0.188323 0.117851 0.230729 0.18863
          0.299053 0.188323 0.230729 0.188323 0.299053 0.277729
          0.15721 0.140684 0.104284 0.160769 0.160769 0.0509295
          0.104284 0.15721 0.160769 0.134253 0.104284 0.0509295
          0.430173 0.363754 0.480373 0.44217 0.430173 0.44217
          0.328671 0.363754 0.430173 0.328671 0.348094 0.363754
          0.430173 0.363754 0.348094 0.358861 0.363754 0.283765
          0.348094 0.358861 0.358861 0.283765 0.268148 0.363754
          0.328671 0.283765 0.348094 0.363754 0.44217 0.428379
          0.328671 0.363754 0.44217 0.372622 0.363754 0.480373
          0.372622 0.402724 0.363754 0.480373 0.372622 0.402724
          0.317734 0.363754 0.363754 0.317734 0.344425 0.402724
          0.363754 0.402724 0.478524 0.480373 0.24453 0.258765
          0.336885 0.257074 0.24453 0.343916 0.336885 0.258765
          0.258765 0.343916 0.336885 0.257074 0.112681 0.206908
          0.119924 0.113661 0.206908 0.113661 0.112681 0.0824626
          0.206908 0.0824626 0.177901 0.113661 0.280415 0.240259
          0.290625 0.238887 0.280415 0.238887 0.290625 0.267714
          0.198264 0.317615 0.279769 0.206908 0.522544 0.516936
          0.605988 0.523184 0.598111 0.605988 0.523184 0.501687
          0.598111 0.523184 0.59459 0.501687 0.598111 0.605988
          0.59459 0.523184 0.461807 0.59459 0.523184 0.501687
          0.508874 0.59459 0.523184 0.461807 0.530358 0.387406
          0.517372 0.424977 0.530358 0.445539 0.517372 0.387406
          0.387406 0.326886 0.445539 0.517372 0.424977 0.517372
          0.325688 0.387406 0.424977 0.325688 0.279769 0.387406
          0.206908 0.326886 0.387406 0.318274 0.25696 0.249546
          0.298409 0.290625 0.25696 0.249546 0.290625 0.228412
          0.238887 0.249546 0.228412 0.290625 0.290625 0.240259
          0.228412 0.238887 0.238887 0.249546 0.290625 0.267714
          0.39061 0.373512 0.388864 0.44968 0.39061 0.44968
          0.388864 0.463114 0.39061 0.44968 0.463114 0.452807
          0.39061 0.373512 0.44968 0.452807 0.0644315 0.0675574
          0.0277173 0.0607489 0.0644315 0.0277173 0.0802511 0.0607489
          0.109537 0.0644315 0.0802511 0.0607489 0.109537 0.0675574
          0.0644315 0.0607489 0.0644315 0.0356243 0.0277173 0.028315
          0.0644315 0.0441782 0.0356243 0.028315 0.117074 0.0708915
          0.0127683 0.0452458 -0.0205164 -0.00286052 -0.00257965 0.0019014
          0.0130412 -0.00690965 0.00316235 0.0108447 0.0130412 -0.0423323
          0.00316235 -0.00690965 0.00316235 -0.0382728 -0.00690965 -0.0423323
          0.00316235 -0.0382728 -0.0240264 -0.00690965 -0.00690965 -0.0382728
          -0.0240264 -0.0423323 0.0555938 0.0708915 0.0127683 -0.000164951
          0.0555938 0.00945855 0.0127683 0.0708915 0.0555938 0.10775
          0.00945855 0.0708915 0.0555938 0.10091 0.10775 0.0708915
          0.10091 0.156523 0.10775 0.0708915 0.10775 0.156523
          0.096068 0.0708915 0.0708915 0.10775 0.00945855 0.096068
          0.0708915 0.00945855 0.0127683 0.096068 0.0708915 0.096068
          0.0127683 0.08759 0.0452458 0.0708915 0.0127683 0.08759
          -0.0443746 0.00633645 0.00229256 -0.0382095 0.00633645 -0.0382095
          0.0470197 0.00229256 -0.0443746 0.0166565 0.0359931 0.00633645
          0.0470043 0.0665477 0.0509295 0.110453 0.0108537 0.0665477
          0.0509295 0.0470043 -0.00718751 0.0108537 0.0509295 0.0470043
          -0.052492 0.0108537 -0.00718751 0.0470043 -0.052492 0.0665477
          0.0108537 0.0470043 -0.052492 -0.00588535 0.0665477 0.0470043
          0.0470043 0.0486358 0.113767 0.110453 0.0470043 0.110453
          0.113767 0.152232 0.0470043 0.113767 0.0536057 0.152232
          0.0536057 0.0470043 0.0549394 0.113767 0.0536057 0.00554623
          0.0549394 0.0470043 0.0470043 0.00554623 0.0549394 0.0486358
          0.0470043 0.0486358 0.0549394 0.113767 0.520384 0.666764
          0.465816 0.527923 0.520384 0.416411 0.527923 0.465816
          0.465816 0.416411 0.527923 0.339176 0.465816 0.317615
          0.520411 0.31981 0.658278 0.520946 0.564528 0.681499
          0.658278 0.672307 0.520946 0.681499 0.672307 0.520946
          0.681499 0.554677 0.672307 0.44205 0.520946 0.554677
          0.672307 0.44205 0.500981 0.520946 0.520946 0.44205
          0.681499 0.554677 0.44205 0.681499 0.516531 0.520946
          0.44205 0.520946 0.516531 0.54103 0.520946 0.681499
          0.516531 0.54103 0.520946 0.681499 0.54103 0.564528
          0.477379 0.364277 0.509302 0.422856 0.422856 0.364277
          0.509302 0.327201 0.422856 0.441927 0.327201 0.509302
          0.422856 0.441927 0.285644 0.327201 0.422856 0.327201
          0.285644 0.299283 0.420039 0.422856 0.285644 0.299283
          0.420039 0.346798 0.422856 0.299283 0.422856 0.346798
          0.420039 0.526269 0.422856 0.346798 0.327201 0.299283
          0.346798 0.422856 0.327201 0.224316 0.346798 0.349722
          0.422856 0.224316 0.422856 0.349722 0.327201 0.224316
          0.422856 0.364277 0.327201 0.349722 0.217546 0.188323
          0.277729 0.108892 0.533951 0.516936 0.632325 0.619954
          0.533951 0.619954 0.632325 0.643071 0.533951 0.516936
          0.619954 0.643071 0.126494 0.055218 0.129918 0.0919467
          0.055218 0.10775 0.0919467 0.126494 0.055218 0.0547873
          0.0919467 0.10775 0.055218 0.0547873 0.0102294 0.0919467
          0.055218 0.0102294 0.0555938 0.0919467 0.0919467 0.0102294
          0.0555938 0.10775 0.0919467 0.10775 0.0555938 0.10091
          0.123149 0.0919467 0.0555938 0.10091 0.123149 0.10775
          0.0919467 0.10091 0.123149 0.0919467 0.10775 0.156523
          0.123149 0.126494 0.0919467 0.156523 0.0919467 0.126494
          0.10775 0.156523 0.0919467 0.0547873 0.0102294 0.10775
          0.335164 0.305763 0.338076 0.38125 0.335164 0.338076
          0.404221 0.38125 0.404221 0.335164 0.38125 0.394078
          0.335164 0.305763 0.38125 0.343228 0.335164 0.267912
          0.305763 0.193506 0.169153 0.173956 0.171435 0.187816
          0.169153 0.171435 0.160153 0.187816 0.138486 0.169153
          0.171435 0.160153 0.138486 0.171435 0.120681 0.160153
          0.138486 0.169153 0.120681 0.171435 0.169153 0.129881
          0.120681 0.171435 0.120681 0.117393 0.160153 0.171435
          0.120681 0.157308 0.117393 0.171435 0.171435 0.160153
          0.187816 0.196263 0.150219 0.123387 0.125307 0.118354
          0.118354 0.145661 0.125307 0.150219 0.253552 0.139282
          0.259363 0.152232 0.15721 0.152232 0.253552 0.244901
          0.188625 0.176476 0.173365 0.195952 0.195952 0.176476
          0.206879 0.188625 0.139827 0.159927 0.145661 0.166462
          0.173365 0.166462 0.145661 0.159927 0.173365 0.159927
          0.145661 0.176476 0.159927 0.176476 0.173365 0.188625
          0.166462 0.159927 0.173365 0.188625 0.145661 0.159927
          0.125307 0.176476 0.145661 0.130043 0.125307 0.159927
          0.253552 0.15721 0.160769 0.251263 0.253552 0.160769
          0.238356 0.251263 0.230366 0.160769 0.238356 0.253552
          0.230366 0.15721 0.160769 0.253552 -0.0331069 -0.0443746
          -0.109993 -0.111952 0.0607489 0.0222848 0.0514415 0.0244272
          0.0607489 0.0514415 0.0660439 0.0244272 0.0244272 0.0376237
          0.0514415 0.0660439 0.0376237 0.0244272 0.0514415 0.0174988
          0.0376237 0.0514415 0.0915026 0.0174988 0.0514415 0.0376237
          0.0915026 0.0660439 0.0514415 0.0752352 0.0222848 0.0607489
          0.307201 0.269518 0.395931 0.257122 0.307201 0.269518
          0.376157 0.395931 0.257122 0.330553 0.395931 0.333142
          0.257122 0.395931 0.374349 0.333142 0.395931 0.257122
          0.374349 0.318274 0.374349 0.395931 0.516531 0.333142
          0.395931 0.333142 0.538118 0.516531 0.395931 0.538118
          0.505427 0.516531 0.395931 0.516531 0.505427 0.54103
          0.395931 0.44205 0.516531 0.54103 0.395931 0.44205
          0.54103 0.520946 0.330553 0.538118 0.505427 0.395931
          0.330553 0.333142 0.538118 0.395931 0.184506 0.176707
          0.183085 0.197736 0.176707 0.195515 0.197736 0.184506
          0.117877 0.187251 0.183531 0.15297 0.117877 0.15297
          0.183531 0.205372 0.117877 0.0853681 0.187251 0.15297
          0.117877 0.0252257 0.0853681 0.0452458
        </DataArray>
        <DataArray type="Float64" Name="u1" format="ascii" RangeMin="-0.0375333" RangeMax="0.234054">
          0.178653 0.182344 0.177642 0.167289 0.0560029 0.0669415
          0.0574548 0.0603311 0.0182889 0.0162521 0.0242505 0.025274
          0.0408597 0.0382249 0.0571591 0.0337659 0.107239 0.124889
          0.123145 0.112603 -0.00387143 0.00734161 -0.00244741 0.00272844
          0.136588 0.133985 0.144338 0.14016 0.215988 0.194355
          0.201341 0.202424 0.18814 0.150667 0.161112 0.164884
          -0.0169905 -0.0141205 -0.0122557 -0.0112139 0.0805584 0.0745346
          0.0817309 0.0700203 -0.00792034 -0.0136444 -0.0144495 -0.0214942
          -0.00515665 -0.0144557 -0.00790975 -0.0186334 0.203362 0.18894
          0.207616 0.217164 0.112603 0.107239 0.124889 0.111976
          -0.00974771 -0.0176287 -0.0134212 -0.00728572 0.207163 0.206217
          0.204341 0.208476 0.0843376 0.0729893 0.0771923 0.0854688
          0.107829 0.113705 0.120611 0.107651 0.0425605 0.0414585
          0.0487597 0.042301 0.18971 0.172558 0.196187 0.183313
          -0.0258844 -0.0225709 -0.0285786 -0.027155 0.0726495 0.066893
          0.0661805 0.0812215 0.0840752 0.0854688 0.0887881 0.0760074
          0.188552 0.179696 0.183963 0.185051 0.0951538 0.107829
          0.0946563 0.107651 0.0112354 0.0118026 0.0195752 0.00720272
          -0.0303915 -0.0285786 -0.0258844 -0.020364 0.0120482 0.0179277
          0.0212416 0.0234298 0.00751687 0.0220357 0.0124576 0.015298
          0.181466 0.185216 0.188654 0.180809 0.103022 0.0979477
          0.0843376 0.0854688 0.0709968 0.0669415 0.0784927 0.0755584
          0.0105992 0.00805325 0.0280093 0.0205329 -0.0140792 -0.0128792
          -0.0100386 -0.00918275 0.200457 0.205558 0.19366 0.201668
          0.0116483 0.031032 0.00736987 0.0269296 0.0709968 0.074105
          0.059831 0.0628676 0.195535 0.200862 0.199139 0.191231
          0.21001 0.182674 0.202424 0.1941 0.00396182 -0.00802552
          -0.0013081 -0.00974771 0.0734123 0.0622297 0.0589262 0.0542283
          0.124889 0.133411 0.128374 0.120069 0.182205 0.162658
          0.178077 0.182941 0.0753255 0.0650096 0.0644325 0.0700203
          -0.0132007 -0.0164986 -0.015708 -0.0160099 -0.0181695 -0.0225709
          -0.0243838 -0.0213178 -0.00515665 -0.00924211 -0.00451249 -0.00790975
          0.159521 0.154811 0.159912 0.14885 -0.0228191 -0.0230099
          -0.0214736 -0.0210012 -0.012453 -0.00354785 -0.0096646 -0.009542
          0.0296688 0.0290652 0.0228469 0.0314598 -0.0120806 -0.0119074
          -0.0130019 -0.0112891 0.120649 0.133764 0.131137 0.135678
          -0.0141354 -0.0196322 -0.0192985 -0.0183736 -0.0112891 -0.0148749
          -0.0149688 -0.0136238 0.00720272 -0.00385141 0.00346835 5.4393e-05
          0.0380659 0.0253005 0.0293345 0.034123 -0.0117658 -0.0140792
          -0.0100386 -0.00918275 0.213993 0.205558 0.200457 0.201668
          -0.0248542 -0.0274569 -0.0269348 -0.0230668 -0.00547832 -0.0092143
          -0.0116239 -0.00495345 -0.0231358 -0.0217282 -0.0183532 -0.0242568
          0.0430863 0.046858 0.039635 0.0465084 0.0743217 0.0729893
          0.0788018 0.0681307 -0.0149544 -0.0128614 -0.0142357 -0.0117658
          -0.0138364 -0.0118763 -0.0113372 -0.0124128 -0.0182737 -0.0186737
          -0.0165645 -0.0175454 0.140479 0.144846 0.156966 0.137069
          0.157546 0.157546 0.19366 0.157546 -0.0133778 -0.0107099
          -0.00547832 -0.00870049 -0.0223742 -0.0176287 -0.0230579 -0.0154299
          -0.00258287 -0.000829893 0 -0.00261425 0.0311635 0.0317288
          0.0286063 0.0188687 0.120069 0.111053 0.124889 0.108912
          0.0557325 0.0709968 0.0621636 0.0726495 0.147898 0.164995
          0.158127 0.158108 0.195631 0.204512 0.209647 0.193837
          -0.00558348 0 -0.0108675 0 0.0306672 0.0308707
          0.0242505 0.0299189 0.159912 0.142522 0.158701 0.14885
          0.124889 0.140479 0.128374 0.133411 0.20549 0.198948
          0.200645 0.211659 0.0709968 0.0562813 0.0669415 0.0574548
          -0.00220459 0.00348826 -0.00558497 -0.00209465 0.0741987 0.0522078
          0.0571591 0.052365 0.0631171 0.0587676 0.0431356 0.0465084
          0.140479 0.137069 0.156966 0.144542 -0.0265035 -0.0233181
          -0.0233217 -0.0275196 -0.018722 -0.0175454 -0.0148555 -0.0203499
          0.0834849 0.0788361 0.0805584 0.0762337 0.196522 0.200919
          0.202478 0.197254 0.169482 0.179109 0.179047 0.179018
          0.208476 0.21161 0.218332 0.211685 0.106138 0.120649
          0.113647 0.122155 0.207959 0.210655 0.200513 0.205583
          -0.00258287 0 0.011498 -0.00261425 0.162658 0.158359
          0.173451 0.163832 -0.0213635 -0.0211097 -0.0201853 -0.0221287
          -0.0136701 -0.00802552 -0.0150344 -0.00647079 0.130995 0.130461
          0.144846 0.137646 0.196452 0.183963 0.204398 0.20017
          0.0120482 0.0060033 0.0182889 0.0127548 0.21001 0.196592
          0.20549 0.198948 0.0105992 0.00805325 0.0157621 0.0280093
          0.0760074 0.0864083 0.0887881 0.0840752 -0.00388894 0.0116161
          -0.00867676 -0.0028024 -0.00297843 -0.00779991 -0.00813331 -0.000403006
          -0.00220459 -0.00647079 -0.00972851 -0.00558497 0.025274 0.0253005
          0.0337856 0.034123 0.200727 0.202478 0.198766 0.206388
          -0.00758936 -0.011571 -0.00813331 -0.0121593 0.0587253 0.0662311
          0.0729893 0.0587091 0.154096 0.15615 0.156966 0.164207
          -0.0165645 -0.0166292 -0.0122499 -0.0137665 -0.0116304 -0.0108463
          -0.0154396 -0.00956248 0.0103553 0.00682162 0.0112354 0.0144698
          0.0328383 0.038873 0.0308707 0.0351891 0.0543441 0.0631171
          0.0542283 0.0431356 0.0270317 0.029652 0.0310747 0.0190457
          0.155697 0.163352 0.163992 0.171942 -0.016529 -0.0196889
          -0.014032 -0.0179081 0.18662 0.195464 0.192714 0.190563
          0.052365 0.0522078 0.0571591 0.0382249 -0.00647079 -0.00509489
          -0.013258 -0.0155552 0.164884 0.164884 0.164884 0.182674
          0.197168 0.195034 0.197254 0.188654 0.0376533 0.0305277
          0.0299189 0.0286063 -0.0208346 -0.0214736 -0.0266257 -0.0237773
          0.147898 0.143236 0.154811 0.159521 0.182941 0.19816
          0.206163 0.207467 -0.00297278 -0.0025162 0.00531314 -0.00557288
          0.000889392 -0.00792323 -0.00385141 -0.0107202 -0.0196322 -0.0226985
          -0.0213635 -0.0192985 0.01164 0.0122846 0.0112354 0.0182198
          -0.0138017 -0.0173367 -0.0190485 -0.0130824 0.201335 0.212462
          0.203436 0.188117 -0.0235412 -0.0199511 -0.0202338 -0.0203499
          -0.0182737 -0.0136701 -0.018722 -0.0148555 0.152634 0.144338
          0.148473 0.14016 0.152407 0.161787 0.146448 0.164404
          -0.0181695 -0.0243838 -0.0229088 -0.0213178 0.038873 0.0328383
          0.0366424 0.0305277 0.213993 0.216517 0.223601 0.214588
          -0.012453 0.00214633 0.00291065 -0.00354785 0.201668 0.202424
          0.19366 0.191383 -0.0218471 -0.0215735 -0.0230097 -0.0153834
          0.103817 0.113647 0.0947165 0.106138 0.00239008 0.00494235
          0.00518771 0.0125997 0.186107 0.170417 0.194355 0.193391
          0.207458 0.206806 0.206131 0.20549 0.0542317 0.0469226
          0.0461789 0.0494215 -0.00567168 0.00142708 -0.00789741 -0.00236831
          -0.016709 -0.0119119 -0.00800258 -0.0123842 0.0461789 0.0494215
          0.0323901 0.0410843 -0.0112891 -0.0082111 -0.0136238 -0.0112596
          0.0770506 0.0880234 0.0927801 0.0850216 -0.0233283 -0.0213178
          -0.0199511 -0.0196889 0.133859 0.133938 0.146458 0.138683
          -0.0186737 -0.0215735 -0.0158793 -0.0153834 -0.0100972 -0.00789741
          -0.0123842 -0.016709 0.00736987 0.0237462 0.00659017 0.0269296
          -0.0237773 -0.0297435 -0.0270216 -0.0255281 -0.0160099 -0.0145913
          -0.0122501 -0.0154396 0.166766 0.172558 0.17821 0.177494
          0.148473 0.149548 0.158701 0.156139 -0.00416399 -0.00658906
          -0.00195267 -0.000885015 0.0951538 0.107829 0.101278 0.0946563
          0.0587676 0.0648741 0.0430863 0.0465084 0.106124 0.106138
          0.117486 0.105454 0.00281491 0.00171474 -0.00416399 -0.00195267
          0.200727 0.206388 0.198766 0.203045 -0.00885974 -0.0123724
          -0.00389357 -0.00774175 0.123145 0.126608 0.120611 0.113705
          0.229311 0.213993 0.212726 0.226308 -0.00891908 -0.0136701
          -0.0144463 -0.0148555 0.159808 0.156139 0.166766 0.172558
          0.148473 0.164907 0.163832 0.152634 0.0557325 0.0567763
          0.0290652 0.0418834 0.0128559 0.00789246 0.0120543 0.0162521
          0.162658 0.152634 0.158359 0.163832 0.187544 0.182344
          0.187533 0.177642 0.0120543 0.0162521 0.0211548 0.0128559
          0.20549 0.201088 0.202837 0.200645 0.0117325 0.0172557
          0.0243239 0.0237462 -0.0169905 -0.0122557 -0.0131838 -0.0112139
          -0.0264858 -0.0315692 -0.0230441 -0.0231358 0.074105 0.0669415
          0.0760074 0.0784927 0.152084 0.164157 0.147962 0.150589
          0.0681307 0.0788018 0.0795216 0.0776046 0.12399 0.11548
          0.121898 0.112423 0.0373622 0.052365 0.0380659 0.0431356
          -0.00573392 -0.00789741 -0.00567168 -0.00800258 0.21001 0.202424
          0.198948 0.212902 0.0190457 0.029652 0.0354946 0.028198
          0.217295 0.21001 0.217383 0.208743 0.033256 0.0310747
          0.040745 0.0257106 0.227665 0.213993 0.212726 0.229311
          -0.0173367 -0.0166292 -0.0190485 -0.0130824 -0.0133016 -0.0153589
          -0.0141205 -0.00840171 0.059831 0.0669415 0.0562813 0.0560029
          0.152084 0.147962 0.138683 0.133764 0.106124 0.122155
          0.108005 0.119736 0.0280093 0.00805325 0.0208321 0.0286129
          0.161787 0.152407 0.172355 0.161158 0.191512 0.182033
          0.162762 0.18894 -0.0164986 -0.0163374 -0.0130069 -0.0158084
          -0.0222661 -0.0263881 -0.0244262 -0.0261606 0.191231 0.190872
          0.195631 0.19547 -0.00274295 -0.00792034 0 0.000148197
          -0.0214736 -0.0210012 -0.0170453 -0.0165645 0.108005 0.100067
          0.106138 0.0864855 0.0461835 0.0366424 0.0506437 0.0459501
          -0.0132007 -0.0160099 -0.015708 -0.0127052 0.000889392 0.0118026
          0.00720272 0.00588326 0.204801 0.21001 0.196592 0.20549
          -0.0028024 0.00751687 -0.0013081 0.00117694 0.100045 0.0864083
          0.0870368 0.0880234 -0.00937549 -0.0122499 -0.00802552 -0.0013081
          -0.00388894 0.00208091 0.0116161 -0.00199443 0.161158 0.15615
          0.169726 0.152818 -0.0274569 -0.0315591 -0.0262545 -0.0287216
          -0.00885974 -0.00389357 -0.0113926 -0.00258287 -0.0158793 -0.0153834
          -0.0176287 -0.0134212 0.198766 0.197168 0.188654 0.190179
          -0.0134212 -0.0137665 -0.00945334 -0.0130824 0.164404 0.164157
          0.175241 0.167956 0.0562813 0.0545899 0.0418834 0.0410123
          -0.0138017 -0.0158793 -0.0134212 -0.0137665 0.188552 0.150667
          0.18814 0.182704 -0.000885015 -0.00451249 -0.00658906 -0.00195267
          -0.0194191 -0.0227267 -0.0144495 -0.0136444 0.0159591 0.018267
          0.00918058 0.0288745 -0.0136116 -0.0122501 -0.0154396 -0.0160099
          0.160485 0.163601 0.169482 0.152042 -0.00280863 0.00640367
          0.00872119 -0.000885015 0.185483 0.191655 0.178077 0.184652
          0.152634 0.149711 0.144338 0.14016 0.102855 0.0840752
          0.0864083 0.0975518 -0.00885974 -0.00832014 -0.0123724 -0.0119119
          0.203362 0.18894 0.217164 0.20972 -0.0174241 -0.0122557
          -0.0131838 -0.0169905 -0.0134212 -0.0137665 -0.0130824 -0.0123842
          -0.0207408 -0.0145913 -0.0179081 -0.0181695 -0.0255886 -0.0255065
          -0.0179375 -0.0194202 0.147962 0.135678 0.131137 0.133764
          0.18971 0.186254 0.196187 0.174973 0.0373622 0.0431356
          0.0310747 0.0425605 0.205183 0.197767 0.200862 0.200457
          0.169817 0.169482 0.158127 0.160485 0.103903 0.0972271
          0.0999492 0.099625 -0.0122501 -0.0136116 -0.00932992 -0.0132007
          0.011498 0.00881202 0.0171097 0.0263362 0.130487 0.131935
          0.133014 0.142273 0.0410123 0.0376533 0.0373622 0.0274887
          0.233462 0.217164 0.223492 0.22786 -0.000896939 -0.00387143
          -0.00495345 0.00272844 -0.0191522 -0.0189528 -0.0129236 -0.00259998
          -0.00918772 -0.0163913 -0.00867676 -0.00388894 -0.0240078 -0.0202338
          -0.0199922 -0.0235412 0.211685 0.208476 0.212012 0.218332
          -0.00728572 -0.0137665 -0.0134212 -0.00974771 0.206879 0.207163
          0.203573 0.202478 -0.0196146 -0.0323034 -0.0129236 -0.0191522
          0.0753255 0.0700203 0.0745346 0.0606546 0.0755584 0.0661805
          0.0665526 0.0589262 0.195515 0.185216 0.194339 0.181466
          0.163601 0.179109 0.169482 0.179018 0.207864 0.197213
          0.196452 0.20017 0.128374 0.111053 0.120069 0.118465
          0.19366 0.204974 0.193747 0.157546 0.116529 0.111952
          0.0975518 0.100045 0.00281344 0.00272913 -0.00246694 0.0120482
          0 0 -0.00558348 0 0.215988 0.202424
          0.212756 0.213993 0.196592 0.20549 0.200623 0.204163
          0.180809 0.178104 0.164995 0.169482 0.0975518 0.116529
          0.0982124 0.110293 -0.00592964 -0.0104118 -0.0156766 -0.013834
          -0.030647 -0.0315591 -0.0262545 -0.0274569 -0.0144463 -0.0136701
          -0.0175454 -0.0148555 -0.00547832 -0.0116239 -0.0112891 -0.00495345
          0.215988 0.213993 0.216517 0.223601 0.0662311 0.0586593
          0.0683191 0.0587091 0.206131 0.20549 0.202837 0.200645
          0.101567 0.110644 0.101842 0.111976 -0.0158793 -0.0153834
          -0.0218471 -0.0176287 -0.0233217 -0.0208346 -0.0228191 -0.0233181
          0.0755584 0.0665526 0.0708505 0.0644344 -0.00620229 -0.0129236
          -0.0162538 -0.00297278 -0.0190904 -0.0190794 -0.0163645 -0.0208078
          0.0443732 0.0587091 0.0587253 0.0571414 0.21161 0.22252
          0.211685 0.208726 0.0946554 0.0833102 0.0900758 0.081338
          0.161158 0.152818 0.169726 0.168797 -0.0148555 -0.00743066
          -0.013983 -0.00958656 0.031032 0.0445074 0.028966 0.0237462
          -0.0117274 -0.0136238 -0.0148291 -0.0142357 -0.0186737 -0.0211097
          -0.0175454 -0.0201853 0.0795216 0.0776046 0.0788018 0.0931933
          0.157546 0.193391 0.164522 0.170417 0.0182889 0.012652
          0.0120482 0.0144698 -0.00444595 -0.00647079 -0.00891908 -0.00972851
          0.0220357 0.0116161 0.0263362 0.0171097 0.123835 0.113647
          0.122751 0.120649 0.186408 0.180565 0.179109 0.179584
          0.196187 0.174973 0.183818 0.183313 0.169817 0.181466
          0.169482 0.179047 0.0116483 0.00470713 0.00918058 0.0159591
          0.100045 0.105433 0.0887881 0.102855 0.0571414 0.0415331
          0.0587253 0.0443732 0.123835 0.122751 0.124347 0.135619
          0.0193801 0.0293345 0.0299189 0.0218384 0.204341 0.200919
          0.196522 0.19974 0.123145 0.120611 0.12941 0.116529
          -0.0260218 -0.0164299 -0.012505 -0.0163913 0.196 0.210988
          0.201884 0.19799 0.214157 0.214006 0.207187 0.220233
          -0.0237773 -0.0193911 -0.0190663 -0.0150344 0.0734123 0.0622297
          0.052365 0.079455 0.214006 0.207616 0.200623 0.21308
          -0.0196322 -0.0248542 -0.0226985 -0.0230668 -0.0170453 -0.013834
          -0.02144 -0.0190485 -0.0331804 -0.0291402 -0.031823 -0.0236808
          0.0760074 0.0683191 0.0669415 0.0686452 -0.0166292 -0.0240496
          -0.0162307 -0.0163788 0.00789246 0.0120482 0.0162521 0.0182889
          0.208726 0.204341 0.21161 0.214152 0.074105 0.0669415
          0.0784927 0.0709968 -0.0274569 -0.0287216 -0.0262545 -0.0269348
          0.00272913 0.0116209 0.0101408 0.0179277 -0.0230668 -0.0226985
          -0.0228191 -0.025715 0.00193013 0.00396182 -0.00802552 -0.0013081
          0.212726 0.195509 0.205792 0.213783 -0.0208346 -0.0213041
          -0.0150344 -0.0165645 0.14016 0.147411 0.152634 0.149711
          0.0518334 0.0644344 0.0462572 0.0573615 0.0120482 -0.00246694
          0.00818924 0.0101408 0.146458 0.133938 0.149966 0.13303
          0.211585 0.214588 0.228069 0.219074 0.159808 0.167956
          0.151569 0.164404 0.0431356 0.0631171 0.0465084 0.040745
          -0.0225574 -0.0233181 -0.0270216 -0.0237773 0.0461835 0.0506437
          0.0556241 0.0459501 -0.0190904 -0.0190794 -0.0158084 -0.0163645
          0.184652 0.194862 0.19024 0.196169 0 0
          0 -0.00558348 0.227665 0.223492 0.22903 0.212726
          0.206131 0.201088 0.202837 0.20549 -0.0230097 -0.021604
          -0.0207238 -0.0175883 -0.00568058 -0.00802936 -0.00123409 -0.0112998
          5.4393e-05 -0.00620229 -0.0107202 -0.00297278 0.208476 0.207163
          0.21161 0.204341 -0.0208346 -0.0214736 -0.0237773 -0.0213041
          0.20717 0.213279 0.206131 0.209758 0.0366424 0.0308707
          0.0299189 0.0268177 -0.00800258 -0.00885974 -0.00274295 -0.00567168
          0.196169 0.18922 0.185483 0.195034 0.161787 0.156139
          0.159808 0.172558 0.161787 0.175241 0.159808 0.164404
          0.103817 0.0947165 0.0900758 0.0975518 0.162658 0.173451
          0.168468 0.178077 0.178653 0.170056 0.180565 0.170757
          -0.0225574 -0.0275196 -0.0270216 -0.0233181 0.113647 0.108005
          0.100067 0.106138 0.140479 0.148226 0.145332 0.133411
          -0.0108675 -0.012505 -0.0211183 -0.0169741 -0.0196146 -0.00620229
          -0.00557288 -0.0129236 -0.0158793 -0.0186737 -0.0153834 -0.0165645
          0.196592 0.201668 0.201088 0.193703 0.200513 0.205583
          0.199139 0.195535 0.103817 0.106138 0.0947165 0.110293
          -0.0292126 -0.0287216 -0.027155 -0.0315591 0.161787 0.175241
          0.172355 0.183313 -0.00945334 -0.00728572 -0.0134212 -0.00774175
          0.182941 0.173451 0.194862 0.186254 -0.0107202 -0.0101753
          -0.00385141 -0.0129236 -0.0223742 -0.0230579 -0.0230823 -0.0154299
          -0.0138364 -0.0124128 -0.0140792 -0.0170671 0.181466 0.180809
          0.189513 0.177184 0.0795216 0.087618 0.0931933 0.0930471
          0.135619 0.13043 0.142522 0.130721 5.4393e-05 -0.00385141
          -0.00297278 -0.0107202 0.0887881 0.0907937 0.105433 0.0870368
          -0.0196889 -0.0166802 -0.016529 -0.0170671 0.00736987 0.028966
          0.0237462 0.031032 0.207864 0.196452 0.204398 0.20017
          0.102855 0.0982124 0.0840752 0.0975518 -0.00658906 -0.0133778
          -0.00797952 -0.00381637 0.112603 0.124889 0.124021 0.128374
          0.229311 0.223601 0.213993 0.226308 0.002157 -0.00195267
          0.00281491 -0.00381637 0.163601 0.169482 0.179047 0.160485
          0.00682162 0.00531314 0.0162593 0.00518771 -0.020364 -0.0154396
          -0.0231921 -0.0225709 -0.0132007 -0.0136116 -0.0139074 -0.0160099
          0.0650096 0.0571167 0.0603311 0.0606546 -0.024821 -0.0269195
          -0.0235412 -0.0233283 -0.00274295 -0.00800258 -0.00933978 -0.00832014
          -0.0213178 -0.027155 -0.0207408 -0.0225709 0.0418834 0.0461789
          0.0323901 0.0410843 0.0506496 0.0587253 0.0598625 0.0633308
          0.112603 0.101567 0.111976 0.108912 0.18894 0.18814
          0.201059 0.182033 0.0418834 0.0314598 0.0228469 0.0323901
          0.0850216 0.0880234 0.0927801 0.100582 0.0120482 0.0101408
          0.00818924 0.0212416 -0.0133778 -0.0107099 -0.0149688 -0.0140598
          0.0686452 0.059831 0.05214 0.0560029 -0.0196889 -0.0233283
          -0.018722 -0.0199511 -0.0128792 -0.016529 -0.0179081 -0.0145913
          -0.0190831 -0.0208321 -0.0190248 -0.0258844 -0.0119074 -0.0160708
          -0.00924211 -0.0121593 -0.0213928 -0.0243838 -0.0229088 -0.0181695
          0.200645 0.195207 0.201088 0.202837 0.226764 0.19799
          0.218189 0.212462 -0.0258844 -0.0231921 -0.0225709 -0.020364
          0.029652 0.0310747 0.0350187 0.0270317 0.00736987 0.002157
          0.0172557 0.0152541 -0.0201853 -0.0175454 -0.0182737 -0.0203499
          0.0975518 0.0931933 0.110293 0.0982124 0.188552 0.150667
          0.182704 0.179696 0.00918623 0.0188687 0.0274887 0.0082428
          -0.0264858 -0.0375333 -0.0231358 -0.0281423 -0.00567168 -0.00568058
          -0.00802936 -0.00274295 0.100493 0.105919 0.0923879 0.0900582
          0.025274 0.0337856 0.033256 0.034123 -0.015708 -0.0181695
          -0.016529 -0.0127052 0.206879 0.206388 0.200727 0.203045
          -0.0145549 -0.0116304 -0.0154396 -0.00956248 0.12399 0.135619
          0.134608 0.141912 0.0506437 0.0542317 0.0459501 0.0434323
          0.130487 0.140736 0.117486 0.120214 0.122155 0.130487
          0.117486 0.120214 -0.0292126 -0.0315591 -0.027155 -0.0328352
          0.0743217 0.0840752 0.0729893 0.0902591 0.182205 0.178077
          0.19332 0.182941 -0.0179375 -0.0167969 -0.0110052 -0.0163374
          -0.0208527 -0.0166802 -0.0196889 -0.0170671 -0.00191015 -0.00792034
          -0.00567168 0.000148197 0.00518771 0.00682162 0.0103553 0.0144698
          0.143736 0.132588 0.138154 0.161112 0.0687973 0.081338
          0.0864855 0.0880234 0.0753856 0.0749483 0.052365 0.079455
          -0.0160099 -0.0190904 -0.0164986 -0.015708 0.0666313 0.0766004
          0.0850216 0.0820835 -0.0201853 -0.0186737 -0.0182737 -0.0175454
          0.00171474 -0.000885015 -0.00451249 -0.00280863 0.146215 0.14066
          0.14885 0.136079 0.204163 0.207458 0.206714 0.209684
          0.197254 0.188654 0.194339 0.190179 0.213993 0.205558
          0.212756 0.216517 0.00315363 -0.0028024 -0.00774175 0.00117694
          -0.0139074 -0.0119074 -0.0132007 -0.0112891 -0.0191522 -0.00834823
          -0.00259998 -0.0025162 0.133859 0.146458 0.144542 0.138683
          -0.0139621 -0.0110052 -0.0121593 -0.0179375 0.000889392 -0.00385141
          -0.00792323 0.00588326 -0.0231358 -0.0303915 -0.0217282 -0.0375333
          -0.00774175 -0.0123724 -0.00389357 -0.00854844 -0.0231358 -0.0315692
          -0.0208321 -0.0190831 0.202424 0.204974 0.205558 0.19366
          0.00762492 0.0128559 0.0211548 0.0190457 -0.00297278 0.00659017
          0.00273212 0.0117325 0.107829 0.120611 0.101278 0.107651
          -0.0158084 -0.0139074 -0.0141714 -0.011571 -0.0233283 -0.0262545
          -0.0235412 -0.0202338 0.110293 0.113647 0.103817 0.106138
          -0.00974771 -0.0176287 -0.00728572 -0.0123417 -0.0218471 -0.0230097
          -0.0176287 -0.0153834 0.201088 0.200457 0.195535 0.193703
          0.0755584 0.0912087 0.0907937 0.0833424 -0.0181023 -0.0233181
          -0.0222661 -0.0225574 -0.0282544 -0.0272059 -0.0169741 -0.0164299
          0.0644344 0.0598625 0.0708505 0.0780915 0.186254 0.183818
          0.174973 0.19024 0.146966 0.14066 0.154438 0.146215
          0.0686452 0.0603311 0.0560029 0.0606546 -0.0136701 -0.00647079
          -0.0155552 -0.00972851 0.0112354 0.00346835 0.00807449 0.012652
          -0.0269195 -0.02635 -0.0240078 -0.0262545 0.0285388 0.0247255
          0.033256 0.039635 -0.00291793 0.00272913 -0.00242298 -0.00797952
          0.0598625 0.0569851 0.0780915 0.0644344 0.0399649 0.0430863
          0.0273064 0.0286129 -0.00956248 -0.00413948 -0.0108463 -0.00795808
          -0.00274295 -0.00800258 -0.00789741 -0.0122964 0.0951538 0.0757089
          0.0876068 0.0795216 0.180809 0.185216 0.188654 0.179018
          0.202094 0.200919 0.19974 0.19942 0.140955 0.147411
          0.158359 0.147898 0 0 0 -0.00568058
          0.196592 0.198948 0.21001 0.202424 0.178653 0.180565
          0.187544 0.182344 0.212756 0.210966 0.218651 0.210746
          0.0628676 0.074105 0.0776933 0.0709968 0.16858 0.152472
          0.160619 0.168797 0.0380659 0.034123 0.0373622 0.0431356
          0.158701 0.142522 0.159912 0.152407 3.67282e-05 -0.00547832
          -0.00811258 -0.00495345 -0.0192985 -0.0226985 -0.0213635 -0.0201853
          -0.0117274 -0.0142357 -0.0148291 -0.0117658 -0.0190831 -0.0096646
          -0.0135297 -0.0231358 0.182185 0.201335 0.196 0.201884
          0.0923879 0.0900582 0.0951538 0.0814389 -0.0208346 -0.0150344
          -0.0182737 -0.0165645 0.186254 0.184652 0.174973 0.173451
          0.0296688 0.0290652 0.0314598 0.0418834 0.0745346 0.0773494
          0.0661042 0.0686452 -0.0028024 0.00751687 0.00117694 0.015298
          0.0127548 0.0242505 0.0182889 0.0182829 0.163832 0.158701
          0.148473 0.144338 0.00117694 0.00751687 0.0124576 0.015298
          0.0542283 0.0452618 0.0589262 0.0518334 0.0390706 0.0434323
          0.0459501 0.0366424 0.178077 0.182185 0.182205 0.191655
          -0.0258844 -0.0285786 -0.0225709 -0.0231921 -0.020364 -0.0154396
          -0.0172937 -0.0231921 0.0972271 0.0947152 0.087618 0.0890911
          -0.00795808 -0.0145913 -0.00556855 -0.00505826 -0.0013081 -0.0105912
          0.00117694 -0.00937549 0.14066 0.132309 0.13798 0.145829
          0.190563 0.197767 0.200457 0.190872 0.13303 0.129887
          0.142636 0.140736 0.0296688 0.0418834 0.0228469 0.0323901
          -0.0123842 -0.00800258 -0.00802936 -0.00945334 -0.00392801 0.00445072
          -0.00774175 -0.00728572 -0.00778189 -0.00790975 -0.00924211 -0.00515665
          -0.00800258 -0.00274295 -0.00789741 -0.00567168 0.182941 0.19816
          0.186254 0.206163 0.18971 0.186254 0.19816 0.196187
          -0.0158084 -0.0164986 -0.0141714 -0.0139074 -0.0278619 -0.0324585
          -0.0213041 -0.0240496 0.206131 0.207959 0.208722 0.202837
          0.0788018 0.0683191 0.0822467 0.0698236 -0.0126841 -0.0168075
          -0.0170453 -0.0141354 0.0644325 0.0524165 0.0525971 0.0586593
          -0.0158084 -0.0163645 -0.015708 -0.0164986 0.056094 0.0753856
          0.0622297 0.066893 0.202094 0.206217 0.204341 0.207163
          0.120069 0.111053 0.108912 0.118465 0.178077 0.173451
          0.184652 0.194862 0.0430863 0.0298849 0.0286583 0.046858
          0.149711 0.147411 0.152634 0.158359 0.1941 0.182674
          0.202424 0.164884 0.0462572 0.0425605 0.0518334 0.0487597
          -0.0158084 -0.0163645 -0.0141714 -0.015708 0.00346835 0.00682162
          0.00860304 0.012652 -0.00495345 -0.0116239 -0.0112891 -0.0082111
          -0.0013081 -0.0105912 -0.0028024 0.00117694 0.171942 0.182205
          0.178077 0.182185 0.196592 0.191383 0.201668 0.193703
          -0.00291793 0.00297451 -0.00381637 -0.0060995 -0.0208527 -0.0190904
          -0.0196889 -0.0166802 0.0443525 0.0269252 0.0314598 0.0408597
          0.002157 0.00297451 0.0172557 0.0152541 0.148473 0.134608
          0.144338 0.149548 -0.00658906 -0.00579035 -0.00870049 -0.00451249
          0.0237462 0.028966 0.0243239 0.0358445 0.0242505 0.0162521
          0.0211548 0.025274 0.0598625 0.0708505 0.0633308 0.0587253
          0.0613448 0.0522908 0.0702291 0.0571414 0.0789107 0.0613448
          0.0702291 0.0743217 0.0234298 0.0349354 0.0285388 0.039635
          0.00239008 0.00518771 0.00805325 0.0125997 -0.00647079 -0.00509489
          -0.0155552 -0.0109887 0.0661042 0.0686452 0.05214 0.0606546
          0.0274887 0.0163121 0.0286063 0.0157621 -0.0196146 -0.0129236
          -0.0162538 -0.00620229 0.0543441 0.0631171 0.0431356 0.040745
          0.0817309 0.0700203 0.0753255 0.0762337 -0.0221287 -0.021604
          -0.0211097 -0.0201853 0 0.0263362 0.00881202 0.011498
          0.0679208 0.0542283 0.0644344 0.0569851 0.142413 0.155697
          0.163992 0.153489 0.14885 0.139724 0.136079 0.14066
          -0.00974771 -0.00708896 -0.0135779 -0.0143869 0.0190457 0.028198
          0.0354946 0.0189782 0.201668 0.195509 0.186532 0.200623
          -0.0230668 -0.0269348 -0.0226985 -0.025715 0.0644325 0.052463
          0.0524165 0.0586593 -0.00242298 0.00551842 0.00281344 0.0060033
          0.00281344 0.00551842 0.0120482 0.0060033 -0.0194202 -0.0160099
          -0.0190248 -0.0181695 -0.0104118 -0.00592964 -0.0156766 -0.00669586
          0.0890911 0.0788361 0.0822467 0.0834849 -0.00547832 -0.0092143
          -0.00495345 -0.000896939 -0.000403006 -0.00778189 0.00640367 -0.00297843
          0.0973892 0.0912087 0.0907937 0.0755584 0.214006 0.213993
          0.214157 0.201668 0.0622297 0.066893 0.0812215 0.0734123
          0.14885 0.154811 0.146215 0.143236 0.0753856 0.0571591
          0.056094 0.052365 0.205092 0.197213 0.189513 0.196452
          0.00762492 0.0190457 0.0257106 0.0189782 0.200645 0.212902
          0.211659 0.198948 0.189513 0.195515 0.196522 0.194339
          0.0268177 0.0290872 0.0193801 0.0198756 0.00272913 0.0112742
          0.0101408 0.0116209 0.120438 0.130461 0.128374 0.115204
          0.196592 0.191383 0.182674 0.186532 0.205477 0.196169
          0.197168 0.200946 0.0242505 0.0182198 0.0198756 0.0290872
          -0.0168716 -0.0158793 -0.0134212 -0.0123842 0.164884 0.164884
          0.182674 0.18814 0.18894 0.162762 0.191512 0.185943
          0.217164 0.212012 0.223803 0.228263 -0.0194191 -0.0173367
          -0.0137133 -0.0144495 0.00272913 -0.00416399 -0.00242298 -0.00797952
          0.00346835 -0.00280863 0.00273212 -0.00385141 -0.00956248 -0.0108463
          -0.0154396 -0.00795808 0.105919 0.0951538 0.107651 0.113705
          -0.0166292 -0.0236808 -0.0240496 -0.0163788 0.0366424 0.0308707
          0.0268177 0.038873 0.048595 0.0542317 0.0459501 0.0461789
          0.00805325 0.0179985 0.0286129 0.0205329 -0.0116304 0.00291065
          -0.00413948 -0.00354785 0.05429 0.0648741 0.0430863 0.0522078
          0.208476 0.213288 0.215461 0.218332 0.0399649 0.0430863
          0.0286129 0.0440846 0.0726495 0.0567763 0.0661805 0.066893
          0.0418834 0.0443525 0.0314598 0.0410123 -0.0248542 -0.0274569
          -0.024821 -0.0226985 -0.0226985 -0.0269348 -0.0233283 -0.0233217
          0.12399 0.13043 0.134608 0.135619 3.67282e-05 -0.00495345
          -0.00811258 0.00593033 -0.00638178 0.00399531 -0.000896939 0.00470713
          0.052365 0.0380659 0.0522078 0.0382249 0.197168 0.196169
          0.195034 0.18922 0.0337856 0.0349354 0.0234298 0.039635
          0.169817 0.169482 0.160485 0.179047 0.19799 0.182185
          0.171942 0.168015 0.22786 0.207616 0.217164 0.212726
          0.0947165 0.0773494 0.0880234 0.081338 0.00518771 0.0144698
          0.0179985 0.0162593 0.0443525 0.0314598 0.0480379 0.0408597
          0.201335 0.203196 0.202873 0.217185 0.172367 0.155215
          0.161112 0.162513 -0.0213928 -0.0194202 -0.0243838 -0.0181695
          -0.0112139 -0.0169905 -0.0174241 -0.0131838 0.201335 0.190326
          0.208726 0.202873 -0.0192985 -0.0211097 -0.0213635 -0.0168075
          0.191337 0.188552 0.197156 0.185051 -0.0233181 -0.0275196
          -0.0261606 -0.0225574 0.0982124 0.0931933 0.110293 0.107239
          -0.013834 -0.0156766 -0.02144 -0.0190485 -0.0226985 -0.0213635
          -0.0201853 -0.0221287 -0.00918275 -0.0128792 -0.00556855 -0.0127052
          -0.0282544 -0.0134986 -0.0169741 -0.0214942 0.00239008 -0.00790509
          0.00518771 0.00494235 0.189513 0.190326 0.196522 0.19974
          -0.0166802 -0.0208078 -0.0163645 -0.0189119 -0.0170671 -0.0208078
          -0.0166802 -0.0189119 0.158359 0.152634 0.149711 0.163832
          0.0573615 0.0665526 0.0708505 0.0662311 0.0367803 0.0478477
          0.046858 0.0565514 0.0762337 0.0805584 0.0698236 0.0788361
          0.0951538 0.0876068 0.107829 0.0982124 0.158562 0.153668
          0.162741 0.146966 0.217185 0.201335 0.22363 0.208726
          0.0406597 0.0557325 0.0290652 0.0418834 0.21308 0.200623
          0.206806 0.212012 -0.0269348 -0.0233217 -0.025715 -0.0265035
          0.158562 0.144702 0.153668 0.146966 0.220331 0.20549
          0.21001 0.204163 -0.0218471 -0.0230097 -0.0230579 -0.0176287
          0.101278 0.0876068 0.0789107 0.0902591 0.150211 0.162405
          0.170536 0.158127 0.143236 0.146215 0.14885 0.136079
          0.0373622 0.0542283 0.0431356 0.0425605 -0.0124128 -0.016529
          -0.014032 -0.0128792 0.031032 0.0116483 0.0252058 0.0288745
          0.0179985 0.0144698 0.0253005 0.0286583 0.118881 0.100045
          0.110913 0.108722 -0.00274295 -0.00885974 -0.00800258 -0.00832014
          0.0762337 0.0644325 0.0700203 0.0753255 -0.0127052 -0.0117658
          -0.0142357 -0.00782457 0.22395 0.213993 0.214157 0.214006
          -0.0214736 -0.0190485 -0.0278619 -0.0213041 0.0556241 0.0417257
          0.0461835 0.0459501 0.0117325 0.00736987 0.0172557 0.0237462
          0.00193013 0.00396182 -0.0013081 0.00581802 0.22786 0.207616
          0.212726 0.227665 0.152084 0.147962 0.133764 0.150589
          -0.00924211 -0.0092143 -0.00357415 -0.00790975 0.201144 0.191337
          0.196448 0.197156 0.187873 0.179047 0.181466 0.169817
          -0.0127052 -0.016529 -0.0140792 -0.0128792 -0.00297278 -0.0101753
          -0.00357415 -0.00259998 0.204801 0.207587 0.220331 0.204163
          0.0788018 0.0760074 0.0787469 0.0683191 0.0870368 0.0887881
          0.0907937 0.0784927 0.22252 0.211685 0.228487 0.224004
          0.0776933 0.0870368 0.0902544 0.0709968 -0.0207408 -0.0179081
          -0.0202338 -0.0213178 0.029652 0.0414585 0.0390706 0.0434323
          0.196 0.201884 0.201335 0.19799 0.00682162 0.0117325
          0.0179277 0.0162593 0.159912 0.142522 0.14885 0.139724
          -0.00885974 -0.0122964 -0.00832014 -0.0119119 -0.0229088 -0.0287216
          -0.0268886 -0.0262545 0.217164 0.207616 0.205792 0.212726
          0.206879 0.202478 0.200727 0.206388 0.172735 0.177184
          0.190326 0.185483 0.185483 0.191655 0.172735 0.178077
          0.130995 0.120438 0.137646 0.125046 0.162513 0.143736
          0.155215 0.161112 0.172941 0.155215 0.161112 0.172367
          0.203045 0.197168 0.200946 0.206388 -0.0208078 -0.0190794
          -0.0163645 -0.0189119 -0.0208078 -0.0244722 -0.0198355 -0.0190794
          -0.0138364 -0.0113372 -0.0114217 -0.0140792 0.197767 0.190563
          0.18662 0.190872 -0.0128792 -0.0145913 -0.00748686 -0.00556855
          -0.00638178 0.00214633 0.00399531 0.00470713 -0.00918772 -0.012505
          -0.00558348 -0.0112998 -0.0127052 -0.0160099 -0.0181695 -0.0145913
          -0.00291793 -0.00242298 -0.00246694 -0.00797952 -0.0235412 -0.0210149
          -0.0203499 -0.0197349 -0.0112998 -0.00568058 0 0
          0.156139 0.149548 0.172558 0.161787 0.204163 0.206217
          0.201144 0.196448 0.233462 0.222453 0.223492 0.217164
          0.0698236 0.0644325 0.0587091 0.0683191 0.191383 0.164884
          0.157546 0.202424 -0.016709 -0.0122964 -0.00800258 -0.0119119
          -0.00274295 -0.0122964 -0.00933978 -0.00800258 0.160485 0.163601
          0.152042 0.152453 0.0286583 0.0349354 0.0234298 0.0337856
          -0.00647079 0.00193013 -0.00444595 -0.00802552 0.19816 0.179795
          0.182941 0.186254 -0.0145549 -0.00354785 -0.00956248 -0.0096646
          -0.0123842 -0.00800258 -0.00567168 -0.00802936 -0.0203499 -0.0186226
          -0.0169905 -0.0197349 0.19332 0.182941 0.206163 0.207467
          0.033256 0.025274 0.034123 0.0310747 0.123145 0.107829
          0.116529 0.107239 0.202424 0.157546 0.191383 0.190563
          0.0789107 0.0876068 0.0743217 0.0902591 -0.0130824 -0.0166292
          -0.0190485 -0.0137665 0.212756 0.216517 0.218651 0.223601
          0.0587253 0.0708505 0.0729893 0.0662311 -0.0168716 -0.0140942
          -0.0123842 -0.016709 -0.0182737 -0.0233217 -0.018722 -0.0208346
          0.0900758 0.0947165 0.0880234 0.0864083 0.202424 0.202424
          0.198948 0.202424 -0.014032 -0.0169905 -0.0112139 -0.0128792
          0.0726495 0.0661805 0.0912087 0.0812215 0.0269296 0.0445074
          0.031032 0.0237462 0.187409 0.183818 0.195296 0.189703
          -0.0128792 -0.016529 -0.014032 -0.0179081 -0.018722 -0.0199511
          -0.0148555 -0.0169905 -0.0160099 -0.0136116 -0.0122501 -0.0132007
          -0.00708896 -0.00444595 -0.00802552 -0.0135779 -0.027155 -0.0287216
          -0.0262545 -0.0315591 -0.00262737 0.00138132 0.0105992 -0.00968941
          0.195034 0.196522 0.188654 0.180809 -0.0292126 -0.0287216
          -0.0243838 -0.027155 -0.0207408 -0.0179081 -0.0213178 -0.0181695
          0.0162521 0.0120482 0.00818924 0.0212416 0.0299189 0.0308707
          0.0242505 0.0268177 0.201088 0.196592 0.198948 0.20549
          0.116529 0.120214 0.110293 0.111952 0.0193801 0.0299189
          0.0242505 0.0268177 -0.0158084 -0.015708 -0.0141714 -0.0164986
          -0.00658906 -0.00870049 -0.0133778 -0.00547832 -0.00918275 -0.0127052
          -0.00556855 -0.00782457 0.22395 0.214006 0.214157 0.220233
          0.00122208 -0.00795808 -0.00556855 -0.000919334 0.0117325 0.00736987
          0.0116209 0.0172557 0.0864083 0.0760074 0.0887881 0.074105
          0.0127548 0.0162521 0.0182829 0.0182889 -0.0186737 -0.0211097
          -0.0158793 -0.0215735 0.227665 0.212726 0.22903 0.229311
          -0.0292126 -0.0243838 -0.0225709 -0.027155 0.186107 0.193391
          0.201341 0.19366 0.056094 0.0622297 0.0545899 0.066893
          0.0290652 0.0228469 0.0314598 0.00918623 0.178071 0.161158
          0.169726 0.175067 0.189703 0.178653 0.187544 0.177642
          -0.0160099 -0.0194202 -0.0152272 -0.0164986 0.195034 0.196522
          0.197254 0.188654 0.0700203 0.0787469 0.0686452 0.0683191
          0.159912 0.170056 0.170757 0.165267 -0.0226985 -0.0274569
          -0.024821 -0.0233283 0.213993 0.202424 0.205558 0.201668
          -0.0127052 -0.0128792 -0.0140792 -0.00918275 -0.0158091 -0.0211097
          -0.0215735 -0.0158793 0.0367803 0.0352555 0.0298849 0.0478477
          0.14137 0.135678 0.131137 0.147962 0.21001 0.204801
          0.217295 0.220331 -0.0028024 -0.00918772 -0.00867676 -0.00388894
          0.105919 0.120214 0.117486 0.117661 -0.00924211 -0.0144557
          -0.0092143 -0.00790975 0.0734123 0.0542283 0.0589262 0.0644344
          0.18971 0.174973 0.196187 0.172558 0.025274 0.0234298
          0.0337856 0.0253005 -0.0119074 -0.011571 -0.00813331 -0.0120806
          0.180809 0.178104 0.169482 0.179018 -0.00195267 -0.00451249
          -0.00870049 -0.00924211 -0.00191015 0.00314345 -0.00573392 -0.00669586
          0.103903 0.0999492 0.0972271 0.0946554 0.207959 0.210655
          0.21194 0.200513 0.167298 0.179047 0.169817 0.160485
          -0.0135779 -0.0143869 -0.00891908 -0.0144463 0.0148389 0.0219777
          0.0298849 0.0367803 -0.0160708 -0.0092143 -0.0119074 -0.00924211
          0.00315363 -0.00258287 -0.00123409 0.00511759 -0.0139621 -0.0179375
          -0.0121593 -0.0230441 -0.00195267 -0.00658906 -0.00381637 -0.00870049
          0.200946 0.199962 0.19024 0.195296 0.137069 0.124021
          0.134046 0.133859 0.206806 0.207187 0.207959 0.201088
          0.161767 0.139934 0.132588 0.154881 0.0247255 0.0211548
          0.0310747 0.0257106 -0.0109887 -0.0118763 -0.0139785 -0.00972851
          0.172558 0.179795 0.186254 0.174973 0.00346835 0.00720272
          0.00807449 0.00171474 -0.00779991 -0.00451249 -0.00579035 -0.000403006
          0.0354946 0.029652 0.0425605 0.028198 0.201088 0.198948
          0.200645 0.20549 0.0296688 0.0418834 0.0323901 0.0410843
          0.140961 0.158108 0.147898 0.150211 -0.024821 -0.0226985
          -0.0233283 -0.0203499 0.195535 0.193703 0.190872 0.19547
          -0.0229088 -0.0233283 -0.0233217 -0.0196889 0.20145 0.20972
          0.18894 0.203362 0.0237462 0.00736987 0.0172557 0.028966
          0.0542283 0.0373622 0.0452618 0.0425605 0.198766 0.197168
          0.197254 0.188654 -0.0265035 -0.0233217 -0.025715 -0.0275196
          -0.0231358 -0.0208321 -0.0230441 -0.0160708 0.149711 0.159521
          0.143236 0.147898 -0.00242298 0.00551842 0.00272913 0.00281344
          -0.0166292 -0.0105912 -0.0163788 -0.0122499 0.0430863 0.0440846
          0.0399649 0.05429 -0.00392801 0.00117694 0.00396182 0.00445072
          0.206217 0.197156 0.19974 0.204341 0.106138 0.113647
          0.108005 0.122155 0.0676577 0.0542317 0.0650096 0.0571167
          0.0931933 0.0930471 0.0972271 0.101522 0.00399531 0.00734161
          0.00272844 0.018267 -0.030647 -0.02635 -0.0262545 -0.0315591
          0.0462572 0.0487597 0.0573615 0.042301 -0.0266664 -0.0240496
          -0.0278619 -0.0213041 0.130461 0.137069 0.144846 0.140479
          0.130995 0.120438 0.130461 0.137646 -0.00778189 -0.0139621
          -0.0144557 -0.00790975 0.223803 0.220233 0.219487 0.21308
          0.103817 0.101842 0.110602 0.101522 0.0812215 0.0753856
          0.0734123 0.100469 -0.0226985 -0.0274569 -0.0233283 -0.0269348
          0.140955 0.147411 0.147898 0.140961 0.0316273 0.0414585
          0.0425605 0.042301 -0.0175454 -0.0144463 -0.0148555 -0.0174241
          0.120069 0.121898 0.120704 0.110644 -0.0272059 -0.0172296
          -0.0164299 -0.0260218 0.202478 0.207163 0.203573 0.200919
          0.081338 0.0773494 0.0880234 0.0687973 0.159808 0.161787
          0.172558 0.175241 0.099625 0.101842 0.107069 0.110602
          -0.00974771 -0.0153834 -0.0134212 -0.0176287 -0.0264858 -0.0231358
          -0.0230441 -0.0160708 0.196592 0.200623 0.206806 0.201088
          0.0709968 0.0661805 0.0669415 0.0665526 0.0366424 0.0350187
          0.0376533 0.0299189 0.0127548 0.00789246 0.0162521 0.0182889
          0.212726 0.195509 0.207616 0.205792 0.100493 0.0923879
          0.112603 0.101567 0.202478 0.200919 0.200727 0.197254
          0.0118281 0.0274887 0.0157621 0.0082428 0.0198756 0.0193801
          0.0112354 0.0182198 0.0854688 0.0784927 0.0887881 0.0760074
          0.0833424 0.0726495 0.0709968 0.0661805 0.00117694 -0.0028024
          -0.00774175 -0.00728572 0.0753255 0.0650096 0.0700203 0.0606546
          0.0820835 0.074105 0.0766004 0.0870368 -0.00556855 -0.0145913
          -0.00748686 -0.00505826 -0.016709 -0.0208251 -0.0122964 -0.0119119
          0.122751 0.121898 0.120069 0.110644 -0.00567168 -0.00191015
          -0.00573392 -0.0136444 0.119913 0.0979477 0.105433 0.102855
          0.105919 0.0951538 0.113705 0.112603 0.0380659 0.0253005
          0.0286129 0.0208321 0.220331 0.204801 0.217295 0.215997
          -0.00220459 0.00193013 -0.00444595 -0.00647079 0.052365 0.0749483
          0.0631171 0.079455 0.19366 0.193391 0.204974 0.157546
          0.162741 0.153668 0.163779 0.154438 0.14137 0.131137
          0.122751 0.133411 0.142516 0.163992 0.150211 0.142413
          0.101842 0.110644 0.107069 0.110602 0.133859 0.143817
          0.144542 0.146458 0.18971 0.179795 0.186254 0.172558
          0.170757 0.173315 0.179584 0.182344 -0.0135779 -0.00802552
          -0.00708896 -0.00974771 0.158108 0.164995 0.168468 0.158359
          -0.0140792 -0.0114217 -0.0128614 -0.0100386 -0.0236808 -0.0331804
          -0.0240496 -0.0253065 3.67282e-05 0.002157 -0.00547832 -0.00495345
          -0.0096646 0.00399531 -0.000896939 -0.00638178 0.0431356 0.033256
          0.0310747 0.040745 0.0162593 0.0144698 0.0179985 0.0286583
          0.161158 0.169726 0.167289 0.177642 0.0587676 0.0648741
          0.0522078 0.0430863 -0.0282544 -0.0169741 -0.0211183 -0.0164299
          -0.0213178 -0.0262545 -0.0207408 -0.027155 0.0753856 0.0851948
          0.0749483 0.079455 -0.0240078 -0.0207408 -0.0202338 -0.0213178
          0.0661805 0.0562813 0.0521145 0.0709968 -0.00558348 0
          0 -0.00582282 0.186532 0.18814 0.18894 0.161112
          -0.0153834 -0.0135779 -0.0175883 -0.0143869 -0.0135297 -0.0116239
          -0.0160708 -0.0092143 0.1941 0.18814 0.182674 0.164884
          0.140961 0.163352 0.158108 0.142516 0.212726 0.223492
          0.22903 0.213783 0.178653 0.178104 0.180565 0.170056
          0.202478 0.197168 0.198766 0.206388 0.178071 0.175241
          0.172355 0.164404 0.135678 0.123835 0.135619 0.131137
          0.0430863 0.0367803 0.046858 0.0565514 0.152084 0.155148
          0.168797 0.164157 -0.0208346 -0.0228191 -0.0214736 -0.0182737
          -0.0231358 -0.0315692 -0.0230441 -0.0208321 0.195535 0.195207
          0.193703 0.19547 0.222453 0.203362 0.223492 0.217164
          0.196592 0.201088 0.206806 0.20549 -0.0181695 -0.016529
          -0.0166802 -0.015708 -0.0202338 -0.0145913 -0.0141205 -0.0179081
          0.158108 0.158359 0.147898 0.164995 0.179018 0.185216
          0.179047 0.180809 0.0103553 5.4393e-05 0.0112354 0.00682162
          0.0681307 0.0587091 0.0788018 0.0683191 0.0788018 0.0587091
          0.0729893 0.0683191 0.18894 0.20145 0.191512 0.20972
          0.0406597 0.0521145 0.0469546 0.0621636 0.182205 0.178077
          0.191655 0.19332 0.0443525 0.0408597 0.0480379 0.056094
          0.0299189 0.0376533 0.0366424 0.0305277 0.106138 0.122155
          0.117486 0.120214 0.202873 0.190326 0.208726 0.204341
          -0.0134212 -0.00728572 -0.0176287 -0.0154299 0.169506 0.185051
          0.162405 0.175677 0.0573615 0.0574548 0.0665526 0.0662311
          0.00511759 0.0171097 0.00315363 0.00445072 0.206388 0.205477
          0.209655 0.196169 0.201884 0.207467 0.21442 0.210988
          -0.0231358 -0.0096646 -0.0183532 -0.0217282 -0.0186737 -0.0175883
          -0.0153834 -0.0175454 0.118881 0.117661 0.111952 0.108722
          0.21001 0.1941 0.202424 0.208743 0.204341 0.208726
          0.201144 0.203436 0.133764 0.140736 0.120214 0.13303
          0.0116483 0.00736987 0.00659017 0.0269296 0.213993 0.223601
          0.215988 0.226308 -0.0235412 -0.024821 -0.0203499 -0.0210149
          0.206131 0.20549 0.200645 0.211659 0.203362 0.205792
          0.217164 0.207616 -0.00924211 -0.00515665 -0.00451249 -0.00779991
          0.0567763 0.0562813 0.0521145 0.0661805 0.21161 0.211685
          0.208476 0.201144 -0.0183736 -0.0230099 -0.0192985 -0.0207847
          0.0753856 0.066893 0.0812215 0.0622297 0.196169 0.203196
          0.209655 0.202873 0.182941 0.162658 0.173451 0.164907
          0.173451 0.158359 0.159521 0.163832 0.134046 0.124021
          0.126608 0.133859 0.144542 0.138683 0.152472 0.133859
          -0.0221287 -0.0201853 -0.0203499 -0.0210149 0.0542283 0.0631171
          0.052365 0.0431356 -0.0281423 -0.0231358 -0.0189528 -0.0242568
          0.120438 0.111053 0.128374 0.118465 0.00281491 -0.00381637
          0.00297451 0.002157 0.0274887 0.0218384 0.0286063 0.0208321
          0.0776933 0.074105 0.0870368 0.0709968 -0.00924211 -0.00779991
          -0.00451249 -0.00870049 0.0506496 0.0443732 0.0587253 0.0415331
          0.189703 0.187544 0.196142 0.187533 -0.0156766 -0.0173367
          -0.02144 -0.0190485 -0.00779991 -0.00813331 -0.00579035 -0.00870049
          0.182185 0.201335 0.201884 0.191655 0.158108 0.172735
          0.178077 0.168468 0.134811 0.135678 0.139444 0.131935
          0.204081 0.207163 0.206714 0.204702 -0.00392801 -0.00854844
          -0.00774175 0.00445072 0.0116483 0.0159591 0.00918058 0.0288745
          0.154096 0.154438 0.15615 0.163779 0.15615 0.163779
          0.167289 0.164207 0.15615 0.154438 0.167289 0.163779
          -0.0208346 -0.0150344 -0.0190663 -0.0155552 0.133764 0.140736
          0.155148 0.150589 -0.0192985 -0.0226985 -0.0201853 -0.0210012
          0.154096 0.163779 0.15615 0.164207 -0.0175454 -0.0136701
          -0.0182737 -0.0148555 0.0880234 0.0864855 0.100582 0.106138
          0.101278 0.0902591 0.0789107 0.0979477 0.233462 0.228263
          0.217164 0.22786 -0.0112139 -0.0174241 -0.00958656 -0.0131838
          0.169455 0.179109 0.179047 0.169482 -0.0240078 -0.0262545
          -0.02635 -0.027155 0.000148197 0.00142708 -0.00567168 -0.00236831
          0.201335 0.19799 0.212462 0.188117 0.129887 0.111952
          0.117221 0.118881 0 0 0 -0.000829893
          -0.00385141 -0.00790975 -0.00280863 -0.0101753 0.00396182 -0.0013081
          0.00581802 0.0124576 -0.00573392 -0.00789741 -0.00800258 -0.0123842
          0.0398736 0.0506496 0.0462572 0.0598625 0.0298849 0.0237462
          0.0291497 0.0358445 -0.0196322 -0.0248542 -0.0213635 -0.0226985
          0.201668 0.202424 0.186532 0.195509 0.190326 0.177184
          0.185051 0.189513 0.205558 0.210746 0.216517 0.214588
          0.120649 0.131137 0.124889 0.111976 -0.00280863 -0.00451249
          -0.00195267 -0.00357415 -0.0163788 -0.0253065 -0.0240496 -0.0162307
          0.0951538 0.0923879 0.107239 0.112603 0.059831 0.0521145
          0.0560029 0.0562813 0.0431356 0.0587676 0.0522078 0.0465084
          0.178071 0.177642 0.187409 0.181619 -0.0137665 -0.0166292
          -0.0190485 -0.0165645 0.167289 0.172355 0.159912 0.161158
          -0.00567168 -0.0136444 -0.0144495 -0.00792034 0.204341 0.200919
          0.19974 0.202094 0.179018 0.163601 0.179109 0.172557
          0.00346835 0.00807449 0.00551842 0.00171474 0.201884 0.21442
          0.203196 0.217185 -0.0208346 -0.0237773 -0.0190663 -0.0150344
          0.187873 0.181466 0.186773 0.169817 -0.00389357 -0.00261425
          -0.00258287 0.00511759 -0.0194191 -0.0144495 -0.0137133 -0.0136444
          0.0741987 0.0648741 0.0522078 0.0587676 0.205792 0.213783
          0.223492 0.212726 -0.0233181 -0.0208346 -0.0266257 -0.0237773
          0.220331 0.20549 0.204163 0.207458 -0.0243838 -0.0287216
          -0.0262545 -0.027155 0.0270317 0.0390706 0.0308707 0.0350187
          0.0631171 0.0587676 0.0522078 0.0431356 0.158108 0.178077
          0.172735 0.163352 -0.0134212 -0.0138017 -0.0137665 -0.0123842
          -0.00708896 0.00396182 -0.00802552 0.00193013 -0.0264858 -0.0231358
          -0.0375333 -0.0315692 -0.0211097 -0.0175883 -0.0186737 -0.0175454
          0.207959 0.218173 0.210655 0.205583 -0.00573392 -0.0123842
          -0.0104118 -0.0100972 0.0773494 0.0661042 0.0686452 0.074105
          -0.00222087 -0.00274295 -0.00789741 -0.0122964 0.200946 0.205477
          0.19024 0.199962 0.0542283 0.0644344 0.0462572 0.0518334
          0.0310747 0.0373622 0.0350187 0.0306672 0.173451 0.168468
          0.178104 0.159521 0.0430357 0.0628676 0.0469546 0.0521145
          0.185051 0.169506 0.183963 0.175677 0.202478 0.195034
          0.197168 0.206388 0.140955 0.149711 0.143236 0.147898
          0.103817 0.110293 0.0947165 0.0975518 -0.0202338 -0.0141205
          -0.0197349 -0.0169905 -0.0140792 -0.0128614 -0.0117658 -0.0100386
          -0.0156766 -0.0104118 -0.0137133 -0.0173367 -0.0117658 -0.0127052
          -0.00918275 -0.00782457 0.123145 0.113705 0.120611 0.107829
          0.209758 0.207959 0.206806 0.21308 0.207187 0.207959
          0.21308 0.206806 0.107829 0.102855 0.117221 0.116529
          0.122751 0.121898 0.135619 0.130721 0.203436 0.191512
          0.20972 0.201144 0.229311 0.223601 0.226308 0.23208
          -0.0208078 -0.0208527 -0.0222661 -0.0189119 0.0880234 0.0773494
          0.0766004 0.0687973 0.0702291 0.0633308 0.0771923 0.0587253
          0.136588 0.129622 0.144338 0.133985 0.0661805 0.066893
          0.0622297 0.0734123 0.185216 0.179109 0.190179 0.179018
          -0.0189799 -0.0145643 -0.0123724 -0.0230823 0.147411 0.158359
          0.147898 0.158108 0.186408 0.190179 0.179109 0.180565
          0.191231 0.195535 0.190872 0.19547 -0.0208321 -0.0190248
          -0.0258844 -0.0292126 0.0900758 0.0972271 0.087618 0.0890911
          -0.00280863 -0.00924211 -0.00451249 -0.00357415 -0.00778189 -0.00779991
          -0.00924211 -0.0139621 -0.0236808 -0.0166292 -0.0240496 -0.0172296
          0.197168 0.195034 0.188654 0.18922 0.0316273 0.0462572
          0.0398736 0.0443732 -0.0194191 -0.0227267 -0.0173367 -0.0144495
          -0.00990728 -0.0128792 -0.0112139 -0.00748686 0.19799 0.196
          0.171942 0.182185 0.18922 0.178653 0.187544 0.183818
          0.199044 0.19547 0.193837 0.209647 -0.00262737 0.0157621
          0.0105992 0.00138132 0.208821 0.200862 0.199139 0.195535
          -0.0028024 -0.00774175 -0.00945334 -0.00689671 -0.0172937 -0.0133016
          -0.0199922 -0.0145913 0.204801 0.21001 0.20549 0.204163
          0.220331 0.211659 0.20549 0.207458 0.157546 0.193747
          0.164522 0.193391 0.0749483 0.0587676 0.0522078 0.0631171
          -0.0190794 -0.0208078 -0.0222661 -0.0189119 -0.00291793 0.00281491
          0.00272913 -0.00797952 -0.0236808 -0.0331804 -0.0291402 -0.0240496
          -0.00658906 -0.0133778 -0.00381637 -0.00547832 0.228487 0.212462
          0.218189 0.20972 -0.00797952 -0.0133778 -0.0138459 -0.00381637
          0.0820835 0.074105 0.0870368 0.0776933 0.0820835 0.0870368
          0.0902544 0.0776933 0.0776933 0.0709968 0.0902544 0.0833424
          0.14016 0.147411 0.149711 0.140955 -0.0137665 -0.0138017
          -0.0130824 -0.0123842 -0.0213041 -0.0166292 -0.0162307 -0.0122499
          0.0773494 0.0787469 0.0900758 0.0883993 0.215988 0.216517
          0.212756 0.223601 -0.0082111 -0.00387143 -0.00956248 -0.00932992
          0.0060033 0.012652 0.0120482 0.0182889 0.174973 0.161787
          0.172355 0.172558 0.0162593 0.0273064 0.0286583 0.0179985
          0.00762492 0.0120543 0.0211548 0.0128559 -0.00259998 -0.014668
          -0.0092143 -0.00638178 0.167298 0.179047 0.187873 0.169817
          0.196187 0.19024 0.206865 0.199962 0.191655 0.206865
          0.194862 0.196169 0.0628676 0.074105 0.0820835 0.0776933
          0.152084 0.155148 0.152472 0.168797 -0.00924211 -0.00357415
          -0.00280863 -0.00790975 0.206388 0.205477 0.196169 0.197168
          0.00470713 0.00399531 0.00918058 0.0159591 0.0902591 0.0840752
          0.0729893 0.0854688 -0.00870049 -0.00547832 -0.0092143 -0.0116239
          -0.0229473 -0.0265035 -0.0229088 -0.0268886 0.147666 0.156139
          0.166766 0.159808 0.198948 0.202424 0.21001 0.202424
          -0.0128792 -0.0145913 -0.00556855 -0.0127052 0.100067 0.0972271
          0.0947165 0.0946554 -0.0215735 -0.0175883 -0.0153834 -0.0186737
          0.002157 -0.00195267 -0.00381637 -0.00547832 0.0462572 0.0316273
          0.0354946 0.0425605 0.00208091 0 0.00881202 -0.00558348
          0.142413 0.163992 0.158821 0.153489 -0.0141354 -0.0196322
          -0.0168075 -0.0192985 0.122155 0.123835 0.135678 0.120649
          0.172355 0.178071 0.187409 0.183313 0.0282204 0.0198756
          0.0195752 0.0182198 0.0788018 0.0776046 0.0681307 0.0698236
          0.129622 0.127401 0.142522 0.13043 0.00171474 -0.000885015
          -0.00195267 -0.00451249 0.0410123 0.0452618 0.0562813 0.0545899
          -0.0274569 -0.0262545 -0.0269195 -0.0233283 0.203045 0.198766
          0.197168 0.206388 0.188654 0.185216 0.194339 0.190179
          -0.00932992 -0.00244741 -0.00782457 -0.0117274 0.217164 0.207616
          0.22786 0.223803 0.0462572 0.0443732 0.042301 0.0573615
          0.0310747 0.0425605 0.0350187 0.0373622 0.200457 0.205558
          0.197767 0.190563 0.183818 0.178653 0.195296 0.189703
          0.206217 0.204163 0.206714 0.209684 -0.0194202 -0.0243838
          -0.0225709 -0.0292126 -0.0155552 -0.00647079 -0.0109887 -0.00972851
          -0.000652163 -0.00573392 -0.0104118 -0.0100972 0.140961 0.158108
          0.150211 0.142516 -0.0225709 -0.0207408 -0.0213178 -0.0181695
          0.0755584 0.0661805 0.0589262 0.0734123 0.0681307 0.0683191
          0.0788018 0.0698236 0.155215 0.143736 0.138154 0.161112
          -0.00191015 0.000148197 -0.00373127 -0.00792034 0.0833424 0.0755584
          0.0912087 0.0661805 0.0127548 0.0182198 0.0182889 0.0242505
          -0.0170671 -0.0118763 -0.0124128 -0.013983 0.138683 0.13303
          0.146458 0.133764 0.167289 0.163779 0.173315 0.164207
          -0.0208321 -0.0152272 -0.0190248 -0.0194202 0.0366424 0.0268177
          0.0328383 0.038873 -0.027155 -0.02635 -0.0285786 -0.0328352
          0.187409 0.183818 0.189703 0.177642 0.0127548 0.00789246
          0.0128559 0.0162521 -0.0214736 -0.0190485 -0.0213041 -0.0165645
          0.196592 0.201668 0.200623 0.201088 -0.0153834 -0.0143869
          -0.0176287 -0.0123417 0.209758 0.208476 0.206714 0.213288
          0.0461835 0.0390706 0.0506437 0.0366424 -0.00804012 -0.0133016
          -0.0145913 -0.00505826 -0.0163374 -0.0121593 -0.0152272 -0.0130069
          0.206388 0.196169 0.195034 0.197168 0.0972271 0.0999492
          0.0947152 0.0936913 0.110602 0.103817 0.111976 0.113647
          -0.0268886 -0.0269348 -0.0265035 -0.0233217 0.00593033 -0.00495345
          -0.00811258 0.00272844 0.0380659 0.0293345 0.0373622 0.034123
          0.172941 0.186107 0.186532 0.161112 0.214006 0.214157
          0.207187 0.201668 -0.0127052 -0.00556855 -0.00782457 -0.00932992
          0.00736987 0.00918058 0.002157 0.0152541 0.184652 0.196169
          0.178104 0.185483 -0.00259998 0.00470713 0.00918058 0.00736987
          0.0408597 0.0274887 0.0382249 0.0337659 0.122155 0.130487
          0.120214 0.133764 -0.0165645 -0.0122499 -0.00802552 -0.00937549
          0.207616 0.18894 0.195509 0.200623 -0.0207847 -0.0214736
          -0.0170453 -0.0190485 0.0702291 0.0587253 0.0771923 0.0729893
          0.200457 0.19366 0.205558 0.190563 0.195509 0.197499
          0.205792 0.213783 0.190563 0.157546 0.18662 0.195464
          0.0282204 0.0351891 0.0258741 0.0290872 -0.024821 -0.0226985
          -0.0203499 -0.0201853 0.00273212 0.002157 0.0116209 0.0117325
          0.0352555 0.0269296 0.0219777 0.0237462 0.0118281 0.0082428
          -0.00262737 0.00918623 0.0350187 0.0366424 0.0308707 0.0299189
          0.185483 0.178077 0.172735 0.168468 0.187873 0.179047
          0.185216 0.181466 0.0902544 0.0784927 0.0907937 0.0709968
          0.120747 0.1161 0.123835 0.113647 0.164884 0.182674
          0.161112 0.18814 0.056094 0.0480379 0.052365 0.0382249
          0.228069 0.223601 0.229311 0.23208 0.105919 0.107651
          0.126608 0.113705 0.124889 0.143248 0.133411 0.131137
          0.0757089 0.0814389 0.082158 0.0694828 0.0431356 0.0543441
          0.040745 0.0542283 0.0190457 0.0354946 0.0257106 0.0189782
          -0.0216076 -0.0233283 -0.018722 -0.0233217 0.15615 0.167289
          0.161158 0.169726 0.0116483 0.00470713 0.00736987 0.00918058
          0.195034 0.185483 0.179018 0.18922 -0.0203499 -0.0175454
          -0.0148555 -0.0174241 0.195515 0.19942 0.196522 0.194339
          0.120649 0.123835 0.135678 0.131137 0.212462 0.18296
          0.218189 0.20145 0.162762 0.161767 0.143736 0.182033
          0.0931933 0.0900758 0.0975518 0.103817 0.0310747 0.0306672
          0.0350187 0.0270317 0.205583 0.200862 0.211585 0.208821
          0.152453 0.146966 0.162741 0.154438 0.207616 0.214006
          0.200623 0.201668 0.208476 0.21161 0.213288 0.218332
          0.167289 0.178653 0.159912 0.172355 0.0686452 0.0669415
          0.0560029 0.0603311 0.169482 0.165267 0.164995 0.152042
          0.124347 0.1161 0.122751 0.123835 0.0662311 0.0683191
          0.0729893 0.0587091 0.202094 0.204341 0.200919 0.207163
          0.00551842 0.00860304 0.00281491 0.00272913 0.178077 0.162658
          0.173451 0.182941 0.0681307 0.0587091 0.0729893 0.0788018
          0.0518334 0.0589262 0.0644344 0.0665526 0.169482 0.180809
          0.170536 0.164995 0.00518771 0.0103553 0.0179985 0.0144698
          0.172355 0.159912 0.170056 0.178653 -0.0221287 -0.021604
          -0.0201853 -0.0175454 -0.00291793 -0.00381637 -0.00797952 -0.0060995
          -0.0181165 -0.013983 -0.0155552 -0.0139785 0.175067 0.169726
          0.177642 0.181619 -0.00779991 -0.00778189 -0.00924211 -0.00515665
          -0.0208527 -0.0166802 -0.0170671 -0.0208078 -0.0292126 -0.027155
          -0.0225709 -0.0328352 0.143817 0.133938 0.149966 0.146458
          0.196592 0.18814 0.201059 0.182674 -0.00990728 -0.0128792
          -0.00748686 -0.00918275 0.00138132 0.0157621 0.0105992 0.00805325
          0.00138132 0.00805325 0.0105992 -0.00968941 0.0157621 0.00439507
          0.00805325 0.00138132 -0.020364 -0.0116304 -0.0108463 -0.0154396
          -0.020364 -0.0145549 -0.0116304 -0.0154396 -0.0145549 -0.00354785
          -0.0116304 -0.00956248 -0.0028024 -0.00918772 -0.00123409 -0.00689671
          0.126608 0.133859 0.133938 0.134046 0.196452 0.207587
          0.204398 0.196158 0.155215 0.138154 0.157538 0.161112
          0.0709968 0.0755584 0.0907937 0.0833424 -0.0165645 -0.0122499
          -0.0150344 -0.00802552 0.142273 0.130487 0.133764 0.140736
          0.0118026 0.0195752 0.00720272 0.0164242 -0.00567168 -0.00802936
          -0.00885974 -0.00274295 0.212462 0.20145 0.218189 0.20972
          -0.012505 -0.0112998 -0.0108675 -0.00558348 0.200645 0.198948
          0.201088 0.193703 0.146448 0.164404 0.151569 0.152084
          -0.0255886 -0.0208321 -0.0315692 -0.0258844 -0.0229473 -0.0208078
          -0.02037 -0.0213928 0.128374 0.124021 0.133859 0.124889
          0.0951538 0.0982124 0.107239 0.0931933 0.194355 0.193391
          0.201341 0.186107 -0.0124128 -0.00736322 -0.014032 -0.013983
          -0.0194202 -0.0190248 -0.0243838 -0.0181695 -0.0222661 -0.0233181
          -0.0261606 -0.0225574 -0.014668 -0.0135297 -0.0160708 -0.0092143
          0.172558 0.164907 0.179795 0.174973 -0.00800258 -0.00885974
          -0.00567168 -0.00802936 0.182344 0.173315 0.177642 0.167289
          -0.0225574 -0.0237773 -0.0270216 -0.0190663 -0.0140792 -0.016529
          -0.0124128 -0.0128792 0.0127548 0.00281344 0.00789246 0.0120482
          0.00272913 0.0101408 -0.00246694 0.0120482 0.22252 0.211685
          0.224004 0.218332 -0.0265035 -0.0208527 -0.0233217 -0.0233181
          0.120649 0.122155 0.133764 0.135678 -0.0154396 -0.0108463
          -0.0172937 -0.00804012 0.182033 0.154881 0.150667 0.188552
          -0.0233283 -0.018722 -0.0233217 -0.0196889 -0.0138364 -0.0124128
          -0.0113372 -0.0140792 0.105919 0.113705 0.126608 0.124021
          -0.0194191 -0.0266664 -0.02144 -0.0173367 0.0218384 0.00439507
          0.0163121 0.0206331 0.0947165 0.113647 0.100067 0.106138
          0.14967 0.147666 0.166766 0.167956 -0.0207408 -0.0145913
          -0.0202338 -0.0179081 0.002157 0.0172557 0.0112742 0.0116209
          0.0622297 0.052365 0.0589262 0.0542283 -0.0260218 -0.0172296
          -0.0164299 -0.0163913 0.201884 0.21442 0.217185 0.226764
          -0.0179375 -0.0121593 -0.0152272 -0.0163374 0.0452618 0.0574548
          0.0545899 0.0589262 0.142516 0.155697 0.163992 0.142413
          0.0787469 0.0683191 0.0760074 0.0686452 -0.0138017 -0.0170453
          -0.0158793 -0.0165645 -0.0126841 -0.00592964 -0.0104118 -0.0140942
          -0.0182737 -0.0135779 -0.0136701 -0.0175454 0.123145 0.120611
          0.116529 0.107829 0.120649 0.113647 0.110293 0.106138
          0.195535 0.200862 0.200457 0.205583 0.215988 0.212756
          0.218651 0.223601 0.203362 0.1901 0.205792 0.207616
          0.0702291 0.0522908 0.0587253 0.0571414 0.0459501 0.0542317
          0.0556241 0.0469226 -0.0262545 -0.0287216 -0.0268886 -0.0269348
          0.0562813 0.0709968 0.059831 0.0521145 0.188654 0.185483
          0.180809 0.179018 0.0373622 0.052365 0.0431356 0.0542283
          0.158821 0.174978 0.177184 0.185051 -0.0028024 0.00315363
          -0.00689671 -0.00123409 0.0285388 0.033256 0.0234298 0.0337856
          0.0938046 0.108577 0.0907937 0.0973892 -0.00573392 0.000148197
          -0.00567168 -0.00236831 0.196 0.207467 0.201884 0.210988
          -0.00222087 0.000148197 -0.00274295 0 0.113705 0.107829
          0.0951538 0.107651 -0.00790975 -0.00357415 -0.00280863 -0.0101753
          0.103903 0.099625 0.107069 0.110602 0.160485 0.169482
          0.158127 0.152042 0.212726 0.202424 0.215988 0.213993
          0.00860304 0.00273212 0.00281491 0.0116209 0.0789107 0.0702291
          0.0843376 0.0743217 0.213783 0.202424 0.215988 0.212726
          -0.02635 -0.0207408 -0.0172937 -0.0199922 0.213783 0.215988
          0.22903 0.212726 0.00762492 0.0211548 0.0247255 0.0257106
          -0.00568058 0 0 0 0.0117325 0.0172557
          0.0116209 0.0243239 0.207959 0.200513 0.21194 0.202837
          0.0567763 0.066893 0.0443525 0.0545899 0.105919 0.0923879
          0.112603 0.100493 -0.024821 -0.0201853 -0.0203499 -0.0221287
          -0.0132007 -0.0136238 -0.0117274 -0.0142357 0.00281491 -0.00416399
          0.00272913 -0.00797952 0.00117694 0.00396182 -0.00728572 -0.00392801
          0.144542 0.152472 0.152818 0.143248 0.158701 0.170056
          0.159912 0.159521 -0.00774175 0.00511759 0.00315363 0.00445072
          0.119736 0.131935 0.133583 0.133014 0.147666 0.151569
          0.14967 0.141297 0.0282204 0.017913 0.0195752 0.0198756
          0.105919 0.0923879 0.0951538 0.112603 0.130487 0.122155
          0.133014 0.131935 0.162658 0.168468 0.158108 0.178077
          0.208476 0.207163 0.213288 0.21161 0.207163 0.212344
          0.213288 0.21161 0.0661805 0.066893 0.0545899 0.0622297
          0.0506437 0.0434323 0.052463 0.0542317 0.108912 0.101567
          0.111976 0.110644 0.144542 0.133859 0.143248 0.140479
          -0.0208346 -0.0182737 -0.0155552 -0.0181165 0.0242505 0.0293345
          0.0306672 0.0299189 0.00720272 0.0195752 0.00872119 0.0164242
          0.0506437 0.052463 0.0676577 0.0542317 0.0469546 0.0628676
          0.0638031 0.0666313 0.157546 0.170417 0.186107 0.193391
          0.202424 0.201668 0.213993 0.212726 0.002157 0.00593033
          3.67282e-05 0.00297451 -0.0121593 -0.0160708 -0.00924211 -0.0139621
          0.0188687 0.0305277 0.0286063 0.0163121 0.112423 0.110602
          0.121898 0.122751 0.185483 0.191655 0.203196 0.202873
          0.0681307 0.0587091 0.0683191 0.0698236 0.201668 0.186532
          0.202424 0.191383 0.20549 0.206806 0.200623 0.204163
          0.204801 0.20549 0.196592 0.204163 0.0633308 0.0708505
          0.0771923 0.0587253 0.0376533 0.0286063 0.0373622 0.0274887
          -0.00242298 0.00272913 -0.00246694 0.00281344 0.202424 0.197499
          0.212726 0.213783 -0.0199511 -0.0213178 -0.0179081 -0.0196889
          0.143817 0.142636 0.149966 0.133938 -0.0230441 -0.0255886
          -0.0208321 -0.0315692 -0.0156766 -0.0104118 -0.0173367 -0.013834
          0.152407 0.139724 0.142522 0.159912 -0.000403006 -0.00778189
          -0.00779991 -0.00515665 -0.0189528 -0.014668 -0.00259998 -0.00638178
          0.204163 0.209684 0.220331 0.207458 -0.0132007 -0.0112891
          -0.0119074 -0.0116239 -0.0208527 -0.018722 -0.0181165 -0.0170671
          0.162067 0.161767 0.174978 0.168015 -0.0096646 -0.000896939
          -0.00387143 -0.0116239 0.0314598 0.0311635 0.0274887 0.0188687
          0.0425605 0.0414585 0.0434323 0.0487597 0.188117 0.168015
          0.162067 0.174978 -0.00945334 -0.0123842 -0.0119119 -0.0134212
          -0.0158793 -0.0215735 -0.0218471 -0.0153834 0.15615 0.148226
          0.140479 0.152818 0.190326 0.185483 0.195034 0.202873
          0.0182889 0.0193801 0.0144698 0.0253005 0.206388 0.196169
          0.209655 0.195034 -0.0117658 -0.0127052 -0.0140792 -0.00918275
          0.0870368 0.100045 0.0965456 0.0982457 0.0190457 0.0310747
          0.0257106 0.0354946 0.172558 0.174973 0.196187 0.183313
          -0.031823 -0.0272059 -0.0282544 -0.0260218 0.128374 0.130721
          0.125046 0.118465 -0.0139074 -0.0130069 -0.011571 -0.0158084
          0.146448 0.149548 0.161787 0.152407 0.0112354 0.01164
          0.0182198 0.0182889 0.0116483 0.0252058 0.00736987 0.031032
          0.144338 0.129622 0.13043 0.133985 0.152634 0.163832
          0.148473 0.144338 -0.0282544 -0.0214942 -0.0169741 -0.0272059
          0.142273 0.135678 0.147962 0.133764 0.012652 0.00807449
          0.0060033 0.00551842 0.00281344 0.00551842 0.00272913 0.0120482
          0.00272913 0.00551842 -0.00416399 0.00281491 0.01164 0.0122846
          0.0060033 0.00807449 0.149548 0.142522 0.146448 0.135619
          0.149548 0.142522 0.152407 0.146448 -0.0135297 -0.0096646
          -0.0092143 -0.014668 0.208476 0.201144 0.201059 0.204163
          0.200645 0.199044 0.198948 0.193703 0.138683 0.146458
          0.152472 0.155148 0.234054 0.218189 0.222453 0.20972
          0.0418834 0.0410123 0.0311635 0.0323901 -0.00451249 -0.00924211
          -0.00195267 -0.00357415 -0.023841 -0.0323034 -0.0281423 -0.0189528
          0.0162593 0.0148389 0.0273064 0.0179985 0 -0.00568058
          0 0 0.0567763 0.0709968 0.0557325 0.0726495
          0.18922 0.183818 0.195296 0.19024 -0.0158793 -0.0158091
          -0.0186737 -0.0170453 -0.0168716 -0.0218471 -0.0223742 -0.0176287
          0.00588326 0.00872119 0.00720272 -0.00280863 0.00281491 0.00171474
          -0.00195267 0.00273212 0.0269252 0.0274887 0.0118281 0.00918623
          0.0398736 0.0443732 0.0506496 0.0415331 0.201144 0.182033
          0.203436 0.191512 -0.000403006 -0.00515665 0.00640367 -0.00778189
          0.0743217 0.0840752 0.0876068 0.0788018 -0.00792034 -0.00373127
          -0.0144254 0 0.135678 0.135619 0.139444 0.14137
          -0.0176287 -0.0230097 -0.0207238 -0.0153834 0.196158 0.204801
          0.207587 0.208743 0.158359 0.159521 0.147898 0.164995
          0.19799 0.18296 0.218189 0.212462 0.195125 0.18922
          0.190179 0.186408 0.196452 0.196158 0.204398 0.183963
          0.117221 0.119913 0.105433 0.102855 -0.0225709 -0.02635
          -0.0231921 -0.027155 0.163352 0.171942 0.178077 0.182185
          0.00272913 0.0112742 -0.00291793 0.0101408 0.12399 0.11548
          0.123871 0.121898 0.0382249 0.0293345 0.0274887 0.0373622
          0.188552 0.185051 0.183963 0.196452 0.102855 0.101278
          0.0902591 0.0876068 0.0702291 0.0522908 0.0633308 0.0587253
          0.0417257 0.0376533 0.0459501 0.0469226 0.0631171 0.0522078
          0.052365 0.0431356 -0.0210012 -0.0186737 -0.0192985 -0.0170453
          -0.0208078 -0.0263881 -0.0222661 -0.0208527 -0.0145549 -0.0096646
          -0.0231358 -0.0217282 -0.0124128 -0.00990728 -0.0100386 -0.0128792
          0.212012 0.218332 0.208476 0.215461 0.207156 0.213288
          0.206714 0.204081 -0.0138364 -0.0189119 -0.0170671 -0.0163645
          -0.00620229 -0.00557288 0.00531314 0.00494235 -0.0186737 -0.0211097
          -0.0201853 -0.0192985 0 0 0 0.011498
          -0.0255065 -0.0287216 -0.0213928 -0.0243838 0.18894 0.18814
          0.182033 0.161112 -0.0192985 -0.0186737 -0.0168075 -0.0170453
          0.186254 0.184652 0.194862 0.19024 0.120214 0.120649
          0.106138 0.122155 0.173451 0.163832 0.170056 0.174973
          0.200645 0.195207 0.193703 0.201088 0.175241 0.161787
          0.172558 0.183313 0.00396182 -0.00974771 -0.0013081 -0.00937549
          -0.0181695 -0.016529 -0.0190904 -0.0166802 0.130461 0.144846
          0.137646 0.140479 0.14137 0.146448 0.147962 0.152084
          -0.0174241 -0.0144463 -0.0148555 -0.0131838 0.113705 0.123145
          0.126608 0.133859 0.22395 0.213993 0.227665 0.229311
          -0.0156766 -0.00939058 -0.013834 -0.0207847 0.161787 0.158701
          0.174973 0.172355 0.128374 0.133859 0.140479 0.124889
          0.0148389 0.0219777 0.0162593 0.0298849 -0.016709 -0.0122964
          -0.00789741 -0.00800258 -0.00191015 0.00314345 0.000148197 -0.00573392
          0.172476 0.170417 0.186107 0.157546 -0.027155 -0.0243838
          -0.0213178 -0.0262545 0.0930471 0.101567 0.101522 0.0923879
          -0.0230441 -0.0179375 -0.0208321 -0.0255886 -0.0154396 -0.0145913
          -0.0122501 -0.00795808 0.170056 0.178653 0.167289 0.170757
          -0.0140942 -0.0138017 -0.0158793 -0.0123842 -0.0173367 -0.0172296
          -0.0166292 -0.0130824 0.00881202 0 0.00208091 0.0263362
          -0.0138017 -0.0158793 -0.0137665 -0.0165645 0.074105 0.0760074
          0.0887881 0.0784927 0.0755584 0.0780915 0.0854695 0.0644344
          0.206388 0.205477 0.197168 0.200946 0.149711 0.158359
          0.159521 0.147898 -0.00937549 0.00396182 -0.00974771 0.00117694
          0.121898 0.110602 0.111919 0.122751 -0.00779991 -0.00515665
          -0.00451249 -0.000403006 -0.0172937 -0.0133016 -0.0145913 -0.00804012
          0.101522 0.101842 0.110602 0.111976 -0.0158084 -0.0163645
          -0.0164986 -0.0190904 0.056094 0.0480379 0.0382249 0.0408597
          0.206217 0.197156 0.204341 0.201144 0.169506 0.177184
          0.162405 0.185051 -0.0282544 -0.0272059 -0.0164299 -0.0260218
          0.0286583 0.046858 0.0349354 0.0337856 0.21001 0.20549
          0.211659 0.198948 0.0820835 0.0870368 0.0850216 0.0982457
          -0.0129236 -0.023841 -0.0162538 -0.0107202 0.18971 0.172558
          0.186254 0.174973 0.182185 0.201884 0.182205 0.191655
          0.0650096 0.0542317 0.0603311 0.0571167 0.0112354 0.000889392
          0.00282591 0.0118026 -0.0235412 -0.0233283 -0.0202338 -0.0199511
          0.0443732 0.0525971 0.0587253 0.0587091 0.0902591 0.0854688
          0.105433 0.0887881 0.217295 0.21001 0.208743 0.215997
          -0.00388894 0.0116161 -0.0028024 -0.00199443 0.0771923 0.0708505
          0.0854688 0.0729893 0.156139 0.148473 0.165971 0.158701
          0.0890911 0.0900758 0.0887872 0.0805584 0.135619 0.149548
          0.134608 0.141912 -0.0191522 -0.0323034 -0.0189528 -0.0242568
          -0.0108675 -0.0112998 -0.0169741 -0.00558348 -0.0278619 -0.0266664
          -0.0324585 -0.0240496 0.033256 0.0162521 0.025274 0.0211548
          0.186254 0.19024 0.194862 0.206163 0.189703 0.177642
          0.187533 0.181619 0.147411 0.162658 0.158108 0.140961
          0.0118281 0.0280093 0.0105992 0.0157621 -0.024821 -0.0221287
          -0.0203499 -0.0210149 0.197213 0.189513 0.196452 0.186773
          -0.0225709 -0.0243838 -0.0213178 -0.027155 0.164404 0.167956
          0.151569 0.164157 0.00117694 0.00396182 -0.00974771 -0.00728572
          -0.0164299 -0.0169741 -0.0211183 -0.012505 0.159808 0.149548
          0.161787 0.146448 0.00762492 0.0120543 0.0247255 0.0211548
          -0.0223742 -0.0218471 -0.0230579 -0.0176287 0.0408597 0.0269252
          0.0274887 0.0337659 0.0117325 0.0116209 0.0179277 0.0237462
          0.0999492 0.0947152 0.0986318 0.099625 -0.0132007 -0.0164986
          -0.0139074 -0.015708 -0.00870049 -0.00813331 -0.00579035 -0.0120806
          -0.0281423 -0.0375333 -0.0242568 -0.0323034 0.0328383 0.0299189
          0.0366424 0.0305277 -0.0189528 -0.0231358 -0.0183532 -0.0242568
          -0.0233181 -0.0275196 -0.0270216 -0.0237773 0.119736 0.120747
          0.131935 0.122155 -0.0166292 -0.0240496 -0.0213041 -0.0162307
          0.0571414 0.0587091 0.0729893 0.0681307 0.22395 0.214157
          0.218173 0.220233 -0.0136238 -0.0148438 -0.0132007 -0.0141714
          -0.0132007 -0.0148438 -0.0136238 -0.0142357 0.0741987 0.0571591
          0.0753856 0.052365 0.00445072 0.00315363 -0.00774175 0.00117694
          0.172476 0.157546 0.186107 0.157546 0.204163 0.20549
          0.206806 0.207458 0.191231 0.19547 0.195631 0.193837
          -0.0233217 -0.0233181 -0.025715 -0.0275196 -0.0194922 -0.0196146
          -0.00620229 -0.00557288 0.202478 0.204341 0.207163 0.200919
          0.0350187 0.0373622 0.0376533 0.0299189 0.228487 0.212462
          0.20972 0.211685 -0.0194922 -0.00620229 -0.00844997 -0.00790509
          -0.0096646 -0.00387143 -0.00956248 -0.0116239 -0.0231358 -0.0135297
          -0.0160708 -0.014668 0.137669 0.119913 0.126046 0.117221
          0.208476 0.206217 0.201144 0.204163 0.18662 0.190563
          0.192714 0.190872 0.228069 0.213993 0.229311 0.223601
          0.122155 0.113647 0.123835 0.120649 -0.0229088 -0.0196889
          -0.0233217 -0.0208527 -0.0110052 -0.0121593 -0.00778189 -0.0139621
          0.189703 0.187544 0.187533 0.177642 0.0734123 0.052365
          0.0622297 0.0542283 -0.00918772 -0.00582282 -0.00558348 -0.012505
          0.209758 0.213279 0.206131 0.207959 0.0430357 0.05214
          0.0532901 0.059831 0.0469546 0.0628676 0.0666313 0.0621636
          0.002157 -0.00381637 0.00297451 3.67282e-05 0.00396182 0.00117694
          0.0124576 0.015298 0.163992 0.177184 0.158821 0.174978
          0.0542317 0.0571167 0.0556241 0.0469226 0.143817 0.149966
          0.160619 0.146458 0.147411 0.152634 0.158359 0.162658
          -0.0170671 -0.013983 -0.0124128 -0.016529 0.161787 0.158701
          0.172355 0.159912 -0.0139074 -0.0152272 -0.0164986 -0.0136116
          0.0665526 0.0573615 0.0708505 0.0644344 0.223803 0.214006
          0.227665 0.220233 0.137646 0.142446 0.13798 0.145829
          -0.0181695 -0.016529 -0.0145913 -0.0179081 -0.00567168 -0.00568058
          -0.00792034 -0.00802936 0.103903 0.113647 0.110602 0.1161
          -0.0122499 -0.0105912 -0.0163788 -0.00538913 0.21001 0.202424
          0.217383 0.208743 0.209082 0.209082 0.204512 0.209647
          -0.0225709 -0.0154396 -0.0231921 -0.0207408 0.120649 0.122751
          0.123835 0.131137 -0.0133016 -0.00840171 -0.0141205 -0.00505826
          0.164995 0.165267 0.170056 0.159521 0.052365 0.0373622
          0.0380659 0.0382249 0.187544 0.180565 0.179584 0.182344
          -0.0194191 -0.0173367 -0.0291402 -0.0266664 0.0431356 0.0522078
          0.052365 0.0380659 0.122751 0.120069 0.121898 0.130721
          0.00736987 0.031032 0.0237462 0.0269296 0.204341 0.21161
          0.208476 0.201144 -0.00291793 0.00281491 -0.00381637 0.00297451
          0.0661805 0.0545899 0.0589262 0.0622297 -0.00573392 -0.00800258
          -0.00567168 -0.0123842 0.140955 0.147411 0.149711 0.158359
          0.124889 0.111976 0.122751 0.120069 0.0130179 0.0103553
          0.0112354 0.0198756 0.0188687 0.0157621 0.0274887 0.0082428
          0.0188687 0.0163121 0.0274887 0.0157621 0.0461835 0.0308707
          0.0366424 0.038873 -0.0375333 -0.0358302 -0.0315692 -0.0303915
          0.00682162 -0.00297278 0.00273212 0.0117325 0.0430357 0.0521145
          0.0532901 0.0628676 -0.024821 -0.0226985 -0.0201853 -0.0221287
          0.143236 0.136079 0.14885 0.136588 -0.00802552 -0.00444595
          -0.00647079 -0.0135779 0.217185 0.202873 0.208726 0.214152
          0.0462572 0.0354946 0.0377303 0.0569851 0.124889 0.133859
          0.143248 0.131137 0.0162521 0.0212416 0.00818924 0.0285388
          -0.0191522 -0.0242568 -0.0189528 -0.00834823 0.205092 0.19974
          0.19942 0.202094 0.0923879 0.105919 0.0951538 0.0900582
          0.0743217 0.0876068 0.0840752 0.0902591 -0.00515665 -0.0186334
          -0.00790975 -0.0174845 0.0755584 0.0661805 0.0734123 0.0812215
          0.0817309 0.0745346 0.0753255 0.0700203 0.0755584 0.0644344
          0.0708505 0.0780915 0.200457 0.205558 0.205183 0.197767
          0.205558 0.210746 0.205183 0.197767 0.0870368 0.074105
          0.0766004 0.0880234 0.00659017 -0.0025162 0.0114024 0.00531314
          0.0252058 0.028966 0.00736987 0.031032 0.0462572 0.0518334
          0.0573615 0.0487597 0.13303 0.142636 0.149966 0.140736
          -0.0122501 -0.00932992 -0.0127052 -0.0132007 0.154438 0.139724
          0.14885 0.14066 0.126608 0.120611 0.133938 0.123145
          0.203196 0.21442 0.209655 0.217185 -0.0233283 -0.0262545
          -0.0268886 -0.0269348 0.191655 0.194862 0.184652 0.196169
          -0.0150344 -0.0193911 -0.013258 -0.00575203 0.207458 0.20549
          0.206131 0.211659 -0.0213178 -0.0229088 -0.0196889 -0.0233283
          0.0613448 0.0702291 0.0743217 0.0571414 -0.0233217 -0.0181165
          -0.0208346 -0.0233181 0.0285388 0.0337856 0.0234298 0.039635
          0.161787 0.159912 0.172355 0.152407 0.12399 0.135619
          0.141912 0.134811 0.124347 0.135619 0.12399 0.134811
          0.101842 0.110644 0.110602 0.111976 0.0376533 0.0317288
          0.0469226 0.0417257 -0.0207847 -0.024593 -0.0214736 -0.02144
          0.0982457 0.110913 0.0870368 0.100045 -0.0201853 -0.0211097
          -0.0213635 -0.0192985 0.134046 0.143817 0.144542 0.133859
          -0.0145549 -0.00956248 -0.0154396 -0.0136116 0.103903 0.0999492
          0.0986318 0.099625 0.209758 0.212012 0.21308 0.206806
          0 0.00881202 0 0.011498 0.00239008 -0.00968941
          0.00805325 -0.00518367 0.217185 0.208726 0.22363 0.214152
          0.19366 0.157546 0.193391 0.157546 -0.00728572 -0.0154299
          -0.00854844 -0.00392801 0.00297451 -0.00381637 -0.0060995 3.67282e-05
          0.0337856 0.0430863 0.039635 0.0465084 0.118465 0.130721
          0.129004 0.120704 0.197156 0.191337 0.204341 0.201144
          -0.0255886 -0.0194202 -0.0208321 -0.0190248 0.00122208 0.0048848
          -0.00413948 -0.00795808 0.029652 0.0425605 0.0350187 0.0354946
          0.103817 0.0931933 0.101522 0.107239 -0.014032 -0.013983
          -0.00958656 -0.0148555 0.179795 0.164907 0.182941 0.186254
          0.140251 0.119913 0.137669 0.117221 0.133859 0.123145
          0.133938 0.138683 -0.0140942 -0.0104118 -0.0123842 -0.0100972
          -0.00547832 -0.0112891 -0.0107099 -0.00495345 0.00736987 -0.000896939
          0.002157 0.00918058 0.0864855 0.0947165 0.106138 0.0880234
          -0.0227267 -0.0214942 -0.0144495 -0.0136444 -0.0096646 -0.012453
          -0.009542 -0.0217282 0.136079 0.127401 0.139724 0.129622
          0.182344 0.186408 0.187544 0.187533 -0.0168716 -0.0158091
          -0.0218471 -0.0158793 0.196592 0.206806 0.200623 0.20549
          0.18894 0.185943 0.203362 0.1901 0.204398 0.196158
          0.207587 0.208743 0.0398736 0.0443732 0.0462572 0.0506496
          -0.00728572 -0.0137665 -0.00937549 -0.00945334 0.142273 0.147962
          0.150589 0.133764 0.147962 0.131137 0.138683 0.133764
          -0.0248542 -0.0274569 -0.0226985 -0.0269348 0.152818 0.152084
          0.168797 0.161158 -0.0148749 -0.0120806 -0.0130019 -0.0112891
          -0.0107099 -0.0112891 -0.00547832 -0.00870049 -0.030647 -0.0262545
          -0.0269195 -0.0274569 -0.030647 -0.02635 -0.0269195 -0.0262545
          0 -0.0169741 0 0 0.0206331 0.0268177
          0.0218384 0.0193801 0.203362 0.1901 0.207616 0.18894
          -0.0282544 -0.0196342 -0.0211183 -0.0169741 -0.0216076 -0.0226985
          -0.0210012 -0.0201853 -0.00647079 -0.00444595 -0.0136701 -0.0135779
          0.186408 0.187544 0.18922 0.180565 -0.0189528 -0.0101753
          -0.0129236 -0.00259998 0.18894 0.161112 0.162762 0.162513
          -0.0164986 -0.0171241 -0.0163374 -0.0158084 0.201335 0.201884
          0.217185 0.226764 0.164404 0.164157 0.178071 0.175241
          -0.00802552 -0.0013081 -0.0122499 -0.00575203 0.18971 0.179795
          0.19816 0.186254 0.0317288 0.0305277 0.0376533 0.0286063
          0.182185 0.196 0.182205 0.201884 0.131137 0.122751
          0.124889 0.111976 0.213993 0.214588 0.228069 0.214157
          0.12399 0.123871 0.134608 0.13043 0.0380659 0.0208321
          0.0286129 0.0280093 0.205092 0.197213 0.196452 0.207864
          -0.0202338 -0.0179081 -0.0169905 -0.0199511 0.174978 0.188552
          0.191337 0.185051 0.0870368 0.0907937 0.105433 0.106463
          0.131137 0.122751 0.135619 0.14137 0.200946 0.197168
          0.199269 0.18922 0.197168 0.196169 0.18922 0.200946
          5.4393e-05 0.00346835 0.0112354 0.00682162 0.202424 0.194355
          0.201341 0.19366 -0.00444595 -0.0136701 -0.00891908 -0.00647079
          -0.00728572 0.00396182 -0.00974771 -0.00392801 0.179696 0.169506
          0.183963 0.185051 0.138683 0.155148 0.152084 0.133764
          0.124519 0.126046 0.106463 0.105433 0.223601 0.218651
          0.215988 0.226308 0.201341 0.193391 0.204974 0.19366
          0.162762 0.191512 0.162067 0.182033 0.186532 0.18814
          0.201059 0.18894 0.229311 0.212726 0.22903 0.226308
          -0.00220459 0.00193013 -0.00647079 0.00348826 0.197213 0.186773
          0.196452 0.20017 0.196452 0.186773 0.183963 0.20017
          0.00588326 0.0164242 0.00872119 0.00640367 0.193703 0.19547
          0.190563 0.190872 -0.016709 -0.0134212 -0.0119119 -0.0123842
          -0.0148749 -0.0182575 -0.0149688 -0.0136238 0.0760074 0.0729893
          0.0662311 0.0683191 -0.0138017 -0.0137133 -0.0130824 -0.0123842
          0.029652 0.0414585 0.0434323 0.0425605 0.188117 0.174978
          0.162067 0.161767 -0.0133016 -0.00840171 -0.00505826 -0.000919334
          0.202478 0.214152 0.21161 0.204341 0.14137 0.131137
          0.143248 0.152084 0.0293345 0.0193801 0.0253005 0.0208321
          0.056094 0.0480379 0.0545899 0.0622297 0.0543441 0.0542283
          0.0569851 0.0425605 0.042301 0.0414585 0.0487597 0.0524165
          0.0887881 0.0854688 0.105433 0.0907937 -0.0196146 -0.023841
          -0.0162538 -0.0129236 0.159808 0.175241 0.172558 0.177494
          -0.00647079 -0.0136701 -0.00891908 -0.00972851 -0.0189119 -0.0208527
          -0.0222661 -0.0181023 0.129887 0.117661 0.111952 0.118881
          -0.0183736 -0.0230668 -0.0192985 -0.0230099 0.00751687 0.0116161
          0.0220357 0.015298 -0.016709 -0.00800258 -0.00789741 -0.0123842
          0.196169 0.206865 0.209655 0.203196 0.201088 0.195207
          0.193703 0.195535 0.0542283 0.0452618 0.0518334 0.0425605
          0.0461835 0.0308707 0.0390706 0.0366424 0.0947165 0.0900758
          0.0880234 0.0773494 0.0048848 -0.00804012 -0.00413948 -0.00795808
          -0.0128792 -0.0181695 -0.016529 -0.0145913 0.110293 0.106138
          0.100582 0.111952 -0.0137665 -0.00945334 -0.0130824 -0.00937549
          0.0854695 0.0569851 0.0644344 0.0780915 0.143817 0.146458
          0.160619 0.152472 0.0182889 0.0182198 0.0193801 0.0242505
          0.213993 0.215988 0.212726 0.226308 0.0103553 0.0112354
          0.0193801 0.012652 -0.0139074 -0.0136116 -0.0164986 -0.0160099
          -0.0112998 -0.0169741 0 0 -0.00728572 -0.0123417
          -0.0176287 -0.0154299 0.22786 0.223492 0.22903 0.227665
          0.143817 0.140251 0.149966 0.142636 0.202873 0.204341
          0.208726 0.214152 -0.0282544 -0.0196342 -0.0169741 -0.0134986
          0.200645 0.199044 0.212902 0.198948 -0.00222087 0.00142708
          -0.00274295 0.000148197 -0.00195267 -0.00870049 -0.00547832 -0.0092143
          0.0443525 0.0314598 0.0410123 0.0480379 -0.000403006 -0.00515665
          -0.00280863 0.00640367 -0.00354785 0.00291065 -0.00413948 0.00122208
          0.120747 0.113647 0.123835 0.122155 0.0506437 0.0542317
          0.0556241 0.0459501 -0.00802552 -0.0013081 -0.00575203 0.00581802
          -0.0255065 -0.02037 -0.0179375 -0.0194202 0.181466 0.180809
          0.169482 0.179047 0.0812215 0.0973892 0.0734123 0.0912087
          0.207156 0.215461 0.209758 0.213288 0.188654 0.180809
          0.189513 0.181466 0.195509 0.205792 0.1901 0.207616
          0.195509 0.197499 0.1901 0.205792 -0.0186737 -0.0211097
          -0.0192985 -0.0168075 0.195034 0.185483 0.180809 0.188654
          0.198766 0.188654 0.197254 0.190179 0.188654 0.196522
          0.197254 0.194339 0.0293345 0.0373622 0.0306672 0.0299189
          0.193391 0.164522 0.210966 0.193747 0.19974 0.189513
          0.195515 0.196522 0.0864855 0.100067 0.106138 0.0947165
          0.152407 0.142522 0.14137 0.146448 0.172558 0.161787
          0.172355 0.183313 0.172558 0.158701 0.174973 0.161787
          -0.016529 -0.0140792 -0.0166802 -0.015708 -0.00567168 -0.00792034
          -0.0144495 -0.00802936 -0.00567168 -0.0137133 -0.00802936 -0.0144495
          -0.00802552 -0.00647079 -0.0136701 -0.0135779 -0.0117658 -0.0142357
          -0.0140792 -0.0127052 -0.0170671 -0.0166802 -0.0163645 -0.0189119
          0.179696 0.183963 0.196158 0.188552 -0.0229088 -0.0262545
          -0.0268886 -0.0233283 0.117221 0.102855 0.100045 0.111952
          0.214157 0.211585 0.205583 0.200457 0.106124 0.0864855
          0.106138 0.0929514 -0.00885974 -0.0119119 -0.0123724 -0.00774175
          0.120649 0.122751 0.131137 0.111976 0.185483 0.190326
          0.182185 0.191655 0.0105992 -0.00968941 0.00805325 0.00239008
          -0.0225709 -0.0154396 -0.0181695 -0.0160099 0.0408597 0.0314598
          0.0480379 0.0274887 0.169482 0.178104 0.164995 0.165267
          -0.0160099 -0.0190904 -0.0194202 -0.0164986 -0.00259998 0.0116483
          0.00736987 0.00659017 0.0418834 0.0410123 0.0323901 0.0461789
          0.172735 0.185483 0.182185 0.191655 0.19547 0.193703
          0.199044 0.193837 -0.0248542 -0.0269195 -0.024821 -0.0274569
          -0.0231358 -0.0315692 -0.0190831 -0.0258844 0.106124 0.0929514
          0.106138 0.105454 0.208722 0.207959 0.21194 0.202837
          0.0399649 0.0205329 0.0301693 0.0286129 0.217295 0.21001
          0.211659 0.212902 -0.024593 -0.02144 -0.0278619 -0.0214736
          0.122751 0.130721 0.135619 0.14137 0.19974 0.195515
          0.19942 0.196522 0.175677 0.181466 0.177184 0.170536
          0.202424 0.190563 0.209082 0.195464 0.00682162 0.012652
          0.0112354 0.0144698 0.0350187 0.0390706 0.0308707 0.0366424
          0.208476 0.212012 0.204163 0.201059 0.135619 0.13043
          0.134608 0.142522 -0.0104118 -0.00573392 -0.00669586 -0.0137133
          0.115204 0.105919 0.124021 0.112603 0.0234298 0.0144698
          0.0179277 0.0286583 0.143736 0.139934 0.132588 0.161767
          0.0274887 0.0286063 0.0218384 0.0157621 0.178653 0.167289
          0.177642 0.172355 0.101567 0.111976 0.101842 0.101522
          -0.00778189 -0.0144557 -0.00924211 -0.00790975 0.130721 0.139724
          0.142522 0.145332 0.0179985 0.0125997 0.0273064 0.0205329
          0.195515 0.189513 0.205092 0.197213 0.137646 0.120438
          0.130461 0.128374 0.00551842 0.00453341 -0.00416399 0.00171474
          0.0190457 0.029652 0.0310747 0.0354946 0.144338 0.133985
          0.148473 0.14016 0.00588326 0.00640367 0.00872119 -0.00280863
          0.00588326 0.00640367 -0.00280863 -0.00515665 0.00239008 -0.00518367
          0.00805325 -0.00790509 -0.00297843 -0.00758936 -0.00813331 -0.00779991
          0.00346835 -0.00280863 0.00171474 0.00273212 -0.0153834 -0.0143869
          -0.0123417 -0.00974771 0.177642 0.182344 0.187533 0.173101
          -0.0210012 -0.0186737 -0.0182737 -0.0201853 0.233462 0.222453
          0.217164 0.20972 0.143817 0.140251 0.142636 0.134091
          0.0734123 0.0753856 0.0622297 0.079455 0.201059 0.182033
          0.201144 0.191512 -0.02635 -0.0207408 -0.0199922 -0.0240078
          -0.0262545 -0.0240078 -0.0235412 -0.0202338 0.152407 0.145332
          0.142522 0.139724 0.228263 0.217164 0.22786 0.223803
          -0.016709 -0.0168716 -0.0223742 -0.0134212 0.172735 0.190326
          0.182185 0.185483 -0.00974771 -0.0153834 -0.0176287 -0.0123417
          0.181466 0.179047 0.185216 0.180809 0.210988 0.21442
          0.201884 0.226764 0.163352 0.178077 0.172735 0.182185
          0.1161 0.112423 0.121898 0.122751 -0.0189528 -0.00638178
          -0.00259998 -0.00834823 0.178104 0.178653 0.18922 0.19024
          0.154096 0.144846 0.15615 0.145829 -0.0139074 -0.015708
          -0.0142357 -0.0132007 -0.0196322 -0.0230668 -0.0226985 -0.0192985
          0.0745346 0.0686452 0.0661042 0.0606546 -0.0216076 -0.0182737
          -0.018722 -0.0203499 -0.0137665 -0.0130824 -0.0166292 -0.00937549
          -0.00932992 -0.00244741 -0.0117274 -0.0082111 0.201668 0.200623
          0.191383 0.196592 -0.0128792 -0.00990728 -0.0100386 -0.00918275
          0.178653 0.182344 0.187544 0.177642 0.140955 0.158359
          0.149711 0.147898 0.00659017 -0.0025162 0.00531314 -0.00297278
          0.0218384 0.0103553 0.0208321 0.00805325 0.0431356 0.0522078
          0.0380659 0.0465084 0.172941 0.170417 0.186107 0.172476
          -0.00262737 0.0082428 0.0157621 0.00138132 0.0982124 0.116529
          0.102855 0.107829 -0.00779991 -0.00813331 -0.00870049 -0.0119074
          0.0418834 0.0311635 0.0314598 0.0323901 0.157546 0.186107
          0.19366 0.157546 -0.0148438 -0.0149544 -0.0148291 -0.0142357
          -0.0142357 -0.0128614 -0.0148291 -0.0117658 0.0406597 0.0418834
          0.0290652 0.0296688 -0.0172296 -0.0272059 -0.0164299 -0.0144495
          -0.00834823 -0.00638178 -0.00259998 0.00470713 0.161767 0.142413
          0.158821 0.153489 0.0179985 0.0103553 0.0208321 0.0253005
          -0.0233217 -0.0228191 -0.025715 -0.0233181 0.00588326 -0.00280863
          -0.00792323 -0.00515665 -0.0145913 -0.0154396 -0.0172937 -0.00804012
          -0.0170453 -0.0183736 -0.0192985 -0.0207847 0.198948 0.209082
          0.199044 0.202424 0.0679208 0.052365 0.0734123 0.0542283
          -0.0210149 -0.0175454 -0.0174241 -0.0205373 0.0734123 0.079455
          0.0854695 0.100469 0.0679208 0.0631171 0.052365 0.0542283
          0.079455 0.052365 0.0734123 0.0679208 0.0545899 0.0480379
          0.0589262 0.0622297 0.081338 0.0661042 0.0773494 0.0687973
          0.15615 0.152407 0.161158 0.167289 0.0179985 0.0253005
          0.0208321 0.0286129 0.0506496 0.0587253 0.0573615 0.0598625
          0.0506496 0.0443732 0.0573615 0.0587253 0.0902544 0.0870368
          0.0784927 0.0709968 0.00346835 0.00720272 0.00171474 -0.00280863
          0.201341 0.210966 0.212756 0.204974 0.0951538 0.082158
          0.0876068 0.0757089 0.0709968 0.0665526 0.0669415 0.0755584
          0.0116209 0.0117325 0.0179277 0.00860304 0.0870368 0.0902544
          0.106463 0.0982457 -0.0225709 -0.0231921 -0.0285786 -0.027155
          0.186254 0.196187 0.183818 0.19024 -0.00567168 -0.00792034
          -0.00274295 0.000148197 0.178071 0.175067 0.177642 0.181619
          0.0337856 0.046858 0.0349354 0.039635 -0.00191015 -0.0136444
          -0.00567168 -0.00792034 0.172941 0.172476 0.186107 0.157538
          -0.031823 -0.0272059 -0.0260218 -0.0172296 0.0211548 0.0190457
          0.0310747 0.0257106 -0.0208527 -0.0181165 -0.0233217 -0.0233181
          0.130461 0.137069 0.140479 0.128374 0.159808 0.172558
          0.166766 0.177494 0.00518771 0.0103553 0.00805325 0.0179985
          0.100067 0.103817 0.103903 0.113647 -0.00416399 -0.00658906
          -0.00381637 -0.00195267 -0.00813331 -0.00779991 -0.00579035 -0.000403006
          0.147666 0.159808 0.166766 0.167956 -0.00567168 -0.0136444
          -0.0137133 -0.0144495 0.00208091 -0.00582282 -0.00558348 -0.00199443
          -0.0225574 -0.0275196 -0.0261606 -0.0270216 -0.0165645 -0.0166292
          -0.0213041 -0.0122499 0.002157 0.00736987 0.0116209 0.0117325
          -0.0181695 -0.0166802 -0.0190904 -0.015708 0.195535 0.195207
          0.19547 0.193837 0.206131 0.213279 0.208722 0.207959
          0.21194 0.210655 0.215487 0.207944 0.120747 0.113647
          0.108005 0.1161 -0.0142357 -0.0117658 -0.0117274 -0.00782457
          0.147411 0.158359 0.158108 0.162658 0.126608 0.123145
          0.133938 0.133859 0.0936913 0.0972271 0.0900758 0.0890911
          0.202094 0.206217 0.19974 0.204341 -0.00573392 0.00314345
          0.000148197 -0.00236831 -0.0164986 -0.0130069 -0.0139074 -0.0158084
          0.142273 0.122155 0.133764 0.130487 0.143736 0.182033
          0.132588 0.161112 0.106124 0.108005 0.106138 0.0864855
          -0.0120806 -0.0133778 -0.00579035 -0.00870049 0.00918058 0.018267
          0.0152541 0.0252058 0.148226 0.152084 0.161158 0.152407
          0.000148197 0.00314345 0.00142708 -0.00236831 0.0253005 0.0286583
          0.0234298 0.0337856 0.0770506 0.0864855 0.0927801 0.0880234
          0.0060033 0.012652 0.0182889 0.01164 -0.0235412 -0.024821
          -0.0233283 -0.0203499 0.0366424 0.0390706 0.0506437 0.0459501
          -0.0110052 -0.00758936 -0.00297843 -0.00778189 -0.023841 -0.0281423
          -0.0174845 -0.0189528 0.133859 0.143817 0.146458 0.133938
          0.204801 0.1941 0.21001 0.208743 0.152042 0.146215
          0.154811 0.143236 0.212726 0.215988 0.22903 0.226308
          0.207616 0.201668 0.212726 0.214006 0.159912 0.167289
          0.154438 0.170757 -0.0244722 -0.0244262 -0.0198355 -0.0190794
          0.0418834 0.0410123 0.0314598 0.0311635 0.0415331 0.0587253
          0.0506496 0.0522908 -0.0231921 -0.02635 -0.0285786 -0.027155
          0.21001 0.198948 0.211659 0.212902 0.179018 0.178104
          0.169482 0.165267 0.169482 0.164995 0.158127 0.152042
          0.213288 0.208476 0.206714 0.207163 0.0773494 0.0661042
          0.074105 0.0687973 0.0726495 0.0709968 0.0621636 0.0833424
          0.01164 0.012652 0.0182889 0.0112354 0.161158 0.164404
          0.175067 0.178071 0.134091 0.140251 0.142636 0.12941
          0.107239 0.107829 0.0951538 0.113705 0.170536 0.180809
          0.169482 0.181466 -0.0213178 -0.0262545 -0.0229088 -0.0233283
          0.191337 0.185051 0.197156 0.189513 0.197213 0.181466
          0.186773 0.187873 -0.00582282 -0.00558348 -0.0108675 0
          -0.00592964 -0.0126841 -0.013834 -0.00939058 -0.0166292 -0.0163788
          -0.0162307 -0.0122499 -0.0208346 -0.018722 -0.0182737 -0.0181165
          0.118881 0.111952 0.100045 0.108722 0.214006 0.213993
          0.212726 0.227665 0.179584 0.170757 0.172557 0.173315
          -0.014032 -0.00736322 -0.0124128 -0.00990728 0.103903 0.103817
          0.110602 0.113647 0.172355 0.158701 0.174973 0.159912
          -0.0194202 -0.0213928 -0.02037 -0.0163374 -0.0189528 -0.0323034
          -0.0281423 -0.0242568 0.214157 0.200457 0.207187 0.201668
          0.0864083 0.0975518 0.100045 0.102855 -0.00191015 0.000148197
          -0.00567168 -0.00573392 0.0116483 0.00736987 0.0252058 0.00918058
          -0.0233283 -0.0213178 -0.0202338 -0.0199511 0.195296 0.178653
          0.187544 0.189703 0.163352 0.182205 0.178077 0.171942
          -0.0210012 -0.0186737 -0.0201853 -0.0192985 0.00720272 0.00872119
          0.0122846 0.00807449 0.01164 0.00807449 0.0060033 0.012652
          0.0286583 0.0298849 0.0179277 0.0349354 0.0286583 0.0298849
          0.0349354 0.046858 0.00807449 0.00346835 0.00551842 0.012652
          -0.0112139 -0.0169905 -0.014032 -0.0148555 0.172941 0.157538
          0.186107 0.161112 0.0274887 0.0082428 0.0118281 0.00918623
          0.222453 0.203362 0.217164 0.20972 0.133583 0.120747
          0.134811 0.131935 0.175677 0.169817 0.181466 0.170536
          0.002157 -0.00547832 -0.00381637 3.67282e-05 -0.00937549 -0.0137665
          -0.00728572 -0.00974771 0.161767 0.153489 0.158821 0.174978
          -0.0196889 -0.0190904 -0.016529 -0.0166802 0.110602 0.107069
          0.111919 0.110644 0.0198756 0.0268177 0.0206331 0.0193801
          0.18814 0.150667 0.164884 0.182704 0.128374 0.124021
          0.137069 0.133859 -0.0140942 -0.0100972 -0.0123842 -0.016709
          0.103903 0.110602 0.112423 0.1161 0.0219777 0.00531314
          0.0114024 0.0148389 -0.0116304 -0.00354785 -0.00413948 -0.00956248
          0.0876068 0.0788018 0.0883993 0.0931933 -0.00790509 -0.00620229
          0.00494235 -0.00557288 0.228263 0.212012 0.223803 0.221042
          0.0179985 0.0286583 0.0253005 0.0286129 0.0753856 0.0622297
          0.0812215 0.0734123 0.158701 0.149548 0.152407 0.161787
          0.136079 0.129004 0.139724 0.127401 -0.024821 -0.0274569
          -0.0269195 -0.0233283 0.217164 0.212012 0.228263 0.20972
          -0.027155 -0.0315591 -0.02635 -0.0328352 0.00736987 0.0252058
          0.0172557 0.028966 0.0382249 0.0440846 0.0571591 0.0337659
          0.211585 0.200862 0.205583 0.200457 -0.0210012 -0.0207847
          -0.0214736 -0.0170453 -0.0138017 -0.0137665 -0.0190485 -0.0165645
          -0.0207408 -0.0240078 -0.02635 -0.027155 0.161112 0.132588
          0.138154 0.164884 0.111952 0.102855 0.100045 0.116529
          0.207156 0.209758 0.206714 0.213288 0.0247255 0.033256
          0.0162521 0.0285388 0.158108 0.170536 0.158127 0.150211
          0.00272913 -0.00291793 -0.00246694 0.0101408 0.131137 0.123145
          0.138683 0.120649 0.158562 0.163601 0.160485 0.152453
          0.158359 0.149711 0.159521 0.163832 0.164995 0.170536
          0.158127 0.158108 -0.0260218 -0.0172296 -0.0163913 -0.0236808
          -0.000403006 -0.00280863 -0.000885015 0.00640367 0.120649 0.133764
          0.138683 0.131137 0.130461 0.124021 0.137069 0.128374
          0.182185 0.190326 0.201335 0.191655 0.120214 0.140736
          0.117486 0.117661 0.00239008 0.0125997 0.00805325 0.0205329
          0.1161 0.112423 0.12399 0.121898 0.102855 0.0876068
          0.0840752 0.0982124 -0.0268886 -0.0269348 -0.0233217 -0.0233283
          -0.0121593 -0.0119074 -0.00813331 -0.00779991 -0.0121593 -0.0119074
          -0.00779991 -0.00924211 -0.013983 -0.018722 -0.0148555 -0.014032
          0.0749483 0.0522078 0.052365 0.0631171 0.205092 0.189513
          0.195515 0.19974 -0.00669586 -0.0136444 -0.0194191 -0.0137133
          -0.0194202 -0.0190904 -0.0213928 -0.0163374 -0.0240496 -0.0331804
          -0.0324585 -0.0253065 -0.0170453 -0.013834 -0.0190485 -0.0138017
          0.140961 0.162658 0.158108 0.163352 0.00396182 -0.0013081
          0.0124576 0.00117694 -0.00451249 -0.00779991 -0.00579035 -0.00870049
          -0.00728572 -0.0028024 -0.00945334 -0.00937549 0.190326 0.201335
          0.191337 0.188117 -0.00728572 -0.0123417 -0.0154299 -0.00392801
          0.195034 0.196169 0.209655 0.202873 -0.018722 -0.0203499
          -0.0148555 -0.0199511 0.190326 0.191337 0.197156 0.189513
          0.147898 0.158108 0.158127 0.150211 0.119736 0.120747
          0.133583 0.131935 0.185483 0.196169 0.195034 0.202873
          -0.00236831 -0.00789741 -0.00573392 -0.0100972 0.19799 0.201335
          0.196 0.182185 0.142273 0.131935 0.133764 0.122155
          0.0760074 0.0686452 0.0669415 0.074105 -0.00804012 -0.00505826
          -0.00795808 -0.000919334 0.204801 0.18814 0.182674 0.1941
          0.0462572 0.0425605 0.0354946 0.0569851 -0.0196889 -0.018722
          -0.013983 -0.014032 -0.0191522 -0.0189528 -0.00259998 -0.00834823
          -0.0208346 -0.0150344 -0.0155552 -0.0182737 0.00588326 0.00720272
          -0.00385141 -0.00280863 0.00346835 0.00682162 5.4393e-05 -0.00297278
          -0.0194922 -0.0162538 -0.00844997 -0.00620229 0.0571414 0.0415331
          0.0522908 0.0587253 -0.00392801 0.00445072 -0.00728572 0.00117694
          0.204163 0.206217 0.196448 0.204801 0.0118281 0.0157621
          0.0105992 -0.00262737 0.198948 0.202424 0.199044 0.212902
          0.202424 0.191383 0.198948 0.193703 0.206131 0.206806
          0.201088 0.20549 0.0702291 0.0587253 0.0743217 0.0571414
          -0.0163645 -0.0149544 -0.0141714 -0.015708 -0.0136238 -0.0082111
          -0.0117274 -0.0112596 0.213279 0.217808 0.208722 0.207959
          -0.00259998 -0.00638178 -0.00357415 -0.000896939 -0.00918275 -0.0128792
          -0.00748686 -0.00556855 0.0770506 0.0864855 0.0766004 0.0687973
          0.033256 0.025274 0.0162521 0.0234298 -0.0116239 -0.0082111
          -0.00956248 -0.00932992 0.056094 0.0382249 0.0571591 0.0408597
          0.169817 0.170536 0.169482 0.181466 0.218173 0.205583
          0.214157 0.210655 0.106124 0.122155 0.117486 0.106138
          0 0 -0.0108675 0 0.22395 0.213993
          0.228069 0.214157 0.0461835 0.0366424 0.0459501 0.0417257
          -0.031823 -0.0291402 -0.0172296 -0.0236808 -0.00222087 5.77154e-05
          0.00142708 0 -0.0229088 -0.0208527 -0.0208078 -0.0190904
          -0.0208527 -0.0208078 -0.0170671 -0.0189119 0.0902591 0.0887881
          0.0840752 0.0854688 0.124889 0.123145 0.131137 0.120649
          0.0982457 0.0870368 0.0850216 0.0965456 0.195207 0.200513
          0.199139 0.195535 -0.0225574 -0.0181165 -0.0190663 -0.0181023
          0.208726 0.190326 0.191337 0.204341 0.186254 0.173451
          0.194862 0.184652 0.100067 0.103903 0.0972271 0.0946554
          0.00682162 0.00346835 0.0112354 0.012652 -0.00937549 0.00117694
          -0.00974771 -0.00728572 0.162762 0.18894 0.162513 0.185943
          0.017913 0.0112354 0.0195752 0.0198756 -0.0156766 -0.013834
          -0.0170453 -0.0207847 -0.00797952 -0.00381637 -0.0138459 -0.0060995
          0.177184 0.189513 0.190326 0.180809 0.197156 0.188552
          0.196452 0.185051 0.103817 0.101522 0.111976 0.107239
          -0.0137665 -0.0166292 -0.0122499 -0.00937549 0.190326 0.185051
          0.191337 0.189513 0.0743217 0.0729893 0.0840752 0.0788018
          0.00518771 0.0125997 0.0162593 0.0179985 0.152042 0.152453
          0.163601 0.154811 0.217808 0.210655 0.21194 0.207959
          -0.0274569 -0.0262545 -0.0233283 -0.0269348 0.0506437 0.0542317
          0.0676577 0.0556241 0.0876068 0.0757089 0.082158 0.0743217
          0.139724 0.129004 0.136079 0.14066 -0.00844997 5.4393e-05
          0.00282591 0.0103553 0.159912 0.170056 0.167289 0.170757
          0.165971 0.148473 0.164907 0.158701 -0.0199511 -0.0179081
          -0.0169905 -0.0196889 0.0380659 0.0293345 0.0382249 0.0373622
          0.119736 0.122155 0.108005 0.120747 0.0237462 0.0269296
          0.0219777 0.00659017 0.138683 0.155148 0.152472 0.152084
          -0.0112891 -0.00547832 -0.00870049 -0.0116239 -0.00191015 -0.00373127
          -0.0144254 -0.00792034 -0.00220459 -0.00444595 -0.00891908 -0.00972851
          0.173451 0.159521 0.170056 0.163832 -0.0169905 -0.0196889
          -0.018722 -0.0199511 -0.00802936 -0.00568058 -0.00792034 -0.0112998
          -0.0165645 -0.0137665 -0.0122499 -0.00937549 0.0211548 0.0190457
          0.0306672 0.0310747 0.152407 0.164404 0.161158 0.161787
          -0.0112891 -0.0136238 -0.0149688 -0.0112596 0.133411 0.14137
          0.148226 0.130721 0.101522 0.0930471 0.101842 0.101567
          0.136588 0.149711 0.143236 0.140955 0.127401 0.139724
          0.142522 0.130721 -0.00558348 0.00881202 -0.00199443 -0.00123409
          0.117221 0.102855 0.105433 0.100045 -0.0255065 -0.0229473
          -0.02037 -0.0213928 0.142446 0.130995 0.144846 0.137646
          -0.0142357 -0.0132007 -0.015708 -0.0127052 0.135678 0.131137
          0.135619 0.14137 0.0694828 0.0613448 0.0789107 0.0743217
          0.0144698 0.0162593 0.0179277 0.0286583 0.159521 0.154811
          0.165267 0.170056 0.0280093 0.0286129 0.0301693 0.0205329
          0.149548 0.158701 0.172558 0.161787 0.202424 0.186532
          0.186107 0.191383 0.0864855 0.100067 0.0947165 0.081338
          0.201335 0.191655 0.202873 0.203196 0 0.00881202
          0 -0.00558348 -0.0138017 -0.0130824 -0.0190485 -0.0137665
          0.12399 0.121898 0.135619 0.122751 -0.0142357 -0.015708
          -0.0140792 -0.0127052 0.1161 0.121898 0.12399 0.122751
          -0.0231358 -0.0190831 -0.0208321 -0.0160708 0.195034 0.185483
          0.196522 0.180809 0.122751 0.110602 0.111919 0.110644
          0.178653 0.170757 0.182344 0.167289 -0.0194922 -0.0196146
          -0.0162538 -0.00620229 -0.0268886 -0.0233283 -0.0233217 -0.0229088
          0.18894 0.162513 0.185943 0.1901 0.172355 0.159912
          0.174973 0.170056 0.195296 0.187544 0.196142 0.189703
          0.209758 0.207959 0.21308 0.219487 0.195296 0.187544
          0.200946 0.196142 0.103817 0.113647 0.100067 0.0947165
          0.00281491 0.00551842 -0.00416399 0.00171474 0.206217 0.197156
          0.201144 0.196448 0.18894 0.185943 0.191512 0.20145
          -0.0303915 -0.0358302 -0.0315692 -0.0258844 0.142273 0.133764
          0.150589 0.140736 0.148473 0.144338 0.134608 0.133985
          0.110293 0.106138 0.0975518 0.100582 0.202873 0.209655
          0.195034 0.206388 0.213993 0.205558 0.216517 0.214588
          0.017913 0.0258741 0.0130179 0.0198756 0.170757 0.165267
          0.179018 0.172557 0.0182889 0.01164 0.0182198 0.0127548
          0.0679208 0.0542283 0.0734123 0.0644344 0.162658 0.178077
          0.158108 0.163352 -0.0196889 -0.018722 -0.014032 -0.0169905
          0.100067 0.0946554 0.0947165 0.081338 0.208476 0.204163
          0.206714 0.206217 0.163601 0.165267 0.179018 0.169482
          0.138683 0.146458 0.155148 0.133764 -0.0122501 -0.0136116
          -0.00956248 -0.00932992 0.0162593 0.00531314 0.0219777 0.0148389
          -0.00620229 -0.00297278 -0.00557288 -0.0129236 -0.0170671 -0.0124128
          -0.0140792 -0.016529 -0.0179081 -0.0196889 -0.014032 -0.0169905
          0.056094 0.0622297 0.052365 0.0480379 -0.0208251 -0.0189799
          -0.0119119 -0.0230823 -0.0190248 -0.0194202 -0.0225709 -0.0292126
          0.195207 0.199044 0.200645 0.193703 -0.00728572 0.00445072
          -0.00774175 0.00117694 0.154096 0.142446 0.144846 0.145829
          -0.0168716 -0.0158793 -0.0218471 -0.0176287 0.210655 0.219074
          0.215487 0.208821 0.0912087 0.0755584 0.0734123 0.0812215
          -0.00592964 -0.013834 -0.0156766 -0.00939058 0.0661805 0.0521145
          0.0557325 0.0709968 -0.0199922 -0.0133016 -0.0141205 -0.0145913
          0.22786 0.212726 0.223492 0.227665 -0.0258844 -0.0225709
          -0.027155 -0.0328352 0.0946554 0.0887872 0.0936913 0.0900758
          0.0130179 0.00282591 0.0112354 0.0103553 0.195509 0.201668
          0.202424 0.212726 0.0399649 0.0367803 0.0430863 0.0565514
          0.233462 0.20972 0.217164 0.228263 0.0116483 0.00659017
          0.0114024 0.0269296 0.134811 0.139444 0.147666 0.141297
          0.152084 0.155148 0.164157 0.150589 0.0567763 0.0521145
          0.0557325 0.0661805 0.0112354 0.0122846 0.0195752 0.0182198
          -0.0236808 -0.0240496 -0.0291402 -0.0172296 0.110293 0.100582
          0.0975518 0.111952 0.0286129 0.0430863 0.0337856 0.0380659
          0.0880234 0.0864855 0.0927801 0.100582 0.0650096 0.0603311
          0.0700203 0.0606546 0.195535 0.200457 0.190872 0.193703
          0.00399531 0.018267 0.00918058 0.0159591 0.152472 0.155148
          0.160619 0.168797 0.0461835 0.0366424 0.0417257 0.038873
          0.16858 0.156432 0.160619 0.152472 -0.0128792 -0.0179081
          -0.014032 -0.0169905 0.223803 0.207616 0.22786 0.227665
          0.0729893 0.0708505 0.0760074 0.0662311 0.00122208 -0.00413948
          -0.00354785 -0.00795808 0.121898 0.120069 0.120704 0.130721
          0.0840752 0.0788018 0.0883993 0.0876068 0.0219777 0.0352555
          0.0298849 0.0367803 -0.0028024 0.0116161 0.00751687 0.015298
          0.178071 0.169726 0.172355 0.177642 0.161158 0.168797
          0.169726 0.175067 0.220233 0.207187 0.205583 0.207959
          0.0834849 0.0805584 0.0817309 0.0762337 0.106138 0.120214
          0.100582 0.111952 0.112603 0.101567 0.101522 0.111976
          -0.0154396 -0.0145913 -0.0181695 -0.0160099 0.228069 0.214588
          0.213993 0.223601 0.0709968 0.0661805 0.0665526 0.0755584
          0.190326 0.191655 0.185483 0.202873 0.206217 0.201144
          0.204341 0.208476 0.21194 0.218173 0.215487 0.210655
          -0.00222087 0 -0.00274295 0 -0.00924211 -0.00779991
          -0.00870049 -0.0119074 0.0317288 0.0305277 0.0286063 0.0188687
          0.00720272 0.00346835 -0.00385141 -0.00280863 0.112603 0.124889
          0.128374 0.111053 0.115204 0.112603 0.128374 0.111053
          -0.0190485 -0.0266664 -0.0213041 -0.0240496 0.202424 0.186107
          0.19366 0.191383 -0.00297278 -0.00259998 0.00273212 0.00659017
          0.19366 0.186107 0.157546 0.191383 -0.016529 -0.013983
          -0.0124128 -0.014032 0.120611 0.107829 0.117221 0.116529
          0.0542283 0.0518334 0.0462572 0.0425605 0.117221 0.102855
          0.111952 0.116529 -0.00416399 -0.00658906 -0.00797952 -0.00381637
          -0.0153834 -0.0175883 -0.0207238 -0.0143869 -0.0229473 -0.0268886
          -0.0229088 -0.0287216 0.0459501 0.0366424 0.0376533 0.0417257
          0.103022 0.0843376 0.0771923 0.0854688 0.0366424 0.0376533
          0.0417257 0.0305277 0.204163 0.206217 0.207587 0.209684
          -0.0240496 -0.0324585 -0.0213041 -0.0253065 0.12399 0.121898
          0.123871 0.13043 0.120649 0.111976 0.123145 0.107239
          -0.0138017 -0.0190485 -0.0170453 -0.0165645 0.205558 0.202424
          0.19366 0.201668 0.204341 0.21161 0.201144 0.208726
          -0.00924211 -0.0139621 -0.0160708 -0.0144557 0.200727 0.197254
          0.198766 0.202478 0.00807449 0.0122846 0.0060033 0.00453341
          0.212756 0.202424 0.205558 0.213993 0.202478 0.203573
          0.200727 0.200919 0.0298849 0.0352555 0.0358445 0.0478477
          0.172941 0.170417 0.194355 0.186107 -0.0148555 -0.0144463
          -0.00958656 -0.0131838 -0.0144463 -0.0175883 -0.014765 -0.0174241
          -0.0168716 -0.0123842 -0.0134212 -0.016709 -0.0121593 -0.0152272
          -0.0119074 -0.0160708 -0.0207408 -0.027155 -0.02635 -0.0225709
          0.206806 0.207959 0.206131 0.201088 0.0127548 0.00789246
          0.0182889 0.0120482 -0.0174241 -0.014765 -0.0144463 -0.0131838
          -0.0172296 -0.0173367 -0.0291402 -0.0227267 0.111952 0.120214
          0.129887 0.116529 -0.0169741 -0.0112998 -0.012505 -0.0164299
          0.217164 0.205792 0.223492 0.212726 -0.009542 -0.00834823
          -0.00638178 -0.0183532 0.0306672 0.0190457 0.0270317 0.0310747
          -0.0134212 -0.0137665 -0.00728572 -0.00945334 0.204702 0.202094
          0.206217 0.20772 -0.0166292 -0.0236808 -0.0163788 -0.0105912
          -0.0155552 -0.00509489 -0.013258 -0.0109887 0.177642 0.173315
          0.182344 0.173101 0.0118026 0.0164242 0.00720272 0.00588326
          0.195034 0.190326 0.196522 0.185483 0.191337 0.201335
          0.203436 0.188117 0.14016 0.140955 0.149711 0.136588
          -0.012453 -0.00354785 -0.0116304 -0.0145549 -0.0190663 -0.0193911
          -0.013258 -0.0150344 0.194355 0.186107 0.19366 0.202424
          0.134811 0.131935 0.141297 0.133583 0.163992 0.182185
          0.177184 0.174978 0.0247255 0.0310747 0.033256 0.0257106
          0.0465084 0.033256 0.0380659 0.0431356 0.213783 0.197499
          0.215988 0.202424 0.0431356 0.034123 0.0373622 0.0310747
          0.194355 0.186107 0.201341 0.19366 0.133411 0.145332
          0.137646 0.130721 0.029652 0.0414585 0.0425605 0.0316273
          0.223803 0.207616 0.227665 0.214006 0.143248 0.14137
          0.148226 0.133411 -0.0208321 -0.0190831 -0.0315692 -0.0258844
          0.00445072 0.00315363 0.00117694 0.015298 -0.0278619 -0.0297435
          -0.0213041 -0.0324585 0.0273064 0.0430863 0.0286583 0.0286129
          0.120611 0.107829 0.119913 0.117221 -0.0223742 -0.0134212
          -0.0176287 -0.0154299 -0.0168716 -0.0176287 -0.0223742 -0.0134212
          0.0366424 0.0268177 0.0299189 0.0328383 0.056094 0.0443525
          0.0545899 0.0480379 -0.0165645 -0.0135779 -0.0182737 -0.0175454
          -0.00932992 -0.0127052 -0.0142357 -0.00782457 0.22395 0.213993
          0.229311 0.228069 0.203362 0.205792 0.223492 0.217164
          0.120611 0.101278 0.119913 0.107829 0.207616 0.201059
          0.212012 0.20972 -0.0096646 0.00214633 0.00399531 -0.00638178
          0.185483 0.168468 0.172735 0.178104 0.182704 0.164884
          0.18814 0.1941 0.039635 0.0247255 0.033256 0.0465084
          0.151569 0.149548 0.159808 0.146448 0.0228469 0.0317288
          0.0311635 0.0188687 0.193703 0.195207 0.199044 0.193837
          0.0127548 0.0128559 0.0182829 0.0162521 0.100067 0.113647
          0.103903 0.1161 0.152453 0.146966 0.154438 0.146215
          0.034123 0.0253005 0.0293345 0.025274 0.0686452 0.059831
          0.0661042 0.05214 0.197156 0.204801 0.207587 0.188552
          0.0789107 0.0902591 0.0843376 0.0979477 0.213288 0.215461
          0.209758 0.208476 0.135619 0.130721 0.142522 0.14137
          -0.0196889 -0.0181695 -0.0229088 -0.0213178 0.212756 0.201341
          0.204974 0.202424 0.0795216 0.0757089 0.0743217 0.0641691
          -0.00274295 0 0 0 0.112603 0.124889
          0.123145 0.133859 -0.0233283 -0.0269195 -0.0235412 -0.0262545
          0.0870368 0.0982457 0.106463 0.110913 -0.011571 -0.0121593
          -0.00758936 -0.0130069 0.0833424 0.0661805 0.0912087 0.0726495
          0.00531314 -0.0025162 0.0114024 -0.00557288 0.0562813 0.0567763
          0.0418834 0.0545899 0.143248 0.152084 0.148226 0.14137
          -0.0191522 -0.00259998 -0.0129236 -0.0025162 0.158108 0.172735
          0.170536 0.150211 0.144542 0.152472 0.143248 0.133859
          0.0545899 0.0567763 0.0418834 0.0443525 0.0125997 0.0179985
          0.00805325 0.0205329 -0.0028024 -0.00918772 -0.00689671 -0.00945334
          0.00142708 0.000148197 -0.00567168 -0.00274295 0.201059 0.18894
          0.191512 0.20972 -0.0156766 -0.0194191 -0.02144 -0.0173367
          0.159521 0.159912 0.154811 0.170056 0.143817 0.146458
          0.152472 0.144542 0.147666 0.159808 0.167956 0.151569
          0.0542283 0.0589262 0.0644344 0.0518334 0.00736987 -0.00357415
          0.002157 -0.000896939 -0.0144557 -0.0092143 -0.0160708 -0.00924211
          -0.00932992 -0.0142357 -0.0117274 -0.00782457 0.106124 0.108005
          0.122155 0.106138 0.135619 0.142522 0.134608 0.149548
          0.162067 0.139934 0.143736 0.161767 0.157538 0.138154
          0.164884 0.161112 0.234054 0.222453 0.233462 0.20972
          0.0234298 0.0120482 0.0162521 0.0212416 0.116529 0.120649
          0.110293 0.120214 -0.0135779 -0.00444595 -0.0136701 -0.00891908
          0.0242505 0.0162521 0.0182829 0.0211548 0.0182829 0.0190457
          0.0270317 0.0211548 -0.00191015 0.00314345 0.00244057 0.000148197
          0.0247255 0.0162521 0.033256 0.0211548 5.4393e-05 0.00682162
          0.00518771 -0.00297278 0.00518771 5.4393e-05 0.0103553 0.00682162
          -0.0112139 -0.014032 -0.00958656 -0.0148555 0.110293 0.120649
          0.106138 0.120214 0.0622297 0.0480379 0.0589262 0.052365
          -0.0208078 -0.0244722 -0.0222661 -0.0263881 -0.00968941 -0.0194922
          -0.00518367 -0.00790509 0.00239008 0.00805325 0.00518771 -0.00790509
          0.029652 0.0434323 0.0390706 0.0350187 -0.0255886 -0.0194202
          -0.0179375 -0.0208321 0.204702 0.20772 0.206217 0.209684
          -0.0229473 -0.0229088 -0.0208078 -0.0213928 0.0112354 0.00720272
          0.0195752 0.0122846 -0.00123409 -0.00258287 0.00881202 0.011498
          0.103903 0.110602 0.107069 0.112423 -0.0128792 -0.0169905
          -0.0112139 -0.0141205 -0.0128792 -0.0145913 -0.0141205 -0.00748686
          0.190326 0.201335 0.208726 0.191337 0.0105992 0.00239008
          0.00805325 0.0205329 -0.0141354 -0.0192985 -0.0168075 -0.0170453
          0.0521145 0.0567763 0.0418834 0.0562813 0.186254 0.163832
          0.173451 0.174973 0.0465084 0.0247255 0.033256 0.040745
          -0.0210149 -0.0205373 -0.0221287 -0.0175454 0.133411 0.148226
          0.145332 0.130721 0.202478 0.195034 0.198766 0.197168
          -0.0170453 -0.013834 -0.0183736 -0.0207847 -0.0136238 -0.0182575
          -0.0112596 -0.0117274 0.179795 0.164907 0.186254 0.174973
          -0.0213041 -0.0162307 -0.0193911 -0.0150344 0.113647 0.122751
          0.111976 0.110602 0 0.00881202 -0.00558348 -0.00123409
          -0.00844997 -0.0107202 0.000889392 5.4393e-05 0.00736987 0.0237462
          0.0117325 0.00659017 -0.0150344 -0.00802552 -0.0136701 -0.0165645
          -0.00844997 0.000889392 0.00282591 5.4393e-05 0.159912 0.170757
          0.154438 0.165267 -0.00222087 0.00142708 0.000148197 0
          0.196592 0.204163 0.201059 0.204801 0.0060033 0.00453341
          -0.00242298 0.00551842 -0.0229473 -0.0265035 -0.0244722 -0.0229088
          0.0376533 0.0299189 0.0373622 0.0286063 0.133764 0.120649
          0.120214 0.122155 0.0951538 0.0814389 0.082158 0.0757089
          0.128374 0.137069 0.140479 0.133859 0.00445072 0.00117694
          0.00396182 0.015298 -0.0231358 -0.0375333 -0.0242568 -0.0281423
          0.201668 0.186532 0.191383 0.200623 0.182941 0.186254
          0.194862 0.206163 -0.0132007 -0.0119074 -0.0139074 -0.0116239
          0.204163 0.206217 0.204801 0.207587 -0.0207847 -0.0190485
          -0.0170453 -0.02144 0.0666313 0.0628676 0.0766004 0.0820835
          0.119913 0.101278 0.0979477 0.102855 0.206879 0.203573
          0.200727 0.202478 0.206879 0.214152 0.212344 0.202478
          0.204341 0.200919 0.202478 0.196522 -0.0196889 -0.0190904
          -0.0208527 -0.0229088 0.0843376 0.0702291 0.0771923 0.0729893
          -0.0160099 -0.0181695 -0.0190904 -0.015708 0.029652 0.0350187
          0.0390706 0.0270317 -0.0141354 -0.0183736 -0.0192985 -0.0170453
          0.0144698 0.00518771 0.00682162 0.0162593 0.0144698 0.00682162
          0.0179277 0.0162593 0.00881202 0.00208091 0.0116161 0.0263362
          0.195034 0.18922 0.179018 0.188654 0.00918058 0.018267
          0.00272844 0.0152541 0.167298 0.163601 0.179047 0.160485
          0.00273212 0.002157 0.00281491 0.0116209 0.00281491 0.002157
          0.0112742 0.0116209 0.0247255 0.0162521 0.0120543 0.0285388
          0.208821 0.200862 0.195535 0.205583 0.0118281 0.0280093
          0.0157621 0.0274887 0.0182889 0.0060033 0.01164 0.0127548
          -0.00945334 -0.0028024 -0.0105912 -0.00937549 0.186408 0.187544
          0.180565 0.179584 0.144702 0.142446 0.153668 0.145829
          -0.0117658 -0.0149544 -0.0140792 -0.0142357 0.178653 0.170757
          0.180565 0.182344 0.0708505 0.0729893 0.0771923 0.0587253
          0.187544 0.178653 0.18922 0.180565 0.0443732 0.0586593
          0.042301 0.0573615 -0.00867676 0.0116161 0.00751687 -0.0028024
          0.0938046 0.108577 0.115314 0.0907937 -0.0132007 -0.0139074
          -0.0136116 -0.0116239 -0.00538913 -0.00867676 0.00751687 -0.0105912
          0.00314345 0.00179271 0.000148197 0.00142708 -0.00538913 -0.0122499
          -0.0105912 -0.0013081 0.0542317 0.0469226 0.0459501 0.0461789
          0.197213 0.189513 0.186773 0.181466 0.20972 0.18894
          0.207616 0.201059 0.0380659 0.0280093 0.0382249 0.0293345
          0.0603311 0.0542317 0.0487597 0.048595 -0.0233181 -0.0237773
          -0.0266257 -0.0275196 0.107239 0.123145 0.107829 0.113705
          0.173451 0.170056 0.178104 0.174973 0.120214 0.140736
          0.129887 0.13303 0.218173 0.219074 0.215487 0.210655
          0.0648741 0.05429 0.0430863 0.0565514 -0.0166802 -0.0190904
          -0.0163645 -0.0208078 0.0757089 0.0694828 0.082158 0.0743217
          0.14137 0.152407 0.146448 0.152084 0.017913 0.00282591
          0.0118026 0.0112354 0.017913 0.0118026 0.0195752 0.0112354
          0.0182889 0.0162521 0.0182829 0.0242505 -0.0202338 -0.0203499
          -0.0169905 -0.0197349 0 0 -0.00274295 0
          0.00470713 0.00214633 0.00399531 0.0159591 0.00273212 0.00551842
          0.00171474 0.00346835 -0.00297843 -0.00778189 -0.00779991 -0.000403006
          0 -0.0134986 -0.0169741 -0.00509933 0.103022 0.115314
          0.118116 0.0907937 -0.0236808 -0.0172296 -0.0163913 -0.00867676
          0.204702 0.206217 0.206714 0.209684 -0.0221287 -0.0175454
          -0.0201853 -0.0210149 0 0 0 -0.00832014
          0.178071 0.175067 0.169726 0.177642 0.120649 0.111976
          0.124889 0.123145 0.0973892 0.108577 0.0907937 0.0912087
          -0.0190485 -0.0166292 -0.0213041 -0.0165645 0.185051 0.177184
          0.162405 0.175677 0.213279 0.217808 0.207959 0.219487
          0.196592 0.182674 0.201059 0.200623 -0.0207847 -0.0214736
          -0.0190485 -0.02144 0.0440846 0.0280093 0.0337659 0.0382249
          0.0518334 0.0589262 0.0665526 0.0574548 -0.0214736 -0.02144
          -0.0278619 -0.0190485 0.187544 0.179584 0.186408 0.182344
          0.0247255 0.0211548 0.033256 0.0310747 0.033256 0.0211548
          0.025274 0.0310747 -0.0175454 -0.0182737 -0.018722 -0.0148555
          -0.00658906 -0.00451249 -0.00870049 -0.00195267 0.0951538 0.107829
          0.107239 0.0982124 0.174978 0.185051 0.191337 0.177184
          0.22786 0.217164 0.223492 0.212726 -0.0105912 -0.00867676
          -0.0163788 -0.00538913 -0.0208527 -0.018722 -0.0233217 -0.0181165
          0.0228469 0.0311635 0.0314598 0.0188687 -0.00568058 -0.00558348
          -0.0112998 -0.00123409 0.0890911 0.0805584 0.0887872 0.0834849
          0.0912087 0.0755584 0.0973892 0.0734123 0.111053 0.112603
          0.100493 0.115204 0 0 -0.00558348 -0.00123409
          -0.00568058 0 -0.00558348 -0.00123409 0.0182829 0.0190457
          0.0211548 0.0128559 0.116529 0.110293 0.0975518 0.111952
          0.120069 0.130721 0.128374 0.118465 0.1161 0.108005
          0.100067 0.113647 0.0518334 0.0574548 0.0573615 0.0487597
          0.120747 0.122155 0.108005 0.113647 0.18922 0.178653
          0.183818 0.19024 0.002157 -0.0092143 -0.00547832 -0.000896939
          0.0788018 0.0729893 0.0760074 0.0683191 -0.0160708 -0.0116239
          -0.0119074 -0.0092143 -0.0092143 -0.014668 -0.00357415 -0.0101753
          0.197168 0.188654 0.190179 0.18922 -0.0136116 -0.0116239
          -0.0082111 -0.0132007 0.19547 0.209082 0.199044 0.198948
          0.0299189 0.0193801 0.0242505 0.0293345 0.112603 0.123145
          0.113705 0.133859 -0.0168716 -0.0158793 -0.0176287 -0.0134212
          -0.0233283 -0.0262545 -0.0202338 -0.0213178 0.14016 0.149711
          0.144338 0.136588 -0.0156766 -0.0137133 -0.0194191 -0.0173367
          0.172735 0.182185 0.177184 0.163992 0.163992 0.158108
          0.150211 0.172735 0.142516 0.155697 0.150211 0.163992
          -0.00258287 -0.00261425 0.011498 0.00511759 -0.0149544 -0.0128614
          -0.0148291 -0.0142357 0.0286129 0.0273064 0.0179985 0.0286583
          0.179696 0.196158 0.182704 0.188552 0.197156 0.185051
          0.196452 0.189513 0.0060033 0.00551842 0.0120482 0.012652
          0.188552 0.154881 0.150667 0.179696 0.174978 0.182185
          0.188117 0.168015 0.182185 0.19799 0.188117 0.168015
          0.133938 0.142636 0.149966 0.13303 -0.0128792 -0.0141205
          -0.0112139 -0.00748686 0.0286129 0.0430863 0.0286583 0.0337856
          0.161158 0.167289 0.172355 0.177642 0.124519 0.110913
          0.105433 0.106463 -0.00515665 -0.00451249 -0.00280863 -0.00790975
          0.191231 0.195207 0.195535 0.193837 0.0103553 0.0112354
          0.012652 0.0144698 0.158562 0.146966 0.162741 0.152453
          -0.00242298 0.00551842 -0.00416399 0.00272913 0.00551842 0.00807449
          0.0060033 0.00453341 0.153489 0.161767 0.162067 0.168015
          0.112603 0.111976 0.124889 0.108912 -0.0136116 -0.0116239
          -0.00932992 -0.0082111 0.208726 0.21161 0.22252 0.214152
          0.0708505 0.0780915 0.0938046 0.0755584 0.0876068 0.0883993
          0.0975518 0.0982124 0.147411 0.158108 0.147898 0.140961
          0.0982124 0.0876068 0.0840752 0.0975518 -0.0213041 -0.0122499
          -0.0162307 -0.0150344 -0.0165645 -0.0186737 -0.0135779 -0.0175454
          -0.0165645 -0.0153834 -0.0135779 -0.0186737 0.00762492 0.0190457
          0.0211548 0.0257106 0.196158 0.1941 0.204801 0.208743
          0.182704 0.1941 0.18814 0.204801 0.196158 0.182704
          0.204801 0.1941 0.0410123 0.0461789 0.0562813 0.0452618
          0.0410123 0.0452618 0.0376533 0.0461789 0.187409 0.177642
          0.189703 0.181619 0.0947165 0.0900758 0.0773494 0.081338
          0.198766 0.195034 0.197254 0.197168 0.162658 0.182205
          0.178077 0.163352 0.0494215 0.0560029 0.0571167 0.0606546
          0.05214 0.0560029 0.0494215 0.0606546 0.087618 0.0776046
          0.0822467 0.0788361 0.0234298 0.0349354 0.0212416 0.0285388
          0.0560029 0.0494215 0.0410843 0.05214 0.0562813 0.0574548
          0.0461789 0.0560029 0.110293 0.106138 0.0947165 0.0975518
          -0.0170453 -0.0192985 -0.0210012 -0.0207847 -0.0230097 -0.0207238
          -0.0230579 -0.0176287 0.0854688 0.0755584 0.0907937 0.0784927
          -0.0255065 -0.0213928 -0.02037 -0.0194202 0.0127548 0.0182198
          0.0242505 0.0290872 0.0127548 0.0290872 0.0242505 0.0182829
          0.0938046 0.115314 0.103022 0.0907937 0.00736987 0.00918058
          0.0152541 0.0252058 -0.0248542 -0.0269348 -0.0226985 -0.0230668
          0.0661805 0.0574548 0.0669415 0.0665526 0.21001 0.212902
          0.217295 0.217383 -0.0268886 -0.0233217 -0.0265035 -0.0229088
          0.126608 0.134091 0.143817 0.133938 0.126608 0.133938
          0.143817 0.134046 0.038873 0.0366424 0.0417257 0.0305277
          0.20972 0.20145 0.222453 0.203362 -0.0140792 -0.0124128
          -0.0100386 -0.0128792 0.214152 0.217185 0.202873 0.209655
          0.190326 0.188117 0.191337 0.174978 -0.00558497 -0.0118763
          -0.0109887 -0.00972851 0.190326 0.174978 0.191337 0.177184
          -0.0172296 -0.0164299 -0.0112998 -0.0144495 -0.0183532 -0.0096646
          -0.014668 -0.00638178 -0.016709 -0.0119119 -0.0134212 -0.0223742
          0.158562 0.162741 0.169455 0.163601 -0.0231358 -0.0096646
          -0.014668 -0.0183532 -0.016709 -0.0208251 -0.0119119 -0.0223742
          -0.016529 -0.0190904 -0.0196889 -0.0181695 0.00807449 0.00872119
          0.0122846 0.00453341 0.152042 0.163601 0.165267 0.154811
          -0.0107202 -0.023841 -0.0101753 -0.0129236 0.204974 0.193391
          0.210966 0.193747 0.0676577 0.052463 0.0644325 0.0542317
          0.194339 0.188654 0.189513 0.181466 0.0833102 0.0900758
          0.081338 0.0773494 0.181466 0.185216 0.194339 0.188654
          -0.00774175 -0.00258287 0.00315363 0.00511759 0.0773494 0.0833102
          0.0661042 0.081338 -0.00236831 -0.00789741 -0.00567168 -0.00573392
          0.22363 0.201335 0.217185 0.226764 -0.00638178 0.00470713
          -0.000896939 0.00918058 -0.00638178 0.00918058 -0.000896939 0.00736987
          0.0946554 0.0887872 0.0900758 0.0833102 -0.0181165 -0.018722
          -0.0136701 -0.013983 -0.0144254 -0.0136444 -0.00792034 -0.0214942
          -0.0264858 -0.0160708 -0.0230441 -0.0186334 0.029652 0.0434323
          0.0350187 0.0425605 0.00193013 -0.0013081 -0.00802552 0.00581802
          0.000889392 -0.00385141 5.4393e-05 -0.0107202 0.0414585 0.052463
          0.0487597 0.0524165 0.207616 0.1901 0.195509 0.18894
          0.169726 0.161158 0.172355 0.177642 -0.00778189 -0.0139621
          -0.00790975 -0.00515665 0.0766004 0.0773494 0.074105 0.0687973
          0.0406597 0.0430357 0.0469546 0.0521145 0.0951538 0.0876068
          0.0982124 0.0931933 0.0237462 0.00531314 0.0219777 0.0162593
          0.0795216 0.0788018 0.0876068 0.0931933 0.0982124 0.110293
          0.107829 0.107239 -0.0207408 -0.0262545 -0.0240078 -0.027155
          -0.0174241 -0.0186226 -0.0131838 -0.0122557 -0.0255886 -0.0258844
          -0.0315692 -0.0292126 0.0103553 0.012652 0.0193801 0.0144698
          -0.0127052 -0.00556855 -0.00932992 -0.0122501 0.0242505 0.0182198
          0.0193801 0.0198756 -0.00387143 -0.00244741 -0.00932992 -0.0082111
          -0.0154396 -0.00795808 -0.0122501 -0.00956248 0.202094 0.207163
          0.200919 0.204702 0.184652 0.19024 0.178104 0.196169
          0.199044 0.209082 0.19547 0.209647 -0.011571 -0.0152272
          -0.0121593 -0.0130069 0.158701 0.152407 0.159912 0.161787
          0.163601 0.152453 0.165267 0.154811 -0.023841 -0.0323034
          -0.0189528 -0.0129236 -0.0107202 -0.0129236 -0.00385141 -0.00297278
          0.202873 0.196522 0.190326 0.204341 0.172735 0.182185
          0.178077 0.191655 -0.0165645 -0.00802552 -0.0136701 -0.0135779
          0.0425605 0.0452618 0.0350187 0.0373622 0.105433 0.100045
          0.0870368 0.110913 -0.0190485 -0.0240496 -0.0213041 -0.0166292
          0.156139 0.158701 0.165971 0.172558 0.191383 0.190563
          0.200457 0.193703 0.202424 0.157546 0.190563 0.195464
          0.002157 0.00736987 0.0172557 0.0116209 0.0237462 0.0172557
          0.0243239 0.028966 0.00736987 0.0152541 0.0172557 0.0252058
          0.0694828 0.0613448 0.0743217 0.0641691 0.0641691 0.0743217
          0.0795216 0.0681307 0.112603 0.0923879 0.107239 0.101522
          0.177494 0.17821 0.18971 0.172558 0.00281344 -0.00246694
          0.00818924 0.0120482 -0.0136238 -0.0148438 -0.0148291 -0.0142357
          0.158701 0.142522 0.152407 0.149548 -0.0154396 -0.00795808
          -0.0108463 -0.00804012 0.00272913 0.0179277 0.0101408 0.0120482
          0.146215 0.14066 0.154811 0.14885 0.19366 0.157546
          0.186107 0.193391 0.059831 0.0532901 0.0661042 0.05214
          0.0681307 0.0743217 0.0795216 0.0788018 0.074105 0.059831
          0.0661042 0.0686452 0.22395 0.228069 0.218173 0.214157
          -0.0156766 -0.0173367 -0.0190485 -0.013834 0.00518771 -0.00844997
          0.00805325 0.0103553 -0.00388894 -0.00582282 -0.00199443 -0.00918772
          -0.00388894 -0.00199443 -0.0028024 -0.00918772 -0.0126841 -0.0158091
          -0.013834 -0.0170453 0.228263 0.212012 0.221042 0.224004
          -0.00891908 -0.00743066 -0.0148555 -0.00958656 0.164995 0.170056
          0.178104 0.159521 0.173451 0.159521 0.178104 0.170056
          0.158701 0.174973 0.159912 0.170056 0.0686452 0.0560029
          0.05214 0.0606546 0.0923879 0.0757089 0.0951538 0.0795216
          0.200946 0.19024 0.18922 0.195296 0.100493 0.108912
          0.112603 0.111053 0.100493 0.101567 0.112603 0.108912
          0.14137 0.146448 0.135678 0.147962 0.19024 0.196187
          0.206865 0.206163 -0.0229473 -0.0244722 -0.0198355 -0.0208078
          0.0130179 0.0258741 0.0206331 0.0198756 0.00720272 0.0164242
          0.00872119 0.00588326 0.200623 0.207187 0.206806 0.201088
          -0.015708 -0.0166802 -0.0163645 -0.0149544 0.200623 0.201668
          0.207187 0.201088 0.100045 0.0887881 0.0870368 0.0864083
          -0.00509489 -0.0150344 -0.013258 -0.00575203 0.0430863 0.0648741
          0.046858 0.0465084 0.186532 0.186107 0.182674 0.164884
          -0.00191015 -0.0136444 -0.00792034 -0.0144254 -0.0229473 -0.0198355
          -0.02037 -0.0208078 0.210655 0.214157 0.219074 0.208821
          0.203573 0.212344 0.204081 0.207163 -0.0186334 -0.0160708
          -0.0230441 -0.0139621 0.172735 0.182185 0.190326 0.177184
          0.177184 0.182185 0.190326 0.174978 0.0120543 0.0162521
          0.0247255 0.0211548 0.0390706 0.0414585 0.0506437 0.0434323
          0.117661 0.140736 0.129887 0.120214 0.179018 0.179109
          0.179047 0.185216 0.185483 0.184652 0.178077 0.168468
          0.0082428 0.0163121 0.0157621 0.00138132 0.178077 0.184652
          0.191655 0.194862 0.0103553 0.0193801 0.0208321 0.0253005
          0.0880234 0.0975518 0.106138 0.100582 0.0188687 0.0163121
          0.0157621 0.0082428 0.152407 0.152084 0.161158 0.164404
          0.000889392 0.00720272 -0.00385141 0.00588326 -0.00385141 -0.0101753
          -0.00357415 -0.00297278 0.00346835 5.4393e-05 -0.00385141 -0.00297278
          -0.00385141 -0.00280863 -0.00357415 -0.0101753 0.169726 0.173101
          0.177642 0.181619 0 0.0263362 0 0.00881202
          -0.0172937 -0.0145913 -0.0199922 -0.0207408 -0.0170671 -0.0118763
          -0.0138364 -0.0124128 0.172558 0.156139 0.166766 0.165971
          0.00588326 -0.00385141 -0.00792323 -0.00280863 0.0822467 0.0776046
          0.0788018 0.0698236 0.132309 0.137646 0.13798 0.145829
          0.122751 0.111919 0.121898 0.110644 0 0
          0 0.00881202 -0.0107202 -0.023841 -0.00792323 -0.0101753
          -0.00792323 -0.023841 -0.0174845 -0.0101753 -0.00834823 -0.009542
          -0.00638178 0.00470713 -0.00259998 -0.0092143 -0.00357415 -0.00638178
          0.196169 0.206865 0.203196 0.191655 0.0171097 0.00881202
          0.0116161 0.0263362 -0.00123409 -0.00258287 0 0.00881202
          0.0795216 0.0776046 0.0931933 0.087618 0.162405 0.169817
          0.170536 0.158127 0.175677 0.169817 0.170536 0.162405
          0.169482 0.170536 0.158127 0.164995 0.0376533 0.0317288
          0.0417257 0.0305277 0.200623 0.214006 0.207187 0.201668
          0.0128559 0.00789246 0.00762492 0.0120543 -0.0196146 -0.0191522
          -0.0129236 -0.0025162 -0.0213041 -0.0324585 -0.0255281 -0.0253065
          -0.0213041 -0.0253065 -0.0255281 -0.0193911 0.0380659 0.033256
          0.034123 0.0431356 0.202873 0.195034 0.190326 0.196522
          0.0219777 0.0237462 0.0162593 0.0298849 -0.0213041 -0.0297435
          -0.0255281 -0.0324585 -0.0213041 -0.0253065 -0.0193911 -0.0162307
          -0.00222087 -0.00274295 -0.00933978 0 -0.000652163 -0.00236831
          -0.00573392 -0.0100972 0.125046 0.130721 0.129004 0.118465
          0.143736 0.161767 0.132588 0.182033 0.0144698 0.012652
          0.0193801 0.0182889 -0.0229473 -0.0229088 -0.0213928 -0.0287216
          0.162513 0.162762 0.143736 0.161112 -0.0120806 -0.00870049
          -0.0119074 -0.0112891 0.159912 0.14885 0.158701 0.159521
          0.0766004 0.0864855 0.0880234 0.0687973 0.158127 0.147898
          0.152042 0.164995 0.0638031 0.0770506 0.0766004 0.0687973
          0.0103553 0.0193801 0.0253005 0.0144698 0.0116209 0.0172557
          0.0112742 0.0243239 -0.0153834 -0.0135779 -0.0175454 -0.0175883
          0.0198756 0.0282204 0.0290872 0.0182198 -0.0205373 -0.021604
          -0.0221287 -0.0175454 0.00273212 -0.00259998 -0.00357415 0.00659017
          0.150667 0.161767 0.132588 0.154881 0.0188687 0.0286063
          0.0274887 0.0163121 0.0641691 0.0681307 0.0571414 0.0743217
          -0.00795808 -0.00505826 -0.00556855 -0.000919334 0 -0.00509933
          -0.0108675 0 0.206879 0.212344 0.207163 0.202478
          0.0923879 0.0795216 0.0931933 0.0930471 0.182941 0.194862
          0.19332 0.206163 -0.00568058 0 -0.0112998 -0.00558348
          0.186532 0.186107 0.191383 0.182674 0.204801 0.196592
          0.21001 0.182674 0.196592 0.182674 0.200623 0.186532
          0.0854695 0.079455 0.0734123 0.0679208 0.079455 0.0631171
          0.052365 0.0679208 0.120438 0.128374 0.111053 0.115204
          -0.00573392 -0.00789741 -0.0123842 -0.0100972 0.226764 0.212462
          0.218189 0.228487 0.201088 0.200457 0.205583 0.195535
          0.0118281 0.0082428 0.0157621 -0.00262737 0.188654 0.185216
          0.190179 0.179018 0.208726 0.211685 0.21161 0.203436
          -0.00416399 -0.00381637 -0.00797952 0.00281491 0.217808 0.218173
          0.21194 0.210655 0.174973 0.184652 0.178104 0.173451
          0.00918058 0.018267 0.0252058 0.0288745 -0.0208527 -0.0190904
          -0.0166802 -0.0208078 -0.00291793 0.00281491 -0.00797952 -0.00381637
          -0.00416399 -0.00195267 -0.00381637 0.00281491 -0.0181165 -0.018722
          -0.0233217 -0.0208346 0.211585 0.200862 0.200457 0.205183
          0.0316273 0.0425605 0.0462572 0.042301 0.0398736 0.0462572
          0.0569851 0.0598625 0.0398736 0.0462572 0.0377303 0.0569851
          0.175241 0.178071 0.172355 0.183313 0.147666 0.167956
          0.14967 0.151569 -0.0226985 -0.0269348 -0.0228191 -0.025715
          0.161767 0.153489 0.174978 0.168015 0.151569 0.167956
          0.14967 0.15071 0.151569 0.167956 0.15071 0.164157
          0.217808 0.218173 0.210655 0.207959 0.177494 0.175241
          0.172558 0.183313 0.0182889 0.0193801 0.025274 0.0242505
          -0.0158091 -0.0211097 -0.0158793 -0.0186737 0.116529 0.0975518
          0.102855 0.100045 0.112603 0.108912 0.124889 0.111053
          0.0805584 0.0700203 0.0817309 0.0762337 0.181466 0.180809
          0.177184 0.170536 0.00346835 0.00860304 0.00273212 0.00551842
          0.212756 0.204974 0.205558 0.202424 -0.00974771 -0.0123417
          -0.00728572 -0.00392801 -0.0140942 -0.00592964 -0.0104118 -0.0100972
          -0.0145913 -0.00556855 -0.0127052 -0.0122501 0.0755584 0.0644344
          0.0734123 0.0589262 0.182704 0.164884 0.164884 0.18814
          0.103903 0.0972271 0.110602 0.103817 0.0947165 0.0946554
          0.0900758 0.081338 0.0947165 0.106138 0.0880234 0.0975518
          0.0734123 0.0851948 0.079455 0.100469 0.0753856 0.0851948
          0.079455 0.0734123 0.14137 0.147962 0.131137 0.152084
          0.0755584 0.0644344 0.0854695 0.0734123 0.152084 0.131137
          0.138683 0.147962 0.0753856 0.0851948 0.0734123 0.100469
          0.196592 0.204801 0.201059 0.18814 0.0743217 0.0613448
          0.0571414 0.0641691 -0.0207847 -0.0156766 -0.02144 -0.0170453
          -0.031823 -0.0291402 -0.0272059 -0.0172296 -0.012505 -0.00918772
          -0.00582282 -0.00388894 0.125046 0.120438 0.128374 0.118465
          -0.0135779 -0.00708896 -0.00891908 -0.0143869 -0.0260218 -0.0164299
          -0.0211183 -0.012505 0.0854688 0.0907937 0.0887881 0.0784927
          -0.0255886 -0.0190248 -0.0208321 -0.0292126 -0.0126841 -0.0158091
          -0.0170453 -0.0168075 0.056094 0.052365 0.0571591 0.0382249
          0.029652 0.0354946 0.0350187 0.0310747 -0.00795808 -0.0154396
          -0.0145913 -0.00804012 -0.00220459 0.00348826 -0.00647079 -0.00558497
          -0.0272059 -0.0214942 -0.0164299 -0.0144495 -0.0230099 -0.0207847
          -0.0214736 -0.0210012 -0.0230099 -0.0207847 -0.024593 -0.0214736
          -0.0165645 -0.0122499 -0.0213041 -0.0150344 -0.0266664 -0.0331804
          -0.0324585 -0.0240496 0.0556241 0.0417257 0.0459501 0.0469226
          0.0936913 0.0947152 0.0972271 0.0890911 0.0430863 0.0565514
          0.046858 0.0648741 0.0367803 0.0298849 0.0430863 0.046858
          -0.0148555 -0.0136701 -0.018722 -0.013983 0.0864083 0.0975518
          0.0880234 0.100045 0.0598625 0.0708505 0.0771923 0.0633308
          0.052365 0.0373622 0.0452618 0.0542283 0.158821 0.177184
          0.162405 0.169506 0.0864855 0.0947165 0.0880234 0.081338
          -0.0255886 -0.0255065 -0.0194202 -0.0292126 0.0700203 0.0686452
          0.0745346 0.0606546 0.0700203 0.0603311 0.0686452 0.0606546
          0.0234298 0.0212416 0.0162521 0.0285388 0.144338 0.13043
          0.134608 0.133985 0.148473 0.144338 0.158701 0.149548
          0.0556241 0.0542317 0.0676577 0.0571167 0.0469226 0.0542317
          0.0571167 0.0494215 0.0762337 0.0644325 0.0698236 0.0700203
          0.0700203 0.0603311 0.0683191 0.0686452 0.210988 0.201884
          0.201335 0.226764 0.0907937 0.108577 0.115314 0.0912087
          0.0907937 0.0912087 0.115314 0.0833424 0.0907937 0.115314
          0.106463 0.0833424 0.112603 0.105919 0.100493 0.115204
          -0.00804012 -0.0133016 -0.00505826 -0.000919334 0.00445072 0.0171097
          0.00315363 0.015298 0.0644325 0.0525971 0.0587091 0.0683191
          0.0787469 0.0686452 0.0760074 0.074105 0.158821 0.174978
          0.185051 0.169506 0.215988 0.197499 0.194355 0.202424
          0.0975518 0.0931933 0.103817 0.110293 0.221042 0.218332
          0.212012 0.215461 0.200457 0.214157 0.211585 0.205183
          -0.0130019 -0.0119074 -0.0139074 -0.0112891 0.033256 0.0337856
          0.039635 0.0465084 0.0870368 0.0820835 0.0902544 0.0982457
          0.172735 0.185483 0.178104 0.164995 0.0234298 0.0182889
          0.0253005 0.025274 0.0686452 0.0683191 0.0669415 0.0603311
          0.0787469 0.0773494 0.0686452 0.074105 -0.0137133 -0.0172296
          -0.00945334 -0.0144495 0.0902544 0.0870368 0.0907937 0.0784927
          0.123145 0.111976 0.124889 0.107239 -0.00778189 -0.0139621
          -0.00924211 -0.0144557 -0.00259998 -0.00638178 -0.000896939 0.00736987
          -0.00259998 -0.000896939 -0.00357415 0.00736987 0.059831 0.0521145
          0.05214 0.0560029 0.214157 0.214588 0.228069 0.211585
          -0.0194202 -0.0255065 -0.0243838 -0.0292126 0.198948 0.191383
          0.196592 0.193703 0.202094 0.205092 0.19974 0.20772
          0.195207 0.195535 0.199139 0.191231 0.0480379 0.0314598
          0.0410123 0.0274887 0.0708505 0.0598625 0.0771923 0.0780915
          0.0771923 0.0780915 0.0938046 0.0708505 0.201088 0.198948
          0.196592 0.193703 -0.0170671 -0.013983 -0.016529 -0.0196889
          0.028198 0.029652 0.0425605 0.0316273 -0.0168716 -0.0158091
          -0.0158793 -0.0140942 0.195535 0.200862 0.190872 0.200457
          -0.0203499 -0.0148555 -0.0169905 -0.0174241 0.0418834 0.0562813
          0.0410123 0.0461789 0.220233 0.214006 0.227665 0.22395
          0.214006 0.213993 0.227665 0.22395 -0.0182737 -0.018722
          -0.0136701 -0.0181165 0.191655 0.196169 0.184652 0.185483
          0.0650096 0.0542317 0.0644325 0.0603311 0.171942 0.196
          0.182205 0.182185 0.186408 0.190179 0.180565 0.18922
          -0.0116304 -0.00413948 -0.0108463 -0.00956248 -0.0124128 -0.00736322
          -0.0100386 -0.00990728 0.0573615 0.0598625 0.0708505 0.0644344
          -0.0112139 -0.0148555 -0.00958656 -0.0174241 0.159912 0.139724
          0.14885 0.154438 0.213993 0.200457 0.214157 0.201668
          0.193703 0.209082 0.19547 0.198948 0.0679208 0.0631171
          0.0542283 0.0543441 -0.00647079 -0.00558497 -0.0109887 -0.00972851
          -0.00647079 -0.00509489 -0.0109887 -0.00558497 -0.0158091 -0.0215735
          -0.0218471 -0.0158793 0.0776933 0.0628676 0.0666313 0.0820835
          0.120747 0.123835 0.134811 0.131935 0.0521145 0.0410843
          0.0560029 0.0562813 0.13303 0.123145 0.116529 0.120649
          -0.014032 -0.00990728 -0.0124128 -0.0128792 0.138683 0.123145
          0.13303 0.120649 -0.0211097 -0.0175883 -0.0215735 -0.0186737
          0.154811 0.14066 0.154438 0.14885 -0.0216076 -0.0233217
          -0.018722 -0.0182737 0.193703 0.190563 0.200457 0.190872
          -0.0233181 -0.0266257 -0.025715 -0.0275196 0.201059 0.182033
          0.196448 0.201144 0.0843376 0.0902591 0.0729893 0.0854688
          -0.0101753 -0.014668 -0.00357415 -0.00259998 -0.0156766 -0.00669586
          -0.0194191 -0.0104118 0.108912 0.111976 0.120069 0.110644
          0.120069 0.111976 0.122751 0.110644 0.130721 0.120069
          0.120704 0.118465 -0.00259998 0.00470713 0.00736987 0.0116483
          -0.00834823 0.00470713 -0.00259998 0.0116483 -0.0025162 -0.00834823
          -0.00259998 0.0116483 0.200623 0.214006 0.21308 0.207187
          0.118465 0.108912 0.120069 0.110644 0.120069 0.110644
          0.120704 0.118465 -0.00259998 0.00736987 -0.00357415 0.00659017
          0.142516 0.158108 0.150211 0.155697 0.142516 0.163352
          0.158108 0.155697 0.0380659 0.0208321 0.0293345 0.0253005
          0.0286583 0.0349354 0.0179277 0.0234298 0.18922 0.187544
          0.195296 0.183818 0.195296 0.18922 0.200946 0.187544
          -0.00658906 -0.00579035 -0.0133778 -0.00870049 -0.00195267 -0.00870049
          -0.00381637 -0.00547832 -0.0112891 -0.00870049 -0.0119074 -0.0116239
          -0.00195267 -0.00924211 -0.00870049 -0.0092143 0.0105992 0.0280093
          0.0301693 0.0205329 0.136079 0.129622 0.142522 0.14885
          0.20145 0.18894 0.185943 0.203362 0.139934 0.161767
          0.142413 0.154881 0.0506437 0.0414585 0.052463 0.0434323
          -0.0119074 -0.00813331 -0.00870049 -0.0120806 0.195034 0.196522
          0.202478 0.197254 0.206879 0.214152 0.202478 0.206388
          0.128374 0.111053 0.124889 0.120069 -0.00259998 -0.014668
          -0.00357415 -0.0092143 0.00593033 -0.000896939 -0.00495345 0.00272844
          3.67282e-05 0.002157 -0.00495345 0.00593033 0.120649 0.113647
          0.111976 0.103817 0.120649 0.122751 0.111976 0.113647
          0.148473 0.134608 0.149548 0.141912 0.156139 0.158701
          0.172558 0.149548 0.179018 0.180809 0.179047 0.169482
          0.148473 0.141912 0.149548 0.156139 -0.0145913 -0.00556855
          -0.0122501 -0.00795808 0.0465084 0.033256 0.0431356 0.040745
          0 0 0 -0.00558348 0.202873 0.203196
          0.209655 0.217185 -0.0208346 -0.0237773 -0.0150344 -0.0213041
          -0.0160708 -0.0116239 -0.0152272 -0.0119074 -0.00195267 -0.00924211
          -0.0092143 -0.00357415 0.178071 0.172355 0.187409 0.177642
          -0.020364 -0.0108463 -0.0172937 -0.0154396 -0.00790975 -0.0144557
          -0.0101753 -0.0174845 0.207616 0.214006 0.212726 0.227665
          -0.0164986 -0.0190904 -0.0163374 -0.0171241 0.0686452 0.0669415
          0.074105 0.059831 0.185943 0.18296 0.191512 0.20145
          0.0443732 0.0525971 0.0586593 0.0587253 0.164207 0.173315
          0.167289 0.173101 0.164995 0.172735 0.170536 0.158108
          0.175677 0.170536 0.177184 0.162405 0.206806 0.207458
          0.209758 0.204163 0.208476 0.204163 0.209758 0.206714
          0.209758 0.212012 0.206806 0.204163 0.213279 0.215461
          0.209758 0.207156 0.0741987 0.0648741 0.0571591 0.0522078
          0.208476 0.212012 0.209758 0.204163 0.200513 0.210655
          0.199139 0.205583 0.213279 0.209758 0.20717 0.207156
          0.0179985 0.0103553 0.0253005 0.0144698 0.212726 0.201668
          0.213993 0.214006 0.0757089 0.0694828 0.0743217 0.0641691
          0.0305277 0.0218384 0.0163121 0.0206331 0.190326 0.191655
          0.202873 0.201335 -0.00885974 -0.00832014 -0.0113926 -0.0123724
          -0.0104118 -0.00573392 -0.0137133 -0.0123842 0.0116483 0.00918058
          0.0252058 0.0288745 -0.0152272 -0.0163374 -0.0139074 -0.0164986
          0.0923879 0.0951538 0.0931933 0.0795216 0.0923879 0.0951538
          0.107239 0.0931933 -0.0160708 -0.0121593 -0.0230441 -0.0139621
          0.0951538 0.0876068 0.0931933 0.0795216 -0.0166292 -0.0130824
          -0.0172296 -0.0105912 -0.0222661 -0.0244722 -0.0244262 -0.0263881
          0.0951538 0.105919 0.107651 0.0900582 0.0661805 0.0622297
          0.0589262 0.0734123 5.4393e-05 0.00720272 0.0112354 0.00346835
          5.4393e-05 0.000889392 0.0112354 0.00720272 0 0.00881202
          0 0 0.0795216 0.0757089 0.0876068 0.0743217
          0.111976 0.110644 0.110602 0.122751 0.215988 0.201341
          0.212756 0.202424 0.110602 0.122751 0.112423 0.1161
          0.187409 0.183818 0.177642 0.172355 0.112423 0.107069
          0.111919 0.110602 -0.0281423 -0.0264858 -0.014668 -0.0231358
          -0.0231358 -0.0217282 -0.0242568 -0.0375333 0.0946554 0.0999492
          0.0972271 0.0936913 -0.00357415 -0.00195267 0.002157 -0.00547832
          -0.0156766 -0.0104118 -0.0194191 -0.0137133 -0.00357415 -0.00195267
          0.00281491 0.002157 0.201341 0.193391 0.210966 0.204974
          -0.0173367 -0.0227267 -0.0172296 -0.0144495 0.0930471 0.101522
          0.0931933 0.0923879 0.201059 0.182033 0.191512 0.18894
          0.177494 0.172558 0.18971 0.183313 0.0644325 0.0586593
          0.0525971 0.0683191 -0.00956248 -0.00354785 0.00122208 -0.00387143
          0.202424 0.191383 0.193703 0.190563 0.191383 0.190563
          0.201668 0.200457 -0.00242298 0.00453341 -0.00416399 0.00551842
          0.00122208 -0.00354785 -0.00956248 -0.00795808 0.158821 0.185051
          0.177184 0.169506 -0.00387143 0.00734161 0.00122208 -0.00244741
          0.147898 0.143236 0.152042 0.154811 0.202478 0.21161
          0.212344 0.204341 0.207163 0.208476 0.206714 0.206217
          -0.0227267 -0.0214942 -0.0272059 -0.0144495 -0.0227267 -0.0272059
          -0.0172296 -0.0144495 0.204702 0.207163 0.206714 0.206217
          0.202094 0.206217 0.207163 0.204702 0.212344 0.21161
          0.207163 0.204341 0.00805325 -0.00844997 -0.00518367 0.0103553
          -0.0255886 -0.0208321 -0.0258844 -0.0292126 -0.0190485 -0.0266664
          -0.0278619 -0.0213041 -0.02144 -0.0266664 -0.0278619 -0.0190485
          0.00273212 -0.00195267 0.00281491 -0.00357415 -0.012453 -0.00354785
          -0.0145549 -0.0096646 -0.0190663 -0.0237773 -0.0270216 -0.0255281
          0.152818 0.152084 0.161158 0.148226 0.220331 0.21001
          0.204801 0.204163 -0.0153834 -0.00974771 -0.0135779 -0.0143869
          0.186254 0.164907 0.182941 0.173451 0.0743217 0.0681307
          0.0571414 0.0729893 0.209684 0.207587 0.220331 0.20772
          0.207587 0.209684 0.220331 0.204163 0.204398 0.207587
          0.215997 0.208743 -0.0248542 -0.024821 -0.0213635 -0.0226985
          -0.0208078 -0.0265035 -0.0244722 -0.0208527 -0.0229088 -0.0265035
          -0.0208078 -0.0208527 0.00142708 -0.00274295 -0.00567168 -0.00789741
          0.00142708 -0.00222087 -0.00274295 -0.00789741 -0.0229088 -0.0233217
          -0.0265035 -0.0208527 -0.024821 -0.0213635 -0.0226985 -0.0221287
          -0.00792034 -0.00373127 0 0 0 -0.00792034
          0 0 0.00281491 0.00297451 0.0112742 0.002157
          0.002157 0.00297451 0.0112742 0.0172557 -0.00792034 0
          0 -0.00568058 0.0311635 0.0286063 0.0274887 0.0188687
          -0.00844997 5.4393e-05 0.0103553 0.00518771 -0.0150344 -0.0162307
          -0.0193911 -0.00575203 0.196522 0.190326 0.204341 0.191337
          0.196522 0.19942 0.197254 0.194339 0.196522 0.200919
          0.197254 0.19942 -0.0148749 -0.0130019 -0.0136238 -0.0112891
          -0.0148749 -0.0148438 -0.0136238 -0.0130019 0.163601 0.165267
          0.169482 0.152042 0.103817 0.101522 0.110602 0.111976
          0.196522 0.190326 0.189513 0.180809 0.220331 0.207587
          0.215997 0.20772 0.185051 0.175677 0.183963 0.196452
          -0.0128792 -0.0127052 -0.0181695 -0.0145913 0.204163 0.212012
          0.206806 0.201059 0.158359 0.164995 0.168468 0.159521
          0.0854695 0.0679208 0.0734123 0.0644344 0.167298 0.158562
          0.169455 0.163601 0.167298 0.169455 0.179047 0.163601
          -0.0210012 -0.0170453 -0.0165645 -0.0186737 -0.0170453 -0.0186737
          -0.0168075 -0.0158091 -0.0186737 -0.0211097 -0.0168075 -0.0158091
          -0.0183532 -0.0096646 -0.009542 -0.0217282 -0.00357415 0.00736987
          0.002157 0.00273212 -0.00357415 0.002157 0.00281491 0.00273212
          -0.00945334 -0.0119119 -0.00774175 -0.0134212 0.162067 0.161767
          0.162762 0.182033 -0.0186737 -0.0153834 -0.0135779 -0.0175454
          0.202424 0.209082 0.198948 0.202424 -0.0190485 -0.0214736
          -0.0170453 -0.0165645 0.0048848 -0.00804012 -0.00795808 -0.000919334
          0.0587253 0.0573615 0.0598625 0.0708505 -0.0139074 -0.0164986
          -0.0141714 -0.015708 -0.0132007 -0.0139074 -0.0164986 -0.0160099
          0.164207 0.167289 0.15615 0.173101 0.156966 0.173101
          0.164207 0.15615 0.0587253 0.0587091 0.0729893 0.0571414
          -0.0174241 -0.0186226 -0.0122557 -0.0169905 -0.0141714 -0.015708
          -0.0142357 -0.0139074 0.0352555 0.0445074 0.0358445 0.0478477
          -0.015708 -0.016529 -0.0140792 -0.0127052 -0.00800258 -0.0119119
          -0.0122964 -0.00885974 0.0367803 0.0478477 0.0298849 0.046858
          -0.0140792 -0.0138364 -0.0163645 -0.0149544 -0.0138364 -0.0114217
          -0.0149544 -0.0140792 -0.0170671 -0.0139785 -0.0138364 -0.0118763
          0.137069 0.133859 0.144542 0.140479 -0.0170671 -0.0139785
          -0.0118763 -0.013983 -0.0149544 -0.0114217 -0.0128614 -0.0140792
          -0.0149544 -0.0128614 -0.0117658 -0.0140792 0.22363 0.226764
          0.228487 0.212462 -0.0137133 -0.0173367 -0.0172296 -0.0144495
          0.0193801 0.0112354 0.0182198 0.0182889 0.155697 0.163352
          0.158108 0.163992 0.155697 0.158108 0.150211 0.163992
          -0.0173367 -0.0194191 -0.0291402 -0.0227267 0.18296 0.188117
          0.162067 0.191512 0.0443732 0.0586593 0.0573615 0.0587253
          0.188117 0.18296 0.212462 0.191512 0.162762 0.18296
          0.191512 0.185943 0.00122208 0.0048848 -0.00795808 -0.000919334
          0.130995 0.125046 0.137646 0.132309 0.143817 0.152472
          0.160619 0.144542 0.206131 0.207959 0.202837 0.201088
          0.204801 0.18814 0.182704 0.188552 0.100067 0.103817
          0.0947165 0.0972271 -0.00505826 -0.0133016 -0.0145913 -0.0141205
          0.119913 0.0979477 0.118116 0.105433 0.126046 0.119913
          0.118116 0.105433 0.105433 0.126046 0.106463 0.118116
          0.105433 0.115314 0.118116 0.106463 0.0907937 0.115314
          0.105433 0.106463 0.0907937 0.115314 0.118116 0.105433
          0.105433 0.103022 0.118116 0.0907937 0.191231 0.200862
          0.190872 0.195535 -0.0228191 -0.0210012 -0.0214736 -0.0182737
          0.0979477 0.103022 0.118116 0.105433 0.107829 0.102855
          0.119913 0.117221 0.185483 0.184652 0.168468 0.178104
          0.173451 0.184652 0.168468 0.178077 0.204801 0.182674
          0.21001 0.1941 0.182941 0.178077 0.19332 0.194862
          0.182941 0.173451 0.178077 0.194862 -0.0211097 -0.021604
          -0.0175883 -0.0175454 0.152634 0.149711 0.163832 0.144338
          0.033256 0.0380659 0.0337856 0.0465084 -0.00885974 -0.00258287
          -0.00689671 -0.00774175 -0.0136116 -0.00956248 -0.0154396 -0.0122501
          0.201144 0.191337 0.182033 0.196448 0.204163 0.201144
          0.201059 0.196448 0.118881 0.117221 0.110913 0.100045
          0.0902544 0.0907937 0.106463 0.0833424 0.161158 0.152084
          0.175067 0.164404 -0.0133778 -0.0148749 -0.0107099 -0.0120806
          0.140251 0.117221 0.137669 0.133423 0.117221 0.105433
          0.110913 0.100045 -0.0133778 -0.0148749 -0.0149688 -0.0107099
          0.0120482 0.0182889 0.0144698 0.0234298 0.0234298 0.0144698
          0.0120482 0.0179277 0.204163 0.196448 0.201059 0.204801
          0.0644325 0.052463 0.0586593 0.0603311 -0.0208346 -0.0214736
          -0.0165645 -0.0182737 -0.0208346 -0.0214736 -0.0213041 -0.0165645
          0.186254 0.196187 0.19024 0.206163 0.186254 0.19816
          0.196187 0.206163 -0.0170671 -0.018722 -0.0181165 -0.013983
          -0.0170671 -0.0139785 -0.013983 -0.0181165 -0.0269195 -0.0240078
          -0.0235412 -0.0262545 -0.0189119 -0.0139785 -0.0138364 -0.0170671
          0.157538 0.182674 0.164884 0.186532 0.21194 0.210655
          0.207944 0.200513 0.102855 0.101278 0.0979477 0.0902591
          0.133764 0.155148 0.152084 0.150589 0.218173 0.214157
          0.219074 0.210655 0.120649 0.13303 0.138683 0.133764
          0.205558 0.204974 0.210746 0.197767 -0.0216076 -0.0203499
          -0.0199511 -0.0233283 0.182185 0.188117 0.190326 0.174978
          0.182185 0.201335 0.190326 0.188117 0.201335 0.19799
          0.188117 0.182185 -0.0096646 -0.00956248 -0.0136116 -0.0116239
          0.188117 0.19799 0.18296 0.168015 0.18296 0.168015
          0.162067 0.188117 0.188117 0.161767 0.162067 0.182033
          -0.0303915 -0.0358302 -0.0258844 -0.0285786 0.0382249 0.0208321
          0.0274887 0.0293345 0.0242505 0.0193801 0.025274 0.0293345
          0.14137 0.130721 0.152407 0.145332 0.14137 0.130721
          0.142522 0.152407 -0.0122499 -0.0163788 -0.0162307 -0.00538913
          0.0316273 0.042301 0.0462572 0.0443732 0.152407 0.130721
          0.142522 0.145332 0.152407 0.159912 0.161158 0.167289
          0.152407 0.159912 0.172355 0.161158 0.19799 0.210988
          0.212462 0.226764 0.19799 0.210988 0.201335 0.212462
          -0.0113926 0 -0.0145643 -0.00832014 -0.00274295 -0.00832014
          -0.00933978 0 0.200457 0.197767 0.200862 0.190872
          0.202478 0.202873 0.195034 0.206388 0.202478 0.197254
          0.198766 0.195034 0.202873 0.196522 0.202478 0.195034
          0.191383 0.200457 0.201668 0.193703 0.202873 0.204341
          0.202478 0.196522 -0.00795808 -0.00413948 -0.0108463 -0.00804012
          0.201088 0.201668 0.200457 0.193703 0.22363 0.226764
          0.212462 0.201335 0.0676577 0.0542317 0.0644325 0.0650096
          -0.00832014 -0.00274295 0 0 -0.00779991 -0.00758936
          -0.0121593 -0.00778189 0.131137 0.124889 0.120069 0.133411
          -0.0112139 -0.0169905 -0.0148555 -0.0174241 -0.0174241 -0.0148555
          -0.00958656 -0.0131838 0.12941 0.116529 0.133938 0.123145
          -0.0174241 -0.0188305 -0.014765 -0.0131838 0.102855 0.0840752
          0.0887881 0.0864083 0.102855 0.0902591 0.0887881 0.0840752
          -0.0205373 -0.0188305 -0.014765 -0.0174241 0.00659017 0.00736987
          -0.00357415 0.00273212 -0.0192985 -0.0230099 -0.0210012 -0.0207847
          0.0573615 0.0518334 0.0665526 0.0574548 -0.00195267 -0.0092143
          -0.00547832 -0.00357415 -0.0196322 -0.0192985 -0.0213635 -0.0168075
          0.202424 0.201341 0.204974 0.19366 0.108912 0.111976
          0.124889 0.120069 0.153668 0.145829 0.154096 0.154438
          0.135678 0.123835 0.139444 0.135619 -0.0231358 -0.0303915
          -0.0375333 -0.0315692 0.188654 0.18922 0.179018 0.190179
          0.0753255 0.0676577 0.0644325 0.0650096 -0.0138017 -0.0104118
          -0.0123842 -0.0140942 -0.0199922 -0.0145913 -0.0202338 -0.0207408
          -0.00388894 -0.00582282 0.00208091 -0.00199443 0.0562813 0.0461789
          0.0410843 0.0560029 0.112603 0.133859 0.113705 0.124021
          0.0545899 0.0443525 0.0418834 0.0410123 0.0376533 0.0469226
          0.0317288 0.0461789 0.0461789 0.0469226 0.0317288 0.0323901
          0.0461789 0.0469226 0.0323901 0.0494215 0.0902544 0.0709968
          0.0907937 0.0833424 0.211659 0.21001 0.217295 0.220331
          0.0870368 0.074105 0.0784927 0.0709968 0.0247255 0.033256
          0.040745 0.0257106 0.178071 0.164404 0.172355 0.161158
          0.00805325 0.0103553 0.0208321 0.0179985 0.0525971 0.0524165
          0.042301 0.0586593 0.0586593 0.0524165 0.042301 0.0487597
          0.164404 0.152084 0.168797 0.164157 0.0586593 0.0487597
          0.042301 0.0573615 0.0443732 0.0525971 0.042301 0.0586593
          0.0644325 0.0586593 0.0683191 0.0603311 0.214157 0.211585
          0.228069 0.219074 0.214157 0.228069 0.218173 0.219074
          0.205092 0.195515 0.19942 0.19974 0.214157 0.205583
          0.218173 0.220233 0.214157 0.211585 0.219074 0.208821
          -0.0182737 -0.0150344 -0.0136701 -0.0165645 -0.0165645 -0.0135779
          -0.0136701 -0.0182737 -0.0210012 -0.0186737 -0.0165645 -0.0182737
          -0.0182737 -0.0175454 -0.018722 -0.0203499 0.000889392 -0.00385141
          0.00720272 5.4393e-05 -0.00802552 -0.0122499 -0.0150344 -0.00575203
          -0.0122499 -0.0162307 -0.0150344 -0.00575203 -0.0122499 -0.00538913
          -0.0162307 -0.00575203 0.212344 0.207163 0.213288 0.204081
          0.0117325 0.0116209 0.0237462 0.0243239 0.0179277 0.0117325
          0.0237462 0.0298849 0.166766 0.165971 0.17821 0.172558
          0.17821 0.172558 0.179795 0.18971 0.165971 0.164907
          0.179795 0.172558 0.0103553 5.4393e-05 0.00282591 0.0112354
          5.4393e-05 0.000889392 0.00282591 0.0112354 0.17821 0.165971
          0.179795 0.172558 -0.00933978 -0.0189799 -0.00832014 -0.0122964
          0.178071 0.161158 0.172355 0.169726 0.175241 0.161787
          0.172355 0.164404 0.0833424 0.0661805 0.0709968 0.0755584
          0.0743217 0.0876068 0.0795216 0.0788018 -0.0172937 -0.0145913
          -0.0207408 -0.0154396 0.19332 0.178077 0.191655 0.194862
          0.0562813 0.0669415 0.059831 0.0709968 0.19547 0.195207
          0.193703 0.193837 0.059831 0.0669415 0.074105 0.0709968
          0.19547 0.209082 0.204512 0.209647 0.19547 0.193703
          0.209082 0.209082 0.193837 0.19547 0.204512 0.209647
          0.19547 0.209082 0.209082 0.209647 0.185483 0.178104
          0.179018 0.18922 0.185483 0.178104 0.180809 0.179018
          0.185483 0.180809 0.178104 0.164995 0.185483 0.190326
          0.196522 0.180809 0.185483 0.177184 0.190326 0.180809
          0.120214 0.13303 0.129887 0.116529 0.116529 0.120649
          0.120214 0.13303 0.00281491 0.00551842 0.00171474 0.00273212
          0.164995 0.165267 0.178104 0.170056 0.170056 0.178104
          0.179018 0.165267 0.102855 0.0902591 0.105433 0.0887881
          0.0979477 0.0854688 0.105433 0.0902591 0.0843376 0.0902591
          0.0854688 0.0979477 0.0820835 0.0766004 0.0850216 0.0870368
          0.159912 0.178653 0.167289 0.170056 0.0982124 0.116529
          0.107829 0.110293 0.178104 0.178653 0.19024 0.170056
          0.178104 0.170056 0.19024 0.174973 0.131137 0.120069
          0.122751 0.133411 -0.0141714 -0.0139074 -0.0142357 -0.0132007
          -0.00990728 -0.014032 -0.0112139 -0.0128792 0.0773494 0.0883993
          0.0900758 0.0864083 0.0773494 0.0787469 0.0883993 0.0864083
          0.017913 0.0130179 0.0112354 0.0198756 0.14137 0.133411
          0.122751 0.130721 0.0462572 0.0425605 0.0487597 0.042301
          0.13303 0.120649 0.120214 0.133764 0.025274 0.0234298
          0.033256 0.0337856 -0.0155552 -0.013983 -0.0136701 -0.00972851
          0.0890911 0.0822467 0.0805584 0.0834849 -0.0134212 -0.0154299
          -0.00774175 -0.00728572 -0.00191015 0.00244057 -0.00373127 0.000148197
          0.20717 0.213279 0.208722 0.206131 0.00789246 0.0120482
          0.00818924 0.0162521 0.00789246 0.0162521 0.00818924 0.0120543
          0.0120543 0.0162521 0.00818924 0.0285388 0.196448 0.188552
          0.204801 0.197156 0.206217 0.197156 0.196448 0.204801
          0.0162521 0.0120482 0.0234298 0.0182889 0.0162521 0.0182889
          0.0234298 0.025274 0.163992 0.182185 0.174978 0.168015
          -0.0129236 -0.0323034 -0.0189528 -0.0191522 -0.0129236 -0.0189528
          -0.023841 -0.0101753 -0.0231358 -0.0315692 -0.0258844 -0.0303915
          -0.00297278 -0.0129236 -0.0162538 -0.0107202 -0.00708896 0.00193013
          -0.00802552 -0.00444595 0.129887 0.117221 0.133423 0.118881
          0.161158 0.152084 0.168797 0.175067 -0.0199922 -0.0141205
          -0.0197349 -0.0202338 -0.0235412 -0.0203499 -0.0202338 -0.0197349
          0.00659017 0.00531314 0.0219777 0.0237462 0.0709968 0.0567763
          0.0661805 0.0726495 0.0270317 0.0308707 0.0182829 0.0242505
          -0.0235412 -0.0199922 -0.0197349 -0.0202338 0.0242505 0.0308707
          0.0182829 0.0290872 -0.0196146 -0.0323034 -0.023841 -0.0129236
          -0.0196146 -0.0129236 -0.00557288 -0.0025162 -0.0168716 -0.0140942
          -0.0158793 -0.0123842 0.163992 0.163352 0.158108 0.172735
          0.163992 0.163352 0.172735 0.182185 0.163992 0.162405
          0.150211 0.158821 0.150211 0.163992 0.158821 0.142413
          0.177184 0.162405 0.163992 0.158821 0.186254 0.196187
          0.174973 0.183818 0.183818 0.172355 0.187409 0.183313
          0.196187 0.183818 0.187409 0.183313 0.1161 0.122751
          0.12399 0.124347 0.124347 0.122751 0.12399 0.135619
          0.0431356 0.033256 0.034123 0.0310747 0.129622 0.120704
          0.13043 0.123871 0.133985 0.129622 0.13043 0.123871
          0.133985 0.13043 0.134608 0.123871 -0.0258844 -0.0285786
          -0.0231921 -0.020364 -0.00870049 -0.00658906 -0.00381637 -0.00547832
          0.188117 0.174978 0.161767 0.182033 0.182033 0.174978
          0.161767 0.188552 0.0946554 0.0972271 0.0900758 0.0936913
          0.182033 0.161767 0.154881 0.188552 0.0545899 0.0574548
          0.0562813 0.0589262 0.012652 0.0112354 0.0193801 0.0182889
          0.0286129 0.0205329 0.0179985 0.0273064 0.0870368 0.074105
          0.0887881 0.0784927 0.0709968 0.0784927 0.0907937 0.0755584
          0.0760074 0.0708505 0.0784927 0.0669415 0.0760074 0.0708505
          0.0854688 0.0784927 0.056094 0.0443525 0.066893 0.0545899
          0.212012 0.200623 0.206806 0.201059 0.212012 0.207616
          0.200623 0.201059 0.207616 0.18894 0.200623 0.201059
          0.002157 0.00593033 0.00297451 0.0152541 0.200623 0.18894
          0.186532 0.201059 0.200623 0.18814 0.201059 0.186532
          0.200623 0.186532 0.191383 0.196592 0.196592 0.200623
          0.201059 0.204163 0.200623 0.206806 0.201059 0.204163
          0.181466 0.175677 0.186773 0.169817 0.212902 0.202424
          0.199044 0.217383 -0.015708 -0.0160099 -0.0181695 -0.0127052
          -0.0128792 -0.0127052 -0.016529 -0.0181695 0.228487 0.211685
          0.20972 0.224004 0.0542317 0.052463 0.0644325 0.0603311
          0.052365 0.0452618 0.0589262 0.0542283 0.0452618 0.0574548
          0.0562813 0.0545899 0.212012 0.201059 0.208476 0.211685
          0.212012 0.201059 0.211685 0.20972 0.20972 0.212012
          0.224004 0.211685 0.221042 0.21308 0.219487 0.212012
          0.223803 0.21308 0.221042 0.212012 0.215461 0.221042
          0.219487 0.212012 0.223803 0.21308 0.219487 0.221042
          0.0876068 0.107829 0.101278 0.0951538 0.0876068 0.102855
          0.101278 0.107829 0.107829 0.101278 0.119913 0.102855
          -0.0121593 -0.011571 -0.0119074 -0.0152272 -0.0121593 -0.011571
          -0.00813331 -0.0119074 -0.00547832 -0.0107099 -0.00811258 -0.00495345
          -0.0133778 -0.0107099 -0.00870049 -0.0120806 -0.0121593 -0.0110052
          -0.00758936 -0.0130069 -0.0110052 -0.00758936 -0.00778189 -0.0121593
          0.0870368 0.0864083 0.074105 0.0880234 -0.0105912 -0.0122499
          -0.0166292 -0.00937549 -0.00538913 -0.0105912 0.00751687 -0.0013081
          0.0887881 0.100045 0.0870368 0.105433 0.0902544 0.0870368
          0.106463 0.0907937 0.105433 0.0870368 0.106463 0.110913
          0.0870368 0.0887881 0.074105 0.0864083 0.102855 0.0876068
          0.0902591 0.0840752 0.207944 0.210655 0.199139 0.200513
          -0.00800258 -0.0122964 -0.00933978 -0.00832014 0.0571591 0.0648741
          0.05429 0.0522078 -0.00792034 0 0 -0.0112998
          -0.0181023 -0.0181165 -0.0170671 -0.0208527 0.0125997 0.00518771
          0.00805325 0.0179985 -0.00790509 -0.00620229 0.00518771 0.00494235
          0.0193801 0.0268177 0.0242505 0.0290872 0.213288 0.207163
          0.206714 0.204081 -0.0189119 -0.0181023 -0.0170671 -0.0208527
          0.144702 0.13798 0.145829 0.146966 0.146966 0.144702
          0.153668 0.145829 -0.0240496 -0.0253065 -0.0213041 -0.0162307
          0.0269296 0.0445074 0.0237462 0.0352555 0.220331 0.204801
          0.215997 0.207587 0.202424 0.209082 0.209082 0.198948
          0.0117325 -0.00297278 0.00659017 0.00531314 0.0665526 0.0669415
          0.0708505 0.0662311 0.100067 0.103903 0.103817 0.0972271
          0.197156 0.207587 0.196452 0.188552 0.00122208 0.00291065
          -0.00413948 0.0048848 0.00122208 0.0113415 0.00291065 0.0048848
          0.00734161 0.0113415 0.00291065 0.00122208 0.0117325 0.00531314
          0.0162593 0.00682162 0.0117325 -0.00297278 0.00531314 0.00682162
          -0.00558348 0.00881202 0.00208091 -0.00199443 0.00208091 0.00881202
          0.0116161 -0.00199443 0.0822467 0.0900758 0.0931933 0.087618
          0.0890911 0.087618 0.0900758 0.0822467 0.0890911 0.0822467
          0.0900758 0.0805584 0.0234298 0.0349354 0.0179277 0.0212416
          0.0700203 0.0644325 0.0683191 0.0603311 0.0700203 0.0644325
          0.0698236 0.0683191 0.120649 0.113647 0.103817 0.110293
          0.120649 0.103817 0.111976 0.110293 0.120649 0.110293
          0.111976 0.107239 0.123145 0.107239 0.110293 0.120649
          0.123145 0.110293 0.116529 0.120649 0.123145 0.107239
          0.116529 0.110293 0.110293 0.116529 0.107829 0.107239
          0.110293 0.103817 0.111976 0.107239 0.110293 0.0931933
          0.103817 0.107239 -0.0158793 -0.0170453 -0.0186737 -0.0165645
          0.00720272 0.00872119 0.00171474 -0.00280863 -0.0158793 -0.0138017
          -0.0134212 -0.0123842 -0.0208251 -0.0230823 -0.0119119 -0.0223742
          -0.0119119 -0.0230823 -0.0154299 -0.0223742 -0.0134212 -0.0119119
          -0.0154299 -0.0223742 -0.0134212 -0.0119119 -0.00774175 -0.0154299
          -0.0190248 -0.0152272 -0.0160099 -0.0194202 -0.0119119 -0.0230823
          -0.0123724 -0.0154299 -0.0119119 -0.0189799 -0.0123724 -0.0230823
          0.209684 0.206217 0.207587 0.20772 -0.0148749 -0.0182575
          -0.0136238 -0.0148438 -0.0136238 -0.0182575 -0.0149688 -0.0112596
          -0.0148438 -0.0148291 -0.0182575 -0.0136238 0.167956 0.175241
          0.159808 0.177494 0.175241 0.167956 0.159808 0.164404
          0.0542283 0.0462572 0.0569851 0.0425605 0.0542283 0.0644344
          0.0569851 0.0462572 0.0598625 0.0569851 0.0644344 0.0462572
          0.0598625 0.0462572 0.0644344 0.0573615 0.0398736 0.0316273
          0.0377303 0.0462572 0.0979477 0.103022 0.105433 0.0854688
          0.0242505 0.0198756 0.0193801 0.0290872 0.0771923 0.0938046
          0.103022 0.0854688 0.0771923 0.0938046 0.0854688 0.0708505
          0.0708505 0.0938046 0.0854688 0.0755584 -0.0105912 -0.00945334
          -0.00918772 -0.0028024 -0.0105912 -0.0028024 -0.00918772 -0.00867676
          0.0854688 0.0938046 0.0907937 0.0755584 0.0854688 0.0938046
          0.103022 0.0907937 0.0854688 0.103022 0.105433 0.0907937
          -0.0170671 -0.013983 -0.0196889 -0.018722 -0.0208527 -0.0170671
          -0.0196889 -0.018722 -0.0196889 -0.018722 -0.0233217 -0.0208527
          0.0408597 0.0269252 0.0314598 0.0274887 -0.0230668 -0.0226985
          -0.0230099 -0.0228191 -0.00885974 -0.00568058 0 -0.00274295
          -0.00568058 0 0 -0.00274295 -0.00274295 0
          -0.00792034 -0.00568058 -0.00567168 -0.00274295 -0.00792034 -0.00568058
          -0.0229088 -0.0265035 -0.0244722 -0.0208078 -0.0229473 -0.0229088
          -0.0244722 -0.0208078 -0.00802936 -0.00792034 -0.0144495 -0.0112998
          -0.0144495 -0.0172296 -0.00802936 -0.0112998 -0.0144495 -0.0172296
          -0.00945334 -0.00802936 -0.00802936 -0.0137133 -0.00945334 -0.0144495
          0.186107 0.172476 0.157546 0.164884 0.191383 0.186107
          0.157546 0.164884 -0.0196322 -0.0230668 -0.0192985 -0.0183736
          0.186532 0.186107 0.164884 0.157538 0.186107 0.157538
          0.186532 0.161112 0.186107 0.172476 0.164884 0.157538
          0.002157 -0.00357415 -0.0092143 -0.000896939 0.002157 -0.00357415
          -0.00547832 -0.0092143 -0.0116239 -0.0096646 -0.000896939 -0.0092143
          -0.0258844 -0.027155 -0.0285786 -0.0328352 -0.00582282 -0.012505
          -0.0108675 -0.00558348 0.0890911 0.087618 0.0822467 0.0788361
          -0.0138017 -0.0137133 -0.0123842 -0.0104118 -0.0208527 -0.0233181
          -0.0263881 -0.0222661 -0.00592964 -0.000652163 -0.0104118 -0.0100972
          -0.00592964 -0.000652163 -0.00669586 -0.0104118 -0.0104118 -0.00669586
          -0.0194191 -0.0137133 0.115204 0.112603 0.124021 0.128374
          0.130461 0.115204 0.124021 0.128374 0.0337856 0.0253005
          0.0286583 0.0286129 0.162658 0.158359 0.158108 0.168468
          -0.00573392 -0.0136444 -0.0137133 -0.00567168 -0.0231358 -0.0190831
          -0.0160708 -0.0135297 0.00314345 -0.000652163 -0.00236831 -0.00573392
          0.158359 0.168468 0.173451 0.159521 0.13798 0.130995
          0.137646 0.132309 0.158108 0.172735 0.168468 0.164995
          0.13798 0.130995 0.142446 0.137646 0.173451 0.184652
          0.178104 0.168468 0.130461 0.137646 0.128374 0.140479
          0.145332 0.137646 0.15615 0.140479 0.145332 0.144846
          0.15615 0.137646 0.034123 0.0337856 0.033256 0.0380659
          -0.0266257 -0.024593 -0.0278619 -0.0214736 0.0179277 0.0117325
          0.0298849 0.0162593 0.0179277 0.0162593 0.0298849 0.0286583
          -0.00945334 -0.00689671 -0.00774175 -0.0119119 -0.00689671 -0.00885974
          -0.00774175 -0.0119119 -0.00774175 -0.00258287 -0.00689671 0.00315363
          0.102855 0.0979477 0.105433 0.0902591 -0.00800258 -0.00885974
          -0.0122964 -0.00832014 -0.00242298 -0.00291793 -0.00246694 0.00272913
          0.191383 0.19366 0.201668 0.190563 0.191383 0.157546
          0.19366 0.190563 0.157546 0.157546 0.19366 0.190563
          0.157546 0.157546 0.190563 0.195464 0.19366 0.157546
          0.193747 0.190563 0.197767 0.19366 0.193747 0.190563
          0.197767 0.190563 0.193747 0.18662 0.190563 0.157546
          0.193747 0.18662 0.193703 0.19547 0.199044 0.198948
          0.190563 0.19366 0.201668 0.200457 0.190563 0.195464
          0.192714 0.190872 0.0352555 0.0237462 0.0219777 0.0298849
          0.0162521 0.0128559 0.0182829 0.0211548 -0.00518367 -0.0194922
          -0.00844997 -0.00790509 0.202478 0.204341 0.202873 0.214152
          0.214152 0.209655 0.202873 0.202478 0.214152 0.209655
          0.202478 0.206388 0.202478 0.209655 0.202873 0.206388
          0.0887881 0.0864083 0.100045 0.102855 -0.0190663 -0.0155552
          -0.013258 -0.0109887 0.174978 0.182033 0.191337 0.188552
          0.188117 0.174978 0.182033 0.191337 0.0273064 0.0286129
          0.0205329 0.0399649 -0.00258287 -0.0113926 -0.000829893 -0.00261425
          0.19366 0.193747 0.204974 0.197767 0.190326 0.177184
          0.191337 0.185051 -0.0136116 -0.0119074 -0.0152272 -0.0116239
          -0.0136116 -0.0152272 -0.0164986 -0.0160099 -0.0216076 -0.0199511
          -0.018722 -0.0233283 0.0459501 0.0469226 0.0376533 0.0461789
          0.048595 0.0459501 0.0376533 0.0461789 0.0686452 0.0669415
          0.059831 0.0560029 0.0220357 0.00315363 0.0171097 0.015298
          -0.0113372 -0.00763762 -0.0114217 -0.00736322 0.137069 0.134046
          0.144542 0.133859 0.0171097 0.00315363 0.0116161 0.00881202
          0.0220357 0.0116161 0.00315363 0.015298 -0.016529 -0.0196889
          -0.013983 -0.014032 0.0461789 0.048595 0.0542317 0.0560029
          0.0574548 0.048595 0.0461789 0.0560029 0.0574548 0.048595
          0.0560029 0.0603311 0.113705 0.133859 0.126608 0.124021
          0.00511759 0.00315363 0.0171097 0.011498 0.0418834 0.0567763
          0.0290652 0.0443525 0.113705 0.126608 0.120611 0.107651
          0.0418834 0.0562813 0.0461789 0.0410843 0.203436 0.201144
          0.20972 0.211685 -0.0113926 -0.00832014 -0.0145643 -0.0123724
          0.201144 0.191337 0.204341 0.203436 0.201144 0.203436
          0.182033 0.191337 -0.0153834 -0.0143869 -0.0207238 -0.0176287
          -0.00790509 -0.00518367 0.00518771 -0.00844997 0.201144 0.201059
          0.211685 0.208476 0.201144 0.201059 0.20972 0.211685
          0.0373622 0.0452618 0.0376533 0.0410123 0.0350187 0.0452618
          0.0376533 0.0373622 0.101278 0.0951538 0.082158 0.0876068
          0.0452618 0.048595 0.0376533 0.0461789 0.0452618 0.048595
          0.0461789 0.0574548 0.0452618 0.0461789 0.0562813 0.0574548
          0.0487597 0.048595 0.0574548 0.0603311 0.0461789 0.0494215
          0.0410843 0.0560029 -0.0130019 -0.011571 -0.0139074 -0.0119074
          -0.0139074 -0.0130019 -0.0141714 -0.011571 0.0461789 0.0542317
          0.0494215 0.0560029 0.011498 -0.00123409 0.00315363 0.00881202
          0.135678 0.123835 0.134811 0.139444 0.011498 0.00315363
          0.0171097 0.00881202 0.00511759 -0.00123409 0.00315363 0.011498
          0.0220357 0.0116161 0.0171097 0.00315363 -0.014032 -0.018722
          -0.0148555 -0.0169905 -0.00990728 -0.014032 -0.00958656 -0.0112139
          -0.00990728 -0.014032 -0.00736322 -0.00958656 0.153489 0.155697
          0.163992 0.171942 0.112603 0.124889 0.133859 0.124021
          0.153489 0.171942 0.163992 0.168015 -0.00743066 -0.00736322
          -0.013983 -0.014032 -0.00743066 -0.014032 -0.013983 -0.00958656
          -0.00743066 -0.00736322 -0.014032 -0.00958656 0.19799 0.18296
          0.212462 0.188117 0.212462 0.203436 0.20972 0.211685
          0.212462 0.210988 0.201335 0.226764 0.0773494 0.0745346
          0.0661042 0.0833102 0.101278 0.082158 0.0789107 0.0876068
          0.161112 0.182674 0.186532 0.18814 0.106138 0.120214
          0.117486 0.105919 0.105454 0.106138 0.117486 0.105919
          0.00439507 0.0103553 0.0218384 0.00805325 0.033256 0.0234298
          0.0162521 0.0285388 -0.013834 -0.0126841 -0.0170453 -0.0141354
          -0.0170453 -0.013834 -0.0141354 -0.0183736 0.0103553 0.0193801
          0.0218384 0.0208321 -0.0199922 -0.0145913 -0.0141205 -0.0202338
          -0.0272059 -0.0291402 -0.0227267 -0.0172296 0.191512 0.201059
          0.20972 0.201144 0.220331 0.211659 0.21001 0.20549
          -0.0230099 -0.0226985 -0.0210012 -0.0228191 -0.00123409 -0.00258287
          0.011498 0.00511759 0.173101 0.169726 0.16858 0.181619
          -0.00774175 -0.00389357 0.00511759 -0.00854844 -0.00854844 0.00511759
          -0.00774175 0.00445072 -0.0120806 -0.011571 -0.0130019 -0.0119074
          -0.00258287 0 -0.00123409 0 0 0
          -0.00258287 0 0 0 0 -0.00258287
          0 -0.000829893 0 -0.00258287 0 0
          -0.000829893 -0.00258287 0.0982124 0.102855 0.0876068 0.107829
          0 -0.00568058 -0.00885974 -0.00258287 0 0
          -0.00568058 -0.00258287 -0.00568058 0 -0.00123409 -0.00258287
          0.208726 0.191337 0.203436 0.204341 -0.00258287 0
          0 0.011498 0.00291065 0.00399531 0.00734161 -0.00354785
          -0.012453 0.00214633 -0.00354785 -0.009542 -0.00354785 0.00734161
          0.00291065 0.00122208 -0.0213928 -0.0194202 -0.0255065 -0.0243838
          0.00291065 0.00214633 0.00399531 -0.00354785 0.00720272 0.00872119
          0.0195752 0.0122846 0.00720272 0.000889392 0.0112354 0.0118026
          0.130721 0.129004 0.139724 0.145332 0.206131 0.209758
          0.207959 0.206806 0.206806 0.207458 0.206131 0.209758
          0.152407 0.145332 0.139724 0.159912 -0.00495345 -0.0116239
          -0.0082111 -0.00387143 0.189513 0.175677 0.196452 0.186773
          0.196452 0.175677 0.183963 0.186773 0.144542 0.152472
          0.160619 0.156432 0.0462572 0.0316273 0.0377303 0.0354946
          0.0112354 0.00720272 0.00807449 0.00346835 0.202424 0.209082
          0.193703 0.198948 0.14885 0.154811 0.159912 0.154438
          0.164995 0.147898 0.154811 0.159521 0.154811 0.165267
          0.164995 0.159521 -0.00259998 -0.0025162 0.00659017 -0.00297278
          -0.0025162 0.0116483 -0.00259998 0.00659017 -0.0025162 0.0116483
          0.00659017 0.0114024 0.209082 0.209082 0.193703 0.198948
          0.00171474 -0.00451249 -0.00195267 -0.00280863 -0.00451249 -0.00924211
          -0.00280863 -0.00790975 0.00805325 0.0179985 0.0208321 0.0286129
          -0.0142357 -0.0149544 -0.0140792 -0.015708 -0.0141714 -0.0149544
          -0.0142357 -0.015708 -0.0145549 -0.012453 -0.0096646 -0.0217282
          -0.0141714 -0.0142357 -0.0148438 -0.0132007 -0.0141714 -0.0149544
          -0.0148438 -0.0142357 0.196522 0.190326 0.191337 0.19974
          0.0237462 0.0243239 0.0291497 0.0358445 -0.0013081 0.00751687
          -0.00538913 0.00581802 -0.0013081 -0.00538913 -0.00575203 0.00581802
          -0.0013081 -0.00538913 -0.0122499 -0.00575203 0.0237462 0.0358445
          0.0298849 0.0352555 -0.0013081 0.00751687 0.00581802 0.0124576
          0.196522 0.191337 0.204341 0.19974 0.0586593 0.0525971
          0.0683191 0.0587091 -0.0107202 -0.0101753 -0.00792323 -0.00385141
          0.201335 0.191655 0.203196 0.201884 0.185483 0.191655
          0.196169 0.203196 0.185483 0.203196 0.196169 0.202873
          0.203196 0.21442 0.206865 0.209655 0.00881202 0
          0 -0.00558348 0.00881202 -0.00258287 0 0.011498
          0.217185 0.201335 0.208726 0.202873 -0.0113926 0
          -0.000829893 -0.0145643 0.207959 0.205583 0.202837 0.201088
          0.220233 0.218173 0.207959 0.205583 0.220233 0.218173
          0.217808 0.207959 0.140479 0.143248 0.148226 0.133411
          0.208722 0.217808 0.21194 0.207959 0.0310747 0.0373622
          0.0306672 0.034123 0.0310747 0.0306672 0.025274 0.034123
          0.205558 0.19366 0.197767 0.190563 0.034123 0.0306672
          0.025274 0.0293345 -0.00515665 -0.00280863 -0.00792323 -0.00790975
          0.00860304 0.0116209 0.00281491 0.00272913 -0.00515665 -0.00790975
          -0.00792323 -0.0174845 0.213993 0.214588 0.214157 0.205558
          0.213993 0.214157 0.200457 0.205558 0.205558 0.214157
          0.200457 0.205183 0.214157 0.205558 0.211585 0.205183
          0.214157 0.214588 0.211585 0.205558 0.205558 0.214588
          0.211585 0.205183 0.205558 0.210746 0.214588 0.205183
          0.05429 0.0430863 0.0440846 0.0522078 -0.0158793 -0.0153834
          -0.0134212 -0.0137665 -0.0158793 -0.0153834 -0.0137665 -0.0165645
          -0.0136116 -0.0116239 -0.00956248 -0.00932992 -0.00956248 -0.00387143
          0.00122208 -0.00932992 -0.00956248 -0.00795808 -0.00932992 0.00122208
          -0.00795808 -0.00556855 -0.00932992 0.00122208 -0.00932992 -0.00556855
          -0.00782457 0.00122208 -0.00244741 -0.00932992 -0.00782457 0.00122208
          -0.00932992 -0.00387143 0.00122208 -0.00244741 0.0787469 0.0760074
          0.0864083 0.074105 0.0912087 0.100469 0.0973892 0.108577
          -0.0132007 -0.0142357 -0.0117274 -0.00932992 -0.0132007 -0.0127052
          -0.0142357 -0.00932992 0.185051 0.189513 0.177184 0.175677
          0.189513 0.175677 0.185051 0.196452 0.0773494 0.0864083
          0.0900758 0.0880234 0.0773494 0.0864083 0.0880234 0.074105
          0.0773494 0.0787469 0.0864083 0.074105 -0.0136238 -0.00932992
          -0.0117274 -0.0082111 0.159912 0.145332 0.139724 0.154438
          0.135678 0.139444 0.146448 0.14137 0.168468 0.172735
          0.178104 0.164995 0.0864083 0.0947165 0.0880234 0.0975518
          0.177642 0.173101 0.187533 0.181619 -0.0190831 -0.0145549
          -0.0154396 -0.0136116 0.167289 0.173315 0.177642 0.173101
          0.215461 0.208476 0.212012 0.209758 0.215461 0.212012
          0.219487 0.209758 0.215461 0.219487 0.213279 0.209758
          0.213279 0.207959 0.209758 0.219487 0.133411 0.133859
          0.140479 0.143248 0.144542 0.143248 0.152818 0.140479
          0.204163 0.207458 0.209758 0.206714 0.209758 0.207458
          0.20717 0.206714 0.207156 0.209758 0.20717 0.206714
          0.205477 0.206865 0.209655 0.196169 0.205477 0.206865
          0.196169 0.199962 0.205477 0.196169 0.19024 0.199962
          0.205477 0.19024 0.196169 0.200946 -0.00937549 -0.0013081
          0.00396182 0.00117694 0.196169 0.19024 0.18922 0.200946
          0.19024 0.18922 0.178104 0.196169 0.196169 0.18922
          0.178104 0.185483 0.196169 0.206865 0.19024 0.199962
          0.195034 0.185483 0.188654 0.179018 0.157546 0.170417
          0.193391 0.157546 -0.00708896 0.00396182 -0.00974771 -0.00802552
          -0.00974771 0.00396182 -0.00708896 -0.00392801 -0.0123417 -0.00974771
          -0.00708896 -0.00392801 -0.00974771 -0.0143869 -0.0123417 -0.00708896
          -0.00974771 -0.00802552 -0.0013081 -0.00937549 -0.00974771 -0.0165645
          -0.00802552 -0.00937549 -0.00937549 -0.0165645 -0.0137665 -0.00974771
          -0.00779991 -0.00758936 -0.00813331 -0.0121593 -0.00974771 -0.0137665
          -0.0134212 -0.0153834 -0.00974771 -0.0165645 -0.0137665 -0.0153834
          -0.0153834 -0.0165645 -0.0135779 -0.00974771 -0.0135779 -0.0165645
          -0.00802552 -0.00974771 -0.0196342 -0.00509933 -0.0211183 -0.0169741
          -0.0196342 -0.00509933 -0.0169741 -0.0134986 0.152407 0.164404
          0.146448 0.152084 -0.0214942 -0.0134986 -0.0169741 -0.0144254
          -0.0144254 -0.00792034 -0.0169741 -0.0214942 -0.0169741 -0.00792034
          -0.0144254 0 0 -0.0169741 -0.0144254 0
          -0.0112998 -0.00792034 -0.0169741 0 -0.00792034 -0.0144495
          -0.0112998 -0.0169741 -0.00792034 -0.0144495 -0.0169741 -0.0214942
          -0.00885974 -0.00389357 -0.00258287 -0.00774175 -0.0190248 -0.0225709
          -0.0258844 -0.0292126 -0.0169741 -0.0134986 0 -0.0144254
          0.137669 0.117221 0.126046 0.124519 0.133423 0.117221
          0.137669 0.124519 0.133423 0.117221 0.124519 0.118881
          0.124519 0.117221 0.110913 0.118881 0.124519 0.105433
          0.110913 0.117221 0.124519 0.117221 0.126046 0.105433
          0.117221 0.119913 0.126046 0.105433 -0.00708896 -0.00444595
          -0.0135779 -0.00891908 -0.0199922 -0.0133016 -0.0197349 -0.0141205
          -0.0133016 -0.0153589 -0.0197349 -0.0141205 0.0876068 0.0883993
          0.0840752 0.0975518 0.203045 0.198766 0.195125 0.197168
          0.199269 0.195125 0.197168 0.203045 0.198766 0.197168
          0.190179 0.195125 0.199269 0.197168 0.200946 0.203045
          -0.0214736 -0.0210012 -0.0165645 -0.0182737 0.162658 0.173451
          0.158359 0.168468 0.154096 0.144846 0.156966 0.15615
          0.15615 0.144846 0.156966 0.140479 -0.00573392 -0.00567168
          -0.0137133 -0.0123842 0.000148197 0.00179271 5.77154e-05 0.00142708
          0.00142708 5.77154e-05 0.000148197 0 0.145332 0.159912
          0.152407 0.15615 0.145332 0.159912 0.15615 0.154438
          0.15615 0.159912 0.167289 0.154438 0.15615 0.159912
          0.152407 0.167289 0.0193801 0.0208321 0.0293345 0.0218384
          0.0587253 0.0525971 0.0586593 0.0587091 -0.0160099 -0.0145913
          -0.0127052 -0.0122501 -0.0160099 -0.0122501 -0.0127052 -0.0132007
          0.217295 0.204801 0.21001 0.215997 -0.00774175 -0.00389357
          -0.00258287 0.00511759 -0.0140942 -0.0158091 -0.0158793 -0.0138017
          0.0762337 0.0700203 0.0698236 0.0805584 0.0700203 0.0683191
          0.0698236 0.0805584 0.0700203 0.0683191 0.0805584 0.0787469
          0.0700203 0.0787469 0.0805584 0.0686452 0.0700203 0.0805584
          0.0745346 0.0686452 0.0745346 0.0805584 0.0773494 0.0686452
          0.0833102 0.0805584 0.0773494 0.0745346 0.0833102 0.0745346
          0.0817309 0.0805584 0.0887872 0.0833102 0.0817309 0.0805584
          0.0887872 0.0805584 0.0817309 0.0834849 0.0900758 0.0833102
          0.0887872 0.0805584 0.0833102 0.0805584 0.0900758 0.0773494
          0.0805584 0.0787469 0.0900758 0.0773494 0.0805584 0.0787469
          0.0773494 0.0686452 -0.0136116 -0.0082111 -0.00932992 -0.0132007
          0.017913 0.00282591 0.0112354 0.0130179 0.0822467 0.087618
          0.0931933 0.0776046 0.0494215 0.0542317 0.0571167 0.0560029
          0.0560029 0.0542317 0.0571167 0.0603311 0.0560029 0.0603311
          0.0571167 0.0606546 0.0560029 0.048595 0.0542317 0.0603311
          0.0560029 0.0669415 0.0562813 0.0574548 0.202424 0.202424
          0.21001 0.217383 0.175677 0.181466 0.189513 0.177184
          -0.0192985 -0.0230668 -0.0226985 -0.0210012 0.152407 0.145332
          0.148226 0.14137 0.0253005 0.0144698 0.0234298 0.0286583
          0.0234298 0.0182889 0.0144698 0.0253005 -0.00222087 -0.00274295
          -0.0122964 -0.00933978 0.189513 0.175677 0.186773 0.181466
          0.202424 0.212902 0.21001 0.217383 0.0665526 0.0661805
          0.0574548 0.0589262 0.21001 0.204801 0.208743 0.215997
          -0.0196889 -0.0190904 -0.0229088 -0.0181695 -0.0190904 -0.0160099
          -0.0194202 -0.0181695 -0.0225709 -0.0154396 -0.0207408 -0.0181695
          -0.0154396 -0.0145913 -0.0207408 -0.0181695 0.161112 0.150667
          0.132588 0.164884 -0.0208251 -0.0189799 -0.0122964 -0.0119119
          -0.0122964 -0.0189799 -0.00832014 -0.0119119 0.0271842 0.0316273
          0.0377303 0.0398736 -0.00220459 -0.00647079 -0.00444595 -0.00972851
          0.196142 0.187544 0.199269 0.187533 0.0573615 0.0518334
          0.0644344 0.0665526 0.0665526 0.0574548 0.0669415 0.0662311
          0.144338 0.159521 0.158701 0.14885 0.142522 0.14885
          0.144338 0.158701 0.144338 0.142522 0.158701 0.149548
          0.144338 0.134608 0.142522 0.149548 0.142522 0.13043
          0.134608 0.144338 0.142522 0.129622 0.13043 0.144338
          0.14885 0.129622 0.142522 0.144338 0.136079 0.129622
          0.14885 0.144338 0.136079 0.144338 0.14885 0.136588
          0.136079 0.129622 0.144338 0.136588 -0.0119074 -0.00870049
          -0.0092143 -0.0116239 -0.0119074 -0.00870049 -0.00924211 -0.0092143
          0.0622297 0.0753856 0.052365 0.079455 0.0280093 0.00805325
          0.0286129 0.0205329 -0.00918772 -0.00558348 -0.00123409 -0.0112998
          0.201335 0.201884 0.203196 0.217185 0.134811 0.141912
          0.139444 0.135619 -0.0172296 -0.0163913 -0.00867676 -0.00918772
          -0.015708 -0.0140792 -0.0166802 -0.0149544 0.157538 0.164884
          0.164884 0.182674 0.204801 0.196592 0.182674 0.18814
          0.0665526 0.0589262 0.0644344 0.0755584 0.169817 0.170536
          0.158127 0.169482 0.0274887 0.0157621 0.0218384 0.0208321
          0.195509 0.18894 0.186532 0.200623 -0.00774175 -0.0028024
          -0.00945334 -0.00728572 0.202424 0.197499 0.195509 0.212726
          0.00805325 0.0157621 0.0208321 0.0218384 0.00805325 0.0157621
          0.0218384 0.00439507 -0.0175454 -0.0175883 -0.0144463 -0.0174241
          -0.00891908 -0.0136701 -0.0135779 -0.0144463 -0.0148555 -0.0144463
          -0.00891908 -0.00958656 0.0157621 0.0163121 0.0218384 0.00439507
          0.164404 0.161787 0.172355 0.161158 -0.0258844 -0.0154396
          -0.020364 -0.0225709 0.0788018 0.0822467 0.0931933 0.0776046
          -0.0210012 -0.0201853 -0.0182737 -0.0216076 -0.0358302 -0.0328352
          -0.0258844 -0.0285786 -0.0358302 -0.0328352 -0.0315692 -0.0258844
          -0.0292126 -0.0258844 -0.0315692 -0.0328352 -0.0292126 -0.0225709
          -0.0258844 -0.0328352 0.201088 0.207187 0.205583 0.200457
          0.20972 0.212012 0.228263 0.224004 0.0354946 0.0316273
          0.028198 0.0425605 -0.0148555 -0.00972851 -0.0136701 -0.013983
          -0.0148555 -0.00743066 -0.00972851 -0.013983 -0.00891908 -0.00743066
          -0.00972851 -0.0148555 -0.00891908 -0.00972851 -0.0136701 -0.0148555
          0.194339 0.189513 0.195515 0.181466 -0.00220459 -0.00972851
          -0.00891908 -0.00743066 -0.00220459 -0.00209465 -0.00972851 -0.00743066
          -0.00220459 -0.00209465 -0.00558497 -0.00972851 0.157538 0.164884
          0.182674 0.161112 0.21001 0.196592 0.202424 0.182674
          0.157538 0.161112 0.182674 0.186532 -0.00209465 -0.00763762
          -0.00558497 -0.00972851 -0.00209465 -0.00763762 -0.00972851 -0.00736322
          -0.00209465 -0.00972851 -0.00743066 -0.00736322 -0.00743066 -0.00972851
          -0.013983 -0.00736322 -0.00972851 -0.00763762 -0.013983 -0.00736322
          -0.00972851 -0.00763762 -0.0118763 -0.013983 -0.00972851 -0.0118763
          -0.0139785 -0.013983 0.201088 0.201668 0.207187 0.200457
          0.152472 0.138683 0.143248 0.133859 -0.00558497 -0.00763762
          -0.0118763 -0.00972851 0.0367803 0.0298849 0.0286583 0.0430863
          0.0430863 0.05429 0.0399649 0.0565514 0.120747 0.1161
          0.124347 0.123835 0.120747 0.124347 0.134811 0.123835
          0.113647 0.123835 0.110602 0.1161 0.113647 0.122751
          0.110602 0.123835 0.123835 0.122751 0.110602 0.1161
          0.123835 0.122751 0.135619 0.131137 0.196187 0.19024
          0.199962 0.183818 0.196187 0.183818 0.199962 0.195296
          0.196187 0.183818 0.195296 0.187409 0.183818 0.19024
          0.199962 0.195296 0.170056 0.183818 0.19024 0.174973
          0.172355 0.170056 0.174973 0.183818 0.174973 0.172558
          0.172355 0.183818 0.174973 0.172558 0.183818 0.183313
          0.183818 0.172558 0.172355 0.183313 0.172355 0.170056
          0.183818 0.178653 0.183818 0.178653 0.177642 0.172355
          0.183818 0.178653 0.189703 0.177642 0.170056 0.178653
          0.19024 0.183818 -0.021604 -0.0188305 -0.0207238 -0.0175883
          -0.0205373 -0.021604 -0.0175883 -0.0188305 -0.0205373 -0.0175883
          -0.014765 -0.0188305 -0.0175883 -0.0205373 -0.014765 -0.0174241
          0.146458 0.133938 0.13303 0.138683 -0.0175454 -0.0205373
          -0.0175883 -0.0174241 -0.0175454 -0.021604 -0.0175883 -0.0205373
          -0.0192985 -0.0230668 -0.0210012 -0.0230099 0.123145 0.120611
          0.133938 0.12941 -0.0175883 -0.0207238 -0.0143869 -0.014765
          -0.0175883 -0.0188305 -0.0207238 -0.014765 0.00346835 -0.00385141
          0.00273212 -0.00297278 0.00346835 -0.00297278 0.00273212 0.00682162
          0.00273212 -0.00385141 -0.00357415 -0.00297278 -0.00297278 -0.00259998
          -0.00357415 0.00273212 0.00273212 -0.00280863 -0.00357415 -0.00385141
          0.00273212 -0.00280863 -0.00195267 -0.00357415 -0.00956248 -0.00354785
          -0.00387143 -0.0096646 -0.0213178 -0.0243838 -0.0229088 -0.0262545
          0.00273212 0.00736987 0.002157 0.0117325 0.00659017 0.00736987
          0.00273212 0.0117325 0.201668 0.195509 0.200623 0.207616
          0.167956 0.159808 0.166766 0.177494 0.212726 0.197499
          0.195509 0.213783 0.207616 0.201668 0.195509 0.212726
          0.00117694 -0.0028024 -0.00728572 -0.00937549 0.224004 0.20972
          0.233462 0.228263 0.0573615 0.0487597 0.0574548 0.0586593
          -0.023841 -0.0189528 -0.0174845 -0.0101753 -0.0189528 -0.0183532
          -0.014668 -0.00638178 -0.0189528 -0.014668 -0.0101753 -0.00259998
          0.12399 0.13043 0.135619 0.121898 0.200623 0.21308
          0.206806 0.207187 0.131137 0.124889 0.122751 0.120069
          0.154096 0.154438 0.145829 0.15615 -0.0281423 -0.0231358
          -0.014668 -0.0189528 -0.0189528 -0.0231358 -0.014668 -0.0183532
          0.0789107 0.0902591 0.0743217 0.0843376 0.00682162 -0.00297278
          0.00531314 0.00518771 -0.009542 0.00214633 -0.00638178 0.00470713
          -0.0096646 0.00214633 -0.00638178 -0.009542 0.202424 0.190563
          0.193703 0.209082 -0.0092143 -0.0096646 -0.000896939 -0.00638178
          -0.00638178 -0.0092143 -0.00357415 -0.000896939 -0.0092143 -0.0096646
          -0.00638178 -0.014668 0.146966 0.145829 0.153668 0.154438
          0.146966 0.145829 0.154438 0.14066 0.146966 0.13798
          0.145829 0.14066 0.144702 0.142446 0.145829 0.13798
          0.0306672 0.0373622 0.0350187 0.0299189 0.034123 0.0373622
          0.0306672 0.0293345 0.0274887 0.0286063 0.0293345 0.0208321
          0.0274887 0.0286063 0.0373622 0.0293345 0.0286063 0.0299189
          0.0373622 0.0293345 0.0286063 0.0299189 0.0293345 0.0218384
          0.0286063 0.0218384 0.0293345 0.0208321 0.0286063 0.0305277
          0.0299189 0.0218384 0.0286063 0.0305277 0.0218384 0.0163121
          0.0286063 0.0163121 0.0218384 0.0157621 0.170536 0.177184
          0.185483 0.180809 0.170536 0.180809 0.185483 0.164995
          0.172735 0.170536 0.185483 0.164995 0.172735 0.177184
          0.185483 0.170536 0.172735 0.170536 0.163992 0.177184
          0.172735 0.170536 0.150211 0.163992 0.170536 0.162405
          0.150211 0.163992 0.170536 0.162405 0.163992 0.177184
          0.0182889 0.0193801 0.0253005 0.025274 0.0293345 0.0193801
          0.025274 0.0253005 -0.0186226 -0.0153589 -0.0131838 -0.0122557
          -0.0203499 -0.0174241 -0.0169905 -0.0186226 -0.0186226 -0.0188305
          -0.0131838 -0.0153589 0.0586593 0.0603311 0.0669415 0.0683191
          0.0586593 0.0574548 0.0669415 0.0603311 0.0586593 0.0487597
          0.0574548 0.0603311 0.0603311 0.0586593 0.0487597 0.0542317
          0.0603311 0.052463 0.0586593 0.0542317 0.0586593 0.052463
          0.0487597 0.0542317 0.0586593 0.052463 0.0524165 0.0487597
          -0.0139074 -0.0119074 -0.0152272 -0.0136116 -0.0139074 -0.0119074
          -0.0136116 -0.0116239 -0.0139074 -0.011571 -0.0152272 -0.0119074
          -0.0152272 -0.0130069 -0.011571 -0.0139074 0.208726 0.201335
          0.203436 0.191337 0.201335 0.208726 0.203436 0.212462
          0.201335 0.22363 0.208726 0.212462 0.22363 0.212462
          0.228487 0.208726 0.22363 0.208726 0.228487 0.22252
          0.22363 0.208726 0.22252 0.214152 0.00239008 -0.00968941
          -0.00518367 -0.00790509 0.22252 0.208726 0.228487 0.211685
          0.208726 0.212462 0.228487 0.211685 0.208726 0.203436
          0.212462 0.211685 -0.00518367 0.00805325 0.00518771 -0.00844997
          0 0 -0.00258287 -0.00832014 0 -0.00832014
          -0.00258287 -0.00885974 -0.00885974 -0.00274295 0 -0.00832014
          -0.00258287 -0.00832014 -0.0113926 -0.00885974 -0.00258287 -0.00832014
          -0.000829893 -0.0113926 -0.00258287 0 -0.000829893 -0.00832014
          -0.00832014 0 -0.000829893 -0.0113926 0 -0.00677239
          0 -0.00832014 0 -0.00677239 -0.00832014 -0.00933978
          -0.00933978 -0.00677239 -0.00832014 -0.0189799 -0.00832014 -0.00677239
          -0.0145643 -0.0189799 -0.00832014 -0.0189799 -0.0145643 -0.0123724
          -0.00832014 -0.0189799 -0.0123724 -0.0119119 0 -0.00677239
          -0.0145643 -0.00832014 0.133859 0.138683 0.143248 0.131137
          -0.0231358 -0.0145549 -0.0217282 -0.0303915 -0.0231358 -0.0258844
          -0.0145549 -0.0303915 -0.0231358 -0.0190831 -0.0145549 -0.0258844
          -0.0190831 -0.0096646 -0.0231358 -0.0145549 -0.0190831 -0.0145549
          -0.0258844 -0.0225709 -0.0190831 -0.0154396 -0.0145549 -0.0225709
          -0.0145549 -0.0154396 -0.0258844 -0.0225709 -0.0145549 -0.0154396
          -0.020364 -0.0258844 -0.0145549 -0.0258844 -0.020364 -0.0303915
          -0.0217282 -0.0145549 -0.020364 -0.0303915 -0.0145549 -0.020364
          -0.012453 -0.0217282 0.00138132 0.0163121 0.0157621 0.00439507
          0.206217 0.197156 0.204801 0.207587 0.0931933 0.101522
          0.107239 0.0923879 -0.012453 -0.0116304 -0.020364 -0.0145549
          -0.012453 0.00291065 -0.0116304 -0.00354785 0.206879 0.212344
          0.203573 0.207163 0.203573 0.207163 0.204081 0.204702
          0.200919 0.207163 0.203573 0.204702 -0.0240496 -0.0331804
          -0.0291402 -0.0266664 -0.0235412 -0.0233283 -0.0199511 -0.0203499
          0.19366 0.204974 0.205558 0.197767 -0.0160708 -0.0136116
          -0.0208321 -0.0152272 -0.0160708 -0.0152272 -0.0208321 -0.0121593
          -0.0160708 -0.0208321 -0.0230441 -0.0121593 -0.0121593 -0.0179375
          -0.0208321 -0.0230441 -0.0121593 -0.0179375 -0.0152272 -0.0208321
          -0.0208321 -0.0194202 -0.0179375 -0.0152272 -0.0216076 -0.0203499
          -0.018722 -0.0199511 0.161158 0.148226 0.15615 0.152818
          0.14137 0.152084 0.148226 0.152407 0.0311635 0.0461789
          0.0317288 0.0323901 -0.0194922 -0.00620229 -0.00790509 -0.00557288
          -0.00620229 -0.0162538 -0.0107202 -0.00297278 0.0323901 0.0311635
          0.0228469 0.0317288 0.0410123 0.0461789 0.0311635 0.0323901
          0.00551842 0.00860304 0.0120482 0.012652 0.00346835 0.00682162
          0.00273212 0.00860304 0.00346835 0.00860304 0.00551842 0.012652
          0.00551842 0.00860304 0.00272913 0.0120482 0.152453 0.154438
          0.163601 0.165267 0.158562 0.162741 0.163601 0.152453
          0.167298 0.158562 0.163601 0.160485 0.002157 -0.000896939
          -0.00547832 -0.00495345 0.002157 -0.000896939 -0.00495345 0.00593033
          -0.00495345 -0.0092143 -0.0116239 -0.000896939 -0.000896939 -0.0116239
          -0.00495345 -0.00387143 0.0770506 0.0864855 0.0929514 0.0927801
          0.100582 0.0864855 0.0927801 0.0929514 -0.00811258 -0.0112891
          -0.0112596 -0.00495345 -0.00811258 -0.00495345 -0.0112596 0.00272844
          0.0729893 0.0708505 0.0854688 0.0760074 -0.0208346 -0.0155552
          -0.0190663 -0.0181165 -0.0236808 -0.0105912 -0.0172296 -0.00867676
          0.129622 0.127401 0.13043 0.120704 -0.0105912 -0.00918772
          -0.0172296 -0.00867676 0.13043 0.127401 0.130721 0.120704
          0.127401 0.129004 0.130721 0.120704 0.136079 0.139724
          0.142522 0.129622 0.14885 0.142522 0.136079 0.139724
          0.139724 0.132309 0.145332 0.129004 0.14066 0.132309
          0.139724 0.129004 0.168468 0.164995 0.178104 0.159521
          0.161767 0.158821 0.142413 0.154881 0.161767 0.158821
          0.154881 0.169506 0.188552 0.161767 0.154881 0.169506
          0.161767 0.169506 0.188552 0.185051 0.174978 0.161767
          0.188552 0.185051 0.174978 0.169506 0.161767 0.185051
          0.174978 0.158821 0.161767 0.169506 0.0390706 0.0434323
          0.0506437 0.0459501 0.0390706 0.0350187 0.0434323 0.0366424
          0.0179277 0.0243239 0.0116209 0.0291497 0.0116209 0.0243239
          0.0101408 0.0291497 0.0116209 0.0112742 0.0101408 0.0243239
          -0.00505826 -0.0145913 -0.00748686 -0.0141205 -0.0141205 -0.00840171
          -0.00748686 -0.00505826 0.126608 0.120611 0.134091 0.133938
          0.133938 0.123145 0.13303 0.138683 -0.0216076 -0.0201853
          -0.0182737 -0.0203499 -0.0203499 -0.0226985 -0.0216076 -0.0201853
          -0.0226985 -0.0216076 -0.0233283 -0.0203499 -0.0230668 -0.0228191
          -0.0230099 -0.025715 0.133938 0.120611 0.134091 0.12941
          -0.0226985 -0.0233217 -0.0233283 -0.0216076 -0.0255065 -0.0287216
          -0.0243838 -0.0292126 -0.0243838 -0.0287216 -0.0229088 -0.0262545
          0.00399531 0.0113415 0.00291065 0.00734161 0.00399531 0.0113415
          0.00734161 0.018267 0.00214633 0.0113415 0.00399531 0.018267
          0.00399531 0.00214633 0.018267 0.0159591 0.0743217 0.0587253
          0.0729893 0.0571414 0.00214633 0.0113415 0.00291065 0.00399531
          -0.00387143 0.00399531 0.00734161 0.00272844 -0.00387143 -0.000896939
          0.00399531 0.00272844 -0.0096646 0.00399531 -0.00387143 -0.000896939
          -0.000896939 0.00272844 0.00593033 0.00399531 0.164995 0.147898
          0.152042 0.154811 0.152042 0.165267 0.164995 0.154811
          0.152042 0.152453 0.154811 0.146215 0.152453 0.154438
          0.154811 0.146215 0.152453 0.154438 0.165267 0.154811
          0.154811 0.165267 0.159912 0.154438 0.154811 0.159912
          0.165267 0.170056 0.146215 0.14066 0.154438 0.154811
          0.191231 0.195535 0.19547 0.193837 0.0638031 0.0766004
          0.0850216 0.0666313 0.0638031 0.0770506 0.0850216 0.0766004
          0.0770506 0.0880234 0.0850216 0.0766004 0.0770506 0.0864855
          0.0880234 0.0766004 0.0880234 0.0773494 0.074105 0.0766004
          0.0298849 0.0358445 0.0349354 0.0478477 0.0298849 0.0478477
          0.0349354 0.046858 0.0298849 0.0358445 0.0291497 0.0349354
          0.0298849 0.0291497 0.0179277 0.0349354 -0.0028024 0.00315363
          -0.00774175 -0.00689671 0.152818 0.15615 0.156966 0.140479
          0.156966 0.144542 0.152818 0.140479 0.156966 0.144542
          0.156432 0.152818 0.0430863 0.046858 0.0337856 0.039635
          0.152818 0.156432 0.16858 0.152472 0.0285388 0.033256
          0.0337856 0.039635 0.152472 0.152084 0.168797 0.152818
          0.132309 0.137646 0.145332 0.129004 0.132309 0.125046
          0.137646 0.129004 0.144542 0.152472 0.156432 0.152818
          0.0399649 0.0301693 0.0440846 0.0286129 -0.00274295 0.000148197
          0 0 0.000148197 0 0 0
          0.000148197 5.77154e-05 0 0 0.000148197 5.77154e-05
          0.00244057 0 0.000148197 0.00244057 -0.00373127 0
          -0.00792034 0.000148197 -0.00373127 0 0.000148197 -0.00792034
          0 0 0.00179271 5.77154e-05 0.00244057 0.000148197
          0.00314345 0.00179271 0.00244057 0.000148197 0.0296688 0.0314598
          0.0228469 0.0418834 -0.0190794 -0.0244722 -0.0244262 -0.0208078
          -0.0190794 -0.0208078 -0.0244262 -0.0222661 -0.0208078 -0.0244722
          -0.0244262 -0.0222661 0.162741 0.165267 0.170757 0.172557
          0.162741 0.170757 0.163779 0.172557 0.162741 0.170757
          0.154438 0.163779 0.162741 0.165267 0.154438 0.170757
          0.154438 0.167289 0.163779 0.170757 0.163779 0.167289
          0.173315 0.170757 0.163779 0.170757 0.173315 0.172557
          0.170757 0.173315 0.182344 0.167289 -0.0262545 -0.0207408
          -0.0240078 -0.0213178 -0.0155552 -0.013983 -0.00972851 -0.0139785
          -0.0112891 -0.0082111 -0.0112596 -0.00495345 -0.0190663 -0.0150344
          -0.013258 -0.0155552 0.0661805 0.0755584 0.0912087 0.0812215
          0.0305277 0.0268177 0.0218384 0.0206331 0.0305277 0.0328383
          0.0268177 0.0206331 0.0305277 0.0299189 0.0268177 0.0328383
          0.0305277 0.0299189 0.0218384 0.0268177 0.0218384 0.0268177
          0.0299189 0.0193801 0.0206331 0.0258741 0.0328383 0.0268177
          0.0258741 0.0328383 0.0268177 0.0351891 0.0258741 0.0268177
          0.0290872 0.0351891 0 0 -0.0112998 -0.00558348
          -0.00558348 -0.0112998 -0.0169741 0 0.00720272 0.00872119
          0.00807449 0.00171474 0.0290872 0.0268177 0.0308707 0.0351891
          0.0268177 0.0308707 0.0242505 0.0290872 0.0268177 0.0328383
          0.0308707 0.0351891 0.0268177 0.0308707 0.0328383 0.038873
          -0.0173367 -0.0104118 -0.0137133 -0.0138017 0.0587253 0.0586593
          0.0662311 0.0587091 0.0662311 0.0574548 0.0669415 0.0586593
          0.0586593 0.0669415 0.0662311 0.0683191 0.0662311 0.0708505
          0.0760074 0.0669415 0.0760074 0.0662311 0.0669415 0.0683191
          0.0573615 0.0574548 0.0662311 0.0586593 0.0573615 0.0586593
          0.0662311 0.0587253 -0.0240496 -0.0166292 -0.0173367 -0.0172296
          -0.0240496 -0.0173367 -0.0291402 -0.0172296 -0.0173367 -0.0240496
          -0.0291402 -0.0266664 -0.0190485 -0.0266664 -0.0240496 -0.0173367
          -0.0190485 -0.0173367 -0.0240496 -0.0166292 -0.0173367 -0.0266664
          -0.02144 -0.0190485 -0.00790509 0.00805325 0.00518771 -0.00518367
          0.202478 0.212344 0.207163 0.204341 0.00805325 -0.00518367
          0.00439507 0.0103553 0.202478 0.214152 0.212344 0.21161
          0.214152 0.22252 0.212344 0.21161 0.208726 0.21161
          0.201144 0.203436 -0.0129236 -0.0101753 -0.00385141 -0.00297278
          -0.0129236 -0.0101753 -0.00297278 -0.00259998 -0.0129236 -0.00259998
          -0.00297278 -0.0025162 -0.0129236 -0.00297278 -0.00557288 -0.0025162
          0.121898 0.120704 0.13043 0.130721 0.121898 0.13043
          0.135619 0.130721 0.13043 0.121898 0.123871 0.120704
          0.121898 0.11548 0.123871 0.120704 0.121898 0.11548
          0.120704 0.111919 0.121898 0.111919 0.120704 0.110644
          0.121898 0.11548 0.111919 0.112423 0.112423 0.110602
          0.111919 0.121898 0.0306672 0.0350187 0.0308707 0.0299189
          -0.00385141 -0.00792323 -0.00790975 -0.0101753 -0.00385141 -0.00792323
          -0.00280863 -0.00790975 -0.00790975 -0.0101753 -0.00792323 -0.0174845
          -0.0189528 -0.0183532 -0.00638178 -0.00834823 0.00860304 0.0179277
          0.0116209 0.00272913 0.00551842 0.00273212 0.00281491 0.00860304
          -0.0189528 -0.0242568 -0.0183532 -0.00834823 -0.00790975 -0.0092143
          -0.00357415 -0.0101753 0.118881 0.117221 0.100045 0.111952
          0.0938046 0.0780915 0.0973892 0.0755584 0.0973892 0.0780915
          0.0854695 0.0755584 0.0973892 0.0755584 0.0854695 0.0734123
          0.110293 0.120214 0.106138 0.111952 0.0938046 0.0973892
          0.0907937 0.0755584 0.0734123 0.100469 0.0854695 0.0973892
          0.0812215 0.100469 0.0734123 0.0973892 0.117661 0.120214
          0.129887 0.111952 0.207944 0.208821 0.209032 0.199139
          -0.0272059 -0.0214942 -0.0169741 -0.0164299 0.0545899 0.0452618
          0.0589262 0.0480379 0.0545899 0.0410123 0.0452618 0.0480379
          0.0480379 0.0443525 0.0545899 0.0410123 0.186254 0.164907
          0.173451 0.163832 0.186254 0.164907 0.163832 0.174973
          0.162658 0.163832 0.173451 0.164907 0.0408597 0.0480379
          0.0382249 0.0274887 0.0382249 0.0480379 0.0373622 0.0274887
          0.052365 0.0480379 0.0373622 0.0382249 0.052365 0.0480379
          0.0452618 0.0373622 0.0480379 0.0452618 0.0589262 0.052365
          0.0480379 0.0410123 0.0452618 0.0373622 0.0480379 0.0410123
          0.0373622 0.0274887 0.162658 0.152634 0.163832 0.164907
          0.0708505 0.0755584 0.0854688 0.0784927 0.140479 0.137646
          0.128374 0.133411 -0.0105912 -0.00867676 0.00751687 -0.0028024
          -0.0105912 -0.0028024 0.00751687 -0.0013081 0.19974 0.200919
          0.196522 0.19942 -0.0013081 -0.0122499 -0.0105912 -0.00937549
          -0.0236808 -0.0166292 -0.0172296 -0.0105912 0.0573615 0.0662311
          0.0708505 0.0587253 -0.0105912 -0.00945334 -0.0172296 -0.00918772
          0.0179277 0.0237462 0.0291497 0.0298849 0.0179277 0.0243239
          0.0291497 0.0237462 0.0237462 0.0116209 0.0179277 0.0243239
          0.0298849 0.0237462 0.0162593 0.0117325 0.0117325 0.0237462
          0.0162593 0.00531314 0.0117325 0.00659017 0.0237462 0.00531314
          -0.0181023 -0.0139785 -0.0170671 -0.0181165 -0.0181023 -0.0208527
          -0.0233181 -0.0181165 -0.00804012 -0.00505826 -0.0145913 -0.00795808
          0.0237462 0.0445074 0.028966 0.0358445 0.0237462 0.0445074
          0.0358445 0.0352555 0.034123 0.0253005 0.0337856 0.0380659
          0.143817 0.142636 0.133938 0.134091 0.00518771 -0.00620229
          5.4393e-05 -0.00297278 -0.00297278 -0.00620229 0.00531314 0.00518771
          -0.00297278 -0.00557288 0.00531314 -0.00620229 -0.0189119 -0.0139785
          -0.0170671 -0.0181023 -0.00790509 -0.00620229 -0.00844997 0.00518771
          -0.00844997 -0.00620229 5.4393e-05 0.00518771 -0.00844997 -0.00620229
          -0.0107202 5.4393e-05 -0.00844997 -0.0162538 -0.0107202 -0.00620229
          0.0709968 0.0574548 0.0669415 0.0661805 0.0709968 0.0562813
          0.0574548 0.0661805 0.112603 0.113705 0.123145 0.107239
          0.0567763 0.0661805 0.0557325 0.0709968 0.112603 0.0951538
          0.113705 0.107239 0.0661805 0.0567763 0.0562813 0.0545899
          0.0562813 0.0545899 0.0589262 0.0661805 0.0661805 0.0562813
          0.0574548 0.0589262 0.0522078 0.0440846 0.0571591 0.0382249
          0.140479 0.137646 0.133411 0.145332 0.0661805 0.0567763
          0.0545899 0.066893 0.0661805 0.066893 0.0734123 0.0812215
          -0.0190904 -0.0213928 -0.0229088 -0.0181695 -0.0190904 -0.0194202
          -0.0213928 -0.0181695 0.162067 0.161767 0.143736 0.162762
          -0.0262545 -0.0315591 -0.02635 -0.027155 0.188117 0.191512
          0.212462 0.203436 0.188117 0.191337 0.191512 0.203436
          0.188117 0.191337 0.182033 0.191512 0.191512 0.188117
          0.162067 0.182033 0.191512 0.191337 0.182033 0.203436
          0.212462 0.203436 0.191512 0.20972 0.212462 0.191512
          0.20145 0.20972 0.191512 0.18296 0.212462 0.20145
          -0.0230097 -0.0175883 -0.0207238 -0.0153834 -0.0176287 -0.0143869
          -0.0207238 -0.0123417 -0.0176287 -0.0207238 -0.0230579 -0.0123417
          -0.0176287 -0.0123417 -0.0230579 -0.0154299 -0.00297843 -0.00758936
          -0.00779991 -0.00778189 -0.0229473 -0.0213928 -0.0255065 -0.0287216
          -0.00280863 0.00872119 0.00171474 -0.000885015 0.0380659 0.0208321
          0.0280093 0.0293345 0.00171474 -0.00280863 -0.00195267 0.00273212
          0.00171474 -0.000885015 -0.00416399 -0.00195267 0.00453341 -0.000885015
          -0.00416399 0.00171474 0.00171474 0.00872119 0.00453341 -0.000885015
          -0.00354785 -0.00413948 -0.00956248 -0.00795808 -0.00354785 0.00214633
          -0.0096646 -0.009542 -0.00354785 0.00214633 0.00399531 -0.0096646
          -0.00354785 0.00399531 -0.00387143 -0.0096646 -0.00354785 0.00399531
          0.00734161 -0.00387143 -0.00354785 0.00734161 0.00122208 -0.00387143
          0.112603 0.0923879 0.101522 0.101567 0.112603 0.101522
          0.107239 0.111976 0.20772 0.207587 0.207864 0.205092
          0.20772 0.207587 0.215997 0.207864 0.207864 0.207587
          0.215997 0.204398 0.207864 0.196452 0.207587 0.204398
          0.207587 0.196452 0.207864 0.205092 0.103903 0.099625
          0.110602 0.0972271 0.0999492 0.0972271 0.0947152 0.099625
          0.188552 0.169506 0.179696 0.185051 0.188552 0.154881
          0.179696 0.169506 0.207587 0.204801 0.215997 0.208743
          0.206131 0.207458 0.20717 0.209758 0.0587676 0.0430863
          0.0522078 0.0465084 0.0522078 0.0430863 0.0380659 0.0465084
          0.0648741 0.0741987 0.0571591 0.05429 0.0354946 0.0425605
          0.0350187 0.0310747 0.0310747 0.0431356 0.0354946 0.0425605
          0.0310747 0.0431356 0.040745 0.0354946 0.0257106 0.0310747
          0.040745 0.0354946 0.0257106 0.0354946 0.040745 0.0377303
          0.0257106 0.0189782 0.0354946 0.0377303 0.0189782 0.0354946
          0.0377303 0.0271842 0.0189782 0.028198 0.0354946 0.0271842
          0.0271842 0.028198 0.0354946 0.0316273 0.0271842 0.0354946
          0.0377303 0.0316273 0.0354946 0.0543441 0.040745 0.0377303
          0.0543441 0.0354946 0.0569851 0.0377303 0.0543441 0.0425605
          0.0569851 0.0354946 0.0542283 0.0543441 0.0354946 0.0425605
          0.0431356 0.0542283 0.0354946 0.0425605 0.0431356 0.0542283
          0.040745 0.0354946 0.0542283 0.0543441 0.040745 0.0354946
          0.182033 0.150667 0.132588 0.161112 0.182033 0.150667
          0.18814 0.188552 0.182033 0.150667 0.161112 0.18814
          0.182033 0.161767 0.132588 0.150667 0.182033 0.161767
          0.150667 0.154881 0.0854695 0.0679208 0.0644344 0.0569851
          0.0931933 0.0972271 0.103817 0.101522 0.195125 0.197168
          0.190179 0.18922 0.197168 0.195125 0.199269 0.18922
          -0.0013081 0.00751687 0.0124576 0.00117694 0.00117694 -0.0105912
          -0.0028024 -0.00937549 -0.00779991 -0.0121593 -0.00924211 -0.0139621
          0.175067 0.168797 0.169726 0.181619 -0.00778189 -0.0121593
          -0.00779991 -0.0139621 0.202094 0.19974 0.206217 0.20772
          0.206217 0.19974 0.207587 0.20772 0.206217 0.19974
          0.197156 0.207587 0.19974 0.196452 0.197156 0.207587
          0.19974 0.196452 0.207587 0.205092 0.20772 0.19974
          0.207587 0.205092 0.205092 0.189513 0.19974 0.196452
          0.215988 0.213993 0.212756 0.216517 0.19974 0.189513
          0.197156 0.196452 0.189513 0.190326 0.19974 0.197156
          0.19974 0.190326 0.191337 0.197156 0.19974 0.191337
          0.204341 0.197156 -0.00259998 0.00918058 -0.00638178 0.00736987
          0.19332 0.206163 0.194862 0.207467 0.194862 0.206163
          0.21442 0.207467 -0.00259998 0.00470713 -0.00638178 0.00918058
          0.194862 0.206163 0.206865 0.21442 0.194862 0.19024
          0.206865 0.206163 0.194862 0.206865 0.19024 0.196169
          0.0999492 0.0986318 0.0947152 0.0936913 0.153668 0.154096
          0.163779 0.154438 0.0936913 0.0887872 0.0890911 0.0900758
          0.0936913 0.0890911 0.0887872 0.0834849 0.196522 0.189513
          0.194339 0.188654 0.196522 0.189513 0.188654 0.180809
          -0.0198355 -0.0190794 -0.0171241 -0.0208078 -0.0198355 -0.0171241
          -0.02037 -0.0208078 -0.0198355 -0.0171241 -0.0167969 -0.02037
          0.0638031 0.0687973 0.0766004 0.0628676 0.0638031 0.0628676
          0.0766004 0.0666313 -0.0164986 -0.0190904 -0.0171241 -0.0158084
          0.0628676 0.074105 0.0766004 0.0820835 0.0687973 0.074105
          0.0766004 0.0628676 -0.0208078 -0.0171241 -0.02037 -0.0190904
          -0.0208078 -0.0190794 -0.0171241 -0.0190904 -0.0190904 -0.0190794
          -0.0171241 -0.0158084 0.0975518 0.116529 0.102855 0.0982124
          0.187544 0.186408 0.199269 0.187533 0.195125 0.186408
          0.199269 0.187544 0.195125 0.187544 0.199269 0.18922
          0.195125 0.186408 0.187544 0.18922 0.0876068 0.0883993
          0.0982124 0.0931933 0.200946 0.18922 0.199269 0.187544
          0.200946 0.187544 0.199269 0.196142 0.187544 0.178653
          0.195296 0.183818 0.124889 0.133859 0.133411 0.143248
          -0.0170671 -0.0138364 -0.0163645 -0.0166802 -0.0170671 -0.0138364
          -0.0166802 -0.0140792 -0.016529 -0.0140792 -0.0170671 -0.0166802
          -0.0166802 -0.0138364 -0.0163645 -0.0140792 -0.0166802 -0.0140792
          -0.0163645 -0.0149544 -0.0164986 -0.0163645 -0.0166802 -0.0190904
          -0.0164986 -0.0166802 -0.015708 -0.0190904 -0.0164986 -0.0163645
          -0.015708 -0.0166802 0.0290652 0.0314598 0.0269252 0.00918623
          0.0290652 0.0443525 0.0269252 0.0314598 0.0418834 0.0443525
          0.0290652 0.0314598 0.00918623 0.0314598 0.0269252 0.0274887
          0.00918623 0.0314598 0.0274887 0.0188687 0.00918623 0.0228469
          0.0314598 0.0188687 -0.00515665 -0.0139621 -0.0144557 -0.0186334
          -0.00515665 -0.0139621 -0.00790975 -0.0144557 -0.00790975 -0.0144557
          -0.0092143 -0.0101753 -0.0144557 -0.0139621 -0.0160708 -0.0186334
          -0.0186334 -0.0264858 -0.0160708 -0.0144557 0.148473 0.164907
          0.158701 0.163832 0.165971 0.158701 0.164907 0.163832
          0.165971 0.163832 0.164907 0.172558 0.165971 0.158701
          0.163832 0.172558 0.172558 0.158701 0.163832 0.174973
          0.172558 0.163832 0.164907 0.174973 0.158701 0.174973
          0.170056 0.163832 0.158701 0.163832 0.170056 0.159521
          -0.0113372 -0.0118763 -0.00763762 -0.0124128 -0.0113372 -0.0124128
          -0.00763762 -0.00736322 -0.0113372 -0.00736322 -0.0114217 -0.0124128
          -0.0140792 -0.0113372 -0.0114217 -0.0124128 -0.0140792 -0.0124128
          -0.0114217 -0.0100386 -0.0124128 -0.00736322 -0.0114217 -0.0100386
          -0.0124128 -0.013983 -0.00763762 -0.00736322 -0.0124128 -0.0118763
          -0.00763762 -0.013983 0.133859 0.123145 0.138683 0.131137
          0.207959 0.205583 0.200513 0.202837 0.223803 0.207616
          0.214006 0.21308 0.124889 0.123145 0.133859 0.131137
          0.137646 0.120438 0.128374 0.125046 0.128374 0.137646
          0.125046 0.130721 0.223803 0.220233 0.21308 0.214006
          0.137646 0.145332 0.129004 0.130721 0.125046 0.137646
          0.129004 0.130721 0.137646 0.144846 0.15615 0.140479
          -0.00573392 -0.00191015 -0.00669586 -0.0136444 -0.00669586 -0.0136444
          -0.0137133 -0.00573392 0.00314345 -0.000652163 -0.00573392 -0.00669586
          -0.000652163 -0.00573392 -0.00669586 -0.0104118 -0.0060995 -0.00381637
          -0.0138459 -0.0140598 -0.0225709 -0.02635 -0.0207408 -0.0231921
          0.141912 0.156139 0.159808 0.149548 0.101278 0.0946563
          0.082158 0.0951538 -0.0208078 -0.0244722 -0.0263881 -0.0208527
          -0.0132007 -0.0136238 -0.0141714 -0.0139074 -0.0136238 -0.0139074
          -0.0132007 -0.0112891 0.105454 0.0929514 0.106138 0.0927801
          -0.0132007 -0.00932992 -0.0117274 -0.0136238 -0.0130019 -0.0139074
          -0.0136238 -0.0112891 -0.0136238 -0.0130019 -0.0141714 -0.0139074
          -0.0130019 -0.0148438 -0.0136238 -0.0141714 -0.0136238 -0.0148291
          -0.0182575 -0.0117274 0.0812215 0.100469 0.0973892 0.0912087
          0.0870368 0.0766004 0.0850216 0.0965456 0.108722 0.110913
          0.0982457 0.100045 0.0982457 0.100045 0.0965456 0.108722
          0.164404 0.164157 0.168797 0.175067 0.175067 0.152084
          0.168797 0.164404 0.164404 0.164157 0.175067 0.178071
          0.0850216 0.100582 0.0927801 0.0965456 0.0965456 0.0766004
          0.0850216 0.100582 0.0870368 0.0766004 0.0965456 0.100582
          0.0870368 0.100582 0.0965456 0.100045 0.0870368 0.0880234
          0.100582 0.100045 0.0870368 0.0766004 0.100582 0.0880234
          0.100582 0.0766004 0.0850216 0.0880234 0.0880234 0.0975518
          0.100582 0.100045 0.111952 0.100582 0.0975518 0.100045
          0.100045 0.111952 0.100582 0.108722 0.100045 0.100582
          0.0965456 0.108722 0.0965456 0.100582 0.105919 0.108722
          0.0965456 0.100582 0.0927801 0.105919 0.105454 0.100582
          0.105919 0.0927801 0.105454 0.106138 0.100582 0.0927801
          0.105454 0.106138 0.105919 0.100582 0.106138 0.120214
          0.105919 0.100582 0.100582 0.120214 0.105919 0.117661
          0.100582 0.117661 0.105919 0.108722 0.111952 0.117661
          0.100582 0.108722 0.111952 0.120214 0.100582 0.117661
          -0.0152272 -0.0130069 -0.0139074 -0.0163374 -0.0179375 -0.0110052
          -0.0121593 -0.0163374 -0.0194202 -0.0190904 -0.0163374 -0.0164986
          -0.0179375 -0.0194202 -0.02037 -0.0163374 -0.0179375 -0.02037
          -0.0167969 -0.0163374 -0.0179375 -0.0163374 -0.0152272 -0.0194202
          0.194862 0.207467 0.21442 0.201884 0.19332 0.207467
          0.194862 0.201884 0.191655 0.19332 0.194862 0.201884
          -0.0163374 -0.0164986 -0.0152272 -0.0194202 0.182205 0.19332
          0.191655 0.201884 0.182205 0.19332 0.201884 0.196
          0.19332 0.207467 0.201884 0.196 0.201884 0.210988
          0.201335 0.19799 0.00918058 0.00272844 0.00593033 0.0152541
          0.00918058 0.00593033 0.002157 0.0152541 -0.000896939 0.00593033
          0.002157 0.00918058 -0.000896939 0.00399531 0.00593033 0.00918058
          0.00470713 0.00399531 -0.000896939 0.00918058 0.00399531 0.00272844
          0.00593033 0.00918058 0.00399531 0.018267 0.00272844 0.00918058
          0.0702291 0.0587253 0.0729893 0.0743217 0.0743217 0.0702291
          0.0843376 0.0729893 0.0743217 0.0902591 0.0729893 0.0843376
          -0.0262545 -0.0240078 -0.0202338 -0.0213178 -0.0155552 -0.00972851
          -0.0109887 -0.0139785 0.0198756 0.0112354 0.0195752 0.0182198
          0.0198756 0.0103553 0.0112354 0.0193801 0.0258741 0.0282204
          0.0290872 0.0198756 0.0258741 0.0198756 0.0290872 0.0268177
          0.0198756 0.0258741 0.0206331 0.0268177 -0.00592964 -0.0126841
          -0.0104118 -0.013834 0.017913 0.0282204 0.0258741 0.0198756
          -0.00792034 -0.00568058 0 -0.0112998 -0.00792034 -0.00568058
          0 0 0.0127548 0.0060033 0.00281344 0.0120482
          0.151569 0.15071 0.14967 0.141297 0.141297 0.15071
          0.14967 0.133583 0.172941 0.155215 0.157538 0.161112
          0.139934 0.142413 0.161767 0.153489 0.139934 0.161767
          0.162067 0.153489 -0.0202338 -0.0179081 -0.0141205 -0.0169905
          0.0112354 0.0122846 0.00807449 0.00720272 0.153489 0.163992
          0.174978 0.168015 0.153489 0.163992 0.158821 0.174978
          0.0883993 0.0900758 0.0975518 0.0931933 0.0425605 0.048595
          0.0434323 0.0452618 0.0425605 0.0434323 0.0350187 0.0452618
          0.0350187 0.0434323 0.0376533 0.0452618 0.0434323 0.0350187
          0.0376533 0.0366424 0.0459501 0.0434323 0.0376533 0.0366424
          0.0376533 0.0434323 0.0459501 0.048595 0.0434323 0.048595
          0.0376533 0.0452618 0.0434323 0.0542317 0.0459501 0.048595
          0.0434323 0.0487597 0.0542317 0.048595 0.0434323 0.0487597
          0.052463 0.0542317 0.0434323 0.0414585 0.052463 0.0487597
          -0.0028024 0.00315363 0.0116161 0.015298 0.00315363 -0.0028024
          0.00117694 0.015298 0.152818 0.152472 0.169726 0.168797
          0.152818 0.152472 0.16858 0.169726 0.169726 0.156432
          0.16858 0.152818 0.156966 0.156432 0.169726 0.152818
          0.169726 0.15615 0.156966 0.152818 0.156966 0.173101
          0.15615 0.169726 0.156966 0.169726 0.16858 0.173101
          0.156966 0.156432 0.16858 0.169726 0.15615 0.167289
          0.169726 0.173101 0.169726 0.173101 0.167289 0.177642
          0.169726 0.152472 0.16858 0.168797 0.169726 0.168797
          0.16858 0.181619 0.0380659 0.0253005 0.0337856 0.0286129
          0.0380659 0.0430863 0.0337856 0.0465084 0.0430863 0.046858
          0.0286583 0.0337856 0.163832 0.149711 0.158701 0.144338
          0.163832 0.159521 0.158701 0.149711 0.149711 0.159521
          0.158701 0.144338 0.159521 0.149711 0.14885 0.144338
          0.159521 0.154811 0.14885 0.149711 0.159521 0.154811
          0.149711 0.143236 0.149711 0.154811 0.14885 0.143236
          0.143236 0.14885 0.149711 0.136588 0.149711 0.136588
          0.14885 0.144338 0.196452 0.188552 0.196158 0.183963
          0.196452 0.188552 0.207587 0.196158 0.204801 0.196158
          0.207587 0.188552 0.204801 0.182704 0.196158 0.188552
          0.00193013 0.00581802 -0.00802552 -0.00647079 0.00193013 0.00581802
          -0.00647079 0.00348826 -0.00647079 0.00581802 -0.00509489 0.00348826
          -0.00647079 0.00348826 -0.00509489 -0.00558497 0.214157 0.200457
          0.205583 0.207187 0.214157 0.207187 0.205583 0.220233
          -0.00647079 -0.0150344 -0.013258 -0.00509489 -0.00509489 -0.00647079
          -0.0150344 -0.00575203 -0.00647079 0.00581802 -0.00575203 -0.00509489
          -0.00802552 0.00581802 -0.00575203 -0.00647079 -0.00647079 -0.00802552
          -0.0150344 -0.00575203 0.202424 0.164884 0.182674 0.164884
          0.164884 0.202424 0.182674 0.202424 0.164884 0.202424
          0.191383 0.182674 0.182674 0.186107 0.191383 0.164884
          0.202424 0.191383 0.182674 0.198948 0.202424 0.198948
          0.182674 0.202424 0.182674 0.198948 0.196592 0.202424
          0.182674 0.191383 0.196592 0.198948 0.182674 0.18814
          0.201059 0.200623 0.182674 0.18814 0.200623 0.186532
          0.179018 0.165267 0.163601 0.172557 0.163601 0.162741
          0.172557 0.165267 0.163601 0.154438 0.162741 0.165267
          0.152453 0.154438 0.162741 0.163601 0.169455 0.162741
          0.172557 0.163601 0.163601 0.169455 0.179109 0.172557
          0.169455 0.179109 0.169482 0.163601 0.169455 0.169482
          0.179047 0.163601 0.00789246 -0.00246694 0.00818924 0.00281344
          0.129622 0.139724 0.142522 0.127401 0.13043 0.127401
          0.142522 0.130721 0.130487 0.140736 0.120214 0.133764
          0.119736 0.122155 0.133014 0.118159 0.106124 0.118159
          0.122155 0.119736 0.106124 0.118159 0.105454 0.117486
          0.106124 0.117486 0.122155 0.118159 0.118159 0.122155
          0.130487 0.117486 0.118159 0.122155 0.133014 0.130487
          -0.0108675 -0.0112998 -0.012505 -0.0169741 -0.0163913 -0.00918772
          -0.012505 -0.00388894 -0.031823 -0.0172296 -0.0260218 -0.0236808
          -0.00885974 -0.0123724 -0.0113926 -0.00389357 -0.0255886 -0.0194202
          -0.0190248 -0.0292126 -0.0201853 -0.0175454 -0.0203499 -0.0174241
          -0.0210149 -0.0201853 -0.0203499 -0.0174241 -0.0210149 -0.0175454
          -0.0201853 -0.0174241 -0.0201853 -0.021604 -0.0211097 -0.0175454
          0.14066 0.132309 0.145829 0.139724 -0.00638178 -0.0096646
          -0.009542 -0.0183532 0.00273212 0.0117325 0.0116209 0.00860304
          0.00273212 0.0117325 0.00860304 0.00682162 0.00860304 0.0117325
          0.0179277 0.00682162 0.00860304 0.00682162 0.0179277 0.0144698
          0.00860304 0.0179277 0.0120482 0.0144698 0.012652 0.00860304
          0.0120482 0.0144698 0.012652 0.00682162 0.00860304 0.0144698
          0.00860304 0.0179277 0.00272913 0.0120482 0.162762 0.182033
          0.143736 0.161112 0.18894 0.161112 0.182033 0.162762
          0.18296 0.191512 0.162067 0.162762 0.116529 0.129887
          0.12941 0.13303 0.129887 0.116529 0.12941 0.111952
          0.129887 0.12941 0.117221 0.111952 0.129887 0.12941
          0.133423 0.117221 0.12941 0.133423 0.142636 0.129887
          0.12941 0.129887 0.142636 0.13303 0.171942 0.163352
          0.163992 0.182185 0.12941 0.140251 0.142636 0.133423
          0.140251 0.117221 0.133423 0.12941 0.117221 0.140251
          0.119913 0.12941 0.117221 0.12941 0.119913 0.120611
          0.120611 0.117221 0.12941 0.116529 0.12941 0.116529
          0.117221 0.111952 0.12941 0.140251 0.119913 0.120611
          0.120611 0.140251 0.134091 0.12941 0.0562813 0.0410843
          0.0418834 0.0521145 0.0521145 0.0410843 0.05214 0.0560029
          0.0430357 0.059831 0.0532901 0.0521145 0.0430357 0.0521145
          0.05214 0.059831 0.207187 0.205583 0.207959 0.201088
          0.0700203 0.0650096 0.0644325 0.0603311 0.0120482 0.0179277
          0.0101408 0.0212416 0.0179277 0.0116209 0.0101408 0.0212416
          0.0179277 0.0116209 0.0212416 0.0291497 0.0349354 0.0291497
          0.0179277 0.0212416 0.0212416 0.0116209 0.0101408 0.0291497
          0.201059 0.182033 0.18814 0.196448 0.201059 0.18814
          0.204801 0.196448 0.196448 0.18814 0.204801 0.188552
          0.196448 0.182033 0.18814 0.188552 0.191337 0.182033
          0.196448 0.188552 0.191337 0.196448 0.197156 0.188552
          0.0162593 0.0298849 0.0286583 0.0273064 0.0148389 0.0298849
          0.0162593 0.0273064 0.0148389 0.0298849 0.0273064 0.0367803
          0.0273064 0.0298849 0.0286583 0.0367803 0.0273064 0.0367803
          0.0286583 0.0430863 0.0399649 0.0367803 0.0273064 0.0430863
          -0.0135297 -0.0096646 -0.014668 -0.0231358 0.0851948 0.0741987
          0.0753856 0.0749483 0.0741987 0.0648741 0.0587676 0.0749483
          0.0741987 0.0587676 0.0522078 0.0749483 0.0741987 0.0522078
          0.052365 0.0749483 0.0749483 0.0741987 0.0753856 0.052365
          0.151569 0.159808 0.161787 0.146448 0.149548 0.156139
          0.159808 0.161787 0.141912 0.156139 0.147666 0.159808
          0.0112354 0.00807449 0.01164 0.012652 0.0112354 0.0122846
          0.01164 0.00807449 0.217164 0.18894 0.207616 0.20972
          0.207616 0.212012 0.217164 0.20972 0.207616 0.212012
          0.223803 0.217164 -0.00558348 0 -0.0169741 -0.0108675
          0 0 -0.0169741 -0.0108675 0 -0.00509933
          -0.0169741 -0.0108675 -0.0169741 -0.00509933 -0.0211183 -0.0108675
          -0.0190663 -0.0237773 -0.0255281 -0.0193911 0.146448 0.161787
          0.151569 0.164404 0.146448 0.142522 0.14137 0.135619
          -0.0236808 -0.0253065 -0.0240496 -0.0163788 -0.0105912 -0.0236808
          -0.0163788 -0.00867676 0.139724 0.129004 0.130721 0.127401
          0.134811 0.141912 0.147666 0.139444 0.139444 0.124347
          0.134811 0.135619 0.134811 0.139444 0.141297 0.131935
          0.135678 0.139444 0.151569 0.146448 -0.00558348 0.00208091
          0 -0.00582282 -0.00558348 0 0 0.00208091
          0.00208091 0 0 -0.00582282 0.201884 0.194862
          0.203196 0.21442 0.191655 0.194862 0.203196 0.201884
          0.191655 0.194862 0.206865 0.203196 0.203196 0.194862
          0.206865 0.21442 -0.0163374 -0.0130069 -0.0139074 -0.0164986
          -0.0163374 -0.0110052 -0.0121593 -0.0130069 -0.0163374 -0.0167969
          -0.0110052 -0.0130069 -0.0130069 -0.0167969 -0.0171241 -0.0163374
          -0.0130069 -0.0163374 -0.0171241 -0.0158084 -0.0163374 -0.02037
          -0.0167969 -0.0171241 -0.0163374 -0.0190904 -0.02037 -0.0171241
          0.105919 0.112603 0.113705 0.124021 0.0430357 0.0532901
          0.0469546 0.0628676 0.0469546 0.0532901 0.0638031 0.0628676
          0.0628676 0.0532901 0.0638031 0.0687973 0.0687973 0.0661042
          0.0628676 0.0532901 0.0687973 0.0661042 0.074105 0.0628676
          0.074105 0.0628676 0.0661042 0.059831 0.0628676 0.0532901
          0.0661042 0.059831 0.195631 0.19547 0.204512 0.193837
          0.195631 0.190872 0.204512 0.19547 0.192714 0.19547
          0.204512 0.190872 0.192714 0.195464 0.19547 0.190872
          0.192714 0.195464 0.209082 0.19547 0.192714 0.209082
          0.204512 0.19547 0.209082 0.195464 0.190563 0.19547
          0.193703 0.209082 0.190563 0.19547 0.19547 0.195464
          0.190563 0.190872 -0.00451249 -0.00280863 -0.000885015 -0.000403006
          -0.00579035 -0.00451249 -0.000885015 -0.000403006 -0.000885015 -0.00579035
          -0.00658906 -0.00451249 -0.00451249 -0.00515665 -0.00280863 -0.000403006
          0.056094 0.0753856 0.052365 0.0622297 0.0269252 0.0274887
          0.0280093 0.0118281 0.0269252 0.0280093 0.0337659 0.0118281
          0.0269252 0.0274887 0.0337659 0.0280093 0.0382249 0.0280093
          0.0337659 0.0274887 0.0382249 0.0208321 0.0280093 0.0274887
          0.0280093 0.0208321 0.0382249 0.0293345 0.0280093 0.0208321
          0.0157621 0.0274887 0.0157621 0.00805325 0.0208321 0.0280093
          0.0118281 0.0337659 0.0105992 0.0280093 0.0280093 0.0337659
          0.0105992 0.0301693 0.0571591 0.05429 0.0440846 0.0522078
          0.197499 0.195509 0.194355 0.202424 0.195509 0.186107
          0.194355 0.202424 0.195509 0.186532 0.186107 0.202424
          0.174973 0.19024 0.178104 0.184652 0.186254 0.19024
          0.174973 0.184652 0.161787 0.159808 0.151569 0.164404
          0.00297451 0.0112742 -0.00291793 0.00272913 0.00281491 0.00297451
          -0.00291793 0.00272913 0.00281491 0.00297451 0.00272913 0.0116209
          0.00281491 0.0112742 0.00297451 0.0116209 0.00297451 0.0112742
          0.00272913 0.0116209 0.0972271 0.0900758 0.0931933 0.103817
          0.0947165 0.103817 0.0900758 0.0972271 0.0947165 0.0972271
          0.0900758 0.0946554 0.103817 0.0972271 0.101842 0.101522
          0.0972271 0.101842 0.110602 0.103817 0.099625 0.101842
          0.110602 0.0972271 0.0972271 0.0930471 0.099625 0.101842
          0.0972271 0.0930471 0.101842 0.101522 0.0972271 0.0930471
          0.0947152 0.099625 0.0679208 0.0543441 0.0542283 0.0569851
          -0.0137133 -0.00567168 -0.00802936 -0.0123842 -0.0137133 -0.00802936
          -0.00945334 -0.0123842 0.146966 0.153668 0.162741 0.154438
          0.082158 0.0694828 0.0789107 0.0743217 -0.0263881 -0.0233181
          -0.0261606 -0.0222661 -0.00802936 -0.00568058 -0.00885974 -0.00274295
          0.0876068 0.082158 0.0789107 0.0743217 -0.0172296 -0.00945334
          -0.00802936 -0.00918772 -0.0172296 -0.00802936 -0.0112998 -0.00918772
          -0.00918772 -0.0112998 -0.00123409 -0.00802936 0.0923879 0.0900582
          0.0814389 0.0757089 0.0923879 0.0814389 0.0951538 0.0757089
          0.0946563 0.0814389 0.082158 0.0951538 -0.0181695 -0.016529
          -0.0179081 -0.0196889 -0.0228191 -0.0269348 -0.0233217 -0.025715
          -0.0213178 -0.0181695 -0.0179081 -0.0196889 -0.0128792 -0.0145913
          -0.0179081 -0.0141205 0.172941 0.161112 0.186532 0.172367
          0.172941 0.186107 0.172367 0.186532 0.172941 0.186107
          0.194355 0.172367 0.172367 0.186107 0.194355 0.195509
          0.197499 0.172367 0.194355 0.195509 0.197499 0.172367
          0.195509 0.1901 0.195509 0.1901 0.172367 0.18894
          0.195509 0.172367 0.186532 0.18894 0.172367 0.186107
          0.195509 0.186532 0.172367 0.186532 0.18894 0.161112
          0.172367 0.161112 0.18894 0.162513 0.1901 0.172367
          0.18894 0.162513 0.131935 0.123835 0.134811 0.135678
          0.131935 0.123835 0.135678 0.122155 0.119736 0.122155
          0.131935 0.133014 0.130487 0.122155 0.131935 0.142273
          0.131935 0.135678 0.133764 0.122155 -0.0130824 -0.0105912
          -0.0166292 -0.00937549 -0.0130824 -0.00945334 -0.0172296 -0.0105912
          -0.00945334 -0.0105912 -0.0130824 -0.00937549 -0.0128792 -0.0179081
          -0.0169905 -0.0141205 0.21161 0.211685 0.201144 0.203436
          0.21161 0.22252 0.218332 0.211685 0.212344 0.22252
          0.218332 0.21161 0.21161 0.212344 0.213288 0.218332
          0.0103553 -0.00844997 -0.00518367 0.00282591 0.0103553 -0.00518367
          0.00439507 0.00282591 -0.0141205 -0.00840171 -0.0122557 -0.00748686
          -0.0141205 -0.0122557 -0.0112139 -0.00748686 -0.00840171 -0.0153589
          -0.0141205 -0.0122557 -0.00387143 -0.0082111 -0.00495345 0.00272844
          0.0130179 0.0198756 0.0206331 0.0193801 -0.00387143 -0.00244741
          -0.0082111 0.00272844 0.087618 0.0900758 0.0931933 0.0972271
          0.0930471 0.087618 0.0931933 0.0972271 0.0972271 0.0947152
          0.0930471 0.087618 0.142273 0.147962 0.15071 0.150589
          0.00789246 0.00281344 0.00818924 0.0120482 0.135678 0.151569
          0.15071 0.147962 0.146448 0.151569 0.135678 0.147962
          0.146448 0.151569 0.147962 0.152084 0.152084 0.164404
          0.151569 0.147962 0.152084 0.164404 0.147962 0.164157
          0.147962 0.164404 0.151569 0.164157 0.151569 0.164157
          0.15071 0.147962 0.147962 0.164157 0.15071 0.150589
          0.210655 0.208821 0.215487 0.209032 0.207944 0.210655
          0.215487 0.209032 0.207944 0.208821 0.210655 0.209032
          0.207944 0.208821 0.199139 0.210655 -0.0282544 -0.0164299
          -0.0211183 -0.0260218 0.210655 0.195535 0.199139 0.205583
          0.208821 0.195535 0.210655 0.205583 0.205583 0.211585
          0.210655 0.208821 0.205583 0.211585 0.214157 0.210655
          0.210655 0.211585 0.214157 0.208821 0.208821 0.195535
          0.199139 0.210655 0.195515 0.189513 0.197213 0.181466
          0.195515 0.181466 0.197213 0.187873 0.187873 0.185216
          0.195515 0.181466 0.205558 0.210746 0.212756 0.216517
          0.212756 0.210746 0.218651 0.216517 0.0518334 0.0589262
          0.0574548 0.0452618 0.0518334 0.0452618 0.0574548 0.048595
          0.0518334 0.0574548 0.0487597 0.048595 0.0518334 0.0487597
          0.0434323 0.048595 0.0425605 0.0518334 0.0434323 0.048595
          0.0425605 0.0452618 0.0518334 0.048595 0.0425605 0.0487597
          0.0434323 0.0518334 0.0900758 0.0947165 0.0864083 0.0883993
          0.0900758 0.0947165 0.0883993 0.0975518 0.0883993 0.0947165
          0.0864083 0.0975518 -0.0155552 -0.0150344 -0.013258 -0.00647079
          -0.0136701 -0.0150344 -0.0155552 -0.00647079 -0.0138017 -0.0158091
          -0.0158793 -0.013834 -0.0138017 -0.013834 -0.0158793 -0.0170453
          0.0103553 0.0193801 0.0130179 0.0218384 0.0130179 0.0103553
          0.0198756 0.0193801 0.00439507 0.0103553 0.0130179 0.0218384
          0.0130179 0.0193801 0.0206331 0.0218384 0.00439507 0.0130179
          0.0206331 0.0218384 0.00439507 0.00282591 0.0130179 0.0103553
          -0.0116239 -0.0082111 -0.0132007 -0.0112891 -0.0112891 -0.0082111
          -0.0132007 -0.0136238 -0.0082111 -0.00932992 -0.0132007 -0.0136238
          -0.0116239 -0.00387143 -0.00956248 -0.0082111 -0.0082111 -0.00244741
          -0.0112596 0.00272844 -0.00495345 -0.0082111 -0.0112596 0.00272844
          -0.0082111 -0.00244741 -0.0117274 -0.0112596 0.100582 0.0929514
          0.0927801 0.106138 0.100582 0.0864855 0.0929514 0.106138
          0.0506496 0.0573615 0.0462572 0.0598625 0.0462572 0.0443732
          0.0573615 0.0506496 0.0506496 0.0587253 0.0633308 0.0522908
          0.120747 0.123835 0.131935 0.122155 0.171942 0.182185
          0.163992 0.168015 0.13303 0.149966 0.146458 0.140736
          0.133764 0.13303 0.146458 0.140736 0.133764 0.146458
          0.155148 0.140736 0.146458 0.149966 0.155148 0.140736
          0.146458 0.149966 0.160619 0.155148 0.152472 0.146458
          0.160619 0.155148 0.146458 0.138683 0.152472 0.144542
          -0.0211097 -0.021604 -0.0215735 -0.0175883 0.0621636 0.0628676
          0.0666313 0.0776933 0.0621636 0.0628676 0.0776933 0.0709968
          0.0621636 0.0709968 0.0776933 0.0833424 -0.0215735 -0.021604
          -0.0230097 -0.0175883 -0.0215735 -0.0175883 -0.0230097 -0.0153834
          -0.0107099 -0.0133778 -0.0138459 -0.0140598 -0.00381637 -0.0107099
          -0.0138459 -0.0140598 -0.0107099 -0.00381637 -0.0060995 -0.0140598
          3.67282e-05 -0.0107099 -0.0060995 -0.0140598 3.67282e-05 -0.0107099
          -0.0140598 -0.00811258 3.67282e-05 -0.00547832 -0.0107099 -0.00811258
          3.67282e-05 -0.00547832 -0.00381637 -0.0107099 3.67282e-05 -0.00381637
          -0.0060995 -0.0107099 -0.00547832 -0.0133778 -0.00381637 -0.0107099
          -0.00381637 -0.0133778 -0.0138459 -0.0107099 -0.0140598 -0.0107099
          -0.0149688 -0.00811258 -0.00811258 -0.0107099 -0.0149688 -0.0112596
          -0.00811258 -0.0112891 -0.0107099 -0.0112596 -0.0107099 -0.0112891
          -0.00811258 -0.00495345 -0.0107099 -0.0112891 -0.0149688 -0.0112596
          -0.0107099 -0.0148749 -0.0149688 -0.0112891 -0.0107099 -0.0148749
          -0.0112891 -0.0120806 -0.0107099 -0.0112891 -0.00870049 -0.0120806
          -0.0231921 -0.0154396 -0.0172937 -0.0207408 -0.0207408 -0.02635
          -0.0172937 -0.0231921 0.0788018 0.0683191 0.0787469 0.0822467
          0.0787469 0.0883993 0.0788018 0.0822467 0.0787469 0.0900758
          0.0883993 0.0822467 0.0787469 0.0900758 0.0822467 0.0805584
          0.0805584 0.0683191 0.0822467 0.0787469 0.0805584 0.0683191
          0.0698236 0.0822467 0.0788361 0.0805584 0.0698236 0.0822467
          0.0788361 0.0776046 0.0822467 0.0698236 0.0822467 0.0788361
          0.0805584 0.0834849 0.0883993 0.0900758 0.0931933 0.0822467
          0.0788018 0.0883993 0.0931933 0.0822467 -0.0158091 -0.013834
          -0.0138017 -0.0140942 -0.0158091 -0.0126841 -0.013834 -0.0140942
          -0.0140942 -0.0126841 -0.013834 -0.0104118 -0.0140942 -0.013834
          -0.0138017 -0.0104118 -0.013834 -0.0104118 -0.0173367 -0.0138017
          -0.013834 -0.0173367 -0.0190485 -0.0138017 -0.013834 -0.0158091
          -0.0158793 -0.0170453 -0.0170453 -0.0156766 -0.02144 -0.013834
          -0.00939058 -0.0126841 -0.013834 -0.0141354 -0.013834 -0.00939058
          -0.0141354 -0.0183736 -0.013834 -0.00939058 -0.0183736 -0.0207847
          -0.0181165 -0.0225574 -0.0190663 -0.0237773 -0.0181165 -0.0190663
          -0.0208346 -0.0237773 -0.0181165 -0.0237773 -0.0208346 -0.0233181
          -0.0181165 -0.0225574 -0.0237773 -0.0233181 -0.0237773 -0.0275196
          -0.0270216 -0.0297435 -0.0237773 -0.0275196 -0.0297435 -0.0266257
          -0.0297435 -0.0237773 -0.0266257 -0.0278619 -0.0297435 -0.0213041
          -0.0237773 -0.0278619 -0.0297435 -0.0255281 -0.0237773 -0.0213041
          -0.0237773 -0.0213041 -0.0255281 -0.0193911 -0.0237773 -0.0193911
          -0.0150344 -0.0213041 -0.0237773 -0.0214736 -0.0278619 -0.0213041
          -0.0266257 -0.0214736 -0.0278619 -0.0237773 -0.0122501 -0.00795808
          -0.00932992 -0.00956248 -0.0122501 -0.00556855 -0.00932992 -0.00795808
          -0.0138017 -0.0137133 -0.0173367 -0.0130824 -0.0134212 -0.0130824
          -0.00945334 -0.0123842 0.234054 0.20972 0.233462 0.224004
          0.228487 0.20972 0.234054 0.224004 0.228487 0.218189
          0.234054 0.20972 0.226764 0.218189 0.234054 0.228487
          -0.0137133 -0.0172296 -0.0173367 -0.0130824 -0.0137133 -0.0172296
          -0.0130824 -0.00945334 -0.0130824 -0.0137133 -0.00945334 -0.0123842
          0.00805325 -0.00968941 0.00138132 -0.00518367 0.00805325 0.00138132
          0.00439507 -0.00518367 -0.0175883 -0.0143869 -0.0135779 -0.0144463
          -0.0175454 -0.0175883 -0.0135779 -0.0144463 -0.0135779 -0.0136701
          -0.0175454 -0.0144463 -0.0175883 -0.0143869 -0.0144463 -0.014765
          -0.0144463 -0.0143869 -0.00891908 -0.014765 -0.0144463 -0.014765
          -0.00891908 -0.00958656 -0.0144463 -0.014765 -0.00958656 -0.0131838
          0.134091 0.142636 0.133938 0.12941 -0.0230668 -0.0226985
          -0.0210012 -0.0230099 0.161158 0.152407 0.15615 0.148226
          0.152407 0.145332 0.15615 0.148226 0.15615 0.145332
          0.140479 0.148226 0.223803 0.207616 0.21308 0.212012
          0.21308 0.207616 0.200623 0.212012 0.148226 0.14137
          0.145332 0.130721 -0.00945334 -0.00689671 -0.0119119 -0.0123842
          -0.00945334 -0.00800258 -0.00689671 -0.0123842 -0.00800258 -0.00689671
          -0.00802936 -0.00945334 -0.00800258 -0.00885974 -0.00802936 -0.00689671
          -0.00689671 -0.00885974 -0.0119119 -0.00800258 -0.00689671 -0.00800258
          -0.0119119 -0.0123842 -0.00885974 -0.00802936 -0.00689671 -0.00568058
          -0.00258287 -0.00568058 -0.00885974 -0.00689671 -0.00258287 -0.00568058
          -0.00689671 -0.00123409 -0.00689671 -0.00258287 -0.00123409 0.00315363
          -0.00689671 -0.00802936 -0.00123409 -0.00568058 -0.00918772 -0.00802936
          -0.00123409 -0.00689671 -0.00918772 -0.00802936 -0.00689671 -0.00945334
          0.0951538 0.0900582 0.107651 0.0946563 0.0951538 0.0900582
          0.0946563 0.0814389 0.0900582 0.105919 0.107651 0.0946563
          0.0946563 0.107829 0.101278 0.107651 -0.0208527 -0.0265035
          -0.0244722 -0.0263881 -0.0208527 -0.0265035 -0.0263881 -0.0233181
          -0.0265035 -0.0275196 -0.0263881 -0.0233181 -0.0233181 -0.0275196
          -0.0263881 -0.0261606 0.0410123 0.0311635 0.0274887 0.0314598
          0.0410123 0.0311635 0.0376533 0.0274887 0.0410123 0.0376533
          0.0311635 0.0461789 0.0311635 0.0376533 0.0317288 0.0461789
          0.0311635 0.0317288 0.0376533 0.0286063 0.0311635 0.0286063
          0.0376533 0.0274887 0.0314598 0.0311635 0.0228469 0.0323901
          -0.00790975 -0.0186334 -0.0144557 -0.0174845 -0.0281423 -0.0186334
          -0.0174845 -0.0144557 -0.0189528 -0.0281423 -0.0174845 -0.0144557
          -0.0101753 -0.0189528 -0.0174845 -0.0144557 -0.0101753 -0.0189528
          -0.0144557 -0.014668 -0.0144557 -0.014668 -0.0092143 -0.0101753
          -0.014668 -0.0092143 -0.0160708 -0.0144557 -0.0144557 -0.0231358
          -0.0160708 -0.014668 -0.0264858 -0.0231358 -0.0144557 -0.014668
          -0.0281423 -0.0264858 -0.0144557 -0.014668 -0.0189528 -0.0281423
          -0.0144557 -0.014668 -0.0281423 -0.0264858 -0.0186334 -0.0144557
          -0.0264858 -0.0231358 -0.0160708 -0.0144557 0.154438 0.145829
          0.139724 0.14066 0.154438 0.145332 0.139724 0.145829
          0.145829 0.154438 0.145332 0.15615 0.145829 0.144846
          0.15615 0.145332 0.145829 0.137646 0.144846 0.145332
          0.132309 0.137646 0.145829 0.145332 0.145829 0.132309
          0.145332 0.139724 0.145829 0.142446 0.144846 0.137646
          0.153668 0.142446 0.154096 0.145829 0.20972 0.218189
          0.222453 0.20145 -0.0203499 -0.0210149 -0.0186226 -0.0197349
          -0.0203499 -0.0210149 -0.0174241 -0.0186226 -0.0210149 -0.0205373
          -0.0174241 -0.0186226 -0.0205373 -0.0188305 -0.0174241 -0.0186226
          -0.0174241 -0.0188305 -0.0131838 -0.0186226 -0.0141205 -0.0186226
          -0.0197349 -0.0169905 -0.0122557 -0.0186226 -0.0141205 -0.0169905
          -0.0122557 -0.0153589 -0.0141205 -0.0186226 -0.0141205 -0.0153589
          -0.0197349 -0.0186226 0.0760074 0.0787469 0.0864083 0.0840752
          0.0760074 0.0787469 0.0840752 0.0788018 0.0729893 0.0788018
          0.0760074 0.0840752 0.0729893 0.0854688 0.0840752 0.0760074
          0.0840752 0.0787469 0.0883993 0.0788018 0.0840752 0.0787469
          0.0864083 0.0883993 0.0840752 0.0883993 0.0864083 0.0975518
          -0.0181165 -0.013983 -0.0136701 -0.0155552 -0.0155552 -0.0182737
          -0.0136701 -0.0181165 -0.0155552 -0.0150344 -0.0136701 -0.0182737
          0.0406597 0.0521145 0.0621636 0.0557325 0.0406597 0.0557325
          0.0418834 0.0521145 0.0406597 0.0418834 0.0296688 0.0521145
          0.0406597 0.0521145 0.0296688 0.0430357 0.0521145 0.0410843
          0.0296688 0.0430357 0.0430357 0.0410843 0.05214 0.0521145
          0.0418834 0.0410843 0.0296688 0.0521145 0.0557325 0.0567763
          0.0418834 0.0521145 0.0557325 0.0709968 0.0521145 0.0621636
          0.0709968 0.0628676 0.0521145 0.0621636 0.0709968 0.0628676
          0.059831 0.0521145 0.0521145 0.059831 0.0532901 0.0628676
          0.0521145 0.0628676 0.0469546 0.0621636 0.0708505 0.0665526
          0.0784927 0.0669415 0.0708505 0.0755584 0.0784927 0.0665526
          0.0665526 0.0755584 0.0784927 0.0669415 0.128374 0.133411
          0.137646 0.130721 0.133411 0.130721 0.128374 0.120069
          0.133411 0.120069 0.122751 0.130721 0.0522078 0.0430863
          0.0440846 0.0380659 0.0522078 0.0380659 0.0440846 0.0382249
          0.124889 0.133859 0.140479 0.133411 0.209758 0.212012
          0.219487 0.21308 0.217808 0.219487 0.21308 0.207959
          0.217808 0.21308 0.220233 0.207959 0.217808 0.219487
          0.220233 0.21308 0.207187 0.220233 0.21308 0.207959
          0.214006 0.220233 0.21308 0.207187 0.152472 0.143248
          0.152084 0.152818 0.152472 0.138683 0.152084 0.143248
          0.143248 0.131137 0.138683 0.152084 0.152818 0.152084
          0.148226 0.143248 0.152818 0.148226 0.140479 0.143248
          0.133411 0.131137 0.143248 0.14137 0.0301693 0.0280093
          0.0337659 0.0440846 0.0301693 0.0280093 0.0440846 0.0286129
          0.0380659 0.0280093 0.0286129 0.0440846 0.0440846 0.0430863
          0.0286129 0.0380659 0.0380659 0.0280093 0.0440846 0.0382249
          0.201088 0.195207 0.195535 0.200513 0.201088 0.200513
          0.195535 0.205583 0.201088 0.200513 0.205583 0.202837
          0.201088 0.195207 0.200513 0.202837 -0.0164299 -0.0172296
          -0.0112998 -0.00918772 -0.0164299 -0.0112998 -0.012505 -0.00918772
          -0.0163913 -0.0164299 -0.012505 -0.00918772 -0.0163913 -0.0172296
          -0.0164299 -0.00918772 -0.0164299 -0.0169741 -0.0112998 -0.0144495
          -0.0164299 -0.0214942 -0.0169741 -0.0144495 -0.0194202 -0.0190248
          -0.0225709 -0.0243838 -0.0113926 -0.00389357 -0.00261425 -0.00258287
          -0.00728572 -0.00854844 -0.00774175 -0.00392801 -0.00728572 -0.0154299
          -0.00774175 -0.00854844 -0.00774175 -0.0119119 -0.00854844 -0.0154299
          -0.00774175 -0.0119119 -0.0123724 -0.00854844 -0.00854844 -0.0119119
          -0.0123724 -0.0154299 -0.0190831 -0.0190248 -0.0225709 -0.0258844
          -0.0190831 -0.0154396 -0.0225709 -0.0190248 -0.0190831 -0.0136116
          -0.0154396 -0.0190248 -0.0190831 -0.0208321 -0.0136116 -0.0190248
          -0.0208321 -0.0152272 -0.0136116 -0.0190248 -0.0136116 -0.0152272
          -0.0160099 -0.0190248 -0.0190248 -0.0136116 -0.0154396 -0.0160099
          -0.0190248 -0.0154396 -0.0225709 -0.0160099 -0.0190248 -0.0160099
          -0.0225709 -0.0181695 -0.0243838 -0.0190248 -0.0225709 -0.0181695
          -0.0202338 -0.0199511 -0.0169905 -0.0203499 -0.0199511 -0.0203499
          -0.0148555 -0.0169905 -0.0202338 -0.0213178 -0.0179081 -0.0199511
          -0.0228191 -0.0233217 -0.0182737 -0.0208346 -0.0216076 -0.0233217
          -0.0182737 -0.0228191 -0.0210012 -0.0216076 -0.0182737 -0.0228191
          -0.0226985 -0.0216076 -0.0210012 -0.0228191 -0.0226985 -0.0233217
          -0.0216076 -0.0228191 -0.0226985 -0.0269348 -0.0233217 -0.0228191
          -0.0228191 -0.0214736 -0.0266257 -0.0208346 -0.0228191 -0.0208346
          -0.0266257 -0.0233181 -0.0228191 -0.0266257 -0.025715 -0.0233181
          -0.025715 -0.0228191 -0.024593 -0.0266257 -0.025715 -0.0230099
          -0.024593 -0.0228191 -0.0228191 -0.0230099 -0.024593 -0.0214736
          -0.0228191 -0.0214736 -0.024593 -0.0266257 0.12941 0.142636
          0.133938 0.13303 0.12941 0.116529 0.13303 0.133938
          0.133938 0.116529 0.13303 0.123145 0.133938 0.133859
          0.143817 0.134046 0.133014 0.131935 0.133583 0.15071
          0.133014 0.142273 0.131935 0.15071 0.142273 0.131935
          0.15071 0.147962 0.142273 0.135678 0.131935 0.147962
          0.142273 0.135678 0.133764 0.131935 0.131935 0.135678
          0.15071 0.147962 0.135678 0.15071 0.151569 0.131935
          0.135678 0.131935 0.151569 0.141297 0.131935 0.15071
          0.151569 0.141297 0.131935 0.15071 0.141297 0.133583
          0.178653 0.178104 0.18922 0.180565 0.180565 0.178104
          0.18922 0.179018 0.180565 0.190179 0.179018 0.18922
          0.180565 0.190179 0.179109 0.179018 0.180565 0.179018
          0.179109 0.172557 0.179584 0.180565 0.179109 0.172557
          0.179584 0.170757 0.180565 0.172557 0.180565 0.170757
          0.179584 0.182344 0.180565 0.170757 0.179018 0.172557
          0.170757 0.180565 0.179018 0.165267 0.170757 0.170056
          0.180565 0.165267 0.180565 0.170056 0.179018 0.165267
          0.180565 0.178104 0.179018 0.170056 0.0982124 0.0883993
          0.0975518 0.0931933 0.211685 0.212012 0.224004 0.221042
          0.211685 0.221042 0.224004 0.218332 0.211685 0.212012
          0.221042 0.218332 -0.0116239 -0.0096646 -0.0092143 -0.0135297
          -0.0096646 -0.0136116 -0.0135297 -0.0116239 -0.0096646 -0.00956248
          -0.0135297 -0.0136116 -0.0096646 -0.00956248 -0.0145549 -0.0135297
          -0.0096646 -0.0145549 -0.0190831 -0.0135297 -0.0135297 -0.0145549
          -0.0190831 -0.0136116 -0.0135297 -0.0136116 -0.0190831 -0.0208321
          -0.0160708 -0.0135297 -0.0190831 -0.0208321 -0.0160708 -0.0136116
          -0.0135297 -0.0208321 -0.0160708 -0.0135297 -0.0136116 -0.0152272
          -0.0160708 -0.0116239 -0.0135297 -0.0152272 -0.0135297 -0.0116239
          -0.0136116 -0.0152272 -0.0135297 -0.00956248 -0.0145549 -0.0136116
          0.204974 0.193747 0.210966 0.210746 0.204974 0.210966
          0.212756 0.210746 0.212756 0.204974 0.210746 0.205558
          0.204974 0.193747 0.210746 0.197767 0.204974 0.193391
          0.193747 0.157546 0.0211548 0.0310747 0.0306672 0.025274
          0.0211548 0.0306672 0.0242505 0.025274 0.0182829 0.0211548
          0.0306672 0.0242505 0.0182829 0.0306672 0.0270317 0.0242505
          0.0182829 0.0211548 0.0270317 0.0306672 0.0211548 0.0190457
          0.0270317 0.0306672 0.0270317 0.0308707 0.0242505 0.0306672
          0.0270317 0.0350187 0.0308707 0.0306672 0.0306672 0.0242505
          0.025274 0.0293345 0.0219777 0.0269296 0.0114024 0.00659017
          0.00659017 0.00531314 0.0114024 0.0219777 -0.0181023 -0.0208527
          -0.0222661 -0.0233181 -0.0181165 -0.0233181 -0.0181023 -0.0225574
          0.0125997 0.0148389 0.0162593 0.0179985 0.0179985 0.0148389
          0.0273064 0.0125997 -0.00620229 0.00494235 0.00531314 0.00518771
          0.0162593 0.00518771 0.00531314 0.00494235 0.0162593 0.00494235
          0.00531314 0.0148389 0.00494235 0.0148389 0.0162593 0.0125997
          0.00518771 0.00494235 0.0162593 0.0125997 0.00531314 0.00494235
          0.0114024 0.0148389 0.00531314 -0.00557288 0.0114024 0.00494235
          -0.0181023 -0.0181165 -0.0155552 -0.0139785 -0.0181023 -0.0155552
          -0.0109887 -0.0139785 -0.0190663 -0.0155552 -0.0109887 -0.0181023
          -0.0190663 -0.0181165 -0.0155552 -0.0181023 -0.0207408 -0.0202338
          -0.0199922 -0.0240078 -0.00918772 -0.00558348 -0.00199443 -0.00123409
          -0.00918772 -0.00199443 -0.0028024 -0.00123409 -0.00123409 0.00315363
          -0.00199443 -0.0028024 0.00315363 -0.00123409 -0.00199443 0.00881202
          0.00315363 -0.00199443 0.0116161 0.00881202 -0.00199443 0.00315363
          0.0116161 -0.0028024 -0.00199443 -0.00582282 -0.00558348 -0.00918772
          0.123835 0.124347 0.139444 0.135619 0.123835 0.124347
          0.134811 0.139444 0.135619 0.141912 0.139444 0.149548
          0.135619 0.139444 0.146448 0.149548 0.139444 0.135619
          0.146448 0.14137 0.146448 0.139444 0.151569 0.149548
          0.139444 0.149548 0.159808 0.151569 0.139444 0.159808
          0.147666 0.151569 0.139444 0.151569 0.147666 0.141297
          0.139444 0.135678 0.151569 0.141297 0.139444 0.135678
          0.141297 0.131935 0.141912 0.159808 0.147666 0.139444
          0.141912 0.149548 0.159808 0.139444 0.00171474 0.00807449
          0.00551842 0.00453341 0.00807449 0.00872119 0.00453341 0.00171474
          -0.0213928 -0.0208078 -0.02037 -0.0190904 -0.0213928 -0.0190904
          -0.02037 -0.0163374 -0.0213928 -0.0229088 -0.0208078 -0.0190904
          -0.0213928 -0.0287216 -0.0229088 -0.0243838
        </DataArray>
        <DataArray type="Float64" Name="DisplacementSolutionVector" NumberOfComponents="3" format="ascii" RangeMin="0" RangeMax="2.2071927968">
          0.477379 0.178653 0.833553 0.526269 0.182344 0.807915
          0.576506 0.177642 0.668802 0.407349 0.167289 0.652838
          0.233984 0.0560029 -0.869098 0.257074 0.0669415 -0.796305
          0.238684 0.0574548 -0.90005 0.158016 0.0603311 -0.849714
          0.172928 0.0182889 -1.13082 0.177514 0.0162521 -1.13173
          0.160153 0.0242505 -1.10792 0.187816 0.025274 -1.11521
          0.332843 0.0408597 -1.02195 0.267714 0.0382249 -1.05959
          0.320388 0.0571591 -1.04914 0.298409 0.0337659 -1.05963
          0.195518 0.107239 -0.222251 0.198264 0.124889 0.070095
          0.339176 0.123145 -0.0956363 0.128655 0.112603 -0.0840872
          0.0922398 -0.00387143 -0.958975 0.0550265 0.00734161 -0.947155
          0.110876 -0.00244741 -0.920145 0.11213 0.00272844 -1.0007
          -0.0414189 0.136588 0.693819 0.044791 0.133985 0.562318
          0.128366 0.144338 0.653264 0.0477449 0.14016 0.746838
          0.457526 0.215988 2.03787 0.319383 0.194355 1.9882
          0.335556 0.201341 2.04656 0.387815 0.202424 1.98846
          0.283203 0.18814 1.84313 0.18332 0.150667 1.79197
          0.269246 0.161112 1.88195 0.234576 0.164884 1.9288
          0.00229256 -0.0169905 -0.563079 -0.0323988 -0.0141205 -0.630091
          -0.0606808 -0.0122557 -0.560799 0.00815519 -0.0112139 -0.565742
          0.101692 0.0805584 -0.621601 0.15145 0.0745346 -0.685354
          0.0297149 0.0817309 -0.656534 0.109161 0.0700203 -0.752531
          0.00765813 -0.00792034 -0.0270135 0.0140221 -0.0136444 -0.0704409
          0.028315 -0.0144495 -0.0665337 0.0441782 -0.0214942 -0.0490048
          0.168965 -0.00515665 -1.0663 0.121469 -0.0144557 -1.02135
          0.145625 -0.00790975 -1.06445 0.112132 -0.0186334 -1.01051
          0.458089 0.203362 1.84714 0.373718 0.18894 1.83094
          0.461908 0.207616 1.89904 0.526642 0.217164 1.86394
          0.128655 0.112603 -0.0840872 0.195518 0.107239 -0.222251
          0.198264 0.124889 0.070095 0.13459 0.111976 -0.0718907
          0.0209038 -0.00974771 -0.210131 -0.0607624 -0.0176287 -0.188494
          -0.0277683 -0.0134212 -0.149544 0.0130412 -0.00728572 -0.143159
          0.542925 0.207163 1.63277 0.40384 0.206217 1.66463
          0.491887 0.204341 1.55134 0.496235 0.208476 1.73139
          0.244295 0.0843376 -0.648259 0.181637 0.0729893 -0.691136
          0.240642 0.0771923 -0.746678 0.30705 0.0854688 -0.699613
          0.286155 0.107829 -0.323724 0.237825 0.113705 -0.173142
          0.371903 0.120611 -0.274683 0.212402 0.107651 -0.258514
          0.180739 0.0425605 -1.00764 0.079169 0.0414585 -0.973045
          0.13282 0.0487597 -0.935717 0.071029 0.042301 -0.936173
          0.701053 0.18971 0.85072 0.542691 0.172558 0.701274
          0.709038 0.196187 0.93758 0.705183 0.183313 0.70671
          -0.000164951 -0.0258844 -0.847736 0.0127683 -0.0225709 -0.775399
          -0.0801759 -0.0285786 -0.792856 -0.0303082 -0.027155 -0.714006
          0.45466 0.0726495 -0.847837 0.411928 0.066893 -0.924358
          0.36166 0.0661805 -0.870565 0.438328 0.0812215 -0.897867
          0.230729 0.0840752 -0.586159 0.30705 0.0854688 -0.699613
          0.349309 0.0887881 -0.620987 0.253788 0.0760074 -0.685864
          0.217421 0.188552 1.6753 0.113519 0.179696 1.65371
          0.0960629 0.183963 1.57344 0.201068 0.185051 1.52316
          0.130689 0.0951538 -0.354446 0.286155 0.107829 -0.323724
          0.148226 0.0946563 -0.382148 0.212402 0.107651 -0.258514
          0.169372 0.0112354 -1.1349 0.164186 0.0118026 -1.14029
          0.1666 0.0195752 -1.13536 0.17279 0.00720272 -1.12721
          -0.0515571 -0.0303915 -0.88369 -0.0801759 -0.0285786 -0.792856
          -0.000164951 -0.0258844 -0.847736 -0.0648303 -0.020364 -0.846966
          0.181922 0.0120482 -1.13884 0.180506 0.0179277 -1.13799
          0.193758 0.0212416 -1.1506 0.193318 0.0234298 -1.13418
          0.145403 0.00751687 -0.157499 0.099324 0.0220357 -0.0811408
          0.143686 0.0124576 -0.177216 0.0761817 0.015298 -0.0967612
          0.153728 0.181466 1.28935 0.308892 0.185216 1.1614
          0.374364 0.188654 1.22074 0.261654 0.180809 1.21446
          0.392601 0.103022 -0.67509 0.332754 0.0979477 -0.592942
          0.244295 0.0843376 -0.648259 0.30705 0.0854688 -0.699613
          0.372622 0.0709968 -0.788346 0.257074 0.0669415 -0.796305
          0.336885 0.0784927 -0.737575 0.343916 0.0755584 -0.839382
          0.245953 0.0105992 -1.09164 0.197806 0.00805325 -1.12213
          0.249546 0.0280093 -1.08662 0.219527 0.0205329 -1.10211
          0.193335 -0.0140792 -0.680673 0.0771466 -0.0128792 -0.667253
          0.16105 -0.0100386 -0.662766 0.105463 -0.00918275 -0.727052
          0.390222 0.200457 2.03097 0.394078 0.205558 2.05199
          0.311359 0.19366 2.00681 0.399113 0.201668 1.96815
          0.0771644 0.0116483 -1.06883 0.106287 0.031032 -1.09216
          0.118271 0.00736987 -1.08369 0.123387 0.0269296 -1.10146
          0.372622 0.0709968 -0.788346 0.351173 0.074105 -0.680571
          0.317734 0.059831 -0.79408 0.402724 0.0628676 -0.720252
          0.388864 0.195535 2.04031 0.417589 0.200862 2.11155
          0.446707 0.199139 2.07562 0.354887 0.191231 2.10335
          0.270667 0.21001 1.87832 0.272421 0.182674 1.91203
          0.230411 0.202424 1.92573 0.196196 0.1941 1.84397
          0.0857983 0.00396182 -0.185183 0.105195 -0.00802552 -0.266652
          0.113962 -0.0013081 -0.194325 0.0209038 -0.00974771 -0.210131
          0.344774 0.0734123 -0.938354 0.337729 0.0622297 -0.971894
          0.278739 0.0589262 -0.949907 0.245796 0.0542283 -1.01114
          0.198264 0.124889 0.070095 0.206908 0.133411 0.224806
          0.112681 0.128374 0.196126 0.0824626 0.120069 0.102868
          0.388683 0.182205 1.28846 0.238844 0.162658 1.06277
          0.345197 0.178077 1.18186 0.476062 0.182941 1.06639
          0.054551 0.0753255 -0.77357 0.10116 0.0650096 -0.847493
          0.0247339 0.0644325 -0.803147 0.109161 0.0700203 -0.752531
          0.16486 -0.0132007 -0.873521 0.185367 -0.0164986 -0.811141
          0.187662 -0.015708 -0.769458 0.096068 -0.0160099 -0.794129
          0.08759 -0.0181695 -0.700148 0.0127683 -0.0225709 -0.775399
          0.0452458 -0.0243838 -0.718463 0.0166565 -0.0213178 -0.651747
          0.168965 -0.00515665 -1.0663 0.165532 -0.00924211 -1.03094
          0.194202 -0.00451249 -1.06016 0.145625 -0.00790975 -1.06445
          0.20704 0.159521 0.859824 0.12317 0.154811 0.798318
          0.311949 0.159912 0.662099 0.141115 0.14885 0.667341
          0.0470043 -0.0228191 -0.395565 0.00554623 -0.0230099 -0.354419
          0.0486358 -0.0214736 -0.314918 -0.00718751 -0.0210012 -0.361431
          -0.0280559 -0.012453 -0.9239 0.0256823 -0.00354785 -0.929701
          0.055218 -0.0096646 -0.961593 0.00286609 -0.009542 -0.984145
          0.348094 0.0296688 -0.936452 0.368133 0.0290652 -0.963905
          0.277479 0.0228469 -1.01923 0.304318 0.0314598 -1.01045
          0.254776 -0.0120806 -0.974703 0.188752 -0.0119074 -0.967376
          0.261824 -0.0130019 -0.916534 0.185038 -0.0112891 -0.966454
          0.334286 0.120649 -0.0685765 0.500981 0.133764 0.025035
          0.326886 0.131137 0.105877 0.44205 0.135678 0.148091
          -0.1189 -0.0141354 -0.266283 -0.127933 -0.0196322 -0.359668
          -0.0658888 -0.0192985 -0.331415 -0.0681067 -0.0183736 -0.314081
          0.185038 -0.0112891 -0.966454 0.263276 -0.0148749 -0.93916
          0.251392 -0.0149688 -0.992494 0.209323 -0.0136238 -0.907578
          0.17279 0.00720272 -1.12721 0.147967 -0.00385141 -1.1071
          0.166518 0.00346835 -1.12287 0.153 5.4393e-05 -1.12756
          0.238887 0.0380659 -1.09393 0.20182 0.0253005 -1.11961
          0.196263 0.0293345 -1.09673 0.207944 0.034123 -1.08695
          0.19703 -0.0117658 -0.773249 0.193335 -0.0140792 -0.680673
          0.16105 -0.0100386 -0.662766 0.105463 -0.00918275 -0.727052
          0.474926 0.213993 2.03117 0.394078 0.205558 2.05199
          0.390222 0.200457 2.03097 0.399113 0.201668 1.96815
          -0.128932 -0.0248542 -0.459665 -0.0818359 -0.0274569 -0.533937
          -0.00588535 -0.0269348 -0.514974 -0.0449147 -0.0230668 -0.390274
          0.17137 -0.00547832 -1.04012 0.129918 -0.0092143 -1.0239
          0.126494 -0.0116239 -0.962722 0.143934 -0.00495345 -1.0015
          0.0389992 -0.0231358 -0.956961 -0.0219125 -0.0217282 -0.941717
          0.00182079 -0.0183532 -0.985129 0.00904144 -0.0242568 -1.0025
          0.240259 0.0430863 -1.11282 0.228727 0.046858 -1.13087
          0.218194 0.039635 -1.13003 0.235505 0.0465084 -1.10819
          0.124865 0.0743217 -0.614662 0.181637 0.0729893 -0.691136
          0.117851 0.0788018 -0.593398 0.00800832 0.0681307 -0.627782
          0.274181 -0.0149544 -0.750283 0.274841 -0.0128614 -0.74517
          0.206243 -0.0142357 -0.811176 0.19703 -0.0117658 -0.773249
          0.26683 -0.0138364 -0.624716 0.258238 -0.0118763 -0.540991
          0.264919 -0.0113372 -0.599053 0.158713 -0.0124128 -0.593162
          0.0509295 -0.0182737 -0.380621 -0.0401972 -0.0186737 -0.295772
          0.0360046 -0.0165645 -0.266146 -0.0161619 -0.0175454 -0.372721
          0.279769 0.140479 0.25432 0.211578 0.144846 0.361071
          0.389827 0.156966 0.411117 0.261534 0.137069 0.167727
          0.193506 0.157546 1.98437 0.193506 0.157546 1.98437
          0.311359 0.19366 2.00681 0.193506 0.157546 1.98437
          0.245603 -0.0133778 -1.02696 0.206809 -0.0107099 -1.02112
          0.17137 -0.00547832 -1.04012 0.194464 -0.00870049 -1.02577
          -0.102932 -0.0223742 -0.141753 -0.0607624 -0.0176287 -0.188494
          -0.0885361 -0.0230579 -0.174972 -0.0423323 -0.0154299 -0.123609
          0.0019014 -0.00258287 -0.0143042 -0.000539383 -0.000829893 0.000948014
          0 0 0 -0.00257965 -0.00261425 -0.0122043
          0.24366 0.0311635 -1.03462 0.208244 0.0317288 -1.03781
          0.208914 0.0286063 -1.0707 0.229005 0.0188687 -1.0652
          0.0824626 0.120069 0.102868 -0.04001 0.111053 0.0264647
          0.198264 0.124889 0.070095 -0.0474617 0.108912 -0.0036774
          0.44217 0.0557325 -0.843822 0.372622 0.0709968 -0.788346
          0.480373 0.0621636 -0.760049 0.45466 0.0726495 -0.847837
          -0.0194793 0.147898 0.977767 0.170346 0.164995 1.04243
          0.00285029 0.158127 1.12293 0.131058 0.158108 1.10918
          0.265826 0.195631 2.08832 0.208235 0.204512 2.0408
          0.214937 0.209647 2.04065 0.280936 0.193837 2.04554
          0.0222848 -0.00558348 -0.0278639 0 0 0
          0.0484699 -0.0108675 -0.030091 0 0 0
          0.171435 0.0306672 -1.08531 0.117393 0.0308707 -1.07992
          0.160153 0.0242505 -1.10792 0.169675 0.0299189 -1.08729
          0.311949 0.159912 0.662099 0.189242 0.142522 0.483109
          0.329965 0.158701 0.681063 0.141115 0.14885 0.667341
          0.198264 0.124889 0.070095 0.279769 0.140479 0.25432
          0.112681 0.128374 0.196126 0.206908 0.133411 0.224806
          0.376374 0.20549 1.89003 0.280536 0.198948 1.94003
          0.364843 0.200645 1.94868 0.334915 0.211659 1.88336
          0.372622 0.0709968 -0.788346 0.3056 0.0562813 -0.888644
          0.257074 0.0669415 -0.796305 0.238684 0.0574548 -0.90005
          0.151948 -0.00220459 -0.376901 0.215795 0.00348826 -0.339919
          0.235265 -0.00558497 -0.411059 0.225716 -0.00209465 -0.442633
          0.347585 0.0741987 -1.04277 0.280415 0.0522078 -1.06675
          0.320388 0.0571591 -1.04914 0.286476 0.052365 -1.03123
          0.288575 0.0631171 -1.04643 0.27592 0.0587676 -1.08134
          0.23471 0.0431356 -1.07046 0.235505 0.0465084 -1.10819
          0.279769 0.140479 0.25432 0.261534 0.137069 0.167727
          0.389827 0.156966 0.411117 0.394227 0.144542 0.157778
          0.112536 -0.0265035 -0.552338 0.152232 -0.0233181 -0.476973
          0.0665477 -0.0233217 -0.48275 0.170921 -0.0275196 -0.439577
          0.0578659 -0.018722 -0.485896 -0.0161619 -0.0175454 -0.372721
          0.0470197 -0.0148555 -0.460253 -0.0382095 -0.0203499 -0.467039
          -0.0296118 0.0834849 -0.573164 -0.0158408 0.0788361 -0.594233
          0.101692 0.0805584 -0.621601 -0.00846173 0.0762337 -0.687888
          0.404649 0.196522 1.41683 0.498836 0.200919 1.48789
          0.555537 0.202478 1.4184 0.482423 0.197254 1.34396
          0.163265 0.169482 1.05637 0.285644 0.179109 1.01471
          0.166401 0.179047 1.13145 0.327201 0.179018 1.03886
          0.496235 0.208476 1.73139 0.576437 0.21161 1.62788
          0.643071 0.218332 1.70571 0.533951 0.211685 1.71521
          0.409685 0.106138 -0.277549 0.334286 0.120649 -0.0685765
          0.28116 0.113647 -0.106809 0.484097 0.122155 -0.0630469
          0.501687 0.207959 1.94509 0.524651 0.210655 2.04711
          0.44968 0.200513 2.01221 0.463114 0.205583 2.00861
          0.0019014 -0.00258287 -0.0143042 0 0 0
          0.00878838 0.011498 -0.00445242 -0.00257965 -0.00261425 -0.0122043
          0.238844 0.162658 1.06277 0.186008 0.158359 0.964154
          0.361484 0.173451 1.00011 0.314863 0.163832 0.842115
          -0.130076 -0.0213635 -0.371606 -0.128186 -0.0211097 -0.310567
          -0.0538186 -0.0201853 -0.381395 -0.131659 -0.0221287 -0.396732
          0.104284 -0.0136701 -0.371997 0.105195 -0.00802552 -0.266652
          0.134253 -0.0150344 -0.313891 0.141866 -0.00647079 -0.337935
          -0.0288902 0.130995 0.360327 0.128974 0.130461 0.187026
          0.211578 0.144846 0.361071 0.119924 0.137646 0.352982
          0.212652 0.196452 1.56397 0.0960629 0.183963 1.57344
          0.120473 0.204398 1.65206 0.0874426 0.20017 1.52277
          0.181922 0.0120482 -1.13884 0.178948 0.0060033 -1.13028
          0.172928 0.0182889 -1.13082 0.15795 0.0127548 -1.12438
          0.270667 0.21001 1.87832 0.315947 0.196592 1.90816
          0.376374 0.20549 1.89003 0.280536 0.198948 1.94003
          0.245953 0.0105992 -1.09164 0.197806 0.00805325 -1.12213
          0.23176 0.0157621 -1.09497 0.249546 0.0280093 -1.08662
          0.253788 0.0760074 -0.685864 0.299053 0.0864083 -0.553598
          0.349309 0.0887881 -0.620987 0.230729 0.0840752 -0.586159
          0.103863 -0.00388894 -0.0944656 0.0915026 0.0116161 -0.076386
          0.13966 -0.00867676 -0.146496 0.0660439 -0.0028024 -0.102152
          0.236272 -0.00297843 -1.01559 0.201734 -0.00779991 -1.01235
          0.248905 -0.00813331 -0.987972 0.22557 -0.000403006 -1.0551
          0.151948 -0.00220459 -0.376901 0.141866 -0.00647079 -0.337935
          0.156717 -0.00972851 -0.433933 0.235265 -0.00558497 -0.411059
          0.187816 0.025274 -1.11521 0.20182 0.0253005 -1.11961
          0.215453 0.0337856 -1.12044 0.207944 0.034123 -1.08695
          0.603837 0.200727 1.3922 0.555537 0.202478 1.4184
          0.586206 0.198766 1.24339 0.712901 0.206388 1.22555
          0.250899 -0.00758936 -0.953821 0.260191 -0.011571 -0.929422
          0.248905 -0.00813331 -0.987972 0.182197 -0.0121593 -0.958737
          0.130594 0.0587253 -0.800895 0.185762 0.0662311 -0.795337
          0.181637 0.0729893 -0.691136 0.0220962 0.0587091 -0.743985
          0.208709 0.154096 0.550593 0.339227 0.15615 0.491304
          0.389827 0.156966 0.411117 0.373715 0.164207 0.582721
          0.0360046 -0.0165645 -0.266146 0.0774893 -0.0166292 -0.179655
          0.113946 -0.0122499 -0.222739 0.0098671 -0.0137665 -0.188363
          -0.0557656 -0.0116304 -0.863214 -0.0752176 -0.0108463 -0.79656
          0.00945855 -0.0154396 -0.791267 0.0547873 -0.00956248 -0.875966
          0.17471 0.0103553 -1.13275 0.16328 0.00682162 -1.12711
          0.169372 0.0112354 -1.1349 0.180128 0.0144698 -1.13421
          0.137762 0.0328383 -1.10196 0.121689 0.038873 -1.0749
          0.117393 0.0308707 -1.07992 0.123209 0.0351891 -1.10413
          0.24497 0.0543441 -1.03067 0.288575 0.0631171 -1.04643
          0.245796 0.0542283 -1.01114 0.23471 0.0431356 -1.07046
          0.120681 0.0270317 -1.07656 0.106339 0.029652 -1.04331
          0.173956 0.0310747 -1.07793 0.129881 0.0190457 -1.08765
          0.150271 0.155697 1.3658 0.236193 0.163352 1.23858
          0.158586 0.163992 1.36561 0.293607 0.171942 1.3809
          0.118225 -0.016529 -0.643321 0.0740804 -0.0196889 -0.590591
          0.0804219 -0.014032 -0.565645 0.0359931 -0.0179081 -0.637707
          0.250619 0.18662 2.09814 0.218066 0.195464 2.02504
          0.218435 0.192714 2.09406 0.301902 0.190563 2.02495
          0.286476 0.052365 -1.03123 0.280415 0.0522078 -1.06675
          0.320388 0.0571591 -1.04914 0.267714 0.0382249 -1.05959
          0.141866 -0.00647079 -0.337935 0.216657 -0.00509489 -0.339147
          0.225279 -0.013258 -0.37308 0.160769 -0.0155552 -0.394325
          0.234576 0.164884 1.9288 0.234576 0.164884 1.9288
          0.234576 0.164884 1.9288 0.272421 0.182674 1.91203
          0.583709 0.197168 1.17371 0.483334 0.195034 1.26309
          0.482423 0.197254 1.34396 0.374364 0.188654 1.22074
          0.196052 0.0376533 -1.03505 0.16577 0.0305277 -1.08499
          0.169675 0.0299189 -1.08729 0.208914 0.0286063 -1.0707
          0.110453 -0.0208346 -0.375156 0.0486358 -0.0214736 -0.314918
          0.113767 -0.0266257 -0.372606 0.169053 -0.0237773 -0.375043
          -0.0194793 0.147898 0.977767 -0.0285253 0.143236 0.763847
          0.12317 0.154811 0.798318 0.20704 0.159521 0.859824
          0.476062 0.182941 1.06639 0.696654 0.19816 0.990943
          0.703544 0.206163 1.12416 0.641142 0.207467 1.26476
          0.130874 -0.00297278 -1.10678 0.0811437 -0.0025162 -1.07377
          0.145661 0.00531314 -1.11313 0.130043 -0.00557288 -1.10149
          0.153352 0.000889392 -1.13561 0.141749 -0.00792323 -1.10374
          0.147967 -0.00385141 -1.1071 0.134934 -0.0107202 -1.12126
          -0.127933 -0.0196322 -0.359668 -0.052492 -0.0226985 -0.433246
          -0.130076 -0.0213635 -0.371606 -0.0658888 -0.0192985 -0.331415
          0.167554 0.01164 -1.12899 0.179579 0.0122846 -1.12692
          0.169372 0.0112354 -1.1349 0.154846 0.0182198 -1.12627
          -0.0171008 -0.0138017 -0.174494 0.0358098 -0.0173367 -0.15829
          0.0374318 -0.0190485 -0.230557 0.0279292 -0.0130824 -0.150911
          0.503551 0.201335 1.4564 0.540308 0.212462 1.59578
          0.460626 0.203436 1.6395 0.38689 0.188117 1.5561
          -0.122119 -0.0235412 -0.572695 0.00633645 -0.0199511 -0.543667
          -0.0443746 -0.0202338 -0.606738 -0.0382095 -0.0203499 -0.467039
          0.0509295 -0.0182737 -0.380621 0.104284 -0.0136701 -0.371997
          0.0578659 -0.018722 -0.485896 0.0470197 -0.0148555 -0.460253
          0.203415 0.152634 0.830437 0.128366 0.144338 0.653264
          0.237981 0.148473 0.653257 0.0477449 0.14016 0.746838
          0.345308 0.152407 0.481869 0.477178 0.161787 0.54982
          0.374349 0.146448 0.377404 0.572815 0.164404 0.469028
          0.08759 -0.0181695 -0.700148 0.0452458 -0.0243838 -0.718463
          0.0853681 -0.0229088 -0.641772 0.0166565 -0.0213178 -0.651747
          0.121689 0.038873 -1.0749 0.137762 0.0328383 -1.10196
          0.136467 0.0366424 -1.05661 0.16577 0.0305277 -1.08499
          0.474926 0.213993 2.03117 0.441118 0.216517 2.13214
          0.501895 0.223601 2.13771 0.458699 0.214588 2.12646
          -0.0280559 -0.012453 -0.9239 -0.00299887 0.00214633 -0.960482
          -0.033664 0.00291065 -0.906916 0.0256823 -0.00354785 -0.929701
          0.399113 0.201668 1.96815 0.387815 0.202424 1.98846
          0.311359 0.19366 2.00681 0.282637 0.191383 1.93899
          -0.119881 -0.0218471 -0.219262 -0.127282 -0.0215735 -0.279389
          -0.126512 -0.0230097 -0.257693 -0.0284574 -0.0153834 -0.248114
          0.17425 0.103817 -0.236551 0.28116 0.113647 -0.106809
          0.276125 0.0947165 -0.379639 0.409685 0.106138 -0.277549
          0.18286 0.00239008 -1.10851 0.159927 0.00494235 -1.10631
          0.166462 0.00518771 -1.12544 0.188625 0.0125997 -1.1077
          0.282072 0.186107 1.95795 0.21655 0.170417 2.02853
          0.319383 0.194355 1.9882 0.267912 0.193391 2.06131
          0.42471 0.207458 1.83215 0.454738 0.206806 1.89198
          0.48037 0.206131 1.89605 0.376374 0.20549 1.89003
          0.123689 0.0542317 -0.925889 0.157521 0.0469226 -0.985977
          0.239659 0.0461789 -0.951595 0.20433 0.0494215 -0.926588
          -0.0115162 -0.00567168 -0.051575 -0.0579892 0.00142708 -0.0394255
          -0.0748015 -0.00789741 -0.0695534 -0.0726572 -0.00236831 -0.0718477
          -0.0953438 -0.016709 -0.120506 -0.0382728 -0.0119119 -0.0861697
          -0.0367899 -0.00800258 -0.0599512 -0.0354252 -0.0123842 -0.100673
          0.239659 0.0461789 -0.951595 0.20433 0.0494215 -0.926588
          0.253697 0.0323901 -0.985347 0.283765 0.0410843 -0.917892
          0.185038 -0.0112891 -0.966454 0.138454 -0.0082111 -0.93618
          0.209323 -0.0136238 -0.907578 0.18506 -0.0112596 -0.943555
          0.500108 0.0770506 -0.481701 0.368363 0.0880234 -0.492427
          0.591099 0.0927801 -0.384602 0.564627 0.0850216 -0.517364
          -0.0168768 -0.0233283 -0.525649 0.0166565 -0.0213178 -0.651747
          0.00633645 -0.0199511 -0.543667 0.0740804 -0.0196889 -0.590591
          0.317615 0.133859 0.0941603 0.465816 0.133938 -0.0723265
          0.560566 0.146458 0.0640076 0.445539 0.138683 0.0844741
          -0.0401972 -0.0186737 -0.295772 -0.127282 -0.0215735 -0.279389
          -0.0525861 -0.0158793 -0.211183 -0.0284574 -0.0153834 -0.248114
          -0.0950276 -0.0100972 -0.12574 -0.0748015 -0.00789741 -0.0695534
          -0.0354252 -0.0123842 -0.100673 -0.0953438 -0.016709 -0.120506
          0.118271 0.00736987 -1.08369 0.152649 0.0237462 -1.12026
          0.118354 0.00659017 -1.09692 0.123387 0.0269296 -1.10146
          0.169053 -0.0237773 -0.375043 0.172218 -0.0297435 -0.346252
          0.238033 -0.0270216 -0.40716 0.21664 -0.0255281 -0.33122
          0.096068 -0.0160099 -0.794129 0.0185148 -0.0145913 -0.704614
          0.0642946 -0.0122501 -0.806808 0.00945855 -0.0154396 -0.791267
          0.63083 0.166766 0.558058 0.542691 0.172558 0.701274
          0.64176 0.17821 0.734424 0.697082 0.177494 0.642558
          0.237981 0.148473 0.653257 0.333142 0.149548 0.503453
          0.329965 0.158701 0.681063 0.460286 0.156139 0.54136
          0.215759 -0.00416399 -1.10589 0.232606 -0.00658906 -1.06714
          0.185334 -0.00195267 -1.08471 0.216435 -0.000885015 -1.08431
          0.130689 0.0951538 -0.354446 0.286155 0.107829 -0.323724
          0.258244 0.101278 -0.423532 0.148226 0.0946563 -0.382148
          0.27592 0.0587676 -1.08134 0.294977 0.0648741 -1.08627
          0.240259 0.0430863 -1.11282 0.235505 0.0465084 -1.10819
          0.521873 0.106124 -0.181104 0.409685 0.106138 -0.277549
          0.637193 0.117486 -0.179374 0.61602 0.105454 -0.239155
          0.177787 0.00281491 -1.11165 0.184506 0.00171474 -1.10889
          0.215759 -0.00416399 -1.10589 0.185334 -0.00195267 -1.08471
          0.603837 0.200727 1.3922 0.712901 0.206388 1.22555
          0.586206 0.198766 1.24339 0.722095 0.203045 1.18652
          -0.0126816 -0.00885974 -0.0401906 -0.0240264 -0.0123724 -0.0492764
          -0.00286052 -0.00389357 -0.0426216 0.00316235 -0.00774175 -0.084285
          0.339176 0.123145 -0.0956363 0.325379 0.126608 -0.0892965
          0.371903 0.120611 -0.274683 0.237825 0.113705 -0.173142
          0.583484 0.229311 2.03987 0.474926 0.213993 2.03117
          0.475228 0.212726 1.96844 0.542081 0.226308 2.06513
          0.0636064 -0.00891908 -0.389929 0.104284 -0.0136701 -0.371997
          0.0107608 -0.0144463 -0.385426 0.0470197 -0.0148555 -0.460253
          0.538118 0.159808 0.49707 0.460286 0.156139 0.54136
          0.63083 0.166766 0.558058 0.542691 0.172558 0.701274
          0.237981 0.148473 0.653257 0.368946 0.164907 0.841573
          0.314863 0.163832 0.842115 0.203415 0.152634 0.830437
          0.44217 0.0557325 -0.843822 0.428379 0.0567763 -0.892945
          0.368133 0.0290652 -0.963905 0.328671 0.0418834 -0.942546
          0.148992 0.0128559 -1.11395 0.167692 0.00789246 -1.13227
          0.174612 0.0120543 -1.13495 0.177514 0.0162521 -1.13173
          0.238844 0.162658 1.06277 0.203415 0.152634 0.830437
          0.186008 0.158359 0.964154 0.314863 0.163832 0.842115
          0.566235 0.187544 0.910491 0.526269 0.182344 0.807915
          0.654031 0.187533 0.78162 0.576506 0.177642 0.668802
          0.174612 0.0120543 -1.13495 0.177514 0.0162521 -1.13173
          0.169153 0.0211548 -1.10787 0.148992 0.0128559 -1.11395
          0.376374 0.20549 1.89003 0.39061 0.201088 1.94817
          0.452807 0.202837 1.95211 0.364843 0.200645 1.94868
          0.152229 0.0117325 -1.11972 0.143377 0.0172557 -1.10458
          0.168346 0.0243239 -1.1291 0.152649 0.0237462 -1.12026
          0.00229256 -0.0169905 -0.563079 -0.0606808 -0.0122557 -0.560799
          -0.0432089 -0.0131838 -0.487029 0.00815519 -0.0112139 -0.565742
          0.0662192 -0.0264858 -0.977787 0.0169673 -0.0315692 -0.881613
          0.10098 -0.0230441 -0.930871 0.0389992 -0.0231358 -0.956961
          0.351173 0.074105 -0.680571 0.257074 0.0669415 -0.796305
          0.253788 0.0760074 -0.685864 0.336885 0.0784927 -0.737575
          0.517372 0.152084 0.282314 0.698744 0.164157 0.363125
          0.554677 0.147962 0.233816 0.685457 0.150589 0.168031
          0.00800832 0.0681307 -0.627782 0.117851 0.0788018 -0.593398
          -0.0186939 0.0795216 -0.446417 -0.0164584 0.0776046 -0.547456
          0.147867 0.12399 0.215002 -0.0578161 0.11548 0.183378
          0.068297 0.121898 0.190096 0.0436386 0.112423 0.0435163
          0.217644 0.0373622 -1.05651 0.286476 0.052365 -1.03123
          0.238887 0.0380659 -1.09393 0.23471 0.0431356 -1.07046
          -0.0365595 -0.00573392 -0.0808166 -0.0748015 -0.00789741 -0.0695534
          -0.0115162 -0.00567168 -0.051575 -0.0367899 -0.00800258 -0.0599512
          0.270667 0.21001 1.87832 0.230411 0.202424 1.92573
          0.280536 0.198948 1.94003 0.268785 0.212902 1.90147
          0.129881 0.0190457 -1.08765 0.106339 0.029652 -1.04331
          0.160795 0.0354946 -1.04283 0.104619 0.028198 -1.03143
          0.240274 0.217295 1.83279 0.270667 0.21001 1.87832
          0.209067 0.217383 1.88188 0.165846 0.208743 1.78842
          0.205207 0.033256 -1.10889 0.173956 0.0310747 -1.07793
          0.203025 0.040745 -1.06991 0.167174 0.0257106 -1.09011
          0.589482 0.227665 1.9636 0.474926 0.213993 2.03117
          0.475228 0.212726 1.96844 0.583484 0.229311 2.03987
          0.0358098 -0.0173367 -0.15829 0.0774893 -0.0166292 -0.179655
          0.0374318 -0.0190485 -0.230557 0.0279292 -0.0130824 -0.150911
          -0.106391 -0.0133016 -0.666373 -0.125328 -0.0153589 -0.543652
          -0.0323988 -0.0141205 -0.630091 -0.0730244 -0.00840171 -0.641354
          0.317734 0.059831 -0.79408 0.257074 0.0669415 -0.796305
          0.3056 0.0562813 -0.888644 0.233984 0.0560029 -0.869098
          0.517372 0.152084 0.282314 0.554677 0.147962 0.233816
          0.445539 0.138683 0.0844741 0.500981 0.133764 0.025035
          0.521873 0.106124 -0.181104 0.484097 0.122155 -0.0630469
          0.384774 0.108005 -0.146912 0.563634 0.119736 -0.0221902
          0.249546 0.0280093 -1.08662 0.197806 0.00805325 -1.12213
          0.207377 0.0208321 -1.10963 0.228412 0.0286129 -1.10666
          0.477178 0.161787 0.54982 0.345308 0.152407 0.481869
          0.522672 0.172355 0.662797 0.472775 0.161158 0.475347
          0.395388 0.191512 1.71781 0.299638 0.182033 1.71781
          0.301773 0.162762 1.76111 0.373718 0.18894 1.83094
          0.185367 -0.0164986 -0.811141 0.205372 -0.0163374 -0.830822
          0.26285 -0.0130069 -0.876853 0.269312 -0.0158084 -0.790747
          0.259363 -0.0222661 -0.561488 0.18615 -0.0263881 -0.527732
          0.255679 -0.0244262 -0.591251 0.251856 -0.0261606 -0.495461
          0.354887 0.191231 2.10335 0.289096 0.190872 2.09747
          0.265826 0.195631 2.08832 0.268413 0.19547 2.02507
          -0.0148586 -0.00274295 -0.0245388 0.00765813 -0.00792034 -0.0270135
          0 0 0 -0.0144841 0.000148197 -0.0285603
          0.0486358 -0.0214736 -0.314918 -0.00718751 -0.0210012 -0.361431
          -0.0327653 -0.0170453 -0.262145 0.0360046 -0.0165645 -0.266146
          0.384774 0.108005 -0.146912 0.273244 0.100067 -0.260464
          0.409685 0.106138 -0.277549 0.411463 0.0864855 -0.395732
          0.0807397 0.0461835 -1.02818 0.136467 0.0366424 -1.05661
          0.0714426 0.0506437 -0.980392 0.13712 0.0459501 -1.00016
          0.16486 -0.0132007 -0.873521 0.096068 -0.0160099 -0.794129
          0.187662 -0.015708 -0.769458 0.117498 -0.0127052 -0.774123
          0.153352 0.000889392 -1.13561 0.164186 0.0118026 -1.14029
          0.17279 0.00720272 -1.12721 0.173 0.00588326 -1.11985
          0.294959 0.204801 1.7903 0.270667 0.21001 1.87832
          0.315947 0.196592 1.90816 0.376374 0.20549 1.89003
          0.0660439 -0.0028024 -0.102152 0.145403 0.00751687 -0.157499
          0.113962 -0.0013081 -0.194325 0.0649561 0.00117694 -0.133957
          0.432143 0.100045 -0.469631 0.299053 0.0864083 -0.553598
          0.432326 0.0870368 -0.603389 0.368363 0.0880234 -0.492427
          0.0540416 -0.00937549 -0.175074 0.113946 -0.0122499 -0.222739
          0.105195 -0.00802552 -0.266652 0.113962 -0.0013081 -0.194325
          0.103863 -0.00388894 -0.0944656 0.0450981 0.00208091 -0.0389618
          0.0915026 0.0116161 -0.076386 0.0514415 -0.00199443 -0.0580778
          0.472775 0.161158 0.475347 0.339227 0.15615 0.491304
          0.578844 0.169726 0.498809 0.424977 0.152818 0.338667
          -0.0818359 -0.0274569 -0.533937 -0.0538285 -0.0315591 -0.675075
          -0.0365529 -0.0262545 -0.615241 0.0252257 -0.0287216 -0.667561
          -0.0126816 -0.00885974 -0.0401906 -0.00286052 -0.00389357 -0.0426216
          -0.0205164 -0.0113926 -0.024542 0.0019014 -0.00258287 -0.0143042
          -0.0525861 -0.0158793 -0.211183 -0.0284574 -0.0153834 -0.248114
          -0.0607624 -0.0176287 -0.188494 -0.0277683 -0.0134212 -0.149544
          0.586206 0.198766 1.24339 0.583709 0.197168 1.17371
          0.374364 0.188654 1.22074 0.441927 0.190179 1.14735
          -0.0277683 -0.0134212 -0.149544 0.0098671 -0.0137665 -0.188363
          0.0155697 -0.00945334 -0.0979218 0.0279292 -0.0130824 -0.150911
          0.572815 0.164404 0.469028 0.698744 0.164157 0.363125
          0.702014 0.175241 0.559962 0.692943 0.167956 0.489621
          0.3056 0.0562813 -0.888644 0.333011 0.0545899 -0.945405
          0.328671 0.0418834 -0.942546 0.270998 0.0410123 -0.998166
          -0.0171008 -0.0138017 -0.174494 -0.0525861 -0.0158793 -0.211183
          -0.0277683 -0.0134212 -0.149544 0.0098671 -0.0137665 -0.188363
          0.217421 0.188552 1.6753 0.18332 0.150667 1.79197
          0.283203 0.18814 1.84313 0.166313 0.182704 1.76022
          0.216435 -0.000885015 -1.08431 0.194202 -0.00451249 -1.06016
          0.232606 -0.00658906 -1.06714 0.185334 -0.00195267 -1.08471
          0.0342889 -0.0194191 -0.133678 0.0574409 -0.0227267 -0.0946761
          0.028315 -0.0144495 -0.0665337 0.0140221 -0.0136444 -0.0704409
          0.0435622 0.0159591 -1.03065 0.0508581 0.018267 -1.0146
          0.0855231 0.00918058 -1.04601 0.0742282 0.0288745 -1.06535
          0.10775 -0.0136116 -0.885602 0.0642946 -0.0122501 -0.806808
          0.00945855 -0.0154396 -0.791267 0.096068 -0.0160099 -0.794129
          -0.000663582 0.160485 1.00411 0.121709 0.163601 0.920525
          0.163265 0.169482 1.05637 -0.0131994 0.152042 0.931257
          0.173041 -0.00280863 -1.09202 0.211839 0.00640367 -1.08357
          0.195515 0.00872119 -1.11504 0.216435 -0.000885015 -1.08431
          0.376293 0.185483 1.21542 0.473613 0.191655 1.24082
          0.345197 0.178077 1.18186 0.451127 0.184652 1.08346
          0.203415 0.152634 0.830437 0.112514 0.149711 0.813037
          0.128366 0.144338 0.653264 0.0477449 0.14016 0.746838
          0.348836 0.102855 -0.459932 0.230729 0.0840752 -0.586159
          0.299053 0.0864083 -0.553598 0.277729 0.0975518 -0.410816
          -0.0126816 -0.00885974 -0.0401906 -0.020548 -0.00832014 -0.0250458
          -0.0240264 -0.0123724 -0.0492764 -0.0382728 -0.0119119 -0.0861697
          0.458089 0.203362 1.84714 0.373718 0.18894 1.83094
          0.526642 0.217164 1.86394 0.499489 0.20972 1.78754
          -0.0454728 -0.0174241 -0.455721 -0.0606808 -0.0122557 -0.560799
          -0.0432089 -0.0131838 -0.487029 0.00229256 -0.0169905 -0.563079
          -0.0277683 -0.0134212 -0.149544 0.0098671 -0.0137665 -0.188363
          0.0279292 -0.0130824 -0.150911 -0.0354252 -0.0123842 -0.100673
          -0.0331069 -0.0207408 -0.7108 0.0185148 -0.0145913 -0.704614
          0.0359931 -0.0179081 -0.637707 0.08759 -0.0181695 -0.700148
          0.0920557 -0.0255886 -0.845827 0.0845877 -0.0255065 -0.751434
          0.16914 -0.0179375 -0.857877 0.117074 -0.0194202 -0.800314
          0.554677 0.147962 0.233816 0.44205 0.135678 0.148091
          0.326886 0.131137 0.105877 0.500981 0.133764 0.025035
          0.701053 0.18971 0.85072 0.539956 0.186254 0.988245
          0.709038 0.196187 0.93758 0.4665 0.174973 0.832093
          0.217644 0.0373622 -1.05651 0.23471 0.0431356 -1.07046
          0.173956 0.0310747 -1.07793 0.180739 0.0425605 -1.00764
          0.408602 0.205183 2.11483 0.343228 0.197767 2.10279
          0.417589 0.200862 2.11155 0.390222 0.200457 2.03097
          0.0171941 0.169817 1.175 0.163265 0.169482 1.05637
          0.00285029 0.158127 1.12293 -0.000663582 0.160485 1.00411
          0.0983943 0.103903 -0.1821 0.0886722 0.0972271 -0.326607
          0.0512105 0.0999492 -0.292848 -0.061984 0.099625 -0.212676
          0.0642946 -0.0122501 -0.806808 0.10775 -0.0136116 -0.885602
          0.105915 -0.00932992 -0.868497 0.16486 -0.0132007 -0.873521
          0.00878838 0.011498 -0.00445242 0.0174988 0.00881202 -0.0123778
          0.0452892 0.0171097 -0.0497382 0.0547054 0.0263362 -0.0374226
          0.657557 0.130487 -0.0379752 0.520946 0.131935 0.0779313
          0.658278 0.133014 0.0473313 0.672307 0.142273 0.106764
          0.270998 0.0410123 -0.998166 0.196052 0.0376533 -1.03505
          0.217644 0.0373622 -1.05651 0.247711 0.0274887 -1.06388
          0.620367 0.233462 1.82271 0.526642 0.217164 1.86394
          0.533699 0.223492 1.9141 0.599127 0.22786 1.89649
          0.0957739 -0.000896939 -1.02438 0.0922398 -0.00387143 -0.958975
          0.143934 -0.00495345 -1.0015 0.11213 0.00272844 -1.0007
          0.0471266 -0.0191522 -1.04979 0.0700022 -0.0189528 -1.04155
          0.0975126 -0.0129236 -1.08417 0.0971336 -0.00259998 -1.06633
          0.0607489 -0.00918772 -0.0791758 0.109537 -0.0163913 -0.0963933
          0.13966 -0.00867676 -0.146496 0.103863 -0.00388894 -0.0944656
          -0.111952 -0.0240078 -0.643506 -0.0443746 -0.0202338 -0.606738
          -0.109993 -0.0199922 -0.657779 -0.122119 -0.0235412 -0.572695
          0.533951 0.211685 1.71521 0.496235 0.208476 1.73139
          0.516936 0.212012 1.83282 0.643071 0.218332 1.70571
          0.0130412 -0.00728572 -0.143159 0.0098671 -0.0137665 -0.188363
          -0.0277683 -0.0134212 -0.149544 0.0209038 -0.00974771 -0.210131
          0.695025 0.206879 1.43571 0.542925 0.207163 1.63277
          0.622191 0.203573 1.52752 0.555537 0.202478 1.4184
          0.0827109 -0.0196146 -1.08085 0.0313912 -0.0323034 -1.04785
          0.0975126 -0.0129236 -1.08417 0.0471266 -0.0191522 -1.04979
          0.054551 0.0753255 -0.77357 0.109161 0.0700203 -0.752531
          0.15145 0.0745346 -0.685354 0.178872 0.0606546 -0.845006
          0.343916 0.0755584 -0.839382 0.36166 0.0661805 -0.870565
          0.258765 0.0665526 -0.86543 0.278739 0.0589262 -0.949907
          0.276521 0.195515 1.38913 0.308892 0.185216 1.1614
          0.356278 0.194339 1.30124 0.153728 0.181466 1.28935
          0.121709 0.163601 0.920525 0.285644 0.179109 1.01471
          0.163265 0.169482 1.05637 0.327201 0.179018 1.03886
          0.209804 0.207864 1.60977 0.17973 0.197213 1.44533
          0.212652 0.196452 1.56397 0.0874426 0.20017 1.52277
          0.112681 0.128374 0.196126 -0.04001 0.111053 0.0264647
          0.0824626 0.120069 0.102868 -0.0474959 0.118465 0.181263
          0.311359 0.19366 2.00681 0.335164 0.204974 2.06627
          0.305763 0.193747 2.10138 0.193506 0.157546 1.98437
          0.416411 0.116529 -0.262841 0.492783 0.111952 -0.323366
          0.277729 0.0975518 -0.410816 0.432143 0.100045 -0.469631
          0.183178 0.00281344 -1.13408 0.188423 0.00272913 -1.13564
          0.19375 -0.00246694 -1.13874 0.181922 0.0120482 -1.13884
          0 0 0 0 0 0
          0.0222848 -0.00558348 -0.0278639 0 0 0
          0.457526 0.215988 2.03787 0.387815 0.202424 1.98846
          0.404221 0.212756 2.07781 0.474926 0.213993 2.03117
          0.315947 0.196592 1.90816 0.376374 0.20549 1.89003
          0.395929 0.200623 1.90057 0.399897 0.204163 1.81379
          0.261654 0.180809 1.21446 0.364277 0.178104 1.03208
          0.170346 0.164995 1.04243 0.163265 0.169482 1.05637
          0.277729 0.0975518 -0.410816 0.416411 0.116529 -0.262841
          0.217546 0.0982124 -0.384524 0.327877 0.110293 -0.24624
          -0.100392 -0.00592964 -0.151989 -0.0482987 -0.0104118 -0.135516
          -0.0295207 -0.0156766 -0.182455 -0.0501823 -0.013834 -0.19697
          -0.122095 -0.030647 -0.606076 -0.0538285 -0.0315591 -0.675075
          -0.0365529 -0.0262545 -0.615241 -0.0818359 -0.0274569 -0.533937
          0.0107608 -0.0144463 -0.385426 0.104284 -0.0136701 -0.371997
          -0.0161619 -0.0175454 -0.372721 0.0470197 -0.0148555 -0.460253
          0.17137 -0.00547832 -1.04012 0.126494 -0.0116239 -0.962722
          0.185038 -0.0112891 -0.966454 0.143934 -0.00495345 -1.0015
          0.457526 0.215988 2.03787 0.474926 0.213993 2.03117
          0.441118 0.216517 2.13214 0.501895 0.223601 2.13771
          0.185762 0.0662311 -0.795337 0.130684 0.0586593 -0.849266
          0.136757 0.0683191 -0.748962 0.0220962 0.0587091 -0.743985
          0.48037 0.206131 1.89605 0.376374 0.20549 1.89003
          0.452807 0.202837 1.95211 0.364843 0.200645 1.94868
          -0.0481754 0.101567 -0.142666 -0.0565269 0.110644 0.0352962
          -0.0568878 0.101842 -0.151099 0.13459 0.111976 -0.0718907
          -0.0525861 -0.0158793 -0.211183 -0.0284574 -0.0153834 -0.248114
          -0.119881 -0.0218471 -0.219262 -0.0607624 -0.0176287 -0.188494
          0.0665477 -0.0233217 -0.48275 0.110453 -0.0208346 -0.375156
          0.0470043 -0.0228191 -0.395565 0.152232 -0.0233181 -0.476973
          0.343916 0.0755584 -0.839382 0.258765 0.0665526 -0.86543
          0.24453 0.0708505 -0.80429 0.260874 0.0644344 -0.917065
          0.139827 -0.00620229 -1.11706 0.0975126 -0.0129236 -1.08417
          0.126155 -0.0162538 -1.11475 0.130874 -0.00297278 -1.10678
          0.15297 -0.0190904 -0.707837 0.267072 -0.0190794 -0.684281
          0.269356 -0.0163645 -0.701896 0.187251 -0.0208078 -0.643288
          0.0560741 0.0443732 -0.867566 0.0220962 0.0587091 -0.743985
          0.130594 0.0587253 -0.800895 0.0250515 0.0571414 -0.717461
          0.576437 0.21161 1.62788 0.666629 0.22252 1.59758
          0.533951 0.211685 1.71521 0.553382 0.208726 1.55042
          0.129141 0.0946554 -0.378284 0.14902 0.0833102 -0.571006
          0.147113 0.0900758 -0.449962 0.250628 0.081338 -0.520796
          0.472775 0.161158 0.475347 0.424977 0.152818 0.338667
          0.578844 0.169726 0.498809 0.710123 0.168797 0.351904
          0.0470197 -0.0148555 -0.460253 0.127111 -0.00743066 -0.450311
          0.140684 -0.013983 -0.516463 0.057422 -0.00958656 -0.504466
          0.106287 0.031032 -1.09216 0.140542 0.0445074 -1.11305
          0.143848 0.028966 -1.11295 0.152649 0.0237462 -1.12026
          0.188761 -0.0117274 -0.865373 0.209323 -0.0136238 -0.907578
          0.261416 -0.0148291 -0.852965 0.206243 -0.0142357 -0.811176
          -0.0401972 -0.0186737 -0.295772 -0.128186 -0.0211097 -0.310567
          -0.0161619 -0.0175454 -0.372721 -0.0538186 -0.0201853 -0.381395
          -0.0186939 0.0795216 -0.446417 -0.0164584 0.0776046 -0.547456
          0.117851 0.0788018 -0.593398 0.108892 0.0931933 -0.375589
          0.193506 0.157546 1.98437 0.267912 0.193391 2.06131
          0.222369 0.164522 2.12041 0.21655 0.170417 2.02853
          0.172928 0.0182889 -1.13082 0.175656 0.012652 -1.13595
          0.181922 0.0120482 -1.13884 0.180128 0.0144698 -1.13421
          0.0898911 -0.00444595 -0.325468 0.141866 -0.00647079 -0.337935
          0.0636064 -0.00891908 -0.389929 0.156717 -0.00972851 -0.433933
          0.099324 0.0220357 -0.0811408 0.0915026 0.0116161 -0.076386
          0.0547054 0.0263362 -0.0374226 0.0452892 0.0171097 -0.0497382
          0.307201 0.123835 0.0687832 0.28116 0.113647 -0.106809
          0.177901 0.122751 0.105101 0.334286 0.120649 -0.0685765
          0.505653 0.186408 0.974223 0.422856 0.180565 0.934743
          0.285644 0.179109 1.01471 0.420039 0.179584 0.88187
          0.709038 0.196187 0.93758 0.4665 0.174973 0.832093
          0.578245 0.183818 0.83647 0.705183 0.183313 0.70671
          0.0171941 0.169817 1.175 0.153728 0.181466 1.28935
          0.163265 0.169482 1.05637 0.166401 0.179047 1.13145
          0.0771644 0.0116483 -1.06883 0.0346219 0.00470713 -1.02314
          0.0855231 0.00918058 -1.04601 0.0435622 0.0159591 -1.03065
          0.432143 0.100045 -0.469631 0.46044 0.105433 -0.546765
          0.349309 0.0887881 -0.620987 0.348836 0.102855 -0.459932
          0.0250515 0.0571414 -0.717461 0.0566149 0.0415331 -0.855794
          0.130594 0.0587253 -0.800895 0.0560741 0.0443732 -0.867566
          0.307201 0.123835 0.0687832 0.177901 0.122751 0.105101
          0.269518 0.124347 0.146292 0.257122 0.135619 0.303109
          0.170804 0.0193801 -1.12604 0.196263 0.0293345 -1.09673
          0.169675 0.0299189 -1.08729 0.186348 0.0218384 -1.10846
          0.491887 0.204341 1.55134 0.498836 0.200919 1.48789
          0.404649 0.196522 1.41683 0.349891 0.19974 1.53891
          0.339176 0.123145 -0.0956363 0.371903 0.120611 -0.274683
          0.520384 0.12941 -0.212325 0.416411 0.116529 -0.262841
          0.111257 -0.0260218 -0.0822399 0.0644315 -0.0164299 -0.0698736
          0.0802511 -0.012505 -0.0646586 0.109537 -0.0163913 -0.0963933
          0.491 0.196 1.34734 0.581837 0.210988 1.42249
          0.552352 0.201884 1.33583 0.465399 0.19799 1.51567
          0.509965 0.214157 2.04142 0.508874 0.214006 1.95539
          0.461807 0.207187 1.95549 0.59459 0.220233 1.95943
          0.169053 -0.0237773 -0.375043 0.212099 -0.0193911 -0.323621
          0.230366 -0.0190663 -0.394513 0.134253 -0.0150344 -0.313891
          0.344774 0.0734123 -0.938354 0.337729 0.0622297 -0.971894
          0.286476 0.052365 -1.03123 0.341916 0.079455 -0.982387
          0.508874 0.214006 1.95539 0.461908 0.207616 1.89904
          0.395929 0.200623 1.90057 0.523184 0.21308 1.90131
          -0.127933 -0.0196322 -0.359668 -0.128932 -0.0248542 -0.459665
          -0.052492 -0.0226985 -0.433246 -0.0449147 -0.0230668 -0.390274
          -0.0327653 -0.0170453 -0.262145 -0.0501823 -0.013834 -0.19697
          0.0390515 -0.02144 -0.216222 0.0374318 -0.0190485 -0.230557
          0.173193 -0.0331804 -0.207257 0.0991233 -0.0291402 -0.14598
          0.125349 -0.031823 -0.104373 0.153858 -0.0236808 -0.156252
          0.253788 0.0760074 -0.685864 0.136757 0.0683191 -0.748962
          0.257074 0.0669415 -0.796305 0.225286 0.0686452 -0.746878
          0.0774893 -0.0166292 -0.179655 0.12311 -0.0240496 -0.19082
          0.188511 -0.0162307 -0.249986 0.166261 -0.0163788 -0.191247
          0.167692 0.00789246 -1.13227 0.181922 0.0120482 -1.13884
          0.177514 0.0162521 -1.13173 0.172928 0.0182889 -1.13082
          0.553382 0.208726 1.55042 0.491887 0.204341 1.55134
          0.576437 0.21161 1.62788 0.690279 0.214152 1.44669
          0.351173 0.074105 -0.680571 0.257074 0.0669415 -0.796305
          0.336885 0.0784927 -0.737575 0.372622 0.0709968 -0.788346
          -0.0818359 -0.0274569 -0.533937 0.0252257 -0.0287216 -0.667561
          -0.0365529 -0.0262545 -0.615241 -0.00588535 -0.0269348 -0.514974
          0.188423 0.00272913 -1.13564 0.171138 0.0116209 -1.12877
          0.191011 0.0101408 -1.14815 0.180506 0.0179277 -1.13799
          -0.0449147 -0.0230668 -0.390274 -0.052492 -0.0226985 -0.433246
          0.0470043 -0.0228191 -0.395565 0.0536057 -0.025715 -0.403315
          0.123339 0.00193013 -0.276106 0.0857983 0.00396182 -0.185183
          0.105195 -0.00802552 -0.266652 0.113962 -0.0013081 -0.194325
          0.475228 0.212726 1.96844 0.383928 0.195509 1.93412
          0.451908 0.205792 1.91859 0.474586 0.213783 1.97551
          0.110453 -0.0208346 -0.375156 0.116656 -0.0213041 -0.272863
          0.134253 -0.0150344 -0.313891 0.0360046 -0.0165645 -0.266146
          0.0477449 0.14016 0.746838 0.0845378 0.147411 0.941905
          0.203415 0.152634 0.830437 0.112514 0.149711 0.813037
          0.209562 0.0518334 -0.953749 0.260874 0.0644344 -0.917065
          0.156925 0.0462572 -0.961802 0.183089 0.0573615 -0.895068
          0.181922 0.0120482 -1.13884 0.19375 -0.00246694 -1.13874
          0.18229 0.00818924 -1.14588 0.191011 0.0101408 -1.14815
          0.560566 0.146458 0.0640076 0.465816 0.133938 -0.0723265
          0.684195 0.149966 -0.00656958 0.527923 0.13303 -0.0882344
          0.480039 0.211585 2.11979 0.458699 0.214588 2.12646
          0.584148 0.228069 2.09401 0.55343 0.219074 2.12334
          0.538118 0.159808 0.49707 0.692943 0.167956 0.489621
          0.516531 0.151569 0.353601 0.572815 0.164404 0.469028
          0.23471 0.0431356 -1.07046 0.288575 0.0631171 -1.04643
          0.235505 0.0465084 -1.10819 0.203025 0.040745 -1.06991
          0.244901 -0.0225574 -0.460818 0.152232 -0.0233181 -0.476973
          0.238033 -0.0270216 -0.40716 0.169053 -0.0237773 -0.375043
          0.0807397 0.0461835 -1.02818 0.0714426 0.0506437 -0.980392
          0.0758894 0.0556241 -0.975666 0.13712 0.0459501 -1.00016
          0.15297 -0.0190904 -0.707837 0.267072 -0.0190794 -0.684281
          0.269312 -0.0158084 -0.790747 0.269356 -0.0163645 -0.701896
          0.451127 0.184652 1.08346 0.553202 0.194862 1.1531
          0.564165 0.19024 1.0193 0.551693 0.196169 1.18361
          0 0 0 0 0 0
          0 0 0 0.0222848 -0.00558348 -0.0278639
          0.589482 0.227665 1.9636 0.533699 0.223492 1.9141
          0.565696 0.22903 1.9938 0.475228 0.212726 1.96844
          0.48037 0.206131 1.89605 0.39061 0.201088 1.94817
          0.452807 0.202837 1.95211 0.376374 0.20549 1.89003
          -0.126512 -0.0230097 -0.257693 -0.132434 -0.021604 -0.332616
          -0.088756 -0.0207238 -0.274965 -0.0513797 -0.0175883 -0.319843
          0.00613925 -0.00568058 -0.0229973 0.0100932 -0.00802936 -0.0535907
          0.0244272 -0.00123409 -0.0380729 0.0277173 -0.0112998 -0.0430308
          0.153 5.4393e-05 -1.12756 0.139827 -0.00620229 -1.11706
          0.134934 -0.0107202 -1.12126 0.130874 -0.00297278 -1.10678
          0.496235 0.208476 1.73139 0.542925 0.207163 1.63277
          0.576437 0.21161 1.62788 0.491887 0.204341 1.55134
          0.110453 -0.0208346 -0.375156 0.0486358 -0.0214736 -0.314918
          0.169053 -0.0237773 -0.375043 0.116656 -0.0213041 -0.272863
          0.528544 0.20717 1.83677 0.610188 0.213279 1.85818
          0.48037 0.206131 1.89605 0.522544 0.209758 1.82278
          0.136467 0.0366424 -1.05661 0.117393 0.0308707 -1.07992
          0.169675 0.0299189 -1.08729 0.154597 0.0268177 -1.11213
          -0.0367899 -0.00800258 -0.0599512 -0.0126816 -0.00885974 -0.0401906
          -0.0148586 -0.00274295 -0.0245388 -0.0115162 -0.00567168 -0.051575
          0.551693 0.196169 1.18361 0.509302 0.18922 1.04712
          0.376293 0.185483 1.21542 0.483334 0.195034 1.26309
          0.477178 0.161787 0.54982 0.460286 0.156139 0.54136
          0.538118 0.159808 0.49707 0.542691 0.172558 0.701274
          0.477178 0.161787 0.54982 0.702014 0.175241 0.559962
          0.538118 0.159808 0.49707 0.572815 0.164404 0.469028
          0.17425 0.103817 -0.236551 0.276125 0.0947165 -0.379639
          0.147113 0.0900758 -0.449962 0.277729 0.0975518 -0.410816
          0.238844 0.162658 1.06277 0.361484 0.173451 1.00011
          0.254887 0.168468 1.07544 0.345197 0.178077 1.18186
          0.477379 0.178653 0.833553 0.349722 0.170056 0.845586
          0.422856 0.180565 0.934743 0.346798 0.170757 0.800478
          0.244901 -0.0225574 -0.460818 0.170921 -0.0275196 -0.439577
          0.238033 -0.0270216 -0.40716 0.152232 -0.0233181 -0.476973
          0.28116 0.113647 -0.106809 0.384774 0.108005 -0.146912
          0.273244 0.100067 -0.260464 0.409685 0.106138 -0.277549
          0.279769 0.140479 0.25432 0.325688 0.148226 0.386022
          0.195943 0.145332 0.453197 0.206908 0.133411 0.224806
          0.0484699 -0.0108675 -0.030091 0.0802511 -0.012505 -0.0646586
          0.0816611 -0.0211183 -0.0484198 0.0356243 -0.0169741 -0.0342029
          0.0827109 -0.0196146 -1.08085 0.139827 -0.00620229 -1.11706
          0.130043 -0.00557288 -1.10149 0.0975126 -0.0129236 -1.08417
          -0.0525861 -0.0158793 -0.211183 -0.0401972 -0.0186737 -0.295772
          -0.0284574 -0.0153834 -0.248114 0.0360046 -0.0165645 -0.266146
          0.315947 0.196592 1.90816 0.399113 0.201668 1.96815
          0.39061 0.201088 1.94817 0.317265 0.193703 1.98205
          0.44968 0.200513 2.01221 0.463114 0.205583 2.00861
          0.446707 0.199139 2.07562 0.388864 0.195535 2.04031
          0.17425 0.103817 -0.236551 0.409685 0.106138 -0.277549
          0.276125 0.0947165 -0.379639 0.327877 0.110293 -0.24624
          0.0289583 -0.0292126 -0.794661 0.0252257 -0.0287216 -0.667561
          -0.0303082 -0.027155 -0.714006 -0.0538285 -0.0315591 -0.675075
          0.477178 0.161787 0.54982 0.702014 0.175241 0.559962
          0.522672 0.172355 0.662797 0.705183 0.183313 0.70671
          0.0155697 -0.00945334 -0.0979218 0.0130412 -0.00728572 -0.143159
          -0.0277683 -0.0134212 -0.149544 0.00316235 -0.00774175 -0.084285
          0.476062 0.182941 1.06639 0.361484 0.173451 1.00011
          0.553202 0.194862 1.1531 0.539956 0.186254 0.988245
          0.134934 -0.0107202 -1.12126 0.118174 -0.0101753 -1.07335
          0.147967 -0.00385141 -1.1071 0.0975126 -0.0129236 -1.08417
          -0.102932 -0.0223742 -0.141753 -0.0885361 -0.0230579 -0.174972
          -0.0785707 -0.0230823 -0.0930104 -0.0423323 -0.0154299 -0.123609
          0.26683 -0.0138364 -0.624716 0.158713 -0.0124128 -0.593162
          0.193335 -0.0140792 -0.680673 0.183164 -0.0170671 -0.589371
          0.153728 0.181466 1.28935 0.261654 0.180809 1.21446
          0.245913 0.189513 1.4291 0.202133 0.177184 1.37992
          -0.0186939 0.0795216 -0.446417 -0.0327675 0.087618 -0.432786
          0.108892 0.0931933 -0.375589 -0.0453011 0.0930471 -0.305608
          0.257122 0.135619 0.303109 0.0887269 0.13043 0.360895
          0.189242 0.142522 0.483109 0.113661 0.130721 0.288513
          0.153 5.4393e-05 -1.12756 0.147967 -0.00385141 -1.1071
          0.130874 -0.00297278 -1.10678 0.134934 -0.0107202 -1.12126
          0.349309 0.0887881 -0.620987 0.421332 0.0907937 -0.716274
          0.46044 0.105433 -0.546765 0.432326 0.0870368 -0.603389
          0.0740804 -0.0196889 -0.590591 0.187113 -0.0166802 -0.683439
          0.118225 -0.016529 -0.643321 0.183164 -0.0170671 -0.589371
          0.118271 0.00736987 -1.08369 0.143848 0.028966 -1.11295
          0.152649 0.0237462 -1.12026 0.106287 0.031032 -1.09216
          0.209804 0.207864 1.60977 0.212652 0.196452 1.56397
          0.120473 0.204398 1.65206 0.0874426 0.20017 1.52277
          0.348836 0.102855 -0.459932 0.217546 0.0982124 -0.384524
          0.230729 0.0840752 -0.586159 0.277729 0.0975518 -0.410816
          0.232606 -0.00658906 -1.06714 0.245603 -0.0133778 -1.02696
          0.223532 -0.00797952 -1.09888 0.19541 -0.00381637 -1.08441
          0.128655 0.112603 -0.0840872 0.198264 0.124889 0.070095
          0.195909 0.124021 0.0195096 0.112681 0.128374 0.196126
          0.583484 0.229311 2.03987 0.501895 0.223601 2.13771
          0.474926 0.213993 2.03117 0.542081 0.226308 2.06513
          0.151547 0.002157 -1.08222 0.185334 -0.00195267 -1.08471
          0.177787 0.00281491 -1.11165 0.19541 -0.00381637 -1.08441
          0.121709 0.163601 0.920525 0.163265 0.169482 1.05637
          0.166401 0.179047 1.13145 -0.000663582 0.160485 1.00411
          0.16328 0.00682162 -1.12711 0.145661 0.00531314 -1.11313
          0.173365 0.0162593 -1.12608 0.166462 0.00518771 -1.12544
          -0.0648303 -0.020364 -0.846966 0.00945855 -0.0154396 -0.791267
          -0.0840805 -0.0231921 -0.77883 0.0127683 -0.0225709 -0.775399
          0.16486 -0.0132007 -0.873521 0.10775 -0.0136116 -0.885602
          0.203472 -0.0139074 -0.880859 0.096068 -0.0160099 -0.794129
          0.10116 0.0650096 -0.847493 0.126057 0.0571167 -0.91903
          0.158016 0.0603311 -0.849714 0.178872 0.0606546 -0.845006
          -0.12951 -0.024821 -0.478517 -0.12508 -0.0269195 -0.560752
          -0.122119 -0.0235412 -0.572695 -0.0168768 -0.0233283 -0.525649
          -0.0148586 -0.00274295 -0.0245388 -0.0367899 -0.00800258 -0.0599512
          -0.0485207 -0.00933978 -0.032129 -0.020548 -0.00832014 -0.0250458
          0.0166565 -0.0213178 -0.651747 -0.0303082 -0.027155 -0.714006
          -0.0331069 -0.0207408 -0.7108 0.0127683 -0.0225709 -0.775399
          0.328671 0.0418834 -0.942546 0.239659 0.0461789 -0.951595
          0.253697 0.0323901 -0.985347 0.283765 0.0410843 -0.917892
          0.139017 0.0506496 -0.867817 0.130594 0.0587253 -0.800895
          0.207633 0.0598625 -0.876171 0.167424 0.0633308 -0.79789
          0.128655 0.112603 -0.0840872 -0.0481754 0.101567 -0.142666
          0.13459 0.111976 -0.0718907 -0.0474617 0.108912 -0.0036774
          0.373718 0.18894 1.83094 0.283203 0.18814 1.84313
          0.387594 0.201059 1.81382 0.299638 0.182033 1.71781
          0.328671 0.0418834 -0.942546 0.304318 0.0314598 -1.01045
          0.277479 0.0228469 -1.01923 0.253697 0.0323901 -0.985347
          0.564627 0.0850216 -0.517364 0.368363 0.0880234 -0.492427
          0.591099 0.0927801 -0.384602 0.471473 0.100582 -0.394055
          0.181922 0.0120482 -1.13884 0.191011 0.0101408 -1.14815
          0.18229 0.00818924 -1.14588 0.193758 0.0212416 -1.1506
          0.245603 -0.0133778 -1.02696 0.206809 -0.0107099 -1.02112
          0.251392 -0.0149688 -0.992494 0.224739 -0.0140598 -1.03468
          0.225286 0.0686452 -0.746878 0.317734 0.059831 -0.79408
          0.268148 0.05214 -0.841647 0.233984 0.0560029 -0.869098
          0.0740804 -0.0196889 -0.590591 -0.0168768 -0.0233283 -0.525649
          0.0578659 -0.018722 -0.485896 0.00633645 -0.0199511 -0.543667
          0.0771466 -0.0128792 -0.667253 0.118225 -0.016529 -0.643321
          0.0359931 -0.0179081 -0.637707 0.0185148 -0.0145913 -0.704614
          0.0555938 -0.0190831 -0.895268 0.10091 -0.0208321 -0.887682
          0.0708915 -0.0190248 -0.830437 -0.000164951 -0.0258844 -0.847736
          0.188752 -0.0119074 -0.967376 0.123149 -0.0160708 -0.964579
          0.165532 -0.00924211 -1.03094 0.182197 -0.0121593 -0.958737
          0.117877 -0.0213928 -0.722719 0.0452458 -0.0243838 -0.718463
          0.0853681 -0.0229088 -0.641772 0.08759 -0.0181695 -0.700148
          0.364843 0.200645 1.94868 0.373512 0.195207 2.01143
          0.39061 0.201088 1.94817 0.452807 0.202837 1.95211
          0.675159 0.226764 1.51115 0.465399 0.19799 1.51567
          0.551926 0.218189 1.69449 0.540308 0.212462 1.59578
          -0.000164951 -0.0258844 -0.847736 -0.0840805 -0.0231921 -0.77883
          0.0127683 -0.0225709 -0.775399 -0.0648303 -0.020364 -0.846966
          0.106339 0.029652 -1.04331 0.173956 0.0310747 -1.07793
          0.157308 0.0350187 -1.04742 0.120681 0.0270317 -1.07656
          0.118271 0.00736987 -1.08369 0.151547 0.002157 -1.08222
          0.143377 0.0172557 -1.10458 0.120011 0.0152541 -1.07142
          -0.0538186 -0.0201853 -0.381395 -0.0161619 -0.0175454 -0.372721
          0.0509295 -0.0182737 -0.380621 -0.0382095 -0.0203499 -0.467039
          0.277729 0.0975518 -0.410816 0.108892 0.0931933 -0.375589
          0.327877 0.110293 -0.24624 0.217546 0.0982124 -0.384524
          0.217421 0.188552 1.6753 0.18332 0.150667 1.79197
          0.166313 0.182704 1.76022 0.113519 0.179696 1.65371
          0.296311 0.00918623 -1.04173 0.229005 0.0188687 -1.0652
          0.247711 0.0274887 -1.06388 0.235742 0.0082428 -1.0865
          0.0662192 -0.0264858 -0.977787 -0.0120033 -0.0375333 -0.962701
          0.0389992 -0.0231358 -0.956961 0.0577682 -0.0281423 -1.02948
          -0.0115162 -0.00567168 -0.051575 0.00613925 -0.00568058 -0.0229973
          0.0100932 -0.00802936 -0.0535907 -0.0148586 -0.00274295 -0.0245388
          -0.033115 0.100493 -0.125328 0.0844691 0.105919 -0.143068
          -0.0321081 0.0923879 -0.258256 -0.0208577 0.0900582 -0.264982
          0.187816 0.025274 -1.11521 0.215453 0.0337856 -1.12044
          0.205207 0.033256 -1.10889 0.207944 0.034123 -1.08695
          0.187662 -0.015708 -0.769458 0.08759 -0.0181695 -0.700148
          0.118225 -0.016529 -0.643321 0.117498 -0.0127052 -0.774123
          0.695025 0.206879 1.43571 0.712901 0.206388 1.22555
          0.603837 0.200727 1.3922 0.722095 0.203045 1.18652
          0.0102294 -0.0145549 -0.890416 -0.0557656 -0.0116304 -0.863214
          0.00945855 -0.0154396 -0.791267 0.0547873 -0.00956248 -0.875966
          0.147867 0.12399 0.215002 0.257122 0.135619 0.303109
          0.16556 0.134608 0.433358 0.330553 0.141912 0.420265
          0.0714426 0.0506437 -0.980392 0.123689 0.0542317 -0.925889
          0.13712 0.0459501 -1.00016 0.133288 0.0434323 -0.997365
          0.657557 0.130487 -0.0379752 0.673207 0.140736 0.00567184
          0.637193 0.117486 -0.179374 0.502812 0.120214 -0.176552
          0.484097 0.122155 -0.0630469 0.657557 0.130487 -0.0379752
          0.637193 0.117486 -0.179374 0.502812 0.120214 -0.176552
          0.0289583 -0.0292126 -0.794661 -0.0538285 -0.0315591 -0.675075
          -0.0303082 -0.027155 -0.714006 -0.0460202 -0.0328352 -0.760958
          0.124865 0.0743217 -0.614662 0.230729 0.0840752 -0.586159
          0.181637 0.0729893 -0.691136 0.272319 0.0902591 -0.581238
          0.388683 0.182205 1.28846 0.345197 0.178077 1.18186
          0.506516 0.19332 1.21679 0.476062 0.182941 1.06639
          0.16914 -0.0179375 -0.857877 0.233867 -0.0167969 -0.797427
          0.221732 -0.0110052 -0.922852 0.205372 -0.0163374 -0.830822
          0.139282 -0.0208527 -0.568469 0.187113 -0.0166802 -0.683439
          0.0740804 -0.0196889 -0.590591 0.183164 -0.0170671 -0.589371
          -0.0117854 -0.00191015 -0.0371014 0.00765813 -0.00792034 -0.0270135
          -0.0115162 -0.00567168 -0.051575 -0.0144841 0.000148197 -0.0285603
          0.166462 0.00518771 -1.12544 0.16328 0.00682162 -1.12711
          0.17471 0.0103553 -1.13275 0.180128 0.0144698 -1.13421
          0.209269 0.143736 1.78898 0.155598 0.132588 1.77496
          0.163942 0.138154 1.85165 0.269246 0.161112 1.88195
          0.376632 0.0687973 -0.609731 0.250628 0.081338 -0.520796
          0.411463 0.0864855 -0.395732 0.368363 0.0880234 -0.492427
          0.392657 0.0753856 -0.971224 0.335694 0.0749483 -1.03428
          0.286476 0.052365 -1.03123 0.341916 0.079455 -0.982387
          0.096068 -0.0160099 -0.794129 0.15297 -0.0190904 -0.707837
          0.185367 -0.0164986 -0.811141 0.187662 -0.015708 -0.769458
          0.516255 0.0666313 -0.664582 0.432167 0.0766004 -0.589968
          0.564627 0.0850216 -0.517364 0.540798 0.0820835 -0.610499
          -0.0538186 -0.0201853 -0.381395 -0.0401972 -0.0186737 -0.295772
          0.0509295 -0.0182737 -0.380621 -0.0161619 -0.0175454 -0.372721
          0.184506 0.00171474 -1.10889 0.216435 -0.000885015 -1.08431
          0.194202 -0.00451249 -1.06016 0.173041 -0.00280863 -1.09202
          -0.0229897 0.146215 0.749164 -0.0284562 0.14066 0.608061
          0.141115 0.14885 0.667341 -0.0397156 0.136079 0.577023
          0.399897 0.204163 1.81379 0.42471 0.207458 1.83215
          0.495762 0.206714 1.74814 0.389267 0.209684 1.72946
          0.482423 0.197254 1.34396 0.374364 0.188654 1.22074
          0.356278 0.194339 1.30124 0.441927 0.190179 1.14735
          0.474926 0.213993 2.03117 0.394078 0.205558 2.05199
          0.404221 0.212756 2.07781 0.441118 0.216517 2.13214
          0.0376237 0.00315363 -0.0667112 0.0660439 -0.0028024 -0.102152
          0.00316235 -0.00774175 -0.084285 0.0649561 0.00117694 -0.133957
          0.203472 -0.0139074 -0.880859 0.188752 -0.0119074 -0.967376
          0.16486 -0.0132007 -0.873521 0.185038 -0.0112891 -0.966454
          0.0471266 -0.0191522 -1.04979 0.0348273 -0.00834823 -1.03009
          0.0971336 -0.00259998 -1.06633 0.0811437 -0.0025162 -1.07377
          0.317615 0.133859 0.0941603 0.560566 0.146458 0.0640076
          0.394227 0.144542 0.157778 0.445539 0.138683 0.0844741
          0.148011 -0.0139621 -0.990689 0.221732 -0.0110052 -0.922852
          0.182197 -0.0121593 -0.958737 0.16914 -0.0179375 -0.857877
          0.153352 0.000889392 -1.13561 0.147967 -0.00385141 -1.1071
          0.141749 -0.00792323 -1.10374 0.173 0.00588326 -1.11985
          0.0389992 -0.0231358 -0.956961 -0.0515571 -0.0303915 -0.88369
          -0.0219125 -0.0217282 -0.941717 -0.0120033 -0.0375333 -0.962701
          0.00316235 -0.00774175 -0.084285 -0.0240264 -0.0123724 -0.0492764
          -0.00286052 -0.00389357 -0.0426216 -0.00690965 -0.00854844 -0.0800788
          0.0389992 -0.0231358 -0.956961 0.0169673 -0.0315692 -0.881613
          0.10091 -0.0208321 -0.887682 0.0555938 -0.0190831 -0.895268
          0.387815 0.202424 1.98846 0.335164 0.204974 2.06627
          0.394078 0.205558 2.05199 0.311359 0.19366 2.00681
          0.148028 0.00762492 -1.11872 0.148992 0.0128559 -1.11395
          0.169153 0.0211548 -1.10787 0.129881 0.0190457 -1.08765
          0.130874 -0.00297278 -1.10678 0.118354 0.00659017 -1.09692
          0.158522 0.00273212 -1.11049 0.152229 0.0117325 -1.11972
          0.286155 0.107829 -0.323724 0.371903 0.120611 -0.274683
          0.258244 0.101278 -0.423532 0.212402 0.107651 -0.258514
          0.269312 -0.0158084 -0.790747 0.203472 -0.0139074 -0.880859
          0.268345 -0.0141714 -0.849032 0.260191 -0.011571 -0.929422
          -0.0168768 -0.0233283 -0.525649 -0.0365529 -0.0262545 -0.615241
          -0.122119 -0.0235412 -0.572695 -0.0443746 -0.0202338 -0.606738
          0.327877 0.110293 -0.24624 0.28116 0.113647 -0.106809
          0.17425 0.103817 -0.236551 0.409685 0.106138 -0.277549
          0.0209038 -0.00974771 -0.210131 -0.0607624 -0.0176287 -0.188494
          0.0130412 -0.00728572 -0.143159 -0.0185362 -0.0123417 -0.194536
          -0.119881 -0.0218471 -0.219262 -0.126512 -0.0230097 -0.257693
          -0.0607624 -0.0176287 -0.188494 -0.0284574 -0.0153834 -0.248114
          0.39061 0.201088 1.94817 0.390222 0.200457 2.03097
          0.388864 0.195535 2.04031 0.317265 0.193703 1.98205
          0.343916 0.0755584 -0.839382 0.477897 0.0912087 -0.814626
          0.421332 0.0907937 -0.716274 0.492079 0.0833424 -0.762226
          0.253552 -0.0181023 -0.513482 0.152232 -0.0233181 -0.476973
          0.259363 -0.0222661 -0.561488 0.244901 -0.0225574 -0.460818
          0.0829014 -0.0282544 -0.0540615 0.0758476 -0.0272059 -0.0749921
          0.0356243 -0.0169741 -0.0342029 0.0644315 -0.0164299 -0.0698736
          0.260874 0.0644344 -0.917065 0.207633 0.0598625 -0.876171
          0.24453 0.0708505 -0.80429 0.29765 0.0780915 -0.862205
          0.539956 0.186254 0.988245 0.578245 0.183818 0.83647
          0.4665 0.174973 0.832093 0.564165 0.19024 1.0193
          -0.0185965 0.146966 0.68783 -0.0284562 0.14066 0.608061
          0.171797 0.154438 0.655168 -0.0229897 0.146215 0.749164
          0.225286 0.0686452 -0.746878 0.158016 0.0603311 -0.849714
          0.233984 0.0560029 -0.869098 0.178872 0.0606546 -0.845006
          0.104284 -0.0136701 -0.371997 0.141866 -0.00647079 -0.337935
          0.160769 -0.0155552 -0.394325 0.156717 -0.00972851 -0.433933
          0.169372 0.0112354 -1.1349 0.166518 0.00346835 -1.12287
          0.176707 0.00807449 -1.12962 0.175656 0.012652 -1.13595
          -0.12508 -0.0269195 -0.560752 -0.103051 -0.02635 -0.700307
          -0.111952 -0.0240078 -0.643506 -0.0365529 -0.0262545 -0.615241
          0.198031 0.0285388 -1.14317 0.18739 0.0247255 -1.1202
          0.205207 0.033256 -1.10889 0.218194 0.039635 -1.13003
          0.203198 -0.00291793 -1.12128 0.188423 0.00272913 -1.13564
          0.201398 -0.00242298 -1.12266 0.223532 -0.00797952 -1.09888
          0.207633 0.0598625 -0.876171 0.226725 0.0569851 -0.976381
          0.29765 0.0780915 -0.862205 0.260874 0.0644344 -0.917065
          0.257413 0.0399649 -1.08953 0.240259 0.0430863 -1.11282
          0.206879 0.0273064 -1.10803 0.228412 0.0286129 -1.10666
          0.0547873 -0.00956248 -0.875966 -0.0584268 -0.00413948 -0.841123
          -0.0752176 -0.0108463 -0.79656 0.00753187 -0.00795808 -0.801634
          -0.0148586 -0.00274295 -0.0245388 -0.0367899 -0.00800258 -0.0599512
          -0.0748015 -0.00789741 -0.0695534 -0.065013 -0.0122964 -0.0621598
          0.130689 0.0951538 -0.354446 -0.00969368 0.0757089 -0.473971
          0.173799 0.0876068 -0.503416 -0.0186939 0.0795216 -0.446417
          0.261654 0.180809 1.21446 0.308892 0.185216 1.1614
          0.374364 0.188654 1.22074 0.327201 0.179018 1.03886
          0.40147 0.202094 1.56307 0.498836 0.200919 1.48789
          0.349891 0.19974 1.53891 0.382239 0.19942 1.44473
          -0.0326251 0.140955 0.857926 0.0845378 0.147411 0.941905
          0.186008 0.158359 0.964154 -0.0194793 0.147898 0.977767
          0 0 0 0 0 0
          0 0 0 0.00613925 -0.00568058 -0.0229973
          0.315947 0.196592 1.90816 0.280536 0.198948 1.94003
          0.270667 0.21001 1.87832 0.230411 0.202424 1.92573
          0.477379 0.178653 0.833553 0.422856 0.180565 0.934743
          0.566235 0.187544 0.910491 0.526269 0.182344 0.807915
          0.404221 0.212756 2.07781 0.338076 0.210966 2.13269
          0.432863 0.218651 2.13995 0.38125 0.210746 2.12329
          0.402724 0.0628676 -0.720252 0.351173 0.074105 -0.680571
          0.510427 0.0776933 -0.702508 0.372622 0.0709968 -0.788346
          0.615925 0.16858 0.39627 0.530358 0.152472 0.215311
          0.634897 0.160619 0.195354 0.710123 0.168797 0.351904
          0.238887 0.0380659 -1.09393 0.207944 0.034123 -1.08695
          0.217644 0.0373622 -1.05651 0.23471 0.0431356 -1.07046
          0.329965 0.158701 0.681063 0.189242 0.142522 0.483109
          0.311949 0.159912 0.662099 0.345308 0.152407 0.481869
          0.172972 3.67282e-05 -1.0698 0.17137 -0.00547832 -1.04012
          0.190034 -0.00811258 -1.01657 0.143934 -0.00495345 -1.0015
          -0.0658888 -0.0192985 -0.331415 -0.052492 -0.0226985 -0.433246
          -0.130076 -0.0213635 -0.371606 -0.0538186 -0.0201853 -0.381395
          0.188761 -0.0117274 -0.865373 0.206243 -0.0142357 -0.811176
          0.261416 -0.0148291 -0.852965 0.19703 -0.0117658 -0.773249
          0.0555938 -0.0190831 -0.895268 0.055218 -0.0096646 -0.961593
          0.0919467 -0.0135297 -0.954481 0.0389992 -0.0231358 -0.956961
          0.347512 0.182185 1.38557 0.503551 0.201335 1.4564
          0.491 0.196 1.34734 0.552352 0.201884 1.33583
          -0.0321081 0.0923879 -0.258256 -0.0208577 0.0900582 -0.264982
          0.130689 0.0951538 -0.354446 0.0377004 0.0814389 -0.41916
          0.110453 -0.0208346 -0.375156 0.134253 -0.0150344 -0.313891
          0.0509295 -0.0182737 -0.380621 0.0360046 -0.0165645 -0.266146
          0.539956 0.186254 0.988245 0.451127 0.184652 1.08346
          0.4665 0.174973 0.832093 0.361484 0.173451 1.00011
          0.348094 0.0296688 -0.936452 0.368133 0.0290652 -0.963905
          0.304318 0.0314598 -1.01045 0.328671 0.0418834 -0.942546
          0.15145 0.0745346 -0.685354 0.27013 0.0773494 -0.610887
          0.268257 0.0661042 -0.699179 0.225286 0.0686452 -0.746878
          0.0660439 -0.0028024 -0.102152 0.145403 0.00751687 -0.157499
          0.0649561 0.00117694 -0.133957 0.0761817 0.015298 -0.0967612
          0.15795 0.0127548 -1.12438 0.160153 0.0242505 -1.10792
          0.172928 0.0182889 -1.13082 0.138486 0.0182829 -1.10666
          0.314863 0.163832 0.842115 0.329965 0.158701 0.681063
          0.237981 0.148473 0.653257 0.128366 0.144338 0.653264
          0.0649561 0.00117694 -0.133957 0.145403 0.00751687 -0.157499
          0.143686 0.0124576 -0.177216 0.0761817 0.015298 -0.0967612
          0.245796 0.0542283 -1.01114 0.230153 0.0452618 -0.998765
          0.278739 0.0589262 -0.949907 0.209562 0.0518334 -0.953749
          0.0954567 0.0390706 -1.02908 0.133288 0.0434323 -0.997365
          0.13712 0.0459501 -1.00016 0.136467 0.0366424 -1.05661
          0.345197 0.178077 1.18186 0.347512 0.182185 1.38557
          0.388683 0.182205 1.28846 0.473613 0.191655 1.24082
          -0.000164951 -0.0258844 -0.847736 -0.0801759 -0.0285786 -0.792856
          0.0127683 -0.0225709 -0.775399 -0.0840805 -0.0231921 -0.77883
          -0.0648303 -0.020364 -0.846966 0.00945855 -0.0154396 -0.791267
          -0.0897965 -0.0172937 -0.75591 -0.0840805 -0.0231921 -0.77883
          0.0886722 0.0972271 -0.326607 -0.0517243 0.0947152 -0.329892
          -0.0327675 0.087618 -0.432786 -0.0370501 0.0890911 -0.462169
          0.00753187 -0.00795808 -0.801634 0.0185148 -0.0145913 -0.704614
          0.0418954 -0.00556855 -0.770226 -0.0182043 -0.00505826 -0.712925
          0.113962 -0.0013081 -0.194325 0.0934466 -0.0105912 -0.154028
          0.0649561 0.00117694 -0.133957 0.0540416 -0.00937549 -0.175074
          -0.0284562 0.14066 0.608061 -0.0340695 0.132309 0.416224
          -0.0254253 0.13798 0.494116 0.121136 0.145829 0.514661
          0.301902 0.190563 2.02495 0.343228 0.197767 2.10279
          0.390222 0.200457 2.03097 0.289096 0.190872 2.09747
          0.527923 0.13303 -0.0882344 0.646271 0.129887 -0.217498
          0.666764 0.142636 -0.158079 0.673207 0.140736 0.00567184
          0.348094 0.0296688 -0.936452 0.328671 0.0418834 -0.942546
          0.277479 0.0228469 -1.01923 0.253697 0.0323901 -0.985347
          -0.0354252 -0.0123842 -0.100673 -0.0367899 -0.00800258 -0.0599512
          0.0100932 -0.00802936 -0.0535907 0.0155697 -0.00945334 -0.0979218
          0.0108447 -0.00392801 -0.129841 0.0388059 0.00445072 -0.0978631
          0.00316235 -0.00774175 -0.084285 0.0130412 -0.00728572 -0.143159
          0.188444 -0.00778189 -1.02334 0.145625 -0.00790975 -1.06445
          0.165532 -0.00924211 -1.03094 0.168965 -0.00515665 -1.0663
          -0.0367899 -0.00800258 -0.0599512 -0.0148586 -0.00274295 -0.0245388
          -0.0748015 -0.00789741 -0.0695534 -0.0115162 -0.00567168 -0.051575
          0.476062 0.182941 1.06639 0.696654 0.19816 0.990943
          0.539956 0.186254 0.988245 0.703544 0.206163 1.12416
          0.701053 0.18971 0.85072 0.539956 0.186254 0.988245
          0.696654 0.19816 0.990943 0.709038 0.196187 0.93758
          0.269312 -0.0158084 -0.790747 0.185367 -0.0164986 -0.811141
          0.268345 -0.0141714 -0.849032 0.203472 -0.0139074 -0.880859
          0.105429 -0.0278619 -0.280035 0.194208 -0.0324585 -0.282328
          0.116656 -0.0213041 -0.272863 0.12311 -0.0240496 -0.19082
          0.48037 0.206131 1.89605 0.501687 0.207959 1.94509
          0.548184 0.208722 1.91561 0.452807 0.202837 1.95211
          0.117851 0.0788018 -0.593398 0.136757 0.0683191 -0.748962
          0.0878293 0.0822467 -0.551896 0.00251873 0.0698236 -0.678307
          -0.11324 -0.0126841 -0.205618 -0.122225 -0.0168075 -0.28944
          -0.0327653 -0.0170453 -0.262145 -0.1189 -0.0141354 -0.266283
          0.0247339 0.0644325 -0.803147 0.0502769 0.0524165 -0.884212
          0.0372527 0.0525971 -0.826828 0.130684 0.0586593 -0.849266
          0.269312 -0.0158084 -0.790747 0.269356 -0.0163645 -0.701896
          0.187662 -0.015708 -0.769458 0.185367 -0.0164986 -0.811141
          0.367694 0.056094 -0.989246 0.392657 0.0753856 -0.971224
          0.337729 0.0622297 -0.971894 0.411928 0.066893 -0.924358
          0.40147 0.202094 1.56307 0.40384 0.206217 1.66463
          0.491887 0.204341 1.55134 0.542925 0.207163 1.63277
          0.0824626 0.120069 0.102868 -0.04001 0.111053 0.0264647
          -0.0474617 0.108912 -0.0036774 -0.0474959 0.118465 0.181263
          0.345197 0.178077 1.18186 0.361484 0.173451 1.00011
          0.451127 0.184652 1.08346 0.553202 0.194862 1.1531
          0.240259 0.0430863 -1.11282 0.182059 0.0298849 -1.13052
          0.204545 0.0286583 -1.12534 0.228727 0.046858 -1.13087
          0.112514 0.149711 0.813037 0.0845378 0.147411 0.941905
          0.203415 0.152634 0.830437 0.186008 0.158359 0.964154
          0.196196 0.1941 1.84397 0.272421 0.182674 1.91203
          0.230411 0.202424 1.92573 0.234576 0.164884 1.9288
          0.156925 0.0462572 -0.961802 0.180739 0.0425605 -1.00764
          0.209562 0.0518334 -0.953749 0.13282 0.0487597 -0.935717
          0.269312 -0.0158084 -0.790747 0.269356 -0.0163645 -0.701896
          0.268345 -0.0141714 -0.849032 0.187662 -0.015708 -0.769458
          0.166518 0.00346835 -1.12287 0.16328 0.00682162 -1.12711
          0.172442 0.00860304 -1.13067 0.175656 0.012652 -1.13595
          0.143934 -0.00495345 -1.0015 0.126494 -0.0116239 -0.962722
          0.185038 -0.0112891 -0.966454 0.138454 -0.0082111 -0.93618
          0.113962 -0.0013081 -0.194325 0.0934466 -0.0105912 -0.154028
          0.0660439 -0.0028024 -0.102152 0.0649561 0.00117694 -0.133957
          0.293607 0.171942 1.3809 0.388683 0.182205 1.28846
          0.345197 0.178077 1.18186 0.347512 0.182185 1.38557
          0.315947 0.196592 1.90816 0.282637 0.191383 1.93899
          0.399113 0.201668 1.96815 0.317265 0.193703 1.98205
          0.203198 -0.00291793 -1.12128 0.180068 0.00297451 -1.1089
          0.19541 -0.00381637 -1.08441 0.205167 -0.0060995 -1.09322
          0.139282 -0.0208527 -0.568469 0.15297 -0.0190904 -0.707837
          0.0740804 -0.0196889 -0.590591 0.187113 -0.0166802 -0.683439
          0.377788 0.0443525 -0.963537 0.315893 0.0269252 -1.03184
          0.304318 0.0314598 -1.01045 0.332843 0.0408597 -1.02195
          0.151547 0.002157 -1.08222 0.180068 0.00297451 -1.1089
          0.143377 0.0172557 -1.10458 0.120011 0.0152541 -1.07142
          0.237981 0.148473 0.653257 0.16556 0.134608 0.433358
          0.128366 0.144338 0.653264 0.333142 0.149548 0.503453
          0.232606 -0.00658906 -1.06714 0.238917 -0.00579035 -1.0335
          0.194464 -0.00870049 -1.02577 0.194202 -0.00451249 -1.06016
          0.152649 0.0237462 -1.12026 0.143848 0.028966 -1.11295
          0.168346 0.0243239 -1.1291 0.169031 0.0358445 -1.13262
          0.160153 0.0242505 -1.10792 0.177514 0.0162521 -1.13173
          0.169153 0.0211548 -1.10787 0.187816 0.025274 -1.11521
          0.207633 0.0598625 -0.876171 0.24453 0.0708505 -0.80429
          0.167424 0.0633308 -0.79789 0.130594 0.0587253 -0.800895
          0.0698984 0.0613448 -0.665753 0.0768571 0.0522908 -0.774606
          0.162981 0.0702291 -0.700182 0.0250515 0.0571414 -0.717461
          0.160511 0.0789107 -0.595206 0.0698984 0.0613448 -0.665753
          0.162981 0.0702291 -0.700182 0.124865 0.0743217 -0.614662
          0.193318 0.0234298 -1.13418 0.204545 0.0349354 -1.14484
          0.198031 0.0285388 -1.14317 0.218194 0.039635 -1.13003
          0.18286 0.00239008 -1.10851 0.166462 0.00518771 -1.12544
          0.197806 0.00805325 -1.12213 0.188625 0.0125997 -1.1077
          0.141866 -0.00647079 -0.337935 0.216657 -0.00509489 -0.339147
          0.160769 -0.0155552 -0.394325 0.238356 -0.0109887 -0.42744
          0.268257 0.0661042 -0.699179 0.225286 0.0686452 -0.746878
          0.268148 0.05214 -0.841647 0.178872 0.0606546 -0.845006
          0.247711 0.0274887 -1.06388 0.196237 0.0163121 -1.0977
          0.208914 0.0286063 -1.0707 0.23176 0.0157621 -1.09497
          0.0827109 -0.0196146 -1.08085 0.0975126 -0.0129236 -1.08417
          0.126155 -0.0162538 -1.11475 0.139827 -0.00620229 -1.11706
          0.24497 0.0543441 -1.03067 0.288575 0.0631171 -1.04643
          0.23471 0.0431356 -1.07046 0.203025 0.040745 -1.06991
          0.0297149 0.0817309 -0.656534 0.109161 0.0700203 -0.752531
          0.054551 0.0753255 -0.77357 -0.00846173 0.0762337 -0.687888
          -0.131659 -0.0221287 -0.396732 -0.132434 -0.021604 -0.332616
          -0.128186 -0.0211097 -0.310567 -0.0538186 -0.0201853 -0.381395
          0 0 0 0.0547054 0.0263362 -0.0374226
          0.0174988 0.00881202 -0.0123778 0.00878838 0.011498 -0.00445242
          0.290634 0.0679208 -1.00623 0.245796 0.0542283 -1.01114
          0.260874 0.0644344 -0.917065 0.226725 0.0569851 -0.976381
          0.0458227 0.142413 1.4792 0.150271 0.155697 1.3658
          0.158586 0.163992 1.36561 0.172868 0.153489 1.50407
          0.141115 0.14885 0.667341 0.0917604 0.139724 0.490675
          -0.0397156 0.136079 0.577023 -0.0284562 0.14066 0.608061
          0.0209038 -0.00974771 -0.210131 0.0366677 -0.00708896 -0.252972
          0.0327665 -0.0135779 -0.313497 -0.0209055 -0.0143869 -0.281814
          0.129881 0.0190457 -1.08765 0.104619 0.028198 -1.03143
          0.160795 0.0354946 -1.04283 0.120312 0.0189782 -1.0635
          0.399113 0.201668 1.96815 0.383928 0.195509 1.93412
          0.313847 0.186532 1.91649 0.395929 0.200623 1.90057
          -0.0449147 -0.0230668 -0.390274 -0.00588535 -0.0269348 -0.514974
          -0.052492 -0.0226985 -0.433246 0.0536057 -0.025715 -0.403315
          0.0247339 0.0644325 -0.803147 0.0494826 0.052463 -0.910515
          0.0502769 0.0524165 -0.884212 0.130684 0.0586593 -0.849266
          0.201398 -0.00242298 -1.12266 0.183085 0.00551842 -1.13081
          0.183178 0.00281344 -1.13408 0.178948 0.0060033 -1.13028
          0.183178 0.00281344 -1.13408 0.183085 0.00551842 -1.13081
          0.181922 0.0120482 -1.13884 0.178948 0.0060033 -1.13028
          0.117074 -0.0194202 -0.800314 0.096068 -0.0160099 -0.794129
          0.0708915 -0.0190248 -0.830437 0.08759 -0.0181695 -0.700148
          -0.0482987 -0.0104118 -0.135516 -0.100392 -0.00592964 -0.151989
          -0.0295207 -0.0156766 -0.182455 -0.0320968 -0.00669586 -0.096908
          -0.0370501 0.0890911 -0.462169 -0.0158408 0.0788361 -0.594233
          0.0878293 0.0822467 -0.551896 -0.0296118 0.0834849 -0.573164
          0.17137 -0.00547832 -1.04012 0.129918 -0.0092143 -1.0239
          0.143934 -0.00495345 -1.0015 0.0957739 -0.000896939 -1.02438
          0.22557 -0.000403006 -1.0551 0.188444 -0.00778189 -1.02334
          0.211839 0.00640367 -1.08357 0.236272 -0.00297843 -1.01559
          0.421482 0.0973892 -0.84509 0.477897 0.0912087 -0.814626
          0.421332 0.0907937 -0.716274 0.343916 0.0755584 -0.839382
          0.508874 0.214006 1.95539 0.474926 0.213993 2.03117
          0.509965 0.214157 2.04142 0.399113 0.201668 1.96815
          0.337729 0.0622297 -0.971894 0.411928 0.066893 -0.924358
          0.438328 0.0812215 -0.897867 0.344774 0.0734123 -0.938354
          0.141115 0.14885 0.667341 0.12317 0.154811 0.798318
          -0.0229897 0.146215 0.749164 -0.0285253 0.143236 0.763847
          0.392657 0.0753856 -0.971224 0.320388 0.0571591 -1.04914
          0.367694 0.056094 -0.989246 0.286476 0.052365 -1.03123
          0.300169 0.205092 1.53596 0.17973 0.197213 1.44533
          0.245913 0.189513 1.4291 0.212652 0.196452 1.56397
          0.148028 0.00762492 -1.11872 0.129881 0.0190457 -1.08765
          0.167174 0.0257106 -1.09011 0.120312 0.0189782 -1.0635
          0.364843 0.200645 1.94868 0.268785 0.212902 1.90147
          0.334915 0.211659 1.88336 0.280536 0.198948 1.94003
          0.245913 0.189513 1.4291 0.276521 0.195515 1.38913
          0.404649 0.196522 1.41683 0.356278 0.194339 1.30124
          0.154597 0.0268177 -1.11213 0.135998 0.0290872 -1.1078
          0.170804 0.0193801 -1.12604 0.157544 0.0198756 -1.12909
          0.188423 0.00272913 -1.13564 0.171214 0.0112742 -1.12197
          0.191011 0.0101408 -1.14815 0.171138 0.0116209 -1.12877
          -0.0342884 0.120438 0.180975 0.128974 0.130461 0.187026
          0.112681 0.128374 0.196126 0.0223666 0.115204 0.0326147
          0.315947 0.196592 1.90816 0.282637 0.191383 1.93899
          0.272421 0.182674 1.91203 0.313847 0.186532 1.91649
          0.712961 0.205477 1.16296 0.551693 0.196169 1.18361
          0.583709 0.197168 1.17371 0.719557 0.200946 1.05157
          0.160153 0.0242505 -1.10792 0.154846 0.0182198 -1.12627
          0.157544 0.0198756 -1.12909 0.135998 0.0290872 -1.1078
          -0.108758 -0.0168716 -0.179429 -0.0525861 -0.0158793 -0.211183
          -0.0277683 -0.0134212 -0.149544 -0.0354252 -0.0123842 -0.100673
          0.234576 0.164884 1.9288 0.234576 0.164884 1.9288
          0.272421 0.182674 1.91203 0.283203 0.18814 1.84313
          0.373718 0.18894 1.83094 0.301773 0.162762 1.76111
          0.395388 0.191512 1.71781 0.380334 0.185943 1.81351
          0.526642 0.217164 1.86394 0.516936 0.212012 1.83282
          0.603631 0.223803 1.88582 0.616494 0.228263 1.82752
          0.0342889 -0.0194191 -0.133678 0.0358098 -0.0173367 -0.15829
          0.00486405 -0.0137133 -0.10608 0.028315 -0.0144495 -0.0665337
          0.188423 0.00272913 -1.13564 0.215759 -0.00416399 -1.10589
          0.201398 -0.00242298 -1.12266 0.223532 -0.00797952 -1.09888
          0.166518 0.00346835 -1.12287 0.173041 -0.00280863 -1.09202
          0.158522 0.00273212 -1.11049 0.147967 -0.00385141 -1.1071
          0.0547873 -0.00956248 -0.875966 -0.0752176 -0.0108463 -0.79656
          0.00945855 -0.0154396 -0.791267 0.00753187 -0.00795808 -0.801634
          0.0844691 0.105919 -0.143068 0.130689 0.0951538 -0.354446
          0.212402 0.107651 -0.258514 0.237825 0.113705 -0.173142
          0.0774893 -0.0166292 -0.179655 0.153858 -0.0236808 -0.156252
          0.12311 -0.0240496 -0.19082 0.166261 -0.0163788 -0.191247
          0.136467 0.0366424 -1.05661 0.117393 0.0308707 -1.07992
          0.154597 0.0268177 -1.11213 0.121689 0.038873 -1.0749
          0.1823 0.048595 -0.960625 0.123689 0.0542317 -0.925889
          0.13712 0.0459501 -1.00016 0.239659 0.0461789 -0.951595
          0.197806 0.00805325 -1.12213 0.195952 0.0179985 -1.12406
          0.228412 0.0286129 -1.10666 0.219527 0.0205329 -1.10211
          -0.0557656 -0.0116304 -0.863214 -0.033664 0.00291065 -0.906916
          -0.0584268 -0.00413948 -0.841123 0.0256823 -0.00354785 -0.929701
          0.29089 0.05429 -1.08344 0.294977 0.0648741 -1.08627
          0.240259 0.0430863 -1.11282 0.280415 0.0522078 -1.06675
          0.496235 0.208476 1.73139 0.645948 0.213288 1.70657
          0.62833 0.215461 1.78832 0.643071 0.218332 1.70571
          0.257413 0.0399649 -1.08953 0.240259 0.0430863 -1.11282
          0.228412 0.0286129 -1.10666 0.290625 0.0440846 -1.07206
          0.45466 0.0726495 -0.847837 0.428379 0.0567763 -0.892945
          0.36166 0.0661805 -0.870565 0.411928 0.066893 -0.924358
          0.328671 0.0418834 -0.942546 0.377788 0.0443525 -0.963537
          0.304318 0.0314598 -1.01045 0.270998 0.0410123 -0.998166
          -0.128932 -0.0248542 -0.459665 -0.0818359 -0.0274569 -0.533937
          -0.12951 -0.024821 -0.478517 -0.052492 -0.0226985 -0.433246
          -0.052492 -0.0226985 -0.433246 -0.00588535 -0.0269348 -0.514974
          -0.0168768 -0.0233283 -0.525649 0.0665477 -0.0233217 -0.48275
          0.147867 0.12399 0.215002 0.0887269 0.13043 0.360895
          0.16556 0.134608 0.433358 0.257122 0.135619 0.303109
          0.172972 3.67282e-05 -1.0698 0.143934 -0.00495345 -1.0015
          0.190034 -0.00811258 -1.01657 0.136202 0.00593033 -1.04905
          0.0682129 -0.00638178 -1.0176 0.0579845 0.00399531 -0.987319
          0.0957739 -0.000896939 -1.02438 0.0346219 0.00470713 -1.02314
          0.286476 0.052365 -1.03123 0.238887 0.0380659 -1.09393
          0.280415 0.0522078 -1.06675 0.267714 0.0382249 -1.05959
          0.583709 0.197168 1.17371 0.551693 0.196169 1.18361
          0.483334 0.195034 1.26309 0.509302 0.18922 1.04712
          0.215453 0.0337856 -1.12044 0.204545 0.0349354 -1.14484
          0.193318 0.0234298 -1.13418 0.218194 0.039635 -1.13003
          0.0171941 0.169817 1.175 0.163265 0.169482 1.05637
          -0.000663582 0.160485 1.00411 0.166401 0.179047 1.13145
          0.465399 0.19799 1.51567 0.347512 0.182185 1.38557
          0.293607 0.171942 1.3809 0.294303 0.168015 1.52233
          0.599127 0.22786 1.89649 0.461908 0.207616 1.89904
          0.526642 0.217164 1.86394 0.475228 0.212726 1.96844
          0.276125 0.0947165 -0.379639 0.27013 0.0773494 -0.610887
          0.368363 0.0880234 -0.492427 0.250628 0.081338 -0.520796
          0.166462 0.00518771 -1.12544 0.180128 0.0144698 -1.13421
          0.195952 0.0179985 -1.12406 0.173365 0.0162593 -1.12608
          0.377788 0.0443525 -0.963537 0.304318 0.0314598 -1.01045
          0.304287 0.0480379 -1.00984 0.332843 0.0408597 -1.02195
          0.503551 0.201335 1.4564 0.584036 0.203196 1.31556
          0.535403 0.202873 1.41079 0.69147 0.217185 1.40219
          0.30287 0.172367 1.91948 0.237285 0.155215 1.89136
          0.269246 0.161112 1.88195 0.303986 0.162513 1.85599
          0.117877 -0.0213928 -0.722719 0.117074 -0.0194202 -0.800314
          0.0452458 -0.0243838 -0.718463 0.08759 -0.0181695 -0.700148
          0.00815519 -0.0112139 -0.565742 0.00229256 -0.0169905 -0.563079
          -0.0454728 -0.0174241 -0.455721 -0.0432089 -0.0131838 -0.487029
          0.503551 0.201335 1.4564 0.37001 0.190326 1.4178
          0.553382 0.208726 1.55042 0.535403 0.202873 1.41079
          -0.0658888 -0.0192985 -0.331415 -0.128186 -0.0211097 -0.310567
          -0.130076 -0.0213635 -0.371606 -0.122225 -0.0168075 -0.28944
          0.35344 0.191337 1.57455 0.217421 0.188552 1.6753
          0.314828 0.197156 1.62844 0.201068 0.185051 1.52316
          0.152232 -0.0233181 -0.476973 0.170921 -0.0275196 -0.439577
          0.251856 -0.0261606 -0.495461 0.244901 -0.0225574 -0.460818
          0.217546 0.0982124 -0.384524 0.108892 0.0931933 -0.375589
          0.327877 0.110293 -0.24624 0.195518 0.107239 -0.222251
          -0.0501823 -0.013834 -0.19697 -0.0295207 -0.0156766 -0.182455
          0.0390515 -0.02144 -0.216222 0.0374318 -0.0190485 -0.230557
          -0.052492 -0.0226985 -0.433246 -0.130076 -0.0213635 -0.371606
          -0.0538186 -0.0201853 -0.381395 -0.131659 -0.0221287 -0.396732
          0.105463 -0.00918275 -0.727052 0.0771466 -0.0128792 -0.667253
          0.0418954 -0.00556855 -0.770226 0.117498 -0.0127052 -0.774123
          0.0829014 -0.0282544 -0.0540615 0.0519787 -0.0134986 -0.00942474
          0.0356243 -0.0169741 -0.0342029 0.0441782 -0.0214942 -0.0490048
          0.18286 0.00239008 -1.10851 0.153867 -0.00790509 -1.11263
          0.166462 0.00518771 -1.12544 0.159927 0.00494235 -1.10631
          0.245913 0.189513 1.4291 0.37001 0.190326 1.4178
          0.404649 0.196522 1.41683 0.349891 0.19974 1.53891
          0.187113 -0.0166802 -0.683439 0.187251 -0.0208078 -0.643288
          0.269356 -0.0163645 -0.701896 0.262477 -0.0189119 -0.593392
          0.183164 -0.0170671 -0.589371 0.187251 -0.0208078 -0.643288
          0.187113 -0.0166802 -0.683439 0.262477 -0.0189119 -0.593392
          0.186008 0.158359 0.964154 0.203415 0.152634 0.830437
          0.112514 0.149711 0.813037 0.314863 0.163832 0.842115
          0.183089 0.0573615 -0.895068 0.258765 0.0665526 -0.86543
          0.24453 0.0708505 -0.80429 0.185762 0.0662311 -0.795337
          0.208938 0.0367803 -1.11163 0.185967 0.0478477 -1.12964
          0.228727 0.046858 -1.13087 0.258456 0.0565514 -1.10446
          -0.00846173 0.0762337 -0.687888 0.101692 0.0805584 -0.621601
          0.00251873 0.0698236 -0.678307 -0.0158408 0.0788361 -0.594233
          0.130689 0.0951538 -0.354446 0.173799 0.0876068 -0.503416
          0.286155 0.107829 -0.323724 0.217546 0.0982124 -0.384524
          0.0063197 0.158562 0.854408 0.114131 0.153668 0.647563
          0.16481 0.162741 0.781435 -0.0185965 0.146966 0.68783
          0.69147 0.217185 1.40219 0.503551 0.201335 1.4564
          0.674729 0.22363 1.53837 0.553382 0.208726 1.55042
          0.430173 0.0406597 -0.862268 0.44217 0.0557325 -0.843822
          0.368133 0.0290652 -0.963905 0.328671 0.0418834 -0.942546
          0.523184 0.21308 1.90131 0.395929 0.200623 1.90057
          0.454738 0.206806 1.89198 0.516936 0.212012 1.83282
          -0.00588535 -0.0269348 -0.514974 0.0665477 -0.0233217 -0.48275
          0.0536057 -0.025715 -0.403315 0.112536 -0.0265035 -0.552338
          0.0063197 0.158562 0.854408 -0.0167663 0.144702 0.598091
          0.114131 0.153668 0.647563 -0.0185965 0.146966 0.68783
          0.311442 0.220331 1.79745 0.376374 0.20549 1.89003
          0.270667 0.21001 1.87832 0.399897 0.204163 1.81379
          -0.119881 -0.0218471 -0.219262 -0.126512 -0.0230097 -0.257693
          -0.0885361 -0.0230579 -0.174972 -0.0607624 -0.0176287 -0.188494
          0.258244 0.101278 -0.423532 0.173799 0.0876068 -0.503416
          0.160511 0.0789107 -0.595206 0.272319 0.0902591 -0.581238
          0.0112062 0.150211 1.24102 0.0303563 0.162405 1.30879
          0.149429 0.170536 1.21814 0.00285029 0.158127 1.12293
          -0.0285253 0.143236 0.763847 -0.0229897 0.146215 0.749164
          0.141115 0.14885 0.667341 -0.0397156 0.136079 0.577023
          0.217644 0.0373622 -1.05651 0.245796 0.0542283 -1.01114
          0.23471 0.0431356 -1.07046 0.180739 0.0425605 -1.00764
          0.158713 -0.0124128 -0.593162 0.118225 -0.016529 -0.643321
          0.0804219 -0.014032 -0.565645 0.0771466 -0.0128792 -0.667253
          0.106287 0.031032 -1.09216 0.0771644 0.0116483 -1.06883
          0.114495 0.0252058 -1.087 0.0742282 0.0288745 -1.06535
          0.195952 0.0179985 -1.12406 0.180128 0.0144698 -1.13421
          0.20182 0.0253005 -1.11961 0.204545 0.0286583 -1.12534
          0.618914 0.118881 -0.360852 0.432143 0.100045 -0.469631
          0.59157 0.110913 -0.485872 0.603846 0.108722 -0.404598
          -0.0148586 -0.00274295 -0.0245388 -0.0126816 -0.00885974 -0.0401906
          -0.0367899 -0.00800258 -0.0599512 -0.020548 -0.00832014 -0.0250458
          -0.00846173 0.0762337 -0.687888 0.0247339 0.0644325 -0.803147
          0.109161 0.0700203 -0.752531 0.054551 0.0753255 -0.77357
          0.117498 -0.0127052 -0.774123 0.19703 -0.0117658 -0.773249
          0.206243 -0.0142357 -0.811176 0.122618 -0.00782457 -0.823936
          0.587716 0.22395 2.01079 0.474926 0.213993 2.03117
          0.509965 0.214157 2.04142 0.508874 0.214006 1.95539
          0.0486358 -0.0214736 -0.314918 0.0374318 -0.0190485 -0.230557
          0.105429 -0.0278619 -0.280035 0.116656 -0.0213041 -0.272863
          0.0758894 0.0556241 -0.975666 0.143772 0.0417257 -1.04399
          0.0807397 0.0461835 -1.02818 0.13712 0.0459501 -1.00016
          0.152229 0.0117325 -1.11972 0.118271 0.00736987 -1.08369
          0.143377 0.0172557 -1.10458 0.152649 0.0237462 -1.12026
          0.123339 0.00193013 -0.276106 0.0857983 0.00396182 -0.185183
          0.113962 -0.0013081 -0.194325 0.187575 0.00581802 -0.251084
          0.599127 0.22786 1.89649 0.461908 0.207616 1.89904
          0.475228 0.212726 1.96844 0.589482 0.227665 1.9636
          0.517372 0.152084 0.282314 0.554677 0.147962 0.233816
          0.500981 0.133764 0.025035 0.685457 0.150589 0.168031
          0.165532 -0.00924211 -1.03094 0.129918 -0.0092143 -1.0239
          0.139782 -0.00357415 -1.07587 0.145625 -0.00790975 -1.06445
          0.41749 0.201144 1.6896 0.35344 0.191337 1.57455
          0.320545 0.196448 1.74209 0.314828 0.197156 1.62844
          0.117193 0.187873 1.29336 0.166401 0.179047 1.13145
          0.153728 0.181466 1.28935 0.0171941 0.169817 1.175
          0.117498 -0.0127052 -0.774123 0.118225 -0.016529 -0.643321
          0.193335 -0.0140792 -0.680673 0.0771466 -0.0128792 -0.667253
          0.130874 -0.00297278 -1.10678 0.118174 -0.0101753 -1.07335
          0.139782 -0.00357415 -1.07587 0.0971336 -0.00259998 -1.06633
          0.294959 0.204801 1.7903 0.273528 0.207587 1.68961
          0.311442 0.220331 1.79745 0.399897 0.204163 1.81379
          0.117851 0.0788018 -0.593398 0.253788 0.0760074 -0.685864
          0.18863 0.0787469 -0.62348 0.136757 0.0683191 -0.748962
          0.432326 0.0870368 -0.603389 0.349309 0.0887881 -0.620987
          0.421332 0.0907937 -0.716274 0.336885 0.0784927 -0.737575
          0.666629 0.22252 1.59758 0.533951 0.211685 1.71521
          0.655136 0.228487 1.65267 0.632325 0.224004 1.75653
          0.510427 0.0776933 -0.702508 0.432326 0.0870368 -0.603389
          0.526328 0.0902544 -0.665505 0.372622 0.0709968 -0.788346
          -0.0331069 -0.0207408 -0.7108 0.0359931 -0.0179081 -0.637707
          -0.0443746 -0.0202338 -0.606738 0.0166565 -0.0213178 -0.651747
          0.106339 0.029652 -1.04331 0.079169 0.0414585 -0.973045
          0.0954567 0.0390706 -1.02908 0.133288 0.0434323 -0.997365
          0.491 0.196 1.34734 0.552352 0.201884 1.33583
          0.503551 0.201335 1.4564 0.465399 0.19799 1.51567
          0.16328 0.00682162 -1.12711 0.152229 0.0117325 -1.11972
          0.180506 0.0179277 -1.13799 0.173365 0.0162593 -1.12608
          0.311949 0.159912 0.662099 0.189242 0.142522 0.483109
          0.141115 0.14885 0.667341 0.0917604 0.139724 0.490675
          -0.0126816 -0.00885974 -0.0401906 -0.065013 -0.0122964 -0.0621598
          -0.020548 -0.00832014 -0.0250458 -0.0382728 -0.0119119 -0.0861697
          0.0853681 -0.0229088 -0.641772 0.0252257 -0.0287216 -0.667561
          0.048454 -0.0268886 -0.585892 -0.0365529 -0.0262545 -0.615241
          0.526642 0.217164 1.86394 0.461908 0.207616 1.89904
          0.451908 0.205792 1.91859 0.475228 0.212726 1.96844
          0.695025 0.206879 1.43571 0.555537 0.202478 1.4184
          0.603837 0.200727 1.3922 0.712901 0.206388 1.22555
          0.237915 0.172735 1.23496 0.202133 0.177184 1.37992
          0.37001 0.190326 1.4178 0.376293 0.185483 1.21542
          0.376293 0.185483 1.21542 0.473613 0.191655 1.24082
          0.237915 0.172735 1.23496 0.345197 0.178077 1.18186
          -0.0288902 0.130995 0.360327 -0.0342884 0.120438 0.180975
          0.119924 0.137646 0.352982 -0.0391606 0.125046 0.285413
          0.303986 0.162513 1.85599 0.209269 0.143736 1.78898
          0.237285 0.155215 1.89136 0.269246 0.161112 1.88195
          0.260676 0.172941 1.9455 0.237285 0.155215 1.89136
          0.269246 0.161112 1.88195 0.30287 0.172367 1.91948
          0.722095 0.203045 1.18652 0.583709 0.197168 1.17371
          0.719557 0.200946 1.05157 0.712901 0.206388 1.22555
          0.187251 -0.0208078 -0.643288 0.267072 -0.0190794 -0.684281
          0.269356 -0.0163645 -0.701896 0.262477 -0.0189119 -0.593392
          0.187251 -0.0208078 -0.643288 0.178216 -0.0244722 -0.612851
          0.229013 -0.0198355 -0.706495 0.267072 -0.0190794 -0.684281
          0.26683 -0.0138364 -0.624716 0.264919 -0.0113372 -0.599053
          0.270067 -0.0114217 -0.652342 0.193335 -0.0140792 -0.680673
          0.343228 0.197767 2.10279 0.301902 0.190563 2.02495
          0.250619 0.18662 2.09814 0.289096 0.190872 2.09747
          0.0771466 -0.0128792 -0.667253 0.0185148 -0.0145913 -0.704614
          0.0251875 -0.00748686 -0.660161 0.0418954 -0.00556855 -0.770226
          0.0682129 -0.00638178 -1.0176 -0.00299887 0.00214633 -0.960482
          0.0579845 0.00399531 -0.987319 0.0346219 0.00470713 -1.02314
          0.0607489 -0.00918772 -0.0791758 0.0802511 -0.012505 -0.0646586
          0.0222848 -0.00558348 -0.0278639 0.0277173 -0.0112998 -0.0430308
          0.117498 -0.0127052 -0.774123 0.096068 -0.0160099 -0.794129
          0.08759 -0.0181695 -0.700148 0.0185148 -0.0145913 -0.704614
          0.203198 -0.00291793 -1.12128 0.201398 -0.00242298 -1.12266
          0.19375 -0.00246694 -1.13874 0.223532 -0.00797952 -1.09888
          -0.122119 -0.0235412 -0.572695 -0.130573 -0.0210149 -0.461085
          -0.0382095 -0.0203499 -0.467039 -0.122298 -0.0197349 -0.569304
          0.0277173 -0.0112998 -0.0430308 0.00613925 -0.00568058 -0.0229973
          0 0 0 0 0 0
          0.460286 0.156139 0.54136 0.333142 0.149548 0.503453
          0.542691 0.172558 0.701274 0.477178 0.161787 0.54982
          0.399897 0.204163 1.81379 0.40384 0.206217 1.66463
          0.41749 0.201144 1.6896 0.320545 0.196448 1.74209
          0.620367 0.233462 1.82271 0.549512 0.222453 1.80015
          0.533699 0.223492 1.9141 0.526642 0.217164 1.86394
          0.00251873 0.0698236 -0.678307 0.0247339 0.0644325 -0.803147
          0.0220962 0.0587091 -0.743985 0.136757 0.0683191 -0.748962
          0.282637 0.191383 1.93899 0.234576 0.164884 1.9288
          0.193506 0.157546 1.98437 0.230411 0.202424 1.92573
          -0.0953438 -0.016709 -0.120506 -0.065013 -0.0122964 -0.0621598
          -0.0367899 -0.00800258 -0.0599512 -0.0382728 -0.0119119 -0.0861697
          -0.0148586 -0.00274295 -0.0245388 -0.065013 -0.0122964 -0.0621598
          -0.0485207 -0.00933978 -0.032129 -0.0367899 -0.00800258 -0.0599512
          -0.000663582 0.160485 1.00411 0.121709 0.163601 0.920525
          -0.0131994 0.152042 0.931257 -0.0126079 0.152453 0.828881
          0.204545 0.0286583 -1.12534 0.204545 0.0349354 -1.14484
          0.193318 0.0234298 -1.13418 0.215453 0.0337856 -1.12044
          0.141866 -0.00647079 -0.337935 0.123339 0.00193013 -0.276106
          0.0898911 -0.00444595 -0.325468 0.105195 -0.00802552 -0.266652
          0.696654 0.19816 0.990943 0.543584 0.179795 0.887579
          0.476062 0.182941 1.06639 0.539956 0.186254 0.988245
          0.0102294 -0.0145549 -0.890416 0.0256823 -0.00354785 -0.929701
          0.0547873 -0.00956248 -0.875966 0.055218 -0.0096646 -0.961593
          -0.0354252 -0.0123842 -0.100673 -0.0367899 -0.00800258 -0.0599512
          -0.0115162 -0.00567168 -0.051575 0.0100932 -0.00802936 -0.0535907
          -0.0382095 -0.0203499 -0.467039 -0.128471 -0.0186226 -0.507901
          0.00229256 -0.0169905 -0.563079 -0.122298 -0.0197349 -0.569304
          0.506516 0.19332 1.21679 0.476062 0.182941 1.06639
          0.703544 0.206163 1.12416 0.641142 0.207467 1.26476
          0.205207 0.033256 -1.10889 0.187816 0.025274 -1.11521
          0.207944 0.034123 -1.08695 0.173956 0.0310747 -1.07793
          0.339176 0.123145 -0.0956363 0.286155 0.107829 -0.323724
          0.416411 0.116529 -0.262841 0.195518 0.107239 -0.222251
          0.230411 0.202424 1.92573 0.193506 0.157546 1.98437
          0.282637 0.191383 1.93899 0.301902 0.190563 2.02495
          0.160511 0.0789107 -0.595206 0.173799 0.0876068 -0.503416
          0.124865 0.0743217 -0.614662 0.272319 0.0902591 -0.581238
          0.0279292 -0.0130824 -0.150911 0.0774893 -0.0166292 -0.179655
          0.0374318 -0.0190485 -0.230557 0.0098671 -0.0137665 -0.188363
          0.404221 0.212756 2.07781 0.441118 0.216517 2.13214
          0.432863 0.218651 2.13995 0.501895 0.223601 2.13771
          0.130594 0.0587253 -0.800895 0.24453 0.0708505 -0.80429
          0.181637 0.0729893 -0.691136 0.185762 0.0662311 -0.795337
          -0.108758 -0.0168716 -0.179429 -0.108082 -0.0140942 -0.171628
          -0.0354252 -0.0123842 -0.100673 -0.0953438 -0.016709 -0.120506
          0.0509295 -0.0182737 -0.380621 0.0665477 -0.0233217 -0.48275
          0.0578659 -0.018722 -0.485896 0.110453 -0.0208346 -0.375156
          0.147113 0.0900758 -0.449962 0.276125 0.0947165 -0.379639
          0.368363 0.0880234 -0.492427 0.299053 0.0864083 -0.553598
          0.230411 0.202424 1.92573 0.230411 0.202424 1.92573
          0.280536 0.198948 1.94003 0.230411 0.202424 1.92573
          0.0804219 -0.014032 -0.565645 0.00229256 -0.0169905 -0.563079
          0.00815519 -0.0112139 -0.565742 0.0771466 -0.0128792 -0.667253
          0.45466 0.0726495 -0.847837 0.36166 0.0661805 -0.870565
          0.477897 0.0912087 -0.814626 0.438328 0.0812215 -0.897867
          0.123387 0.0269296 -1.10146 0.140542 0.0445074 -1.11305
          0.106287 0.031032 -1.09216 0.152649 0.0237462 -1.12026
          0.714042 0.187409 0.739804 0.578245 0.183818 0.83647
          0.716643 0.195296 0.903992 0.721535 0.189703 0.763471
          0.0771466 -0.0128792 -0.667253 0.118225 -0.016529 -0.643321
          0.0804219 -0.014032 -0.565645 0.0359931 -0.0179081 -0.637707
          0.0578659 -0.018722 -0.485896 0.00633645 -0.0199511 -0.543667
          0.0470197 -0.0148555 -0.460253 0.00229256 -0.0169905 -0.563079
          0.096068 -0.0160099 -0.794129 0.10775 -0.0136116 -0.885602
          0.0642946 -0.0122501 -0.806808 0.16486 -0.0132007 -0.873521
          0.0366677 -0.00708896 -0.252972 0.0898911 -0.00444595 -0.325468
          0.105195 -0.00802552 -0.266652 0.0327665 -0.0135779 -0.313497
          -0.0303082 -0.027155 -0.714006 0.0252257 -0.0287216 -0.667561
          -0.0365529 -0.0262545 -0.615241 -0.0538285 -0.0315591 -0.675075
          0.247082 -0.00262737 -1.09337 0.208434 0.00138132 -1.11463
          0.245953 0.0105992 -1.09164 0.195749 -0.00968941 -1.11628
          0.483334 0.195034 1.26309 0.404649 0.196522 1.41683
          0.374364 0.188654 1.22074 0.261654 0.180809 1.21446
          0.0289583 -0.0292126 -0.794661 0.0252257 -0.0287216 -0.667561
          0.0452458 -0.0243838 -0.718463 -0.0303082 -0.027155 -0.714006
          -0.0331069 -0.0207408 -0.7108 0.0359931 -0.0179081 -0.637707
          0.0166565 -0.0213178 -0.651747 0.08759 -0.0181695 -0.700148
          0.177514 0.0162521 -1.13173 0.181922 0.0120482 -1.13884
          0.18229 0.00818924 -1.14588 0.193758 0.0212416 -1.1506
          0.169675 0.0299189 -1.08729 0.117393 0.0308707 -1.07992
          0.160153 0.0242505 -1.10792 0.154597 0.0268177 -1.11213
          0.39061 0.201088 1.94817 0.315947 0.196592 1.90816
          0.280536 0.198948 1.94003 0.376374 0.20549 1.89003
          0.416411 0.116529 -0.262841 0.502812 0.120214 -0.176552
          0.327877 0.110293 -0.24624 0.492783 0.111952 -0.323366
          0.170804 0.0193801 -1.12604 0.169675 0.0299189 -1.08729
          0.160153 0.0242505 -1.10792 0.154597 0.0268177 -1.11213
          0.269312 -0.0158084 -0.790747 0.187662 -0.015708 -0.769458
          0.268345 -0.0141714 -0.849032 0.185367 -0.0164986 -0.811141
          0.232606 -0.00658906 -1.06714 0.194464 -0.00870049 -1.02577
          0.245603 -0.0133778 -1.02696 0.17137 -0.00547832 -1.04012
          0.105463 -0.00918275 -0.727052 0.117498 -0.0127052 -0.774123
          0.0418954 -0.00556855 -0.770226 0.122618 -0.00782457 -0.823936
          0.587716 0.22395 2.01079 0.508874 0.214006 1.95539
          0.509965 0.214157 2.04142 0.59459 0.220233 1.95943
          0.0353563 0.00122208 -0.86422 0.00753187 -0.00795808 -0.801634
          0.0418954 -0.00556855 -0.770226 -0.0602992 -0.000919334 -0.759307
          0.152229 0.0117325 -1.11972 0.118271 0.00736987 -1.08369
          0.171138 0.0116209 -1.12877 0.143377 0.0172557 -1.10458
          0.299053 0.0864083 -0.553598 0.253788 0.0760074 -0.685864
          0.349309 0.0887881 -0.620987 0.351173 0.074105 -0.680571
          0.15795 0.0127548 -1.12438 0.177514 0.0162521 -1.13173
          0.138486 0.0182829 -1.10666 0.172928 0.0182889 -1.13082
          -0.0401972 -0.0186737 -0.295772 -0.128186 -0.0211097 -0.310567
          -0.0525861 -0.0158793 -0.211183 -0.127282 -0.0215735 -0.279389
          0.589482 0.227665 1.9636 0.475228 0.212726 1.96844
          0.565696 0.22903 1.9938 0.583484 0.229311 2.03987
          0.0289583 -0.0292126 -0.794661 0.0452458 -0.0243838 -0.718463
          0.0127683 -0.0225709 -0.775399 -0.0303082 -0.027155 -0.714006
          0.282072 0.186107 1.95795 0.267912 0.193391 2.06131
          0.335556 0.201341 2.04656 0.311359 0.19366 2.00681
          0.367694 0.056094 -0.989246 0.337729 0.0622297 -0.971894
          0.333011 0.0545899 -0.945405 0.411928 0.066893 -0.924358
          0.368133 0.0290652 -0.963905 0.277479 0.0228469 -1.01923
          0.304318 0.0314598 -1.01045 0.296311 0.00918623 -1.04173
          0.709794 0.178071 0.568122 0.472775 0.161158 0.475347
          0.578844 0.169726 0.498809 0.712817 0.175067 0.48361
          0.721535 0.189703 0.763471 0.477379 0.178653 0.833553
          0.566235 0.187544 0.910491 0.576506 0.177642 0.668802
          0.096068 -0.0160099 -0.794129 0.117074 -0.0194202 -0.800314
          0.156523 -0.0152272 -0.89299 0.185367 -0.0164986 -0.811141
          0.483334 0.195034 1.26309 0.404649 0.196522 1.41683
          0.482423 0.197254 1.34396 0.374364 0.188654 1.22074
          0.109161 0.0700203 -0.752531 0.18863 0.0787469 -0.62348
          0.225286 0.0686452 -0.746878 0.136757 0.0683191 -0.748962
          0.311949 0.159912 0.662099 0.349722 0.170056 0.845586
          0.346798 0.170757 0.800478 0.224316 0.165267 0.860861
          -0.052492 -0.0226985 -0.433246 -0.0818359 -0.0274569 -0.533937
          -0.12951 -0.024821 -0.478517 -0.0168768 -0.0233283 -0.525649
          0.474926 0.213993 2.03117 0.387815 0.202424 1.98846
          0.394078 0.205558 2.05199 0.399113 0.201668 1.96815
          0.117498 -0.0127052 -0.774123 0.0771466 -0.0128792 -0.667253
          0.193335 -0.0140792 -0.680673 0.105463 -0.00918275 -0.727052
          -0.11621 -0.0158091 -0.225044 -0.128186 -0.0211097 -0.310567
          -0.127282 -0.0215735 -0.279389 -0.0525861 -0.0158793 -0.211183
          0.208938 0.0367803 -1.11163 0.165049 0.0352555 -1.11584
          0.182059 0.0298849 -1.13052 0.185967 0.0478477 -1.12964
          0.318274 0.14137 0.291124 0.44205 0.135678 0.148091
          0.326886 0.131137 0.105877 0.554677 0.147962 0.233816
          0.270667 0.21001 1.87832 0.294959 0.204801 1.7903
          0.240274 0.217295 1.83279 0.311442 0.220331 1.79745
          0.0660439 -0.0028024 -0.102152 0.0607489 -0.00918772 -0.0791758
          0.13966 -0.00867676 -0.146496 0.103863 -0.00388894 -0.0944656
          0.611773 0.105919 -0.341636 0.502812 0.120214 -0.176552
          0.637193 0.117486 -0.179374 0.629611 0.117661 -0.264494
          0.165532 -0.00924211 -1.03094 0.121469 -0.0144557 -1.02135
          0.129918 -0.0092143 -1.0239 0.145625 -0.00790975 -1.06445
          0.344774 0.0734123 -0.938354 0.245796 0.0542283 -1.01114
          0.278739 0.0589262 -0.949907 0.260874 0.0644344 -0.917065
          0.701053 0.18971 0.85072 0.4665 0.174973 0.832093
          0.709038 0.196187 0.93758 0.542691 0.172558 0.701274
          0.187816 0.025274 -1.11521 0.193318 0.0234298 -1.13418
          0.215453 0.0337856 -1.12044 0.20182 0.0253005 -1.11961
          0.188752 -0.0119074 -0.967376 0.260191 -0.011571 -0.929422
          0.248905 -0.00813331 -0.987972 0.254776 -0.0120806 -0.974703
          0.261654 0.180809 1.21446 0.364277 0.178104 1.03208
          0.163265 0.169482 1.05637 0.327201 0.179018 1.03886
          0.185334 -0.00195267 -1.08471 0.194202 -0.00451249 -1.06016
          0.194464 -0.00870049 -1.02577 0.165532 -0.00924211 -1.03094
          -0.0117854 -0.00191015 -0.0371014 -0.0547892 0.00314345 -0.0505998
          -0.0365595 -0.00573392 -0.0808166 -0.0320968 -0.00669586 -0.096908
          0.0983943 0.103903 -0.1821 0.0512105 0.0999492 -0.292848
          0.0886722 0.0972271 -0.326607 0.129141 0.0946554 -0.378284
          0.501687 0.207959 1.94509 0.524651 0.210655 2.04711
          0.550847 0.21194 1.99431 0.44968 0.200513 2.01221
          0.0071006 0.167298 1.0351 0.166401 0.179047 1.13145
          0.0171941 0.169817 1.175 -0.000663582 0.160485 1.00411
          0.0327665 -0.0135779 -0.313497 -0.0209055 -0.0143869 -0.281814
          0.0636064 -0.00891908 -0.389929 0.0107608 -0.0144463 -0.385426
          0.176476 0.0148389 -1.10969 0.150219 0.0219777 -1.11042
          0.182059 0.0298849 -1.13052 0.208938 0.0367803 -1.11163
          0.123149 -0.0160708 -0.964579 0.129918 -0.0092143 -1.0239
          0.188752 -0.0119074 -0.967376 0.165532 -0.00924211 -1.03094
          0.0376237 0.00315363 -0.0667112 0.0019014 -0.00258287 -0.0143042
          0.0244272 -0.00123409 -0.0380729 0.0209124 0.00511759 -0.0548072
          0.148011 -0.0139621 -0.990689 0.16914 -0.0179375 -0.857877
          0.182197 -0.0121593 -0.958737 0.10098 -0.0230441 -0.930871
          0.185334 -0.00195267 -1.08471 0.232606 -0.00658906 -1.06714
          0.19541 -0.00381637 -1.08441 0.194464 -0.00870049 -1.02577
          0.719557 0.200946 1.05157 0.713145 0.199962 1.03394
          0.564165 0.19024 1.0193 0.716643 0.195296 0.903992
          0.261534 0.137069 0.167727 0.195909 0.124021 0.0195096
          0.31981 0.134046 0.0434342 0.317615 0.133859 0.0941603
          0.454738 0.206806 1.89198 0.461807 0.207187 1.95549
          0.501687 0.207959 1.94509 0.39061 0.201088 1.94817
          0.206569 0.161767 1.63429 0.147001 0.139934 1.64599
          0.155598 0.132588 1.77496 0.132312 0.154881 1.67008
          0.18739 0.0247255 -1.1202 0.169153 0.0211548 -1.10787
          0.173956 0.0310747 -1.07793 0.167174 0.0257106 -1.09011
          0.238356 -0.0109887 -0.42744 0.258238 -0.0118763 -0.540991
          0.251263 -0.0139785 -0.497885 0.156717 -0.00972851 -0.433933
          0.542691 0.172558 0.701274 0.543584 0.179795 0.887579
          0.539956 0.186254 0.988245 0.4665 0.174973 0.832093
          0.166518 0.00346835 -1.12287 0.17279 0.00720272 -1.12721
          0.176707 0.00807449 -1.12962 0.184506 0.00171474 -1.10889
          0.201734 -0.00779991 -1.01235 0.194202 -0.00451249 -1.06016
          0.238917 -0.00579035 -1.0335 0.22557 -0.000403006 -1.0551
          0.160795 0.0354946 -1.04283 0.106339 0.029652 -1.04331
          0.180739 0.0425605 -1.00764 0.104619 0.028198 -1.03143
          0.39061 0.201088 1.94817 0.280536 0.198948 1.94003
          0.364843 0.200645 1.94868 0.376374 0.20549 1.89003
          0.348094 0.0296688 -0.936452 0.328671 0.0418834 -0.942546
          0.253697 0.0323901 -0.985347 0.283765 0.0410843 -0.917892
          -0.00325904 0.140961 1.09947 0.131058 0.158108 1.10918
          -0.0194793 0.147898 0.977767 0.0112062 0.150211 1.24102
          -0.12951 -0.024821 -0.478517 -0.052492 -0.0226985 -0.433246
          -0.0168768 -0.0233283 -0.525649 -0.0382095 -0.0203499 -0.467039
          0.388864 0.195535 2.04031 0.317265 0.193703 1.98205
          0.289096 0.190872 2.09747 0.268413 0.19547 2.02507
          0.0853681 -0.0229088 -0.641772 -0.0168768 -0.0233283 -0.525649
          0.0665477 -0.0233217 -0.48275 0.0740804 -0.0196889 -0.590591
          0.458955 0.20145 1.7537 0.499489 0.20972 1.78754
          0.373718 0.18894 1.83094 0.458089 0.203362 1.84714
          0.152649 0.0237462 -1.12026 0.118271 0.00736987 -1.08369
          0.143377 0.0172557 -1.10458 0.143848 0.028966 -1.11295
          0.245796 0.0542283 -1.01114 0.217644 0.0373622 -1.05651
          0.230153 0.0452618 -0.998765 0.180739 0.0425605 -1.00764
          0.586206 0.198766 1.24339 0.583709 0.197168 1.17371
          0.482423 0.197254 1.34396 0.374364 0.188654 1.22074
          0.112536 -0.0265035 -0.552338 0.0665477 -0.0233217 -0.48275
          0.0536057 -0.025715 -0.403315 0.170921 -0.0275196 -0.439577
          0.0389992 -0.0231358 -0.956961 0.10091 -0.0208321 -0.887682
          0.10098 -0.0230441 -0.930871 0.123149 -0.0160708 -0.964579
          0.112514 0.149711 0.813037 0.20704 0.159521 0.859824
          -0.0285253 0.143236 0.763847 -0.0194793 0.147898 0.977767
          0.201398 -0.00242298 -1.12266 0.183085 0.00551842 -1.13081
          0.188423 0.00272913 -1.13564 0.183178 0.00281344 -1.13408
          0.0774893 -0.0166292 -0.179655 0.0934466 -0.0105912 -0.154028
          0.166261 -0.0163788 -0.191247 0.113946 -0.0122499 -0.222739
          0.240259 0.0430863 -1.11282 0.290625 0.0440846 -1.07206
          0.257413 0.0399649 -1.08953 0.29089 0.05429 -1.08344
          0.0108447 -0.00392801 -0.129841 0.0649561 0.00117694 -0.133957
          0.0857983 0.00396182 -0.185183 0.0388059 0.00445072 -0.0978631
          0.40384 0.206217 1.66463 0.314828 0.197156 1.62844
          0.349891 0.19974 1.53891 0.491887 0.204341 1.55134
          0.409685 0.106138 -0.277549 0.28116 0.113647 -0.106809
          0.384774 0.108005 -0.146912 0.484097 0.122155 -0.0630469
          0.0482068 0.0676577 -0.882717 0.123689 0.0542317 -0.925889
          0.10116 0.0650096 -0.847493 0.126057 0.0571167 -0.91903
          0.108892 0.0931933 -0.375589 -0.0453011 0.0930471 -0.305608
          0.0886722 0.0972271 -0.326607 0.0804092 0.101522 -0.223941
          0.0579845 0.00399531 -0.987319 0.0550265 0.00734161 -0.947155
          0.11213 0.00272844 -1.0007 0.0508581 0.018267 -1.0146
          -0.122095 -0.030647 -0.606076 -0.103051 -0.02635 -0.700307
          -0.0365529 -0.0262545 -0.615241 -0.0538285 -0.0315591 -0.675075
          0.156925 0.0462572 -0.961802 0.13282 0.0487597 -0.935717
          0.183089 0.0573615 -0.895068 0.071029 0.042301 -0.936173
          0.0937305 -0.0266664 -0.206198 0.12311 -0.0240496 -0.19082
          0.105429 -0.0278619 -0.280035 0.116656 -0.0213041 -0.272863
          0.128974 0.130461 0.187026 0.261534 0.137069 0.167727
          0.211578 0.144846 0.361071 0.279769 0.140479 0.25432
          -0.0288902 0.130995 0.360327 -0.0342884 0.120438 0.180975
          0.128974 0.130461 0.187026 0.119924 0.137646 0.352982
          0.188444 -0.00778189 -1.02334 0.148011 -0.0139621 -0.990689
          0.121469 -0.0144557 -1.02135 0.145625 -0.00790975 -1.06445
          0.603631 0.223803 1.88582 0.59459 0.220233 1.95943
          0.605988 0.219487 1.8842 0.523184 0.21308 1.90131
          0.17425 0.103817 -0.236551 -0.0568878 0.101842 -0.151099
          0.105133 0.110602 -0.0678035 0.0804092 0.101522 -0.223941
          0.438328 0.0812215 -0.897867 0.392657 0.0753856 -0.971224
          0.344774 0.0734123 -0.938354 0.44975 0.100469 -0.891684
          -0.052492 -0.0226985 -0.433246 -0.0818359 -0.0274569 -0.533937
          -0.0168768 -0.0233283 -0.525649 -0.00588535 -0.0269348 -0.514974
          -0.0326251 0.140955 0.857926 0.0845378 0.147411 0.941905
          -0.0194793 0.147898 0.977767 -0.00325904 0.140961 1.09947
          0.0930218 0.0316273 -0.984041 0.079169 0.0414585 -0.973045
          0.180739 0.0425605 -1.00764 0.071029 0.042301 -0.936173
          -0.0161619 -0.0175454 -0.372721 0.0107608 -0.0144463 -0.385426
          0.0470197 -0.0148555 -0.460253 -0.0454728 -0.0174241 -0.455721
          0.0824626 0.120069 0.102868 0.068297 0.121898 0.190096
          -0.0584419 0.120704 0.269333 -0.0565269 0.110644 0.0352962
          0.0758476 -0.0272059 -0.0749921 0.0675574 -0.0172296 -0.103565
          0.0644315 -0.0164299 -0.0698736 0.111257 -0.0260218 -0.0822399
          0.555537 0.202478 1.4184 0.542925 0.207163 1.63277
          0.622191 0.203573 1.52752 0.498836 0.200919 1.48789
          0.250628 0.081338 -0.520796 0.27013 0.0773494 -0.610887
          0.368363 0.0880234 -0.492427 0.376632 0.0687973 -0.609731
          0.538118 0.159808 0.49707 0.477178 0.161787 0.54982
          0.542691 0.172558 0.701274 0.702014 0.175241 0.559962
          -0.061984 0.099625 -0.212676 -0.0568878 0.101842 -0.151099
          -0.0687295 0.107069 -0.0607881 0.105133 0.110602 -0.0678035
          0.0209038 -0.00974771 -0.210131 -0.0284574 -0.0153834 -0.248114
          -0.0277683 -0.0134212 -0.149544 -0.0607624 -0.0176287 -0.188494
          0.0662192 -0.0264858 -0.977787 0.0389992 -0.0231358 -0.956961
          0.10098 -0.0230441 -0.930871 0.123149 -0.0160708 -0.964579
          0.315947 0.196592 1.90816 0.395929 0.200623 1.90057
          0.454738 0.206806 1.89198 0.39061 0.201088 1.94817
          0.372622 0.0709968 -0.788346 0.36166 0.0661805 -0.870565
          0.257074 0.0669415 -0.796305 0.258765 0.0665526 -0.86543
          0.136467 0.0366424 -1.05661 0.157308 0.0350187 -1.04742
          0.196052 0.0376533 -1.03505 0.169675 0.0299189 -1.08729
          0.15795 0.0127548 -1.12438 0.167692 0.00789246 -1.13227
          0.177514 0.0162521 -1.13173 0.172928 0.0182889 -1.13082
          0.475228 0.212726 1.96844 0.383928 0.195509 1.93412
          0.461908 0.207616 1.89904 0.451908 0.205792 1.91859
          -0.033115 0.100493 -0.125328 -0.0321081 0.0923879 -0.258256
          0.128655 0.112603 -0.0840872 -0.0481754 0.101567 -0.142666
          0.555537 0.202478 1.4184 0.498836 0.200919 1.48789
          0.603837 0.200727 1.3922 0.482423 0.197254 1.34396
          0.278414 0.0118281 -1.0665 0.247711 0.0274887 -1.06388
          0.23176 0.0157621 -1.09497 0.235742 0.0082428 -1.0865
          0.157544 0.0198756 -1.12909 0.170804 0.0193801 -1.12604
          0.169372 0.0112354 -1.1349 0.154846 0.0182198 -1.12627
          0.30705 0.0854688 -0.699613 0.336885 0.0784927 -0.737575
          0.349309 0.0887881 -0.620987 0.253788 0.0760074 -0.685864
          0.492079 0.0833424 -0.762226 0.45466 0.0726495 -0.847837
          0.372622 0.0709968 -0.788346 0.36166 0.0661805 -0.870565
          0.0649561 0.00117694 -0.133957 0.0660439 -0.0028024 -0.102152
          0.00316235 -0.00774175 -0.084285 0.0130412 -0.00728572 -0.143159
          0.054551 0.0753255 -0.77357 0.10116 0.0650096 -0.847493
          0.109161 0.0700203 -0.752531 0.178872 0.0606546 -0.845006
          0.540798 0.0820835 -0.610499 0.351173 0.074105 -0.680571
          0.432167 0.0766004 -0.589968 0.432326 0.0870368 -0.603389
          0.0418954 -0.00556855 -0.770226 0.0185148 -0.0145913 -0.704614
          0.0251875 -0.00748686 -0.660161 -0.0182043 -0.00505826 -0.712925
          -0.0953438 -0.016709 -0.120506 -0.0871916 -0.0208251 -0.097455
          -0.065013 -0.0122964 -0.0621598 -0.0382728 -0.0119119 -0.0861697
          0.177901 0.122751 0.105101 0.068297 0.121898 0.190096
          0.0824626 0.120069 0.102868 -0.0565269 0.110644 0.0352962
          -0.0115162 -0.00567168 -0.051575 -0.0117854 -0.00191015 -0.0371014
          -0.0365595 -0.00573392 -0.0808166 0.0140221 -0.0136444 -0.0704409
          0.457237 0.119913 -0.42142 0.332754 0.0979477 -0.592942
          0.46044 0.105433 -0.546765 0.348836 0.102855 -0.459932
          0.0844691 0.105919 -0.143068 0.130689 0.0951538 -0.354446
          0.237825 0.113705 -0.173142 0.128655 0.112603 -0.0840872
          0.238887 0.0380659 -1.09393 0.20182 0.0253005 -1.11961
          0.228412 0.0286129 -1.10666 0.207377 0.0208321 -1.10963
          0.311442 0.220331 1.79745 0.294959 0.204801 1.7903
          0.240274 0.217295 1.83279 0.216007 0.215997 1.73409
          0.151948 -0.00220459 -0.376901 0.123339 0.00193013 -0.276106
          0.0898911 -0.00444595 -0.325468 0.141866 -0.00647079 -0.337935
          0.286476 0.052365 -1.03123 0.335694 0.0749483 -1.03428
          0.288575 0.0631171 -1.04643 0.341916 0.079455 -0.982387
          0.311359 0.19366 2.00681 0.267912 0.193391 2.06131
          0.335164 0.204974 2.06627 0.193506 0.157546 1.98437
          0.16481 0.162741 0.781435 0.114131 0.153668 0.647563
          0.275032 0.163779 0.686588 0.171797 0.154438 0.655168
          0.318274 0.14137 0.291124 0.326886 0.131137 0.105877
          0.177901 0.122751 0.105101 0.206908 0.133411 0.224806
          0.00892697 0.142516 1.2659 0.158586 0.163992 1.36561
          0.0112062 0.150211 1.24102 0.0458227 0.142413 1.4792
          -0.0568878 0.101842 -0.151099 -0.0565269 0.110644 0.0352962
          -0.0687295 0.107069 -0.0607881 0.105133 0.110602 -0.0678035
          0.317615 0.133859 0.0941603 0.520411 0.143817 -0.00516023
          0.394227 0.144542 0.157778 0.560566 0.146458 0.0640076
          0.701053 0.18971 0.85072 0.543584 0.179795 0.887579
          0.539956 0.186254 0.988245 0.542691 0.172558 0.701274
          0.346798 0.170757 0.800478 0.405571 0.173315 0.753173
          0.420039 0.179584 0.88187 0.526269 0.182344 0.807915
          0.0327665 -0.0135779 -0.313497 0.105195 -0.00802552 -0.266652
          0.0366677 -0.00708896 -0.252972 0.0209038 -0.00974771 -0.210131
          0.131058 0.158108 1.10918 0.170346 0.164995 1.04243
          0.254887 0.168468 1.07544 0.186008 0.158359 0.964154
          0.193335 -0.0140792 -0.680673 0.270067 -0.0114217 -0.652342
          0.274841 -0.0128614 -0.74517 0.16105 -0.0100386 -0.662766
          0.153858 -0.0236808 -0.156252 0.173193 -0.0331804 -0.207257
          0.12311 -0.0240496 -0.19082 0.193086 -0.0253065 -0.24717
          0.172972 3.67282e-05 -1.0698 0.151547 0.002157 -1.08222
          0.17137 -0.00547832 -1.04012 0.143934 -0.00495345 -1.0015
          0.055218 -0.0096646 -0.961593 0.0579845 0.00399531 -0.987319
          0.0957739 -0.000896939 -1.02438 0.0682129 -0.00638178 -1.0176
          0.23471 0.0431356 -1.07046 0.205207 0.033256 -1.10889
          0.173956 0.0310747 -1.07793 0.203025 0.040745 -1.06991
          0.173365 0.0162593 -1.12608 0.180128 0.0144698 -1.13421
          0.195952 0.0179985 -1.12406 0.204545 0.0286583 -1.12534
          0.472775 0.161158 0.475347 0.578844 0.169726 0.498809
          0.407349 0.167289 0.652838 0.576506 0.177642 0.668802
          0.27592 0.0587676 -1.08134 0.294977 0.0648741 -1.08627
          0.280415 0.0522078 -1.06675 0.240259 0.0430863 -1.11282
          0.0829014 -0.0282544 -0.0540615 0.0356243 -0.0169741 -0.0342029
          0.0816611 -0.0211183 -0.0484198 0.0644315 -0.0164299 -0.0698736
          0.0166565 -0.0213178 -0.651747 -0.0365529 -0.0262545 -0.615241
          -0.0331069 -0.0207408 -0.7108 -0.0303082 -0.027155 -0.714006
          0.392657 0.0753856 -0.971224 0.396695 0.0851948 -0.993426
          0.335694 0.0749483 -1.03428 0.341916 0.079455 -0.982387
          -0.111952 -0.0240078 -0.643506 -0.0331069 -0.0207408 -0.7108
          -0.0443746 -0.0202338 -0.606738 0.0166565 -0.0213178 -0.651747
          0.36166 0.0661805 -0.870565 0.3056 0.0562813 -0.888644
          0.363754 0.0521145 -0.84867 0.372622 0.0709968 -0.788346
          0.0222848 -0.00558348 -0.0278639 0 0 0
          0 0 0 0.0752352 -0.00582282 -0.0580352
          0.313847 0.186532 1.91649 0.283203 0.18814 1.84313
          0.373718 0.18894 1.83094 0.269246 0.161112 1.88195
          -0.0284574 -0.0153834 -0.248114 0.0327665 -0.0135779 -0.313497
          -0.0513797 -0.0175883 -0.319843 -0.0209055 -0.0143869 -0.281814
          0.0919467 -0.0135297 -0.954481 0.126494 -0.0116239 -0.962722
          0.123149 -0.0160708 -0.964579 0.129918 -0.0092143 -1.0239
          0.196196 0.1941 1.84397 0.283203 0.18814 1.84313
          0.272421 0.182674 1.91203 0.234576 0.164884 1.9288
          -0.00325904 0.140961 1.09947 0.236193 0.163352 1.23858
          0.131058 0.158108 1.10918 0.00892697 0.142516 1.2659
          0.475228 0.212726 1.96844 0.533699 0.223492 1.9141
          0.565696 0.22903 1.9938 0.474586 0.213783 1.97551
          0.477379 0.178653 0.833553 0.364277 0.178104 1.03208
          0.422856 0.180565 0.934743 0.349722 0.170056 0.845586
          0.555537 0.202478 1.4184 0.583709 0.197168 1.17371
          0.586206 0.198766 1.24339 0.712901 0.206388 1.22555
          0.709794 0.178071 0.568122 0.702014 0.175241 0.559962
          0.522672 0.172355 0.662797 0.572815 0.164404 0.469028
          0.44205 0.135678 0.148091 0.307201 0.123835 0.0687832
          0.257122 0.135619 0.303109 0.326886 0.131137 0.105877
          0.240259 0.0430863 -1.11282 0.208938 0.0367803 -1.11163
          0.228727 0.046858 -1.13087 0.258456 0.0565514 -1.10446
          0.517372 0.152084 0.282314 0.694104 0.155148 0.164546
          0.710123 0.168797 0.351904 0.698744 0.164157 0.363125
          0.110453 -0.0208346 -0.375156 0.0470043 -0.0228191 -0.395565
          0.0486358 -0.0214736 -0.314918 0.0509295 -0.0182737 -0.380621
          0.0389992 -0.0231358 -0.956961 0.0169673 -0.0315692 -0.881613
          0.10098 -0.0230441 -0.930871 0.10091 -0.0208321 -0.887682
          0.388864 0.195535 2.04031 0.373512 0.195207 2.01143
          0.317265 0.193703 1.98205 0.268413 0.19547 2.02507
          0.549512 0.222453 1.80015 0.458089 0.203362 1.84714
          0.533699 0.223492 1.9141 0.526642 0.217164 1.86394
          0.315947 0.196592 1.90816 0.39061 0.201088 1.94817
          0.454738 0.206806 1.89198 0.376374 0.20549 1.89003
          0.08759 -0.0181695 -0.700148 0.118225 -0.016529 -0.643321
          0.187113 -0.0166802 -0.683439 0.187662 -0.015708 -0.769458
          -0.0443746 -0.0202338 -0.606738 0.0185148 -0.0145913 -0.704614
          -0.0323988 -0.0141205 -0.630091 0.0359931 -0.0179081 -0.637707
          0.131058 0.158108 1.10918 0.186008 0.158359 0.964154
          -0.0194793 0.147898 0.977767 0.170346 0.164995 1.04243
          0.327201 0.179018 1.03886 0.308892 0.185216 1.1614
          0.166401 0.179047 1.13145 0.261654 0.180809 1.21446
          0.17471 0.0103553 -1.13275 0.153 5.4393e-05 -1.12756
          0.169372 0.0112354 -1.1349 0.16328 0.00682162 -1.12711
          0.00800832 0.0681307 -0.627782 0.0220962 0.0587091 -0.743985
          0.117851 0.0788018 -0.593398 0.136757 0.0683191 -0.748962
          0.117851 0.0788018 -0.593398 0.0220962 0.0587091 -0.743985
          0.181637 0.0729893 -0.691136 0.136757 0.0683191 -0.748962
          0.373718 0.18894 1.83094 0.458955 0.20145 1.7537
          0.395388 0.191512 1.71781 0.499489 0.20972 1.78754
          0.430173 0.0406597 -0.862268 0.363754 0.0521145 -0.84867
          0.478524 0.0469546 -0.74553 0.480373 0.0621636 -0.760049
          0.388683 0.182205 1.28846 0.345197 0.178077 1.18186
          0.473613 0.191655 1.24082 0.506516 0.19332 1.21679
          0.377788 0.0443525 -0.963537 0.332843 0.0408597 -1.02195
          0.304287 0.0480379 -1.00984 0.367694 0.056094 -0.989246
          0.169675 0.0299189 -1.08729 0.196052 0.0376533 -1.03505
          0.136467 0.0366424 -1.05661 0.16577 0.0305277 -1.08499
          0.409685 0.106138 -0.277549 0.484097 0.122155 -0.0630469
          0.637193 0.117486 -0.179374 0.502812 0.120214 -0.176552
          0.535403 0.202873 1.41079 0.37001 0.190326 1.4178
          0.553382 0.208726 1.55042 0.491887 0.204341 1.55134
          -0.0277683 -0.0134212 -0.149544 0.0130412 -0.00728572 -0.143159
          -0.0607624 -0.0176287 -0.188494 -0.0423323 -0.0154299 -0.123609
          0.0828364 0.169506 1.55691 0.201068 0.185051 1.52316
          0.0303563 0.162405 1.30879 0.0463607 0.175677 1.37031
          0.183089 0.0573615 -0.895068 0.238684 0.0574548 -0.90005
          0.258765 0.0665526 -0.86543 0.185762 0.0662311 -0.795337
          0.0209124 0.00511759 -0.0548072 0.0452892 0.0171097 -0.0497382
          0.0376237 0.00315363 -0.0667112 0.0388059 0.00445072 -0.0978631
          0.712901 0.206388 1.22555 0.712961 0.205477 1.16296
          0.704115 0.209655 1.28711 0.551693 0.196169 1.18361
          0.552352 0.201884 1.33583 0.641142 0.207467 1.26476
          0.697242 0.21442 1.29245 0.581837 0.210988 1.42249
          0.0389992 -0.0231358 -0.956961 0.055218 -0.0096646 -0.961593
          0.00182079 -0.0183532 -0.985129 -0.0219125 -0.0217282 -0.941717
          -0.0401972 -0.0186737 -0.295772 -0.0513797 -0.0175883 -0.319843
          -0.0284574 -0.0153834 -0.248114 -0.0161619 -0.0175454 -0.372721
          0.618914 0.118881 -0.360852 0.629611 0.117661 -0.264494
          0.492783 0.111952 -0.323366 0.603846 0.108722 -0.404598
          0.270667 0.21001 1.87832 0.196196 0.1941 1.84397
          0.230411 0.202424 1.92573 0.165846 0.208743 1.78842
          0.491887 0.204341 1.55134 0.553382 0.208726 1.55042
          0.41749 0.201144 1.6896 0.460626 0.203436 1.6395
          0.500981 0.133764 0.025035 0.673207 0.140736 0.00567184
          0.502812 0.120214 -0.176552 0.527923 0.13303 -0.0882344
          0.0771644 0.0116483 -1.06883 0.118271 0.00736987 -1.08369
          0.118354 0.00659017 -1.09692 0.123387 0.0269296 -1.10146
          0.474926 0.213993 2.03117 0.501895 0.223601 2.13771
          0.457526 0.215988 2.03787 0.542081 0.226308 2.06513
          -0.122119 -0.0235412 -0.572695 -0.12951 -0.024821 -0.478517
          -0.0382095 -0.0203499 -0.467039 -0.130573 -0.0210149 -0.461085
          0.48037 0.206131 1.89605 0.376374 0.20549 1.89003
          0.364843 0.200645 1.94868 0.334915 0.211659 1.88336
          0.458089 0.203362 1.84714 0.451908 0.205792 1.91859
          0.526642 0.217164 1.86394 0.461908 0.207616 1.89904
          0.165532 -0.00924211 -1.03094 0.168965 -0.00515665 -1.0663
          0.194202 -0.00451249 -1.06016 0.201734 -0.00779991 -1.01235
          0.428379 0.0567763 -0.892945 0.3056 0.0562813 -0.888644
          0.363754 0.0521145 -0.84867 0.36166 0.0661805 -0.870565
          0.576437 0.21161 1.62788 0.533951 0.211685 1.71521
          0.496235 0.208476 1.73139 0.41749 0.201144 1.6896
          -0.0681067 -0.0183736 -0.314081 0.00554623 -0.0230099 -0.354419
          -0.0658888 -0.0192985 -0.331415 -0.00765868 -0.0207847 -0.286805
          0.392657 0.0753856 -0.971224 0.411928 0.066893 -0.924358
          0.438328 0.0812215 -0.897867 0.337729 0.0622297 -0.971894
          0.551693 0.196169 1.18361 0.584036 0.203196 1.31556
          0.704115 0.209655 1.28711 0.535403 0.202873 1.41079
          0.476062 0.182941 1.06639 0.238844 0.162658 1.06277
          0.361484 0.173451 1.00011 0.368946 0.164907 0.841573
          0.361484 0.173451 1.00011 0.186008 0.158359 0.964154
          0.20704 0.159521 0.859824 0.314863 0.163832 0.842115
          0.31981 0.134046 0.0434342 0.195909 0.124021 0.0195096
          0.325379 0.126608 -0.0892965 0.317615 0.133859 0.0941603
          0.394227 0.144542 0.157778 0.445539 0.138683 0.0844741
          0.530358 0.152472 0.215311 0.317615 0.133859 0.0941603
          -0.131659 -0.0221287 -0.396732 -0.0538186 -0.0201853 -0.381395
          -0.0382095 -0.0203499 -0.467039 -0.130573 -0.0210149 -0.461085
          0.245796 0.0542283 -1.01114 0.288575 0.0631171 -1.04643
          0.286476 0.052365 -1.03123 0.23471 0.0431356 -1.07046
          0.0577682 -0.0281423 -1.02948 0.0389992 -0.0231358 -0.956961
          0.0700022 -0.0189528 -1.04155 0.00904144 -0.0242568 -1.0025
          -0.0342884 0.120438 0.180975 -0.04001 0.111053 0.0264647
          0.112681 0.128374 0.196126 -0.0474959 0.118465 0.181263
          0.177787 0.00281491 -1.11165 0.19541 -0.00381637 -1.08441
          0.180068 0.00297451 -1.1089 0.151547 0.002157 -1.08222
          0.247711 0.0274887 -1.06388 0.186348 0.0218384 -1.10846
          0.208914 0.0286063 -1.0707 0.207377 0.0208321 -1.10963
          0.510427 0.0776933 -0.702508 0.351173 0.074105 -0.680571
          0.432326 0.0870368 -0.603389 0.372622 0.0709968 -0.788346
          0.165532 -0.00924211 -1.03094 0.201734 -0.00779991 -1.01235
          0.194202 -0.00451249 -1.06016 0.194464 -0.00870049 -1.02577
          0.139017 0.0506496 -0.867817 0.0560741 0.0443732 -0.867566
          0.130594 0.0587253 -0.800895 0.0566149 0.0415331 -0.855794
          0.721535 0.189703 0.763471 0.566235 0.187544 0.910491
          0.723765 0.196142 0.912449 0.654031 0.187533 0.78162
          -0.0295207 -0.0156766 -0.182455 0.0358098 -0.0173367 -0.15829
          0.0390515 -0.02144 -0.216222 0.0374318 -0.0190485 -0.230557
          0.201734 -0.00779991 -1.01235 0.248905 -0.00813331 -0.987972
          0.238917 -0.00579035 -1.0335 0.194464 -0.00870049 -1.02577
          0.347512 0.182185 1.38557 0.503551 0.201335 1.4564
          0.552352 0.201884 1.33583 0.473613 0.191655 1.24082
          0.131058 0.158108 1.10918 0.237915 0.172735 1.23496
          0.345197 0.178077 1.18186 0.254887 0.168468 1.07544
          0.376157 0.134811 0.252378 0.44205 0.135678 0.148091
          0.395931 0.139444 0.273135 0.520946 0.131935 0.0779313
          0.594527 0.204081 1.66253 0.542925 0.207163 1.63277
          0.495762 0.206714 1.74814 0.472255 0.204702 1.63519
          0.0108447 -0.00392801 -0.129841 -0.00690965 -0.00854844 -0.0800788
          0.00316235 -0.00774175 -0.084285 0.0388059 0.00445072 -0.0978631
          0.0771644 0.0116483 -1.06883 0.0435622 0.0159591 -1.03065
          0.0855231 0.00918058 -1.04601 0.0742282 0.0288745 -1.06535
          0.208709 0.154096 0.550593 0.171797 0.154438 0.655168
          0.339227 0.15615 0.491304 0.275032 0.163779 0.686588
          0.339227 0.15615 0.491304 0.275032 0.163779 0.686588
          0.407349 0.167289 0.652838 0.373715 0.164207 0.582721
          0.339227 0.15615 0.491304 0.171797 0.154438 0.655168
          0.407349 0.167289 0.652838 0.275032 0.163779 0.686588
          0.110453 -0.0208346 -0.375156 0.134253 -0.0150344 -0.313891
          0.230366 -0.0190663 -0.394513 0.160769 -0.0155552 -0.394325
          0.500981 0.133764 0.025035 0.673207 0.140736 0.00567184
          0.694104 0.155148 0.164546 0.685457 0.150589 0.168031
          -0.0658888 -0.0192985 -0.331415 -0.052492 -0.0226985 -0.433246
          -0.0538186 -0.0201853 -0.381395 -0.00718751 -0.0210012 -0.361431
          0.208709 0.154096 0.550593 0.275032 0.163779 0.686588
          0.339227 0.15615 0.491304 0.373715 0.164207 0.582721
          -0.0161619 -0.0175454 -0.372721 0.104284 -0.0136701 -0.371997
          0.0509295 -0.0182737 -0.380621 0.0470197 -0.0148555 -0.460253
          0.368363 0.0880234 -0.492427 0.411463 0.0864855 -0.395732
          0.471473 0.100582 -0.394055 0.409685 0.106138 -0.277549
          0.258244 0.101278 -0.423532 0.272319 0.0902591 -0.581238
          0.160511 0.0789107 -0.595206 0.332754 0.0979477 -0.592942
          0.620367 0.233462 1.82271 0.616494 0.228263 1.82752
          0.526642 0.217164 1.86394 0.599127 0.22786 1.89649
          0.00815519 -0.0112139 -0.565742 -0.0454728 -0.0174241 -0.455721
          0.057422 -0.00958656 -0.504466 -0.0432089 -0.0131838 -0.487029
          0.138201 0.169455 0.956597 0.285644 0.179109 1.01471
          0.166401 0.179047 1.13145 0.163265 0.169482 1.05637
          -0.111952 -0.0240078 -0.643506 -0.0365529 -0.0262545 -0.615241
          -0.103051 -0.02635 -0.700307 -0.0303082 -0.027155 -0.714006
          -0.0144841 0.000148197 -0.0285603 -0.0579892 0.00142708 -0.0394255
          -0.0115162 -0.00567168 -0.051575 -0.0726572 -0.00236831 -0.0718477
          0.503551 0.201335 1.4564 0.465399 0.19799 1.51567
          0.540308 0.212462 1.59578 0.38689 0.188117 1.5561
          0.646271 0.129887 -0.217498 0.492783 0.111952 -0.323366
          0.486593 0.117221 -0.379886 0.618914 0.118881 -0.360852
          0 0 0 0 0 0
          0 0 0 -0.000539383 -0.000829893 0.000948014
          0.147967 -0.00385141 -1.1071 0.145625 -0.00790975 -1.06445
          0.173041 -0.00280863 -1.09202 0.118174 -0.0101753 -1.07335
          0.0857983 0.00396182 -0.185183 0.113962 -0.0013081 -0.194325
          0.187575 0.00581802 -0.251084 0.143686 0.0124576 -0.177216
          -0.0365595 -0.00573392 -0.0808166 -0.0748015 -0.00789741 -0.0695534
          -0.0367899 -0.00800258 -0.0599512 -0.0354252 -0.0123842 -0.100673
          0.117525 0.0398736 -0.929906 0.139017 0.0506496 -0.867817
          0.156925 0.0462572 -0.961802 0.207633 0.0598625 -0.876171
          0.182059 0.0298849 -1.13052 0.152649 0.0237462 -1.12026
          0.184175 0.0291497 -1.1415 0.169031 0.0358445 -1.13262
          -0.127933 -0.0196322 -0.359668 -0.128932 -0.0248542 -0.459665
          -0.130076 -0.0213635 -0.371606 -0.052492 -0.0226985 -0.433246
          0.399113 0.201668 1.96815 0.387815 0.202424 1.98846
          0.313847 0.186532 1.91649 0.383928 0.195509 1.93412
          0.37001 0.190326 1.4178 0.202133 0.177184 1.37992
          0.201068 0.185051 1.52316 0.245913 0.189513 1.4291
          0.394078 0.205558 2.05199 0.38125 0.210746 2.12329
          0.441118 0.216517 2.13214 0.458699 0.214588 2.12646
          0.334286 0.120649 -0.0685765 0.326886 0.131137 0.105877
          0.198264 0.124889 0.070095 0.13459 0.111976 -0.0718907
          0.173041 -0.00280863 -1.09202 0.194202 -0.00451249 -1.06016
          0.185334 -0.00195267 -1.08471 0.139782 -0.00357415 -1.07587
          0.166261 -0.0163788 -0.191247 0.193086 -0.0253065 -0.24717
          0.12311 -0.0240496 -0.19082 0.188511 -0.0162307 -0.249986
          0.130689 0.0951538 -0.354446 -0.0321081 0.0923879 -0.258256
          0.195518 0.107239 -0.222251 0.128655 0.112603 -0.0840872
          0.317734 0.059831 -0.79408 0.363754 0.0521145 -0.84867
          0.233984 0.0560029 -0.869098 0.3056 0.0562813 -0.888644
          0.23471 0.0431356 -1.07046 0.27592 0.0587676 -1.08134
          0.280415 0.0522078 -1.06675 0.235505 0.0465084 -1.10819
          0.709794 0.178071 0.568122 0.576506 0.177642 0.668802
          0.714042 0.187409 0.739804 0.721043 0.181619 0.578553
          0.0098671 -0.0137665 -0.188363 0.0774893 -0.0166292 -0.179655
          0.0374318 -0.0190485 -0.230557 0.0360046 -0.0165645 -0.266146
          0.407349 0.167289 0.652838 0.522672 0.172355 0.662797
          0.311949 0.159912 0.662099 0.472775 0.161158 0.475347
          -0.0115162 -0.00567168 -0.051575 0.0140221 -0.0136444 -0.0704409
          0.028315 -0.0144495 -0.0665337 0.00765813 -0.00792034 -0.0270135
          0.491887 0.204341 1.55134 0.498836 0.200919 1.48789
          0.349891 0.19974 1.53891 0.40147 0.202094 1.56307
          0.327201 0.179018 1.03886 0.121709 0.163601 0.920525
          0.285644 0.179109 1.01471 0.299283 0.172557 0.858087
          0.166518 0.00346835 -1.12287 0.176707 0.00807449 -1.12962
          0.183085 0.00551842 -1.13081 0.184506 0.00171474 -1.10889
          0.552352 0.201884 1.33583 0.697242 0.21442 1.29245
          0.584036 0.203196 1.31556 0.69147 0.217185 1.40219
          0.110453 -0.0208346 -0.375156 0.169053 -0.0237773 -0.375043
          0.230366 -0.0190663 -0.394513 0.134253 -0.0150344 -0.313891
          0.117193 0.187873 1.29336 0.153728 0.181466 1.28935
          0.0565896 0.186773 1.3944 0.0171941 0.169817 1.175
          -0.00286052 -0.00389357 -0.0426216 -0.00257965 -0.00261425 -0.0122043
          0.0019014 -0.00258287 -0.0143042 0.0209124 0.00511759 -0.0548072
          0.0342889 -0.0194191 -0.133678 0.028315 -0.0144495 -0.0665337
          0.00486405 -0.0137133 -0.10608 0.0140221 -0.0136444 -0.0704409
          0.347585 0.0741987 -1.04277 0.294977 0.0648741 -1.08627
          0.280415 0.0522078 -1.06675 0.27592 0.0587676 -1.08134
          0.451908 0.205792 1.91859 0.474586 0.213783 1.97551
          0.533699 0.223492 1.9141 0.475228 0.212726 1.96844
          0.152232 -0.0233181 -0.476973 0.110453 -0.0208346 -0.375156
          0.113767 -0.0266257 -0.372606 0.169053 -0.0237773 -0.375043
          0.311442 0.220331 1.79745 0.376374 0.20549 1.89003
          0.399897 0.204163 1.81379 0.42471 0.207458 1.83215
          0.0452458 -0.0243838 -0.718463 0.0252257 -0.0287216 -0.667561
          -0.0365529 -0.0262545 -0.615241 -0.0303082 -0.027155 -0.714006
          0.120681 0.0270317 -1.07656 0.0954567 0.0390706 -1.02908
          0.117393 0.0308707 -1.07992 0.157308 0.0350187 -1.04742
          0.288575 0.0631171 -1.04643 0.27592 0.0587676 -1.08134
          0.280415 0.0522078 -1.06675 0.23471 0.0431356 -1.07046
          0.131058 0.158108 1.10918 0.345197 0.178077 1.18186
          0.237915 0.172735 1.23496 0.236193 0.163352 1.23858
          -0.0277683 -0.0134212 -0.149544 -0.0171008 -0.0138017 -0.174494
          0.0098671 -0.0137665 -0.188363 -0.0354252 -0.0123842 -0.100673
          0.0366677 -0.00708896 -0.252972 0.0857983 0.00396182 -0.185183
          0.105195 -0.00802552 -0.266652 0.123339 0.00193013 -0.276106
          0.0662192 -0.0264858 -0.977787 0.0389992 -0.0231358 -0.956961
          -0.0120033 -0.0375333 -0.962701 0.0169673 -0.0315692 -0.881613
          -0.128186 -0.0211097 -0.310567 -0.0513797 -0.0175883 -0.319843
          -0.0401972 -0.0186737 -0.295772 -0.0161619 -0.0175454 -0.372721
          0.501687 0.207959 1.94509 0.59149 0.218173 2.02627
          0.524651 0.210655 2.04711 0.463114 0.205583 2.00861
          -0.0365595 -0.00573392 -0.0808166 -0.0354252 -0.0123842 -0.100673
          -0.0482987 -0.0104118 -0.135516 -0.0950276 -0.0100972 -0.12574
          0.27013 0.0773494 -0.610887 0.268257 0.0661042 -0.699179
          0.225286 0.0686452 -0.746878 0.351173 0.074105 -0.680571
          -0.05098 -0.00222087 -0.02854 -0.0148586 -0.00274295 -0.0245388
          -0.0748015 -0.00789741 -0.0695534 -0.065013 -0.0122964 -0.0621598
          0.719557 0.200946 1.05157 0.712961 0.205477 1.16296
          0.564165 0.19024 1.0193 0.713145 0.199962 1.03394
          0.245796 0.0542283 -1.01114 0.260874 0.0644344 -0.917065
          0.156925 0.0462572 -0.961802 0.209562 0.0518334 -0.953749
          0.173956 0.0310747 -1.07793 0.217644 0.0373622 -1.05651
          0.157308 0.0350187 -1.04742 0.171435 0.0306672 -1.08531
          0.361484 0.173451 1.00011 0.254887 0.168468 1.07544
          0.364277 0.178104 1.03208 0.20704 0.159521 0.859824
          0.358861 0.0430357 -0.850377 0.402724 0.0628676 -0.720252
          0.478524 0.0469546 -0.74553 0.363754 0.0521145 -0.84867
          0.201068 0.185051 1.52316 0.0828364 0.169506 1.55691
          0.0960629 0.183963 1.57344 0.0463607 0.175677 1.37031
          0.555537 0.202478 1.4184 0.483334 0.195034 1.26309
          0.583709 0.197168 1.17371 0.712901 0.206388 1.22555
          -0.0326251 0.140955 0.857926 0.112514 0.149711 0.813037
          -0.0285253 0.143236 0.763847 -0.0194793 0.147898 0.977767
          0.17425 0.103817 -0.236551 0.327877 0.110293 -0.24624
          0.276125 0.0947165 -0.379639 0.277729 0.0975518 -0.410816
          -0.0443746 -0.0202338 -0.606738 -0.0323988 -0.0141205 -0.630091
          -0.122298 -0.0197349 -0.569304 0.00229256 -0.0169905 -0.563079
          0.193335 -0.0140792 -0.680673 0.274841 -0.0128614 -0.74517
          0.19703 -0.0117658 -0.773249 0.16105 -0.0100386 -0.662766
          -0.0295207 -0.0156766 -0.182455 -0.0482987 -0.0104118 -0.135516
          0.00486405 -0.0137133 -0.10608 0.0358098 -0.0173367 -0.15829
          0.19703 -0.0117658 -0.773249 0.117498 -0.0127052 -0.774123
          0.105463 -0.00918275 -0.727052 0.122618 -0.00782457 -0.823936
          0.339176 0.123145 -0.0956363 0.237825 0.113705 -0.173142
          0.371903 0.120611 -0.274683 0.286155 0.107829 -0.323724
          0.522544 0.209758 1.82278 0.501687 0.207959 1.94509
          0.454738 0.206806 1.89198 0.523184 0.21308 1.90131
          0.461807 0.207187 1.95549 0.501687 0.207959 1.94509
          0.523184 0.21308 1.90131 0.454738 0.206806 1.89198
          0.286155 0.107829 -0.323724 0.348836 0.102855 -0.459932
          0.486593 0.117221 -0.379886 0.416411 0.116529 -0.262841
          0.177901 0.122751 0.105101 0.068297 0.121898 0.190096
          0.257122 0.135619 0.303109 0.113661 0.130721 0.288513
          0.460626 0.203436 1.6395 0.395388 0.191512 1.71781
          0.499489 0.20972 1.78754 0.41749 0.201144 1.6896
          0.583484 0.229311 2.03987 0.501895 0.223601 2.13771
          0.542081 0.226308 2.06513 0.580093 0.23208 2.11404
          0.187251 -0.0208078 -0.643288 0.139282 -0.0208527 -0.568469
          0.259363 -0.0222661 -0.561488 0.262477 -0.0189119 -0.593392
          0.368363 0.0880234 -0.492427 0.27013 0.0773494 -0.610887
          0.432167 0.0766004 -0.589968 0.376632 0.0687973 -0.609731
          0.162981 0.0702291 -0.700182 0.167424 0.0633308 -0.79789
          0.240642 0.0771923 -0.746678 0.130594 0.0587253 -0.800895
          -0.0414189 0.136588 0.693819 -0.0523907 0.129622 0.506003
          0.128366 0.144338 0.653264 0.044791 0.133985 0.562318
          0.36166 0.0661805 -0.870565 0.411928 0.066893 -0.924358
          0.337729 0.0622297 -0.971894 0.344774 0.0734123 -0.938354
          0.308892 0.185216 1.1614 0.285644 0.179109 1.01471
          0.441927 0.190179 1.14735 0.327201 0.179018 1.03886
          -0.0698807 -0.0189799 -0.0582118 -0.0475923 -0.0145643 -0.0260409
          -0.0240264 -0.0123724 -0.0492764 -0.0785707 -0.0230823 -0.0930104
          0.0845378 0.147411 0.941905 0.186008 0.158359 0.964154
          -0.0194793 0.147898 0.977767 0.131058 0.158108 1.10918
          0.505653 0.186408 0.974223 0.441927 0.190179 1.14735
          0.285644 0.179109 1.01471 0.422856 0.180565 0.934743
          0.354887 0.191231 2.10335 0.388864 0.195535 2.04031
          0.289096 0.190872 2.09747 0.268413 0.19547 2.02507
          0.10091 -0.0208321 -0.887682 0.0708915 -0.0190248 -0.830437
          -0.000164951 -0.0258844 -0.847736 0.0289583 -0.0292126 -0.794661
          0.147113 0.0900758 -0.449962 0.0886722 0.0972271 -0.326607
          -0.0327675 0.087618 -0.432786 -0.0370501 0.0890911 -0.462169
          0.173041 -0.00280863 -1.09202 0.165532 -0.00924211 -1.03094
          0.194202 -0.00451249 -1.06016 0.139782 -0.00357415 -1.07587
          0.188444 -0.00778189 -1.02334 0.201734 -0.00779991 -1.01235
          0.165532 -0.00924211 -1.03094 0.148011 -0.0139621 -0.990689
          0.153858 -0.0236808 -0.156252 0.0774893 -0.0166292 -0.179655
          0.12311 -0.0240496 -0.19082 0.0675574 -0.0172296 -0.103565
          0.583709 0.197168 1.17371 0.483334 0.195034 1.26309
          0.374364 0.188654 1.22074 0.509302 0.18922 1.04712
          0.0930218 0.0316273 -0.984041 0.156925 0.0462572 -0.961802
          0.117525 0.0398736 -0.929906 0.0560741 0.0443732 -0.867566
          0.0342889 -0.0194191 -0.133678 0.0574409 -0.0227267 -0.0946761
          0.0358098 -0.0173367 -0.15829 0.028315 -0.0144495 -0.0665337
          0.0844988 -0.00990728 -0.605686 0.0771466 -0.0128792 -0.667253
          0.00815519 -0.0112139 -0.565742 0.0251875 -0.00748686 -0.660161
          0.465399 0.19799 1.51567 0.491 0.196 1.34734
          0.293607 0.171942 1.3809 0.347512 0.182185 1.38557
          0.509302 0.18922 1.04712 0.477379 0.178653 0.833553
          0.566235 0.187544 0.910491 0.578245 0.183818 0.83647
          0.279451 0.199044 1.96301 0.268413 0.19547 2.02507
          0.280936 0.193837 2.04554 0.214937 0.209647 2.04065
          0.247082 -0.00262737 -1.09337 0.23176 0.0157621 -1.09497
          0.245953 0.0105992 -1.09164 0.208434 0.00138132 -1.11463
          0.50375 0.208821 2.11494 0.417589 0.200862 2.11155
          0.446707 0.199139 2.07562 0.388864 0.195535 2.04031
          0.0660439 -0.0028024 -0.102152 0.00316235 -0.00774175 -0.084285
          0.0155697 -0.00945334 -0.0979218 0.0112358 -0.00689671 -0.058432
          -0.0897965 -0.0172937 -0.75591 -0.106391 -0.0133016 -0.666373
          -0.109993 -0.0199922 -0.657779 0.0185148 -0.0145913 -0.704614
          0.294959 0.204801 1.7903 0.270667 0.21001 1.87832
          0.376374 0.20549 1.89003 0.399897 0.204163 1.81379
          0.311442 0.220331 1.79745 0.334915 0.211659 1.88336
          0.376374 0.20549 1.89003 0.42471 0.207458 1.83215
          0.193506 0.157546 1.98437 0.305763 0.193747 2.10138
          0.222369 0.164522 2.12041 0.267912 0.193391 2.06131
          0.335694 0.0749483 -1.03428 0.27592 0.0587676 -1.08134
          0.280415 0.0522078 -1.06675 0.288575 0.0631171 -1.04643
          0.267072 -0.0190794 -0.684281 0.187251 -0.0208078 -0.643288
          0.259363 -0.0222661 -0.561488 0.262477 -0.0189119 -0.593392
          0.203198 -0.00291793 -1.12128 0.177787 0.00281491 -1.11165
          0.188423 0.00272913 -1.13564 0.223532 -0.00797952 -1.09888
          0.153858 -0.0236808 -0.156252 0.173193 -0.0331804 -0.207257
          0.0991233 -0.0291402 -0.14598 0.12311 -0.0240496 -0.19082
          0.232606 -0.00658906 -1.06714 0.245603 -0.0133778 -1.02696
          0.19541 -0.00381637 -1.08441 0.17137 -0.00547832 -1.04012
          0.655136 0.228487 1.65267 0.540308 0.212462 1.59578
          0.551926 0.218189 1.69449 0.499489 0.20972 1.78754
          0.223532 -0.00797952 -1.09888 0.245603 -0.0133778 -1.02696
          0.237216 -0.0138459 -1.0667 0.19541 -0.00381637 -1.08441
          0.540798 0.0820835 -0.610499 0.351173 0.074105 -0.680571
          0.432326 0.0870368 -0.603389 0.510427 0.0776933 -0.702508
          0.540798 0.0820835 -0.610499 0.432326 0.0870368 -0.603389
          0.526328 0.0902544 -0.665505 0.510427 0.0776933 -0.702508
          0.510427 0.0776933 -0.702508 0.372622 0.0709968 -0.788346
          0.526328 0.0902544 -0.665505 0.492079 0.0833424 -0.762226
          0.0477449 0.14016 0.746838 0.0845378 0.147411 0.941905
          0.112514 0.149711 0.813037 -0.0326251 0.140955 0.857926
          0.0098671 -0.0137665 -0.188363 -0.0171008 -0.0138017 -0.174494
          0.0279292 -0.0130824 -0.150911 -0.0354252 -0.0123842 -0.100673
          0.116656 -0.0213041 -0.272863 0.0774893 -0.0166292 -0.179655
          0.188511 -0.0162307 -0.249986 0.113946 -0.0122499 -0.222739
          0.27013 0.0773494 -0.610887 0.18863 0.0787469 -0.62348
          0.147113 0.0900758 -0.449962 0.188323 0.0883993 -0.510283
          0.457526 0.215988 2.03787 0.441118 0.216517 2.13214
          0.404221 0.212756 2.07781 0.501895 0.223601 2.13771
          0.138454 -0.0082111 -0.93618 0.0922398 -0.00387143 -0.958975
          0.0547873 -0.00956248 -0.875966 0.105915 -0.00932992 -0.868497
          0.178948 0.0060033 -1.13028 0.175656 0.012652 -1.13595
          0.181922 0.0120482 -1.13884 0.172928 0.0182889 -1.13082
          0.4665 0.174973 0.832093 0.477178 0.161787 0.54982
          0.522672 0.172355 0.662797 0.542691 0.172558 0.701274
          0.173365 0.0162593 -1.12608 0.206879 0.0273064 -1.10803
          0.204545 0.0286583 -1.12534 0.195952 0.0179985 -1.12406
          0.148028 0.00762492 -1.11872 0.174612 0.0120543 -1.13495
          0.169153 0.0211548 -1.10787 0.148992 0.0128559 -1.11395
          0.0971336 -0.00259998 -1.06633 0.0880873 -0.014668 -1.01073
          0.129918 -0.0092143 -1.0239 0.0682129 -0.00638178 -1.0176
          0.0071006 0.167298 1.0351 0.166401 0.179047 1.13145
          0.117193 0.187873 1.29336 0.0171941 0.169817 1.175
          0.709038 0.196187 0.93758 0.564165 0.19024 1.0193
          0.706821 0.206865 1.16605 0.713145 0.199962 1.03394
          0.473613 0.191655 1.24082 0.706821 0.206865 1.16605
          0.553202 0.194862 1.1531 0.551693 0.196169 1.18361
          0.402724 0.0628676 -0.720252 0.351173 0.074105 -0.680571
          0.540798 0.0820835 -0.610499 0.510427 0.0776933 -0.702508
          0.517372 0.152084 0.282314 0.694104 0.155148 0.164546
          0.530358 0.152472 0.215311 0.710123 0.168797 0.351904
          0.165532 -0.00924211 -1.03094 0.139782 -0.00357415 -1.07587
          0.173041 -0.00280863 -1.09202 0.145625 -0.00790975 -1.06445
          0.712901 0.206388 1.22555 0.712961 0.205477 1.16296
          0.551693 0.196169 1.18361 0.583709 0.197168 1.17371
          0.0346219 0.00470713 -1.02314 0.0579845 0.00399531 -0.987319
          0.0855231 0.00918058 -1.04601 0.0435622 0.0159591 -1.03065
          0.272319 0.0902591 -0.581238 0.230729 0.0840752 -0.586159
          0.181637 0.0729893 -0.691136 0.30705 0.0854688 -0.699613
          0.194464 -0.00870049 -1.02577 0.17137 -0.00547832 -1.04012
          0.129918 -0.0092143 -1.0239 0.126494 -0.0116239 -0.962722
          0.148357 -0.0229473 -0.694047 0.112536 -0.0265035 -0.552338
          0.0853681 -0.0229088 -0.641772 0.048454 -0.0268886 -0.585892
          0.505427 0.147666 0.375367 0.460286 0.156139 0.54136
          0.63083 0.166766 0.558058 0.538118 0.159808 0.49707
          0.280536 0.198948 1.94003 0.230411 0.202424 1.92573
          0.270667 0.21001 1.87832 0.230411 0.202424 1.92573
          0.0771466 -0.0128792 -0.667253 0.0185148 -0.0145913 -0.704614
          0.0418954 -0.00556855 -0.770226 0.117498 -0.0127052 -0.774123
          0.273244 0.100067 -0.260464 0.0886722 0.0972271 -0.326607
          0.276125 0.0947165 -0.379639 0.129141 0.0946554 -0.378284
          -0.127282 -0.0215735 -0.279389 -0.0513797 -0.0175883 -0.319843
          -0.0284574 -0.0153834 -0.248114 -0.0401972 -0.0186737 -0.295772
          0.151547 0.002157 -1.08222 0.185334 -0.00195267 -1.08471
          0.19541 -0.00381637 -1.08441 0.17137 -0.00547832 -1.04012
          0.156925 0.0462572 -0.961802 0.0930218 0.0316273 -0.984041
          0.160795 0.0354946 -1.04283 0.180739 0.0425605 -1.00764
          0.0450981 0.00208091 -0.0389618 0 0 0
          0.0174988 0.00881202 -0.0123778 0.0222848 -0.00558348 -0.0278639
          0.0458227 0.142413 1.4792 0.158586 0.163992 1.36561
          0.0561909 0.158821 1.45466 0.172868 0.153489 1.50407
          -0.1189 -0.0141354 -0.266283 -0.127933 -0.0196322 -0.359668
          -0.122225 -0.0168075 -0.28944 -0.0658888 -0.0192985 -0.331415
          0.484097 0.122155 -0.0630469 0.307201 0.123835 0.0687832
          0.44205 0.135678 0.148091 0.334286 0.120649 -0.0685765
          0.522672 0.172355 0.662797 0.709794 0.178071 0.568122
          0.714042 0.187409 0.739804 0.705183 0.183313 0.70671
          0.144416 0.0282204 -1.12747 0.157544 0.0198756 -1.12909
          0.1666 0.0195752 -1.13536 0.154846 0.0182198 -1.12627
          0.117851 0.0788018 -0.593398 -0.0164584 0.0776046 -0.547456
          0.00800832 0.0681307 -0.627782 0.00251873 0.0698236 -0.678307
          -0.0523907 0.129622 0.506003 -0.0497639 0.127401 0.409391
          0.189242 0.142522 0.483109 0.0887269 0.13043 0.360895
          0.184506 0.00171474 -1.10889 0.216435 -0.000885015 -1.08431
          0.185334 -0.00195267 -1.08471 0.194202 -0.00451249 -1.06016
          0.270998 0.0410123 -0.998166 0.230153 0.0452618 -0.998765
          0.3056 0.0562813 -0.888644 0.333011 0.0545899 -0.945405
          -0.0818359 -0.0274569 -0.533937 -0.0365529 -0.0262545 -0.615241
          -0.12508 -0.0269195 -0.560752 -0.0168768 -0.0233283 -0.525649
          0.722095 0.203045 1.18652 0.586206 0.198766 1.24339
          0.583709 0.197168 1.17371 0.712901 0.206388 1.22555
          0.374364 0.188654 1.22074 0.308892 0.185216 1.1614
          0.356278 0.194339 1.30124 0.441927 0.190179 1.14735
          0.105915 -0.00932992 -0.868497 0.110876 -0.00244741 -0.920145
          0.122618 -0.00782457 -0.823936 0.188761 -0.0117274 -0.865373
          0.526642 0.217164 1.86394 0.461908 0.207616 1.89904
          0.599127 0.22786 1.89649 0.603631 0.223803 1.88582
          0.156925 0.0462572 -0.961802 0.0560741 0.0443732 -0.867566
          0.071029 0.042301 -0.936173 0.183089 0.0573615 -0.895068
          0.173956 0.0310747 -1.07793 0.180739 0.0425605 -1.00764
          0.157308 0.0350187 -1.04742 0.217644 0.0373622 -1.05651
          0.390222 0.200457 2.03097 0.394078 0.205558 2.05199
          0.343228 0.197767 2.10279 0.301902 0.190563 2.02495
          0.578245 0.183818 0.83647 0.477379 0.178653 0.833553
          0.716643 0.195296 0.903992 0.721535 0.189703 0.763471
          0.40384 0.206217 1.66463 0.399897 0.204163 1.81379
          0.495762 0.206714 1.74814 0.389267 0.209684 1.72946
          0.117074 -0.0194202 -0.800314 0.0452458 -0.0243838 -0.718463
          0.0127683 -0.0225709 -0.775399 0.0289583 -0.0292126 -0.794661
          0.160769 -0.0155552 -0.394325 0.141866 -0.00647079 -0.337935
          0.238356 -0.0109887 -0.42744 0.156717 -0.00972851 -0.433933
          -0.0816843 -0.000652163 -0.0945631 -0.0365595 -0.00573392 -0.0808166
          -0.0482987 -0.0104118 -0.135516 -0.0950276 -0.0100972 -0.12574
          -0.00325904 0.140961 1.09947 0.131058 0.158108 1.10918
          0.0112062 0.150211 1.24102 0.00892697 0.142516 1.2659
          0.0127683 -0.0225709 -0.775399 -0.0331069 -0.0207408 -0.7108
          0.0166565 -0.0213178 -0.651747 0.08759 -0.0181695 -0.700148
          0.343916 0.0755584 -0.839382 0.36166 0.0661805 -0.870565
          0.278739 0.0589262 -0.949907 0.344774 0.0734123 -0.938354
          0.00800832 0.0681307 -0.627782 0.136757 0.0683191 -0.748962
          0.117851 0.0788018 -0.593398 0.00251873 0.0698236 -0.678307
          0.237285 0.155215 1.89136 0.209269 0.143736 1.78898
          0.163942 0.138154 1.85165 0.269246 0.161112 1.88195
          -0.0117854 -0.00191015 -0.0371014 -0.0144841 0.000148197 -0.0285603
          0.00714858 -0.00373127 -0.00222902 0.00765813 -0.00792034 -0.0270135
          0.492079 0.0833424 -0.762226 0.343916 0.0755584 -0.839382
          0.477897 0.0912087 -0.814626 0.36166 0.0661805 -0.870565
          0.15795 0.0127548 -1.12438 0.154846 0.0182198 -1.12627
          0.172928 0.0182889 -1.13082 0.160153 0.0242505 -1.10792
          0.183164 -0.0170671 -0.589371 0.258238 -0.0118763 -0.540991
          0.158713 -0.0124128 -0.593162 0.140684 -0.013983 -0.516463
          0.445539 0.138683 0.0844741 0.527923 0.13303 -0.0882344
          0.560566 0.146458 0.0640076 0.500981 0.133764 0.025035
          0.407349 0.167289 0.652838 0.275032 0.163779 0.686588
          0.405571 0.173315 0.753173 0.373715 0.164207 0.582721
          0.10091 -0.0208321 -0.887682 0.156523 -0.0152272 -0.89299
          0.0708915 -0.0190248 -0.830437 0.117074 -0.0194202 -0.800314
          0.136467 0.0366424 -1.05661 0.154597 0.0268177 -1.11213
          0.137762 0.0328383 -1.10196 0.121689 0.038873 -1.0749
          -0.0303082 -0.027155 -0.714006 -0.103051 -0.02635 -0.700307
          -0.0801759 -0.0285786 -0.792856 -0.0460202 -0.0328352 -0.760958
          0.714042 0.187409 0.739804 0.578245 0.183818 0.83647
          0.721535 0.189703 0.763471 0.576506 0.177642 0.668802
          0.15795 0.0127548 -1.12438 0.167692 0.00789246 -1.13227
          0.148992 0.0128559 -1.11395 0.177514 0.0162521 -1.13173
          0.0486358 -0.0214736 -0.314918 0.0374318 -0.0190485 -0.230557
          0.116656 -0.0213041 -0.272863 0.0360046 -0.0165645 -0.266146
          0.315947 0.196592 1.90816 0.399113 0.201668 1.96815
          0.395929 0.200623 1.90057 0.39061 0.201088 1.94817
          -0.0284574 -0.0153834 -0.248114 -0.0209055 -0.0143869 -0.281814
          -0.0607624 -0.0176287 -0.188494 -0.0185362 -0.0123417 -0.194536
          0.522544 0.209758 1.82278 0.496235 0.208476 1.73139
          0.495762 0.206714 1.74814 0.645948 0.213288 1.70657
          0.0807397 0.0461835 -1.02818 0.0954567 0.0390706 -1.02908
          0.0714426 0.0506437 -0.980392 0.136467 0.0366424 -1.05661
          -0.0854006 -0.00804012 -0.75767 -0.106391 -0.0133016 -0.666373
          0.0185148 -0.0145913 -0.704614 -0.0182043 -0.00505826 -0.712925
          0.205372 -0.0163374 -0.830822 0.182197 -0.0121593 -0.958737
          0.156523 -0.0152272 -0.89299 0.26285 -0.0130069 -0.876853
          0.712901 0.206388 1.22555 0.551693 0.196169 1.18361
          0.483334 0.195034 1.26309 0.583709 0.197168 1.17371
          0.0886722 0.0972271 -0.326607 0.0512105 0.0999492 -0.292848
          -0.0517243 0.0947152 -0.329892 0.00586034 0.0936913 -0.408731
          0.105133 0.110602 -0.0678035 0.17425 0.103817 -0.236551
          0.13459 0.111976 -0.0718907 0.28116 0.113647 -0.106809
          0.048454 -0.0268886 -0.585892 -0.00588535 -0.0269348 -0.514974
          0.112536 -0.0265035 -0.552338 0.0665477 -0.0233217 -0.48275
          0.136202 0.00593033 -1.04905 0.143934 -0.00495345 -1.0015
          0.190034 -0.00811258 -1.01657 0.11213 0.00272844 -1.0007
          0.238887 0.0380659 -1.09393 0.196263 0.0293345 -1.09673
          0.217644 0.0373622 -1.05651 0.207944 0.034123 -1.08695
          0.260676 0.172941 1.9455 0.282072 0.186107 1.95795
          0.313847 0.186532 1.91649 0.269246 0.161112 1.88195
          0.508874 0.214006 1.95539 0.509965 0.214157 2.04142
          0.461807 0.207187 1.95549 0.399113 0.201668 1.96815
          0.117498 -0.0127052 -0.774123 0.0418954 -0.00556855 -0.770226
          0.122618 -0.00782457 -0.823936 0.105915 -0.00932992 -0.868497
          0.118271 0.00736987 -1.08369 0.0855231 0.00918058 -1.04601
          0.151547 0.002157 -1.08222 0.120011 0.0152541 -1.07142
          0.451127 0.184652 1.08346 0.551693 0.196169 1.18361
          0.364277 0.178104 1.03208 0.376293 0.185483 1.21542
          0.0971336 -0.00259998 -1.06633 0.0346219 0.00470713 -1.02314
          0.0855231 0.00918058 -1.04601 0.118271 0.00736987 -1.08369
          0.332843 0.0408597 -1.02195 0.247711 0.0274887 -1.06388
          0.267714 0.0382249 -1.05959 0.298409 0.0337659 -1.05963
          0.484097 0.122155 -0.0630469 0.657557 0.130487 -0.0379752
          0.502812 0.120214 -0.176552 0.500981 0.133764 0.025035
          0.0360046 -0.0165645 -0.266146 0.113946 -0.0122499 -0.222739
          0.105195 -0.00802552 -0.266652 0.0540416 -0.00937549 -0.175074
          0.461908 0.207616 1.89904 0.373718 0.18894 1.83094
          0.383928 0.195509 1.93412 0.395929 0.200623 1.90057
          -0.00765868 -0.0207847 -0.286805 0.0486358 -0.0214736 -0.314918
          -0.0327653 -0.0170453 -0.262145 0.0374318 -0.0190485 -0.230557
          0.162981 0.0702291 -0.700182 0.130594 0.0587253 -0.800895
          0.240642 0.0771923 -0.746678 0.181637 0.0729893 -0.691136
          0.390222 0.200457 2.03097 0.311359 0.19366 2.00681
          0.394078 0.205558 2.05199 0.301902 0.190563 2.02495
          0.383928 0.195509 1.93412 0.385207 0.197499 1.95846
          0.451908 0.205792 1.91859 0.474586 0.213783 1.97551
          0.301902 0.190563 2.02495 0.193506 0.157546 1.98437
          0.250619 0.18662 2.09814 0.218066 0.195464 2.02504
          0.144416 0.0282204 -1.12747 0.123209 0.0351891 -1.10413
          0.146472 0.0258741 -1.12314 0.135998 0.0290872 -1.1078
          -0.12951 -0.024821 -0.478517 -0.052492 -0.0226985 -0.433246
          -0.0382095 -0.0203499 -0.467039 -0.0538186 -0.0201853 -0.381395
          0.158522 0.00273212 -1.11049 0.151547 0.002157 -1.08222
          0.171138 0.0116209 -1.12877 0.152229 0.0117325 -1.11972
          0.165049 0.0352555 -1.11584 0.123387 0.0269296 -1.10146
          0.150219 0.0219777 -1.11042 0.152649 0.0237462 -1.12026
          0.278414 0.0118281 -1.0665 0.235742 0.0082428 -1.0865
          0.247082 -0.00262737 -1.09337 0.296311 0.00918623 -1.04173
          0.157308 0.0350187 -1.04742 0.136467 0.0366424 -1.05661
          0.117393 0.0308707 -1.07992 0.169675 0.0299189 -1.08729
          0.376293 0.185483 1.21542 0.345197 0.178077 1.18186
          0.237915 0.172735 1.23496 0.254887 0.168468 1.07544
          0.117193 0.187873 1.29336 0.166401 0.179047 1.13145
          0.308892 0.185216 1.1614 0.153728 0.181466 1.28935
          0.526328 0.0902544 -0.665505 0.336885 0.0784927 -0.737575
          0.421332 0.0907937 -0.716274 0.372622 0.0709968 -0.788346
          0.424412 0.120747 0.0174048 0.20449 0.1161 0.00797098
          0.307201 0.123835 0.0687832 0.28116 0.113647 -0.106809
          0.234576 0.164884 1.9288 0.272421 0.182674 1.91203
          0.269246 0.161112 1.88195 0.283203 0.18814 1.84313
          0.367694 0.056094 -0.989246 0.304287 0.0480379 -1.00984
          0.286476 0.052365 -1.03123 0.267714 0.0382249 -1.05959
          0.584148 0.228069 2.09401 0.501895 0.223601 2.13771
          0.583484 0.229311 2.03987 0.580093 0.23208 2.11404
          0.0844691 0.105919 -0.143068 0.212402 0.107651 -0.258514
          0.325379 0.126608 -0.0892965 0.237825 0.113705 -0.173142
          0.198264 0.124889 0.070095 0.387406 0.143248 0.223329
          0.206908 0.133411 0.224806 0.326886 0.131137 0.105877
          -0.00969368 0.0757089 -0.473971 0.0377004 0.0814389 -0.41916
          0.11677 0.082158 -0.49828 0.0330385 0.0694828 -0.548444
          0.23471 0.0431356 -1.07046 0.24497 0.0543441 -1.03067
          0.203025 0.040745 -1.06991 0.245796 0.0542283 -1.01114
          0.129881 0.0190457 -1.08765 0.160795 0.0354946 -1.04283
          0.167174 0.0257106 -1.09011 0.120312 0.0189782 -1.0635
          0.0108537 -0.0216076 -0.447808 -0.0168768 -0.0233283 -0.525649
          0.0578659 -0.018722 -0.485896 0.0665477 -0.0233217 -0.48275
          0.339227 0.15615 0.491304 0.407349 0.167289 0.652838
          0.472775 0.161158 0.475347 0.578844 0.169726 0.498809
          0.0771644 0.0116483 -1.06883 0.0346219 0.00470713 -1.02314
          0.118271 0.00736987 -1.08369 0.0855231 0.00918058 -1.04601
          0.483334 0.195034 1.26309 0.376293 0.185483 1.21542
          0.327201 0.179018 1.03886 0.509302 0.18922 1.04712
          -0.0382095 -0.0203499 -0.467039 -0.0161619 -0.0175454 -0.372721
          0.0470197 -0.0148555 -0.460253 -0.0454728 -0.0174241 -0.455721
          0.276521 0.195515 1.38913 0.382239 0.19942 1.44473
          0.404649 0.196522 1.41683 0.356278 0.194339 1.30124
          0.334286 0.120649 -0.0685765 0.307201 0.123835 0.0687832
          0.44205 0.135678 0.148091 0.326886 0.131137 0.105877
          0.540308 0.212462 1.59578 0.371953 0.18296 1.69668
          0.551926 0.218189 1.69449 0.458955 0.20145 1.7537
          0.301773 0.162762 1.76111 0.206569 0.161767 1.63429
          0.209269 0.143736 1.78898 0.299638 0.182033 1.71781
          0.108892 0.0931933 -0.375589 0.147113 0.0900758 -0.449962
          0.277729 0.0975518 -0.410816 0.17425 0.103817 -0.236551
          0.173956 0.0310747 -1.07793 0.171435 0.0306672 -1.08531
          0.157308 0.0350187 -1.04742 0.120681 0.0270317 -1.07656
          0.463114 0.205583 2.00861 0.417589 0.200862 2.11155
          0.480039 0.211585 2.11979 0.50375 0.208821 2.11494
          -0.0126079 0.152453 0.828881 -0.0185965 0.146966 0.68783
          0.16481 0.162741 0.781435 0.171797 0.154438 0.655168
          0.461908 0.207616 1.89904 0.508874 0.214006 1.95539
          0.395929 0.200623 1.90057 0.399113 0.201668 1.96815
          0.496235 0.208476 1.73139 0.576437 0.21161 1.62788
          0.645948 0.213288 1.70657 0.643071 0.218332 1.70571
          0.407349 0.167289 0.652838 0.477379 0.178653 0.833553
          0.311949 0.159912 0.662099 0.522672 0.172355 0.662797
          0.225286 0.0686452 -0.746878 0.257074 0.0669415 -0.796305
          0.233984 0.0560029 -0.869098 0.158016 0.0603311 -0.849714
          0.163265 0.169482 1.05637 0.224316 0.165267 0.860861
          0.170346 0.164995 1.04243 -0.0131994 0.152042 0.931257
          0.269518 0.124347 0.146292 0.20449 0.1161 0.00797098
          0.177901 0.122751 0.105101 0.307201 0.123835 0.0687832
          0.185762 0.0662311 -0.795337 0.136757 0.0683191 -0.748962
          0.181637 0.0729893 -0.691136 0.0220962 0.0587091 -0.743985
          0.40147 0.202094 1.56307 0.491887 0.204341 1.55134
          0.498836 0.200919 1.48789 0.542925 0.207163 1.63277
          0.183085 0.00551842 -1.13081 0.172442 0.00860304 -1.13067
          0.177787 0.00281491 -1.11165 0.188423 0.00272913 -1.13564
          0.345197 0.178077 1.18186 0.238844 0.162658 1.06277
          0.361484 0.173451 1.00011 0.476062 0.182941 1.06639
          0.00800832 0.0681307 -0.627782 0.0220962 0.0587091 -0.743985
          0.181637 0.0729893 -0.691136 0.117851 0.0788018 -0.593398
          0.209562 0.0518334 -0.953749 0.278739 0.0589262 -0.949907
          0.260874 0.0644344 -0.917065 0.258765 0.0665526 -0.86543
          0.163265 0.169482 1.05637 0.261654 0.180809 1.21446
          0.149429 0.170536 1.21814 0.170346 0.164995 1.04243
          0.166462 0.00518771 -1.12544 0.17471 0.0103553 -1.13275
          0.195952 0.0179985 -1.12406 0.180128 0.0144698 -1.13421
          0.522672 0.172355 0.662797 0.311949 0.159912 0.662099
          0.349722 0.170056 0.845586 0.477379 0.178653 0.833553
          -0.131659 -0.0221287 -0.396732 -0.132434 -0.021604 -0.332616
          -0.0538186 -0.0201853 -0.381395 -0.0161619 -0.0175454 -0.372721
          0.203198 -0.00291793 -1.12128 0.19541 -0.00381637 -1.08441
          0.223532 -0.00797952 -1.09888 0.205167 -0.0060995 -1.09322
          0.15721 -0.0181165 -0.470608 0.140684 -0.013983 -0.516463
          0.160769 -0.0155552 -0.394325 0.251263 -0.0139785 -0.497885
          0.712817 0.175067 0.48361 0.578844 0.169726 0.498809
          0.576506 0.177642 0.668802 0.721043 0.181619 0.578553
          0.201734 -0.00779991 -1.01235 0.188444 -0.00778189 -1.02334
          0.165532 -0.00924211 -1.03094 0.168965 -0.00515665 -1.0663
          0.139282 -0.0208527 -0.568469 0.187113 -0.0166802 -0.683439
          0.183164 -0.0170671 -0.589371 0.187251 -0.0208078 -0.643288
          0.0289583 -0.0292126 -0.794661 -0.0303082 -0.027155 -0.714006
          0.0127683 -0.0225709 -0.775399 -0.0460202 -0.0328352 -0.760958
          0.520411 0.143817 -0.00516023 0.465816 0.133938 -0.0723265
          0.684195 0.149966 -0.00656958 0.560566 0.146458 0.0640076
          0.315947 0.196592 1.90816 0.283203 0.18814 1.84313
          0.387594 0.201059 1.81382 0.272421 0.182674 1.91203
          0.0844988 -0.00990728 -0.605686 0.0771466 -0.0128792 -0.667253
          0.0251875 -0.00748686 -0.660161 0.105463 -0.00918275 -0.727052
          0.208434 0.00138132 -1.11463 0.23176 0.0157621 -1.09497
          0.245953 0.0105992 -1.09164 0.197806 0.00805325 -1.12213
          0.208434 0.00138132 -1.11463 0.197806 0.00805325 -1.12213
          0.245953 0.0105992 -1.09164 0.195749 -0.00968941 -1.11628
          0.23176 0.0157621 -1.09497 0.180665 0.00439507 -1.12932
          0.197806 0.00805325 -1.12213 0.208434 0.00138132 -1.11463
          -0.0648303 -0.020364 -0.846966 -0.0557656 -0.0116304 -0.863214
          -0.0752176 -0.0108463 -0.79656 0.00945855 -0.0154396 -0.791267
          -0.0648303 -0.020364 -0.846966 0.0102294 -0.0145549 -0.890416
          -0.0557656 -0.0116304 -0.863214 0.00945855 -0.0154396 -0.791267
          0.0102294 -0.0145549 -0.890416 0.0256823 -0.00354785 -0.929701
          -0.0557656 -0.0116304 -0.863214 0.0547873 -0.00956248 -0.875966
          0.0660439 -0.0028024 -0.102152 0.0607489 -0.00918772 -0.0791758
          0.0244272 -0.00123409 -0.0380729 0.0112358 -0.00689671 -0.058432
          0.325379 0.126608 -0.0892965 0.317615 0.133859 0.0941603
          0.465816 0.133938 -0.0723265 0.31981 0.134046 0.0434342
          0.212652 0.196452 1.56397 0.273528 0.207587 1.68961
          0.120473 0.204398 1.65206 0.133766 0.196158 1.68813
          0.237285 0.155215 1.89136 0.163942 0.138154 1.85165
          0.21495 0.157538 1.917 0.269246 0.161112 1.88195
          0.372622 0.0709968 -0.788346 0.343916 0.0755584 -0.839382
          0.421332 0.0907937 -0.716274 0.492079 0.0833424 -0.762226
          0.0360046 -0.0165645 -0.266146 0.113946 -0.0122499 -0.222739
          0.134253 -0.0150344 -0.313891 0.105195 -0.00802552 -0.266652
          0.672307 0.142273 0.106764 0.657557 0.130487 -0.0379752
          0.500981 0.133764 0.025035 0.673207 0.140736 0.00567184
          0.164186 0.0118026 -1.14029 0.1666 0.0195752 -1.13536
          0.17279 0.00720272 -1.12721 0.181061 0.0164242 -1.12749
          -0.0115162 -0.00567168 -0.051575 0.0100932 -0.00802936 -0.0535907
          -0.0126816 -0.00885974 -0.0401906 -0.0148586 -0.00274295 -0.0245388
          0.540308 0.212462 1.59578 0.458955 0.20145 1.7537
          0.551926 0.218189 1.69449 0.499489 0.20972 1.78754
          0.0802511 -0.012505 -0.0646586 0.0277173 -0.0112998 -0.0430308
          0.0484699 -0.0108675 -0.030091 0.0222848 -0.00558348 -0.0278639
          0.364843 0.200645 1.94868 0.280536 0.198948 1.94003
          0.39061 0.201088 1.94817 0.317265 0.193703 1.98205
          0.374349 0.146448 0.377404 0.572815 0.164404 0.469028
          0.516531 0.151569 0.353601 0.517372 0.152084 0.282314
          0.0920557 -0.0255886 -0.845827 0.10091 -0.0208321 -0.887682
          0.0169673 -0.0315692 -0.881613 -0.000164951 -0.0258844 -0.847736
          0.148357 -0.0229473 -0.694047 0.187251 -0.0208078 -0.643288
          0.183531 -0.02037 -0.75319 0.117877 -0.0213928 -0.722719
          0.112681 0.128374 0.196126 0.195909 0.124021 0.0195096
          0.317615 0.133859 0.0941603 0.198264 0.124889 0.070095
          0.130689 0.0951538 -0.354446 0.217546 0.0982124 -0.384524
          0.195518 0.107239 -0.222251 0.108892 0.0931933 -0.375589
          0.319383 0.194355 1.9882 0.267912 0.193391 2.06131
          0.335556 0.201341 2.04656 0.282072 0.186107 1.95795
          0.158713 -0.0124128 -0.593162 0.158259 -0.00736322 -0.539283
          0.0804219 -0.014032 -0.565645 0.140684 -0.013983 -0.516463
          0.117074 -0.0194202 -0.800314 0.0708915 -0.0190248 -0.830437
          0.0452458 -0.0243838 -0.718463 0.08759 -0.0181695 -0.700148
          0.259363 -0.0222661 -0.561488 0.152232 -0.0233181 -0.476973
          0.251856 -0.0261606 -0.495461 0.244901 -0.0225574 -0.460818
          0.0880873 -0.014668 -1.01073 0.0919467 -0.0135297 -0.954481
          0.123149 -0.0160708 -0.964579 0.129918 -0.0092143 -1.0239
          0.542691 0.172558 0.701274 0.368946 0.164907 0.841573
          0.543584 0.179795 0.887579 0.4665 0.174973 0.832093
          -0.0367899 -0.00800258 -0.0599512 -0.0126816 -0.00885974 -0.0401906
          -0.0115162 -0.00567168 -0.051575 0.0100932 -0.00802936 -0.0535907
          0.526269 0.182344 0.807915 0.405571 0.173315 0.753173
          0.576506 0.177642 0.668802 0.407349 0.167289 0.652838
          0.244901 -0.0225574 -0.460818 0.169053 -0.0237773 -0.375043
          0.238033 -0.0270216 -0.40716 0.230366 -0.0190663 -0.394513
          0.193335 -0.0140792 -0.680673 0.118225 -0.016529 -0.643321
          0.158713 -0.0124128 -0.593162 0.0771466 -0.0128792 -0.667253
          0.15795 0.0127548 -1.12438 0.183178 0.00281344 -1.13408
          0.167692 0.00789246 -1.13227 0.181922 0.0120482 -1.13884
          0.188423 0.00272913 -1.13564 0.191011 0.0101408 -1.14815
          0.19375 -0.00246694 -1.13874 0.181922 0.0120482 -1.13884
          0.666629 0.22252 1.59758 0.533951 0.211685 1.71521
          0.632325 0.224004 1.75653 0.643071 0.218332 1.70571
          0.112536 -0.0265035 -0.552338 0.139282 -0.0208527 -0.568469
          0.0665477 -0.0233217 -0.48275 0.152232 -0.0233181 -0.476973
          0.334286 0.120649 -0.0685765 0.484097 0.122155 -0.0630469
          0.500981 0.133764 0.025035 0.44205 0.135678 0.148091
          0.00945855 -0.0154396 -0.791267 -0.0752176 -0.0108463 -0.79656
          -0.0897965 -0.0172937 -0.75591 -0.0854006 -0.00804012 -0.75767
          0.299638 0.182033 1.71781 0.132312 0.154881 1.67008
          0.18332 0.150667 1.79197 0.217421 0.188552 1.6753
          -0.0168768 -0.0233283 -0.525649 0.0578659 -0.018722 -0.485896
          0.0665477 -0.0233217 -0.48275 0.0740804 -0.0196889 -0.590591
          0.26683 -0.0138364 -0.624716 0.158713 -0.0124128 -0.593162
          0.264919 -0.0113372 -0.599053 0.193335 -0.0140792 -0.680673
          0.0844691 0.105919 -0.143068 0.237825 0.113705 -0.173142
          0.325379 0.126608 -0.0892965 0.195909 0.124021 0.0195096
          0.0342889 -0.0194191 -0.133678 0.0937305 -0.0266664 -0.206198
          0.0390515 -0.02144 -0.216222 0.0358098 -0.0173367 -0.15829
          0.186348 0.0218384 -1.10846 0.180665 0.00439507 -1.12932
          0.196237 0.0163121 -1.0977 0.164869 0.0206331 -1.12188
          0.276125 0.0947165 -0.379639 0.28116 0.113647 -0.106809
          0.273244 0.100067 -0.260464 0.409685 0.106138 -0.277549
          0.656898 0.14967 0.306036 0.505427 0.147666 0.375367
          0.63083 0.166766 0.558058 0.692943 0.167956 0.489621
          -0.0331069 -0.0207408 -0.7108 0.0185148 -0.0145913 -0.704614
          -0.0443746 -0.0202338 -0.606738 0.0359931 -0.0179081 -0.637707
          0.151547 0.002157 -1.08222 0.143377 0.0172557 -1.10458
          0.171214 0.0112742 -1.12197 0.171138 0.0116209 -1.12877
          0.337729 0.0622297 -0.971894 0.286476 0.052365 -1.03123
          0.278739 0.0589262 -0.949907 0.245796 0.0542283 -1.01114
          0.111257 -0.0260218 -0.0822399 0.0675574 -0.0172296 -0.103565
          0.0644315 -0.0164299 -0.0698736 0.109537 -0.0163913 -0.0963933
          0.552352 0.201884 1.33583 0.697242 0.21442 1.29245
          0.69147 0.217185 1.40219 0.675159 0.226764 1.51115
          0.16914 -0.0179375 -0.857877 0.182197 -0.0121593 -0.958737
          0.156523 -0.0152272 -0.89299 0.205372 -0.0163374 -0.830822
          0.230153 0.0452618 -0.998765 0.238684 0.0574548 -0.90005
          0.333011 0.0545899 -0.945405 0.278739 0.0589262 -0.949907
          0.00892697 0.142516 1.2659 0.150271 0.155697 1.3658
          0.158586 0.163992 1.36561 0.0458227 0.142413 1.4792
          0.18863 0.0787469 -0.62348 0.136757 0.0683191 -0.748962
          0.253788 0.0760074 -0.685864 0.225286 0.0686452 -0.746878
          -0.0171008 -0.0138017 -0.174494 -0.0327653 -0.0170453 -0.262145
          -0.0525861 -0.0158793 -0.211183 0.0360046 -0.0165645 -0.266146
          -0.11324 -0.0126841 -0.205618 -0.100392 -0.00592964 -0.151989
          -0.0482987 -0.0104118 -0.135516 -0.108082 -0.0140942 -0.171628
          0.0509295 -0.0182737 -0.380621 0.0327665 -0.0135779 -0.313497
          0.104284 -0.0136701 -0.371997 -0.0161619 -0.0175454 -0.372721
          0.339176 0.123145 -0.0956363 0.371903 0.120611 -0.274683
          0.416411 0.116529 -0.262841 0.286155 0.107829 -0.323724
          0.334286 0.120649 -0.0685765 0.28116 0.113647 -0.106809
          0.327877 0.110293 -0.24624 0.409685 0.106138 -0.277549
          0.388864 0.195535 2.04031 0.417589 0.200862 2.11155
          0.390222 0.200457 2.03097 0.463114 0.205583 2.00861
          0.457526 0.215988 2.03787 0.404221 0.212756 2.07781
          0.432863 0.218651 2.13995 0.501895 0.223601 2.13771
          0.458089 0.203362 1.84714 0.37796 0.1901 1.89347
          0.451908 0.205792 1.91859 0.461908 0.207616 1.89904
          0.162981 0.0702291 -0.700182 0.0768571 0.0522908 -0.774606
          0.130594 0.0587253 -0.800895 0.0250515 0.0571414 -0.717461
          0.13712 0.0459501 -1.00016 0.123689 0.0542317 -0.925889
          0.0758894 0.0556241 -0.975666 0.157521 0.0469226 -0.985977
          -0.0365529 -0.0262545 -0.615241 0.0252257 -0.0287216 -0.667561
          0.048454 -0.0268886 -0.585892 -0.00588535 -0.0269348 -0.514974
          0.3056 0.0562813 -0.888644 0.372622 0.0709968 -0.788346
          0.317734 0.059831 -0.79408 0.363754 0.0521145 -0.84867
          0.374364 0.188654 1.22074 0.376293 0.185483 1.21542
          0.261654 0.180809 1.21446 0.327201 0.179018 1.03886
          0.217644 0.0373622 -1.05651 0.286476 0.052365 -1.03123
          0.23471 0.0431356 -1.07046 0.245796 0.0542283 -1.01114
          0.0561909 0.158821 1.45466 0.252819 0.174978 1.51462
          0.202133 0.177184 1.37992 0.201068 0.185051 1.52316
          0.0660439 -0.0028024 -0.102152 0.0376237 0.00315363 -0.0667112
          0.0112358 -0.00689671 -0.058432 0.0244272 -0.00123409 -0.0380729
          0.198031 0.0285388 -1.14317 0.205207 0.033256 -1.10889
          0.193318 0.0234298 -1.13418 0.215453 0.0337856 -1.12044
          0.372631 0.0938046 -0.780209 0.50631 0.108577 -0.776937
          0.421332 0.0907937 -0.716274 0.421482 0.0973892 -0.84509
          -0.0365595 -0.00573392 -0.0808166 -0.0144841 0.000148197 -0.0285603
          -0.0115162 -0.00567168 -0.051575 -0.0726572 -0.00236831 -0.0718477
          0.491 0.196 1.34734 0.641142 0.207467 1.26476
          0.552352 0.201884 1.33583 0.581837 0.210988 1.42249
          -0.05098 -0.00222087 -0.02854 -0.0144841 0.000148197 -0.0285603
          -0.0148586 -0.00274295 -0.0245388 0 0 0
          0.237825 0.113705 -0.173142 0.286155 0.107829 -0.323724
          0.130689 0.0951538 -0.354446 0.212402 0.107651 -0.258514
          0.145625 -0.00790975 -1.06445 0.139782 -0.00357415 -1.07587
          0.173041 -0.00280863 -1.09202 0.118174 -0.0101753 -1.07335
          0.0983943 0.103903 -0.1821 -0.061984 0.099625 -0.212676
          -0.0687295 0.107069 -0.0607881 0.105133 0.110602 -0.0678035
          -0.000663582 0.160485 1.00411 0.163265 0.169482 1.05637
          0.00285029 0.158127 1.12293 -0.0131994 0.152042 0.931257
          0.475228 0.212726 1.96844 0.387815 0.202424 1.98846
          0.457526 0.215988 2.03787 0.474926 0.213993 2.03117
          0.172442 0.00860304 -1.13067 0.158522 0.00273212 -1.11049
          0.177787 0.00281491 -1.11165 0.171138 0.0116209 -1.12877
          0.160511 0.0789107 -0.595206 0.162981 0.0702291 -0.700182
          0.244295 0.0843376 -0.648259 0.124865 0.0743217 -0.614662
          0.474586 0.213783 1.97551 0.387815 0.202424 1.98846
          0.457526 0.215988 2.03787 0.475228 0.212726 1.96844
          -0.103051 -0.02635 -0.700307 -0.0331069 -0.0207408 -0.7108
          -0.0897965 -0.0172937 -0.75591 -0.109993 -0.0199922 -0.657779
          0.474586 0.213783 1.97551 0.457526 0.215988 2.03787
          0.565696 0.22903 1.9938 0.475228 0.212726 1.96844
          0.148028 0.00762492 -1.11872 0.169153 0.0211548 -1.10787
          0.18739 0.0247255 -1.1202 0.167174 0.0257106 -1.09011
          0.00613925 -0.00568058 -0.0229973 0 0 0
          0 0 0 0 0 0
          0.152229 0.0117325 -1.11972 0.143377 0.0172557 -1.10458
          0.171138 0.0116209 -1.12877 0.168346 0.0243239 -1.1291
          0.501687 0.207959 1.94509 0.44968 0.200513 2.01221
          0.550847 0.21194 1.99431 0.452807 0.202837 1.95211
          0.428379 0.0567763 -0.892945 0.411928 0.066893 -0.924358
          0.377788 0.0443525 -0.963537 0.333011 0.0545899 -0.945405
          0.0844691 0.105919 -0.143068 -0.0321081 0.0923879 -0.258256
          0.128655 0.112603 -0.0840872 -0.033115 0.100493 -0.125328
          -0.12951 -0.024821 -0.478517 -0.0538186 -0.0201853 -0.381395
          -0.0382095 -0.0203499 -0.467039 -0.131659 -0.0221287 -0.396732
          0.16486 -0.0132007 -0.873521 0.209323 -0.0136238 -0.907578
          0.188761 -0.0117274 -0.865373 0.206243 -0.0142357 -0.811176
          0.177787 0.00281491 -1.11165 0.215759 -0.00416399 -1.10589
          0.188423 0.00272913 -1.13564 0.223532 -0.00797952 -1.09888
          0.0649561 0.00117694 -0.133957 0.0857983 0.00396182 -0.185183
          0.0130412 -0.00728572 -0.143159 0.0108447 -0.00392801 -0.129841
          0.394227 0.144542 0.157778 0.530358 0.152472 0.215311
          0.424977 0.152818 0.338667 0.387406 0.143248 0.223329
          0.329965 0.158701 0.681063 0.349722 0.170056 0.845586
          0.311949 0.159912 0.662099 0.20704 0.159521 0.859824
          0.00316235 -0.00774175 -0.084285 0.0209124 0.00511759 -0.0548072
          0.0376237 0.00315363 -0.0667112 0.0388059 0.00445072 -0.0978631
          0.563634 0.119736 -0.0221902 0.520946 0.131935 0.0779313
          0.564528 0.133583 0.140069 0.658278 0.133014 0.0473313
          0.505427 0.147666 0.375367 0.516531 0.151569 0.353601
          0.656898 0.14967 0.306036 0.54103 0.141297 0.259453
          0.144416 0.0282204 -1.12747 0.15796 0.017913 -1.13832
          0.1666 0.0195752 -1.13536 0.157544 0.0198756 -1.12909
          0.0844691 0.105919 -0.143068 -0.0321081 0.0923879 -0.258256
          0.130689 0.0951538 -0.354446 0.128655 0.112603 -0.0840872
          0.657557 0.130487 -0.0379752 0.484097 0.122155 -0.0630469
          0.658278 0.133014 0.0473313 0.520946 0.131935 0.0779313
          0.238844 0.162658 1.06277 0.254887 0.168468 1.07544
          0.131058 0.158108 1.10918 0.345197 0.178077 1.18186
          0.496235 0.208476 1.73139 0.542925 0.207163 1.63277
          0.645948 0.213288 1.70657 0.576437 0.21161 1.62788
          0.542925 0.207163 1.63277 0.669866 0.212344 1.60442
          0.645948 0.213288 1.70657 0.576437 0.21161 1.62788
          0.36166 0.0661805 -0.870565 0.411928 0.066893 -0.924358
          0.333011 0.0545899 -0.945405 0.337729 0.0622297 -0.971894
          0.0714426 0.0506437 -0.980392 0.133288 0.0434323 -0.997365
          0.0494826 0.052463 -0.910515 0.123689 0.0542317 -0.925889
          -0.0474617 0.108912 -0.0036774 -0.0481754 0.101567 -0.142666
          0.13459 0.111976 -0.0718907 -0.0565269 0.110644 0.0352962
          0.394227 0.144542 0.157778 0.317615 0.133859 0.0941603
          0.387406 0.143248 0.223329 0.279769 0.140479 0.25432
          0.110453 -0.0208346 -0.375156 0.0509295 -0.0182737 -0.380621
          0.160769 -0.0155552 -0.394325 0.15721 -0.0181165 -0.470608
          0.160153 0.0242505 -1.10792 0.196263 0.0293345 -1.09673
          0.171435 0.0306672 -1.08531 0.169675 0.0299189 -1.08729
          0.17279 0.00720272 -1.12721 0.1666 0.0195752 -1.13536
          0.195515 0.00872119 -1.11504 0.181061 0.0164242 -1.12749
          0.0714426 0.0506437 -0.980392 0.0494826 0.052463 -0.910515
          0.0482068 0.0676577 -0.882717 0.123689 0.0542317 -0.925889
          0.478524 0.0469546 -0.74553 0.402724 0.0628676 -0.720252
          0.525444 0.0638031 -0.598024 0.516255 0.0666313 -0.664582
          0.193506 0.157546 1.98437 0.21655 0.170417 2.02853
          0.282072 0.186107 1.95795 0.267912 0.193391 2.06131
          0.387815 0.202424 1.98846 0.399113 0.201668 1.96815
          0.474926 0.213993 2.03117 0.475228 0.212726 1.96844
          0.151547 0.002157 -1.08222 0.136202 0.00593033 -1.04905
          0.172972 3.67282e-05 -1.0698 0.180068 0.00297451 -1.1089
          0.182197 -0.0121593 -0.958737 0.123149 -0.0160708 -0.964579
          0.165532 -0.00924211 -1.03094 0.148011 -0.0139621 -0.990689
          0.229005 0.0188687 -1.0652 0.16577 0.0305277 -1.08499
          0.208914 0.0286063 -1.0707 0.196237 0.0163121 -1.0977
          0.0436386 0.112423 0.0435163 0.105133 0.110602 -0.0678035
          0.068297 0.121898 0.190096 0.177901 0.122751 0.105101
          0.376293 0.185483 1.21542 0.473613 0.191655 1.24082
          0.584036 0.203196 1.31556 0.535403 0.202873 1.41079
          0.00800832 0.0681307 -0.627782 0.0220962 0.0587091 -0.743985
          0.136757 0.0683191 -0.748962 0.00251873 0.0698236 -0.678307
          0.399113 0.201668 1.96815 0.313847 0.186532 1.91649
          0.387815 0.202424 1.98846 0.282637 0.191383 1.93899
          0.376374 0.20549 1.89003 0.454738 0.206806 1.89198
          0.395929 0.200623 1.90057 0.399897 0.204163 1.81379
          0.294959 0.204801 1.7903 0.376374 0.20549 1.89003
          0.315947 0.196592 1.90816 0.399897 0.204163 1.81379
          0.167424 0.0633308 -0.79789 0.24453 0.0708505 -0.80429
          0.240642 0.0771923 -0.746678 0.130594 0.0587253 -0.800895
          0.196052 0.0376533 -1.03505 0.208914 0.0286063 -1.0707
          0.217644 0.0373622 -1.05651 0.247711 0.0274887 -1.06388
          0.201398 -0.00242298 -1.12266 0.188423 0.00272913 -1.13564
          0.19375 -0.00246694 -1.13874 0.183178 0.00281344 -1.13408
          0.387815 0.202424 1.98846 0.385207 0.197499 1.95846
          0.475228 0.212726 1.96844 0.474586 0.213783 1.97551
          0.00633645 -0.0199511 -0.543667 0.0166565 -0.0213178 -0.651747
          0.0359931 -0.0179081 -0.637707 0.0740804 -0.0196889 -0.590591
          0.520411 0.143817 -0.00516023 0.666764 0.142636 -0.158079
          0.684195 0.149966 -0.00656958 0.465816 0.133938 -0.0723265
          0.10098 -0.0230441 -0.930871 0.0920557 -0.0255886 -0.845827
          0.10091 -0.0208321 -0.887682 0.0169673 -0.0315692 -0.881613
          -0.0295207 -0.0156766 -0.182455 -0.0482987 -0.0104118 -0.135516
          0.0358098 -0.0173367 -0.15829 -0.0501823 -0.013834 -0.19697
          0.345308 0.152407 0.481869 0.0917604 0.139724 0.490675
          0.189242 0.142522 0.483109 0.311949 0.159912 0.662099
          0.22557 -0.000403006 -1.0551 0.188444 -0.00778189 -1.02334
          0.201734 -0.00779991 -1.01235 0.168965 -0.00515665 -1.0663
          0.0700022 -0.0189528 -1.04155 0.0880873 -0.014668 -1.01073
          0.0971336 -0.00259998 -1.06633 0.0682129 -0.00638178 -1.0176
          0.399897 0.204163 1.81379 0.389267 0.209684 1.72946
          0.311442 0.220331 1.79745 0.42471 0.207458 1.83215
          0.16486 -0.0132007 -0.873521 0.185038 -0.0112891 -0.966454
          0.188752 -0.0119074 -0.967376 0.126494 -0.0116239 -0.962722
          0.139282 -0.0208527 -0.568469 0.0578659 -0.018722 -0.485896
          0.15721 -0.0181165 -0.470608 0.183164 -0.0170671 -0.589371
          0.26653 0.162067 1.64719 0.206569 0.161767 1.63429
          0.252819 0.174978 1.51462 0.294303 0.168015 1.52233
          0.055218 -0.0096646 -0.961593 0.0957739 -0.000896939 -1.02438
          0.0922398 -0.00387143 -0.958975 0.126494 -0.0116239 -0.962722
          0.304318 0.0314598 -1.01045 0.24366 0.0311635 -1.03462
          0.247711 0.0274887 -1.06388 0.229005 0.0188687 -1.0652
          0.180739 0.0425605 -1.00764 0.079169 0.0414585 -0.973045
          0.133288 0.0434323 -0.997365 0.13282 0.0487597 -0.935717
          0.38689 0.188117 1.5561 0.294303 0.168015 1.52233
          0.26653 0.162067 1.64719 0.252819 0.174978 1.51462
          0.0155697 -0.00945334 -0.0979218 -0.0354252 -0.0123842 -0.100673
          -0.0382728 -0.0119119 -0.0861697 -0.0277683 -0.0134212 -0.149544
          -0.0525861 -0.0158793 -0.211183 -0.127282 -0.0215735 -0.279389
          -0.119881 -0.0218471 -0.219262 -0.0284574 -0.0153834 -0.248114
          0.339227 0.15615 0.491304 0.325688 0.148226 0.386022
          0.279769 0.140479 0.25432 0.424977 0.152818 0.338667
          0.37001 0.190326 1.4178 0.376293 0.185483 1.21542
          0.483334 0.195034 1.26309 0.535403 0.202873 1.41079
          0.172928 0.0182889 -1.13082 0.170804 0.0193801 -1.12604
          0.180128 0.0144698 -1.13421 0.20182 0.0253005 -1.11961
          0.712901 0.206388 1.22555 0.551693 0.196169 1.18361
          0.704115 0.209655 1.28711 0.483334 0.195034 1.26309
          0.19703 -0.0117658 -0.773249 0.117498 -0.0127052 -0.774123
          0.193335 -0.0140792 -0.680673 0.105463 -0.00918275 -0.727052
          0.432326 0.0870368 -0.603389 0.432143 0.100045 -0.469631
          0.585277 0.0965456 -0.446988 0.575595 0.0982457 -0.520837
          0.129881 0.0190457 -1.08765 0.173956 0.0310747 -1.07793
          0.167174 0.0257106 -1.09011 0.160795 0.0354946 -1.04283
          0.542691 0.172558 0.701274 0.4665 0.174973 0.832093
          0.709038 0.196187 0.93758 0.705183 0.183313 0.70671
          0.125349 -0.031823 -0.104373 0.0758476 -0.0272059 -0.0749921
          0.0829014 -0.0282544 -0.0540615 0.111257 -0.0260218 -0.0822399
          0.112681 0.128374 0.196126 0.113661 0.130721 0.288513
          -0.0391606 0.125046 0.285413 -0.0474959 0.118465 0.181263
          0.203472 -0.0139074 -0.880859 0.26285 -0.0130069 -0.876853
          0.260191 -0.011571 -0.929422 0.269312 -0.0158084 -0.790747
          0.374349 0.146448 0.377404 0.333142 0.149548 0.503453
          0.477178 0.161787 0.54982 0.345308 0.152407 0.481869
          0.169372 0.0112354 -1.1349 0.167554 0.01164 -1.12899
          0.154846 0.0182198 -1.12627 0.172928 0.0182889 -1.13082
          0.0771644 0.0116483 -1.06883 0.114495 0.0252058 -1.087
          0.118271 0.00736987 -1.08369 0.106287 0.031032 -1.09216
          0.128366 0.144338 0.653264 -0.0523907 0.129622 0.506003
          0.0887269 0.13043 0.360895 0.044791 0.133985 0.562318
          0.203415 0.152634 0.830437 0.314863 0.163832 0.842115
          0.237981 0.148473 0.653257 0.128366 0.144338 0.653264
          0.0829014 -0.0282544 -0.0540615 0.0441782 -0.0214942 -0.0490048
          0.0356243 -0.0169741 -0.0342029 0.0758476 -0.0272059 -0.0749921
          0.672307 0.142273 0.106764 0.44205 0.135678 0.148091
          0.554677 0.147962 0.233816 0.500981 0.133764 0.025035
          0.175656 0.012652 -1.13595 0.176707 0.00807449 -1.12962
          0.178948 0.0060033 -1.13028 0.183085 0.00551842 -1.13081
          0.183178 0.00281344 -1.13408 0.183085 0.00551842 -1.13081
          0.188423 0.00272913 -1.13564 0.181922 0.0120482 -1.13884
          0.188423 0.00272913 -1.13564 0.183085 0.00551842 -1.13081
          0.215759 -0.00416399 -1.10589 0.177787 0.00281491 -1.11165
          0.167554 0.01164 -1.12899 0.179579 0.0122846 -1.12692
          0.178948 0.0060033 -1.13028 0.176707 0.00807449 -1.12962
          0.333142 0.149548 0.503453 0.189242 0.142522 0.483109
          0.374349 0.146448 0.377404 0.257122 0.135619 0.303109
          0.333142 0.149548 0.503453 0.189242 0.142522 0.483109
          0.345308 0.152407 0.481869 0.374349 0.146448 0.377404
          0.0919467 -0.0135297 -0.954481 0.055218 -0.0096646 -0.961593
          0.129918 -0.0092143 -1.0239 0.0880873 -0.014668 -1.01073
          0.496235 0.208476 1.73139 0.41749 0.201144 1.6896
          0.387594 0.201059 1.81382 0.399897 0.204163 1.81379
          0.364843 0.200645 1.94868 0.279451 0.199044 1.96301
          0.280536 0.198948 1.94003 0.317265 0.193703 1.98205
          0.445539 0.138683 0.0844741 0.560566 0.146458 0.0640076
          0.530358 0.152472 0.215311 0.694104 0.155148 0.164546
          0.640978 0.234054 1.73243 0.551926 0.218189 1.69449
          0.549512 0.222453 1.80015 0.499489 0.20972 1.78754
          0.328671 0.0418834 -0.942546 0.270998 0.0410123 -0.998166
          0.24366 0.0311635 -1.03462 0.253697 0.0323901 -0.985347
          0.194202 -0.00451249 -1.06016 0.165532 -0.00924211 -1.03094
          0.185334 -0.00195267 -1.08471 0.139782 -0.00357415 -1.07587
          0.0893929 -0.023841 -1.08672 0.0313912 -0.0323034 -1.04785
          0.0577682 -0.0281423 -1.02948 0.0700022 -0.0189528 -1.04155
          0.173365 0.0162593 -1.12608 0.176476 0.0148389 -1.10969
          0.206879 0.0273064 -1.10803 0.195952 0.0179985 -1.12406
          0 0 0 0.00613925 -0.00568058 -0.0229973
          0 0 0 0 0 0
          0.428379 0.0567763 -0.892945 0.372622 0.0709968 -0.788346
          0.44217 0.0557325 -0.843822 0.45466 0.0726495 -0.847837
          0.509302 0.18922 1.04712 0.578245 0.183818 0.83647
          0.716643 0.195296 0.903992 0.564165 0.19024 1.0193
          -0.0525861 -0.0158793 -0.211183 -0.11621 -0.0158091 -0.225044
          -0.0401972 -0.0186737 -0.295772 -0.0327653 -0.0170453 -0.262145
          -0.108758 -0.0168716 -0.179429 -0.119881 -0.0218471 -0.219262
          -0.102932 -0.0223742 -0.141753 -0.0607624 -0.0176287 -0.188494
          0.173 0.00588326 -1.11985 0.195515 0.00872119 -1.11504
          0.17279 0.00720272 -1.12721 0.173041 -0.00280863 -1.09202
          0.177787 0.00281491 -1.11165 0.184506 0.00171474 -1.10889
          0.185334 -0.00195267 -1.08471 0.158522 0.00273212 -1.11049
          0.315893 0.0269252 -1.03184 0.247711 0.0274887 -1.06388
          0.278414 0.0118281 -1.0665 0.296311 0.00918623 -1.04173
          0.117525 0.0398736 -0.929906 0.0560741 0.0443732 -0.867566
          0.139017 0.0506496 -0.867817 0.0566149 0.0415331 -0.855794
          0.41749 0.201144 1.6896 0.299638 0.182033 1.71781
          0.460626 0.203436 1.6395 0.395388 0.191512 1.71781
          0.22557 -0.000403006 -1.0551 0.168965 -0.00515665 -1.0663
          0.211839 0.00640367 -1.08357 0.188444 -0.00778189 -1.02334
          0.124865 0.0743217 -0.614662 0.230729 0.0840752 -0.586159
          0.173799 0.0876068 -0.503416 0.117851 0.0788018 -0.593398
          0.00765813 -0.00792034 -0.0270135 0.00714858 -0.00373127 -0.00222902
          0.0307875 -0.0144254 -0.0138309 0 0 0
          0.44205 0.135678 0.148091 0.257122 0.135619 0.303109
          0.395931 0.139444 0.273135 0.318274 0.14137 0.291124
          -0.0607624 -0.0176287 -0.188494 -0.126512 -0.0230097 -0.257693
          -0.088756 -0.0207238 -0.274965 -0.0284574 -0.0153834 -0.248114
          0.133766 0.196158 1.68813 0.294959 0.204801 1.7903
          0.273528 0.207587 1.68961 0.165846 0.208743 1.78842
          0.186008 0.158359 0.964154 0.20704 0.159521 0.859824
          -0.0194793 0.147898 0.977767 0.170346 0.164995 1.04243
          0.465399 0.19799 1.51567 0.371953 0.18296 1.69668
          0.551926 0.218189 1.69449 0.540308 0.212462 1.59578
          0.600635 0.195125 1.0911 0.509302 0.18922 1.04712
          0.441927 0.190179 1.14735 0.505653 0.186408 0.974223
          0.212652 0.196452 1.56397 0.133766 0.196158 1.68813
          0.120473 0.204398 1.65206 0.0960629 0.183963 1.57344
          0.486593 0.117221 -0.379886 0.457237 0.119913 -0.42142
          0.46044 0.105433 -0.546765 0.348836 0.102855 -0.459932
          0.0127683 -0.0225709 -0.775399 -0.103051 -0.02635 -0.700307
          -0.0840805 -0.0231921 -0.77883 -0.0303082 -0.027155 -0.714006
          0.236193 0.163352 1.23858 0.293607 0.171942 1.3809
          0.345197 0.178077 1.18186 0.347512 0.182185 1.38557
          0.188423 0.00272913 -1.13564 0.171214 0.0112742 -1.12197
          0.203198 -0.00291793 -1.12128 0.191011 0.0101408 -1.14815
          0.147867 0.12399 0.215002 -0.0578161 0.11548 0.183378
          -0.0316434 0.123871 0.388691 0.068297 0.121898 0.190096
          0.267714 0.0382249 -1.05959 0.196263 0.0293345 -1.09673
          0.247711 0.0274887 -1.06388 0.217644 0.0373622 -1.05651
          0.217421 0.188552 1.6753 0.201068 0.185051 1.52316
          0.0960629 0.183963 1.57344 0.212652 0.196452 1.56397
          0.348836 0.102855 -0.459932 0.258244 0.101278 -0.423532
          0.272319 0.0902591 -0.581238 0.173799 0.0876068 -0.503416
          0.162981 0.0702291 -0.700182 0.0768571 0.0522908 -0.774606
          0.167424 0.0633308 -0.79789 0.130594 0.0587253 -0.800895
          0.143772 0.0417257 -1.04399 0.196052 0.0376533 -1.03505
          0.13712 0.0459501 -1.00016 0.157521 0.0469226 -0.985977
          0.288575 0.0631171 -1.04643 0.280415 0.0522078 -1.06675
          0.286476 0.052365 -1.03123 0.23471 0.0431356 -1.07046
          -0.00718751 -0.0210012 -0.361431 -0.0401972 -0.0186737 -0.295772
          -0.0658888 -0.0192985 -0.331415 -0.0327653 -0.0170453 -0.262145
          0.187251 -0.0208078 -0.643288 0.18615 -0.0263881 -0.527732
          0.259363 -0.0222661 -0.561488 0.139282 -0.0208527 -0.568469
          0.0102294 -0.0145549 -0.890416 0.055218 -0.0096646 -0.961593
          0.0389992 -0.0231358 -0.956961 -0.0219125 -0.0217282 -0.941717
          0.158713 -0.0124128 -0.593162 0.0844988 -0.00990728 -0.605686
          0.16105 -0.0100386 -0.662766 0.0771466 -0.0128792 -0.667253
          0.516936 0.212012 1.83282 0.643071 0.218332 1.70571
          0.496235 0.208476 1.73139 0.62833 0.215461 1.78832
          0.631716 0.207156 1.76701 0.645948 0.213288 1.70657
          0.495762 0.206714 1.74814 0.594527 0.204081 1.66253
          0.26683 -0.0138364 -0.624716 0.262477 -0.0189119 -0.593392
          0.183164 -0.0170671 -0.589371 0.269356 -0.0163645 -0.701896
          0.139827 -0.00620229 -1.11706 0.130043 -0.00557288 -1.10149
          0.145661 0.00531314 -1.11313 0.159927 0.00494235 -1.10631
          -0.0401972 -0.0186737 -0.295772 -0.128186 -0.0211097 -0.310567
          -0.0538186 -0.0201853 -0.381395 -0.0658888 -0.0192985 -0.331415
          0 0 0 0 0 0
          0 0 0 0.00878838 0.011498 -0.00445242
          0.0845877 -0.0255065 -0.751434 0.0252257 -0.0287216 -0.667561
          0.117877 -0.0213928 -0.722719 0.0452458 -0.0243838 -0.718463
          0.373718 0.18894 1.83094 0.283203 0.18814 1.84313
          0.299638 0.182033 1.71781 0.269246 0.161112 1.88195
          -0.0658888 -0.0192985 -0.331415 -0.0401972 -0.0186737 -0.295772
          -0.122225 -0.0168075 -0.28944 -0.0327653 -0.0170453 -0.262145
          0.539956 0.186254 0.988245 0.451127 0.184652 1.08346
          0.553202 0.194862 1.1531 0.564165 0.19024 1.0193
          0.502812 0.120214 -0.176552 0.334286 0.120649 -0.0685765
          0.409685 0.106138 -0.277549 0.484097 0.122155 -0.0630469
          0.361484 0.173451 1.00011 0.314863 0.163832 0.842115
          0.349722 0.170056 0.845586 0.4665 0.174973 0.832093
          0.364843 0.200645 1.94868 0.373512 0.195207 2.01143
          0.317265 0.193703 1.98205 0.39061 0.201088 1.94817
          0.702014 0.175241 0.559962 0.477178 0.161787 0.54982
          0.542691 0.172558 0.701274 0.705183 0.183313 0.70671
          0.0857983 0.00396182 -0.185183 0.0209038 -0.00974771 -0.210131
          0.113962 -0.0013081 -0.194325 0.0540416 -0.00937549 -0.175074
          0.08759 -0.0181695 -0.700148 0.118225 -0.016529 -0.643321
          0.15297 -0.0190904 -0.707837 0.187113 -0.0166802 -0.683439
          0.128974 0.130461 0.187026 0.211578 0.144846 0.361071
          0.119924 0.137646 0.352982 0.279769 0.140479 0.25432
          0.318274 0.14137 0.291124 0.374349 0.146448 0.377404
          0.554677 0.147962 0.233816 0.517372 0.152084 0.282314
          -0.0454728 -0.0174241 -0.455721 0.0107608 -0.0144463 -0.385426
          0.0470197 -0.0148555 -0.460253 -0.0432089 -0.0131838 -0.487029
          0.237825 0.113705 -0.173142 0.339176 0.123145 -0.0956363
          0.325379 0.126608 -0.0892965 0.317615 0.133859 0.0941603
          0.587716 0.22395 2.01079 0.474926 0.213993 2.03117
          0.589482 0.227665 1.9636 0.583484 0.229311 2.03987
          -0.0295207 -0.0156766 -0.182455 -0.0876838 -0.00939058 -0.201846
          -0.0501823 -0.013834 -0.19697 -0.00765868 -0.0207847 -0.286805
          0.477178 0.161787 0.54982 0.329965 0.158701 0.681063
          0.4665 0.174973 0.832093 0.522672 0.172355 0.662797
          0.112681 0.128374 0.196126 0.317615 0.133859 0.0941603
          0.279769 0.140479 0.25432 0.198264 0.124889 0.070095
          0.176476 0.0148389 -1.10969 0.150219 0.0219777 -1.11042
          0.173365 0.0162593 -1.12608 0.182059 0.0298849 -1.13052
          -0.0953438 -0.016709 -0.120506 -0.065013 -0.0122964 -0.0621598
          -0.0748015 -0.00789741 -0.0695534 -0.0367899 -0.00800258 -0.0599512
          -0.0117854 -0.00191015 -0.0371014 -0.0547892 0.00314345 -0.0505998
          -0.0144841 0.000148197 -0.0285603 -0.0365595 -0.00573392 -0.0808166
          0.210866 0.172476 1.96248 0.21655 0.170417 2.02853
          0.282072 0.186107 1.95795 0.193506 0.157546 1.98437
          -0.0303082 -0.027155 -0.714006 0.0452458 -0.0243838 -0.718463
          0.0166565 -0.0213178 -0.651747 -0.0365529 -0.0262545 -0.615241
          -0.0453011 0.0930471 -0.305608 -0.0481754 0.101567 -0.142666
          0.0804092 0.101522 -0.223941 -0.0321081 0.0923879 -0.258256
          0.10098 -0.0230441 -0.930871 0.16914 -0.0179375 -0.857877
          0.10091 -0.0208321 -0.887682 0.0920557 -0.0255886 -0.845827
          0.00945855 -0.0154396 -0.791267 0.0185148 -0.0145913 -0.704614
          0.0642946 -0.0122501 -0.806808 0.00753187 -0.00795808 -0.801634
          0.349722 0.170056 0.845586 0.477379 0.178653 0.833553
          0.407349 0.167289 0.652838 0.346798 0.170757 0.800478
          -0.108082 -0.0140942 -0.171628 -0.0171008 -0.0138017 -0.174494
          -0.0525861 -0.0158793 -0.211183 -0.0354252 -0.0123842 -0.100673
          0.0358098 -0.0173367 -0.15829 0.0675574 -0.0172296 -0.103565
          0.0774893 -0.0166292 -0.179655 0.0279292 -0.0130824 -0.150911
          0.0174988 0.00881202 -0.0123778 0 0 0
          0.0450981 0.00208091 -0.0389618 0.0547054 0.0263362 -0.0374226
          -0.0171008 -0.0138017 -0.174494 -0.0525861 -0.0158793 -0.211183
          0.0098671 -0.0137665 -0.188363 0.0360046 -0.0165645 -0.266146
          0.351173 0.074105 -0.680571 0.253788 0.0760074 -0.685864
          0.349309 0.0887881 -0.620987 0.336885 0.0784927 -0.737575
          0.343916 0.0755584 -0.839382 0.29765 0.0780915 -0.862205
          0.351222 0.0854695 -0.909379 0.260874 0.0644344 -0.917065
          0.712901 0.206388 1.22555 0.712961 0.205477 1.16296
          0.583709 0.197168 1.17371 0.719557 0.200946 1.05157
          0.112514 0.149711 0.813037 0.186008 0.158359 0.964154
          0.20704 0.159521 0.859824 -0.0194793 0.147898 0.977767
          0.0540416 -0.00937549 -0.175074 0.0857983 0.00396182 -0.185183
          0.0209038 -0.00974771 -0.210131 0.0649561 0.00117694 -0.133957
          0.068297 0.121898 0.190096 0.105133 0.110602 -0.0678035
          -0.0655243 0.111919 0.0879617 0.177901 0.122751 0.105101
          0.201734 -0.00779991 -1.01235 0.168965 -0.00515665 -1.0663
          0.194202 -0.00451249 -1.06016 0.22557 -0.000403006 -1.0551
          -0.0897965 -0.0172937 -0.75591 -0.106391 -0.0133016 -0.666373
          0.0185148 -0.0145913 -0.704614 -0.0854006 -0.00804012 -0.75767
          0.0804092 0.101522 -0.223941 -0.0568878 0.101842 -0.151099
          0.105133 0.110602 -0.0678035 0.13459 0.111976 -0.0718907
          0.269312 -0.0158084 -0.790747 0.269356 -0.0163645 -0.701896
          0.185367 -0.0164986 -0.811141 0.15297 -0.0190904 -0.707837
          0.367694 0.056094 -0.989246 0.304287 0.0480379 -1.00984
          0.267714 0.0382249 -1.05959 0.332843 0.0408597 -1.02195
          0.40384 0.206217 1.66463 0.314828 0.197156 1.62844
          0.491887 0.204341 1.55134 0.41749 0.201144 1.6896
          0.0828364 0.169506 1.55691 0.202133 0.177184 1.37992
          0.0303563 0.162405 1.30879 0.201068 0.185051 1.52316
          0.0829014 -0.0282544 -0.0540615 0.0758476 -0.0272059 -0.0749921
          0.0644315 -0.0164299 -0.0698736 0.111257 -0.0260218 -0.0822399
          0.204545 0.0286583 -1.12534 0.228727 0.046858 -1.13087
          0.204545 0.0349354 -1.14484 0.215453 0.0337856 -1.12044
          0.270667 0.21001 1.87832 0.376374 0.20549 1.89003
          0.334915 0.211659 1.88336 0.280536 0.198948 1.94003
          0.540798 0.0820835 -0.610499 0.432326 0.0870368 -0.603389
          0.564627 0.0850216 -0.517364 0.575595 0.0982457 -0.520837
          0.0975126 -0.0129236 -1.08417 0.0893929 -0.023841 -1.08672
          0.126155 -0.0162538 -1.11475 0.134934 -0.0107202 -1.12126
          0.701053 0.18971 0.85072 0.542691 0.172558 0.701274
          0.539956 0.186254 0.988245 0.4665 0.174973 0.832093
          0.347512 0.182185 1.38557 0.552352 0.201884 1.33583
          0.388683 0.182205 1.28846 0.473613 0.191655 1.24082
          0.10116 0.0650096 -0.847493 0.123689 0.0542317 -0.925889
          0.158016 0.0603311 -0.849714 0.126057 0.0571167 -0.91903
          0.169372 0.0112354 -1.1349 0.153352 0.000889392 -1.13561
          0.160877 0.00282591 -1.14115 0.164186 0.0118026 -1.14029
          -0.122119 -0.0235412 -0.572695 -0.0168768 -0.0233283 -0.525649
          -0.0443746 -0.0202338 -0.606738 0.00633645 -0.0199511 -0.543667
          0.0560741 0.0443732 -0.867566 0.0372527 0.0525971 -0.826828
          0.130594 0.0587253 -0.800895 0.0220962 0.0587091 -0.743985
          0.272319 0.0902591 -0.581238 0.30705 0.0854688 -0.699613
          0.46044 0.105433 -0.546765 0.349309 0.0887881 -0.620987
          0.240274 0.217295 1.83279 0.270667 0.21001 1.87832
          0.165846 0.208743 1.78842 0.216007 0.215997 1.73409
          0.103863 -0.00388894 -0.0944656 0.0915026 0.0116161 -0.076386
          0.0660439 -0.0028024 -0.102152 0.0514415 -0.00199443 -0.0580778
          0.240642 0.0771923 -0.746678 0.24453 0.0708505 -0.80429
          0.30705 0.0854688 -0.699613 0.181637 0.0729893 -0.691136
          0.460286 0.156139 0.54136 0.237981 0.148473 0.653257
          0.475537 0.165971 0.715955 0.329965 0.158701 0.681063
          -0.0370501 0.0890911 -0.462169 0.147113 0.0900758 -0.449962
          0.0392936 0.0887872 -0.524484 0.101692 0.0805584 -0.621601
          0.257122 0.135619 0.303109 0.333142 0.149548 0.503453
          0.16556 0.134608 0.433358 0.330553 0.141912 0.420265
          0.0471266 -0.0191522 -1.04979 0.0313912 -0.0323034 -1.04785
          0.0700022 -0.0189528 -1.04155 0.00904144 -0.0242568 -1.0025
          0.0484699 -0.0108675 -0.030091 0.0277173 -0.0112998 -0.0430308
          0.0356243 -0.0169741 -0.0342029 0.0222848 -0.00558348 -0.0278639
          0.105429 -0.0278619 -0.280035 0.0937305 -0.0266664 -0.206198
          0.194208 -0.0324585 -0.282328 0.12311 -0.0240496 -0.19082
          0.205207 0.033256 -1.10889 0.177514 0.0162521 -1.13173
          0.187816 0.025274 -1.11521 0.169153 0.0211548 -1.10787
          0.539956 0.186254 0.988245 0.564165 0.19024 1.0193
          0.553202 0.194862 1.1531 0.703544 0.206163 1.12416
          0.721535 0.189703 0.763471 0.576506 0.177642 0.668802
          0.654031 0.187533 0.78162 0.721043 0.181619 0.578553
          0.0845378 0.147411 0.941905 0.238844 0.162658 1.06277
          0.131058 0.158108 1.10918 -0.00325904 0.140961 1.09947
          0.278414 0.0118281 -1.0665 0.249546 0.0280093 -1.08662
          0.245953 0.0105992 -1.09164 0.23176 0.0157621 -1.09497
          -0.12951 -0.024821 -0.478517 -0.131659 -0.0221287 -0.396732
          -0.0382095 -0.0203499 -0.467039 -0.130573 -0.0210149 -0.461085
          0.17973 0.197213 1.44533 0.245913 0.189513 1.4291
          0.212652 0.196452 1.56397 0.0565896 0.186773 1.3944
          0.0127683 -0.0225709 -0.775399 0.0452458 -0.0243838 -0.718463
          0.0166565 -0.0213178 -0.651747 -0.0303082 -0.027155 -0.714006
          0.572815 0.164404 0.469028 0.692943 0.167956 0.489621
          0.516531 0.151569 0.353601 0.698744 0.164157 0.363125
          0.0649561 0.00117694 -0.133957 0.0857983 0.00396182 -0.185183
          0.0209038 -0.00974771 -0.210131 0.0130412 -0.00728572 -0.143159
          0.0644315 -0.0164299 -0.0698736 0.0356243 -0.0169741 -0.0342029
          0.0816611 -0.0211183 -0.0484198 0.0802511 -0.012505 -0.0646586
          0.538118 0.159808 0.49707 0.333142 0.149548 0.503453
          0.477178 0.161787 0.54982 0.374349 0.146448 0.377404
          0.148028 0.00762492 -1.11872 0.174612 0.0120543 -1.13495
          0.18739 0.0247255 -1.1202 0.169153 0.0211548 -1.10787
          -0.102932 -0.0223742 -0.141753 -0.119881 -0.0218471 -0.219262
          -0.0885361 -0.0230579 -0.174972 -0.0607624 -0.0176287 -0.188494
          0.332843 0.0408597 -1.02195 0.315893 0.0269252 -1.03184
          0.247711 0.0274887 -1.06388 0.298409 0.0337659 -1.05963
          0.152229 0.0117325 -1.11972 0.171138 0.0116209 -1.12877
          0.180506 0.0179277 -1.13799 0.152649 0.0237462 -1.12026
          0.0512105 0.0999492 -0.292848 -0.0517243 0.0947152 -0.329892
          -0.0630916 0.0986318 -0.295763 -0.061984 0.099625 -0.212676
          0.16486 -0.0132007 -0.873521 0.185367 -0.0164986 -0.811141
          0.203472 -0.0139074 -0.880859 0.187662 -0.015708 -0.769458
          0.194464 -0.00870049 -1.02577 0.248905 -0.00813331 -0.987972
          0.238917 -0.00579035 -1.0335 0.254776 -0.0120806 -0.974703
          0.0577682 -0.0281423 -1.02948 -0.0120033 -0.0375333 -0.962701
          0.00904144 -0.0242568 -1.0025 0.0313912 -0.0323034 -1.04785
          0.137762 0.0328383 -1.10196 0.169675 0.0299189 -1.08729
          0.136467 0.0366424 -1.05661 0.16577 0.0305277 -1.08499
          0.0700022 -0.0189528 -1.04155 0.0389992 -0.0231358 -0.956961
          0.00182079 -0.0183532 -0.985129 0.00904144 -0.0242568 -1.0025
          0.152232 -0.0233181 -0.476973 0.170921 -0.0275196 -0.439577
          0.238033 -0.0270216 -0.40716 0.169053 -0.0237773 -0.375043
          0.563634 0.119736 -0.0221902 0.424412 0.120747 0.0174048
          0.520946 0.131935 0.0779313 0.484097 0.122155 -0.0630469
          0.0774893 -0.0166292 -0.179655 0.12311 -0.0240496 -0.19082
          0.116656 -0.0213041 -0.272863 0.188511 -0.0162307 -0.249986
          0.0250515 0.0571414 -0.717461 0.0220962 0.0587091 -0.743985
          0.181637 0.0729893 -0.691136 0.00800832 0.0681307 -0.627782
          0.587716 0.22395 2.01079 0.509965 0.214157 2.04142
          0.59149 0.218173 2.02627 0.59459 0.220233 1.95943
          0.209323 -0.0136238 -0.907578 0.270875 -0.0148438 -0.866727
          0.16486 -0.0132007 -0.873521 0.268345 -0.0141714 -0.849032
          0.16486 -0.0132007 -0.873521 0.270875 -0.0148438 -0.866727
          0.209323 -0.0136238 -0.907578 0.206243 -0.0142357 -0.811176
          0.347585 0.0741987 -1.04277 0.320388 0.0571591 -1.04914
          0.392657 0.0753856 -0.971224 0.286476 0.052365 -1.03123
          0.0388059 0.00445072 -0.0978631 0.0376237 0.00315363 -0.0667112
          0.00316235 -0.00774175 -0.084285 0.0649561 0.00117694 -0.133957
          0.210866 0.172476 1.96248 0.193506 0.157546 1.98437
          0.282072 0.186107 1.95795 0.193506 0.157546 1.98437
          0.399897 0.204163 1.81379 0.376374 0.20549 1.89003
          0.454738 0.206806 1.89198 0.42471 0.207458 1.83215
          0.354887 0.191231 2.10335 0.268413 0.19547 2.02507
          0.265826 0.195631 2.08832 0.280936 0.193837 2.04554
          0.0665477 -0.0233217 -0.48275 0.152232 -0.0233181 -0.476973
          0.0536057 -0.025715 -0.403315 0.170921 -0.0275196 -0.439577
          0.141621 -0.0194922 -1.11645 0.0827109 -0.0196146 -1.08085
          0.139827 -0.00620229 -1.11706 0.130043 -0.00557288 -1.10149
          0.555537 0.202478 1.4184 0.491887 0.204341 1.55134
          0.542925 0.207163 1.63277 0.498836 0.200919 1.48789
          0.157308 0.0350187 -1.04742 0.217644 0.0373622 -1.05651
          0.196052 0.0376533 -1.03505 0.169675 0.0299189 -1.08729
          0.655136 0.228487 1.65267 0.540308 0.212462 1.59578
          0.499489 0.20972 1.78754 0.533951 0.211685 1.71521
          0.141621 -0.0194922 -1.11645 0.139827 -0.00620229 -1.11706
          0.157185 -0.00844997 -1.13379 0.153867 -0.00790509 -1.11263
          0.055218 -0.0096646 -0.961593 0.0922398 -0.00387143 -0.958975
          0.0547873 -0.00956248 -0.875966 0.126494 -0.0116239 -0.962722
          0.0389992 -0.0231358 -0.956961 0.0919467 -0.0135297 -0.954481
          0.123149 -0.0160708 -0.964579 0.0880873 -0.014668 -1.01073
          0.64244 0.137669 -0.350307 0.457237 0.119913 -0.42142
          0.56349 0.126046 -0.473892 0.486593 0.117221 -0.379886
          0.496235 0.208476 1.73139 0.40384 0.206217 1.66463
          0.41749 0.201144 1.6896 0.399897 0.204163 1.81379
          0.250619 0.18662 2.09814 0.301902 0.190563 2.02495
          0.218435 0.192714 2.09406 0.289096 0.190872 2.09747
          0.584148 0.228069 2.09401 0.474926 0.213993 2.03117
          0.583484 0.229311 2.03987 0.501895 0.223601 2.13771
          0.484097 0.122155 -0.0630469 0.28116 0.113647 -0.106809
          0.307201 0.123835 0.0687832 0.334286 0.120649 -0.0685765
          0.0853681 -0.0229088 -0.641772 0.0740804 -0.0196889 -0.590591
          0.0665477 -0.0233217 -0.48275 0.139282 -0.0208527 -0.568469
          0.221732 -0.0110052 -0.922852 0.182197 -0.0121593 -0.958737
          0.188444 -0.00778189 -1.02334 0.148011 -0.0139621 -0.990689
          0.721535 0.189703 0.763471 0.566235 0.187544 0.910491
          0.654031 0.187533 0.78162 0.576506 0.177642 0.668802
          0.344774 0.0734123 -0.938354 0.286476 0.052365 -1.03123
          0.337729 0.0622297 -0.971894 0.245796 0.0542283 -1.01114
          0.0607489 -0.00918772 -0.0791758 0.0752352 -0.00582282 -0.0580352
          0.0222848 -0.00558348 -0.0278639 0.0802511 -0.012505 -0.0646586
          0.522544 0.209758 1.82278 0.610188 0.213279 1.85818
          0.48037 0.206131 1.89605 0.501687 0.207959 1.94509
          0.358861 0.0430357 -0.850377 0.268148 0.05214 -0.841647
          0.344425 0.0532901 -0.764546 0.317734 0.059831 -0.79408
          0.478524 0.0469546 -0.74553 0.402724 0.0628676 -0.720252
          0.516255 0.0666313 -0.664582 0.480373 0.0621636 -0.760049
          0.151547 0.002157 -1.08222 0.19541 -0.00381637 -1.08441
          0.180068 0.00297451 -1.1089 0.172972 3.67282e-05 -1.0698
          0.0857983 0.00396182 -0.185183 0.0649561 0.00117694 -0.133957
          0.143686 0.0124576 -0.177216 0.0761817 0.015298 -0.0967612
          0.158586 0.163992 1.36561 0.202133 0.177184 1.37992
          0.0561909 0.158821 1.45466 0.252819 0.174978 1.51462
          0.123689 0.0542317 -0.925889 0.126057 0.0571167 -0.91903
          0.0758894 0.0556241 -0.975666 0.157521 0.0469226 -0.985977
          0.520411 0.143817 -0.00516023 0.684195 0.149966 -0.00656958
          0.634897 0.160619 0.195354 0.560566 0.146458 0.0640076
          0.0845378 0.147411 0.941905 0.203415 0.152634 0.830437
          0.186008 0.158359 0.964154 0.238844 0.162658 1.06277
          0.183164 -0.0170671 -0.589371 0.140684 -0.013983 -0.516463
          0.158713 -0.0124128 -0.593162 0.118225 -0.016529 -0.643321
          0.477178 0.161787 0.54982 0.329965 0.158701 0.681063
          0.522672 0.172355 0.662797 0.311949 0.159912 0.662099
          0.203472 -0.0139074 -0.880859 0.156523 -0.0152272 -0.89299
          0.185367 -0.0164986 -0.811141 0.10775 -0.0136116 -0.885602
          0.258765 0.0665526 -0.86543 0.183089 0.0573615 -0.895068
          0.24453 0.0708505 -0.80429 0.260874 0.0644344 -0.917065
          0.603631 0.223803 1.88582 0.508874 0.214006 1.95539
          0.589482 0.227665 1.9636 0.59459 0.220233 1.95943
          0.119924 0.137646 0.352982 0.0687574 0.142446 0.463576
          -0.0254253 0.13798 0.494116 0.121136 0.145829 0.514661
          0.08759 -0.0181695 -0.700148 0.118225 -0.016529 -0.643321
          0.0185148 -0.0145913 -0.704614 0.0359931 -0.0179081 -0.637707
          -0.0115162 -0.00567168 -0.051575 0.00613925 -0.00568058 -0.0229973
          0.00765813 -0.00792034 -0.0270135 0.0100932 -0.00802936 -0.0535907
          0.0983943 0.103903 -0.1821 0.28116 0.113647 -0.106809
          0.105133 0.110602 -0.0678035 0.20449 0.1161 0.00797098
          0.113946 -0.0122499 -0.222739 0.0934466 -0.0105912 -0.154028
          0.166261 -0.0163788 -0.191247 0.17088 -0.00538913 -0.207319
          0.270667 0.21001 1.87832 0.230411 0.202424 1.92573
          0.209067 0.217383 1.88188 0.165846 0.208743 1.78842
          0.19858 0.209082 1.9791 0.19858 0.209082 1.9791
          0.208235 0.204512 2.0408 0.214937 0.209647 2.04065
          0.0127683 -0.0225709 -0.775399 0.00945855 -0.0154396 -0.791267
          -0.0840805 -0.0231921 -0.77883 -0.0331069 -0.0207408 -0.7108
          0.334286 0.120649 -0.0685765 0.177901 0.122751 0.105101
          0.307201 0.123835 0.0687832 0.326886 0.131137 0.105877
          -0.106391 -0.0133016 -0.666373 -0.0730244 -0.00840171 -0.641354
          -0.0323988 -0.0141205 -0.630091 -0.0182043 -0.00505826 -0.712925
          0.170346 0.164995 1.04243 0.224316 0.165267 0.860861
          0.349722 0.170056 0.845586 0.20704 0.159521 0.859824
          0.286476 0.052365 -1.03123 0.217644 0.0373622 -1.05651
          0.238887 0.0380659 -1.09393 0.267714 0.0382249 -1.05959
          0.566235 0.187544 0.910491 0.422856 0.180565 0.934743
          0.420039 0.179584 0.88187 0.526269 0.182344 0.807915
          0.0342889 -0.0194191 -0.133678 0.0358098 -0.0173367 -0.15829
          0.0991233 -0.0291402 -0.14598 0.0937305 -0.0266664 -0.206198
          0.23471 0.0431356 -1.07046 0.280415 0.0522078 -1.06675
          0.286476 0.052365 -1.03123 0.238887 0.0380659 -1.09393
          0.177901 0.122751 0.105101 0.0824626 0.120069 0.102868
          0.068297 0.121898 0.190096 0.113661 0.130721 0.288513
          0.118271 0.00736987 -1.08369 0.106287 0.031032 -1.09216
          0.152649 0.0237462 -1.12026 0.123387 0.0269296 -1.10146
          0.491887 0.204341 1.55134 0.576437 0.21161 1.62788
          0.496235 0.208476 1.73139 0.41749 0.201144 1.6896
          0.203198 -0.00291793 -1.12128 0.177787 0.00281491 -1.11165
          0.19541 -0.00381637 -1.08441 0.180068 0.00297451 -1.1089
          0.36166 0.0661805 -0.870565 0.333011 0.0545899 -0.945405
          0.278739 0.0589262 -0.949907 0.337729 0.0622297 -0.971894
          -0.0365595 -0.00573392 -0.0808166 -0.0367899 -0.00800258 -0.0599512
          -0.0115162 -0.00567168 -0.051575 -0.0354252 -0.0123842 -0.100673
          -0.0326251 0.140955 0.857926 0.0845378 0.147411 0.941905
          0.112514 0.149711 0.813037 0.186008 0.158359 0.964154
          0.198264 0.124889 0.070095 0.13459 0.111976 -0.0718907
          0.177901 0.122751 0.105101 0.0824626 0.120069 0.102868
          0.162798 0.0130179 -1.13538 0.17471 0.0103553 -1.13275
          0.169372 0.0112354 -1.1349 0.157544 0.0198756 -1.12909
          0.229005 0.0188687 -1.0652 0.23176 0.0157621 -1.09497
          0.247711 0.0274887 -1.06388 0.235742 0.0082428 -1.0865
          0.229005 0.0188687 -1.0652 0.196237 0.0163121 -1.0977
          0.247711 0.0274887 -1.06388 0.23176 0.0157621 -1.09497
          0.0807397 0.0461835 -1.02818 0.117393 0.0308707 -1.07992
          0.136467 0.0366424 -1.05661 0.121689 0.038873 -1.0749
          -0.0120033 -0.0375333 -0.962701 -0.0581836 -0.0358302 -0.840197
          0.0169673 -0.0315692 -0.881613 -0.0515571 -0.0303915 -0.88369
          0.16328 0.00682162 -1.12711 0.130874 -0.00297278 -1.10678
          0.158522 0.00273212 -1.11049 0.152229 0.0117325 -1.11972
          0.358861 0.0430357 -0.850377 0.363754 0.0521145 -0.84867
          0.344425 0.0532901 -0.764546 0.402724 0.0628676 -0.720252
          -0.12951 -0.024821 -0.478517 -0.052492 -0.0226985 -0.433246
          -0.0538186 -0.0201853 -0.381395 -0.131659 -0.0221287 -0.396732
          -0.0285253 0.143236 0.763847 -0.0397156 0.136079 0.577023
          0.141115 0.14885 0.667341 -0.0414189 0.136588 0.693819
          0.105195 -0.00802552 -0.266652 0.0898911 -0.00444595 -0.325468
          0.141866 -0.00647079 -0.337935 0.0327665 -0.0135779 -0.313497
          0.69147 0.217185 1.40219 0.535403 0.202873 1.41079
          0.553382 0.208726 1.55042 0.690279 0.214152 1.44669
          0.156925 0.0462572 -0.961802 0.160795 0.0354946 -1.04283
          0.156445 0.0377303 -1.01497 0.226725 0.0569851 -0.976381
          0.198264 0.124889 0.070095 0.317615 0.133859 0.0941603
          0.387406 0.143248 0.223329 0.326886 0.131137 0.105877
          0.177514 0.0162521 -1.13173 0.193758 0.0212416 -1.1506
          0.18229 0.00818924 -1.14588 0.198031 0.0285388 -1.14317
          0.0471266 -0.0191522 -1.04979 0.00904144 -0.0242568 -1.0025
          0.0700022 -0.0189528 -1.04155 0.0348273 -0.00834823 -1.03009
          0.300169 0.205092 1.53596 0.349891 0.19974 1.53891
          0.382239 0.19942 1.44473 0.40147 0.202094 1.56307
          -0.0321081 0.0923879 -0.258256 0.0844691 0.105919 -0.143068
          0.130689 0.0951538 -0.354446 -0.0208577 0.0900582 -0.264982
          0.124865 0.0743217 -0.614662 0.173799 0.0876068 -0.503416
          0.230729 0.0840752 -0.586159 0.272319 0.0902591 -0.581238
          0.168965 -0.00515665 -1.0663 0.112132 -0.0186334 -1.01051
          0.145625 -0.00790975 -1.06445 0.111914 -0.0174845 -1.05123
          0.343916 0.0755584 -0.839382 0.36166 0.0661805 -0.870565
          0.344774 0.0734123 -0.938354 0.438328 0.0812215 -0.897867
          0.0297149 0.0817309 -0.656534 0.15145 0.0745346 -0.685354
          0.054551 0.0753255 -0.77357 0.109161 0.0700203 -0.752531
          0.343916 0.0755584 -0.839382 0.260874 0.0644344 -0.917065
          0.24453 0.0708505 -0.80429 0.29765 0.0780915 -0.862205
          0.390222 0.200457 2.03097 0.394078 0.205558 2.05199
          0.408602 0.205183 2.11483 0.343228 0.197767 2.10279
          0.394078 0.205558 2.05199 0.38125 0.210746 2.12329
          0.408602 0.205183 2.11483 0.343228 0.197767 2.10279
          0.432326 0.0870368 -0.603389 0.351173 0.074105 -0.680571
          0.432167 0.0766004 -0.589968 0.368363 0.0880234 -0.492427
          0.118354 0.00659017 -1.09692 0.0811437 -0.0025162 -1.07377
          0.125307 0.0114024 -1.09595 0.145661 0.00531314 -1.11313
          0.114495 0.0252058 -1.087 0.143848 0.028966 -1.11295
          0.118271 0.00736987 -1.08369 0.106287 0.031032 -1.09216
          0.156925 0.0462572 -0.961802 0.209562 0.0518334 -0.953749
          0.183089 0.0573615 -0.895068 0.13282 0.0487597 -0.935717
          0.527923 0.13303 -0.0882344 0.666764 0.142636 -0.158079
          0.684195 0.149966 -0.00656958 0.673207 0.140736 0.00567184
          0.0642946 -0.0122501 -0.806808 0.105915 -0.00932992 -0.868497
          0.117498 -0.0127052 -0.774123 0.16486 -0.0132007 -0.873521
          0.171797 0.154438 0.655168 0.0917604 0.139724 0.490675
          0.141115 0.14885 0.667341 -0.0284562 0.14066 0.608061
          0.325379 0.126608 -0.0892965 0.371903 0.120611 -0.274683
          0.465816 0.133938 -0.0723265 0.339176 0.123145 -0.0956363
          0.584036 0.203196 1.31556 0.697242 0.21442 1.29245
          0.704115 0.209655 1.28711 0.69147 0.217185 1.40219
          -0.0168768 -0.0233283 -0.525649 -0.0365529 -0.0262545 -0.615241
          0.048454 -0.0268886 -0.585892 -0.00588535 -0.0269348 -0.514974
          0.473613 0.191655 1.24082 0.553202 0.194862 1.1531
          0.451127 0.184652 1.08346 0.551693 0.196169 1.18361
          0.134253 -0.0150344 -0.313891 0.212099 -0.0193911 -0.323621
          0.225279 -0.013258 -0.37308 0.201181 -0.00575203 -0.283796
          0.42471 0.207458 1.83215 0.376374 0.20549 1.89003
          0.48037 0.206131 1.89605 0.334915 0.211659 1.88336
          0.0166565 -0.0213178 -0.651747 0.0853681 -0.0229088 -0.641772
          0.0740804 -0.0196889 -0.590591 -0.0168768 -0.0233283 -0.525649
          0.0698984 0.0613448 -0.665753 0.162981 0.0702291 -0.700182
          0.124865 0.0743217 -0.614662 0.0250515 0.0571414 -0.717461
          0.0665477 -0.0233217 -0.48275 0.15721 -0.0181165 -0.470608
          0.110453 -0.0208346 -0.375156 0.152232 -0.0233181 -0.476973
          0.198031 0.0285388 -1.14317 0.215453 0.0337856 -1.12044
          0.193318 0.0234298 -1.13418 0.218194 0.039635 -1.13003
          0.477178 0.161787 0.54982 0.311949 0.159912 0.662099
          0.522672 0.172355 0.662797 0.345308 0.152407 0.481869
          0.147867 0.12399 0.215002 0.257122 0.135619 0.303109
          0.330553 0.141912 0.420265 0.376157 0.134811 0.252378
          0.269518 0.124347 0.146292 0.257122 0.135619 0.303109
          0.147867 0.12399 0.215002 0.376157 0.134811 0.252378
          -0.0568878 0.101842 -0.151099 -0.0565269 0.110644 0.0352962
          0.105133 0.110602 -0.0678035 0.13459 0.111976 -0.0718907
          0.196052 0.0376533 -1.03505 0.208244 0.0317288 -1.03781
          0.157521 0.0469226 -0.985977 0.143772 0.0417257 -1.04399
          -0.00765868 -0.0207847 -0.286805 0.0549394 -0.024593 -0.318496
          0.0486358 -0.0214736 -0.314918 0.0390515 -0.02144 -0.216222
          0.575595 0.0982457 -0.520837 0.59157 0.110913 -0.485872
          0.432326 0.0870368 -0.603389 0.432143 0.100045 -0.469631
          -0.0538186 -0.0201853 -0.381395 -0.128186 -0.0211097 -0.310567
          -0.130076 -0.0213635 -0.371606 -0.0658888 -0.0192985 -0.331415
          0.31981 0.134046 0.0434342 0.520411 0.143817 -0.00516023
          0.394227 0.144542 0.157778 0.317615 0.133859 0.0941603
          0.0102294 -0.0145549 -0.890416 0.0547873 -0.00956248 -0.875966
          0.00945855 -0.0154396 -0.791267 0.10775 -0.0136116 -0.885602
          0.0983943 0.103903 -0.1821 0.0512105 0.0999492 -0.292848
          -0.0630916 0.0986318 -0.295763 -0.061984 0.099625 -0.212676
          0.522544 0.209758 1.82278 0.516936 0.212012 1.83282
          0.523184 0.21308 1.90131 0.454738 0.206806 1.89198
          0 0 0 0.0174988 0.00881202 -0.0123778
          0 0 0 0.00878838 0.011498 -0.00445242
          0.18286 0.00239008 -1.10851 0.195749 -0.00968941 -1.11628
          0.197806 0.00805325 -1.12213 0.179546 -0.00518367 -1.12862
          0.69147 0.217185 1.40219 0.553382 0.208726 1.55042
          0.674729 0.22363 1.53837 0.690279 0.214152 1.44669
          0.311359 0.19366 2.00681 0.193506 0.157546 1.98437
          0.267912 0.193391 2.06131 0.193506 0.157546 1.98437
          0.0130412 -0.00728572 -0.143159 -0.0423323 -0.0154299 -0.123609
          -0.00690965 -0.00854844 -0.0800788 0.0108447 -0.00392801 -0.129841
          0.180068 0.00297451 -1.1089 0.19541 -0.00381637 -1.08441
          0.205167 -0.0060995 -1.09322 0.172972 3.67282e-05 -1.0698
          0.215453 0.0337856 -1.12044 0.240259 0.0430863 -1.11282
          0.218194 0.039635 -1.13003 0.235505 0.0465084 -1.10819
          -0.0474959 0.118465 0.181263 0.113661 0.130721 0.288513
          -0.0418792 0.129004 0.391246 -0.0584419 0.120704 0.269333
          0.314828 0.197156 1.62844 0.35344 0.191337 1.57455
          0.491887 0.204341 1.55134 0.41749 0.201144 1.6896
          0.0920557 -0.0255886 -0.845827 0.117074 -0.0194202 -0.800314
          0.10091 -0.0208321 -0.887682 0.0708915 -0.0190248 -0.830437
          0.0353563 0.00122208 -0.86422 -0.0446746 0.0048848 -0.846644
          -0.0584268 -0.00413948 -0.841123 0.00753187 -0.00795808 -0.801634
          0.106339 0.029652 -1.04331 0.180739 0.0425605 -1.00764
          0.157308 0.0350187 -1.04742 0.160795 0.0354946 -1.04283
          0.17425 0.103817 -0.236551 0.108892 0.0931933 -0.375589
          0.0804092 0.101522 -0.223941 0.195518 0.107239 -0.222251
          0.0804219 -0.014032 -0.565645 0.140684 -0.013983 -0.516463
          0.057422 -0.00958656 -0.504466 0.0470197 -0.0148555 -0.460253
          0.543584 0.179795 0.887579 0.368946 0.164907 0.841573
          0.476062 0.182941 1.06639 0.539956 0.186254 0.988245
          0.600665 0.140251 -0.22772 0.457237 0.119913 -0.42142
          0.64244 0.137669 -0.350307 0.486593 0.117221 -0.379886
          0.317615 0.133859 0.0941603 0.339176 0.123145 -0.0956363
          0.465816 0.133938 -0.0723265 0.445539 0.138683 0.0844741
          -0.108082 -0.0140942 -0.171628 -0.0482987 -0.0104118 -0.135516
          -0.0354252 -0.0123842 -0.100673 -0.0950276 -0.0100972 -0.12574
          0.17137 -0.00547832 -1.04012 0.185038 -0.0112891 -0.966454
          0.206809 -0.0107099 -1.02112 0.143934 -0.00495345 -1.0015
          0.118271 0.00736987 -1.08369 0.0957739 -0.000896939 -1.02438
          0.151547 0.002157 -1.08222 0.0855231 0.00918058 -1.04601
          0.411463 0.0864855 -0.395732 0.276125 0.0947165 -0.379639
          0.409685 0.106138 -0.277549 0.368363 0.0880234 -0.492427
          0.0574409 -0.0227267 -0.0946761 0.0441782 -0.0214942 -0.0490048
          0.028315 -0.0144495 -0.0665337 0.0140221 -0.0136444 -0.0704409
          0.055218 -0.0096646 -0.961593 -0.0280559 -0.012453 -0.9239
          0.00286609 -0.009542 -0.984145 -0.0219125 -0.0217282 -0.941717
          -0.0397156 0.136079 0.577023 -0.0497639 0.127401 0.409391
          0.0917604 0.139724 0.490675 -0.0523907 0.129622 0.506003
          0.526269 0.182344 0.807915 0.505653 0.186408 0.974223
          0.566235 0.187544 0.910491 0.654031 0.187533 0.78162
          -0.108758 -0.0168716 -0.179429 -0.11621 -0.0158091 -0.225044
          -0.119881 -0.0218471 -0.219262 -0.0525861 -0.0158793 -0.211183
          0.315947 0.196592 1.90816 0.454738 0.206806 1.89198
          0.395929 0.200623 1.90057 0.376374 0.20549 1.89003
          0.373718 0.18894 1.83094 0.380334 0.185943 1.81351
          0.458089 0.203362 1.84714 0.37796 0.1901 1.89347
          0.120473 0.204398 1.65206 0.133766 0.196158 1.68813
          0.273528 0.207587 1.68961 0.165846 0.208743 1.78842
          0.117525 0.0398736 -0.929906 0.0560741 0.0443732 -0.867566
          0.156925 0.0462572 -0.961802 0.139017 0.0506496 -0.867817
          0.0130412 -0.00728572 -0.143159 0.0098671 -0.0137665 -0.188363
          0.0540416 -0.00937549 -0.175074 0.0155697 -0.00945334 -0.0979218
          0.672307 0.142273 0.106764 0.554677 0.147962 0.233816
          0.685457 0.150589 0.168031 0.500981 0.133764 0.025035
          0.554677 0.147962 0.233816 0.326886 0.131137 0.105877
          0.445539 0.138683 0.0844741 0.500981 0.133764 0.025035
          -0.128932 -0.0248542 -0.459665 -0.0818359 -0.0274569 -0.533937
          -0.052492 -0.0226985 -0.433246 -0.00588535 -0.0269348 -0.514974
          0.424977 0.152818 0.338667 0.517372 0.152084 0.282314
          0.710123 0.168797 0.351904 0.472775 0.161158 0.475347
          0.263276 -0.0148749 -0.93916 0.254776 -0.0120806 -0.974703
          0.261824 -0.0130019 -0.916534 0.185038 -0.0112891 -0.966454
          0.206809 -0.0107099 -1.02112 0.185038 -0.0112891 -0.966454
          0.17137 -0.00547832 -1.04012 0.194464 -0.00870049 -1.02577
          -0.122095 -0.030647 -0.606076 -0.0365529 -0.0262545 -0.615241
          -0.12508 -0.0269195 -0.560752 -0.0818359 -0.0274569 -0.533937
          -0.122095 -0.030647 -0.606076 -0.103051 -0.02635 -0.700307
          -0.12508 -0.0269195 -0.560752 -0.0365529 -0.0262545 -0.615241
          0 0 0 0.0356243 -0.0169741 -0.0342029
          0 0 0 0 0 0
          0.164869 0.0206331 -1.12188 0.154597 0.0268177 -1.11213
          0.186348 0.0218384 -1.10846 0.170804 0.0193801 -1.12604
          0.458089 0.203362 1.84714 0.37796 0.1901 1.89347
          0.461908 0.207616 1.89904 0.373718 0.18894 1.83094
          0.0829014 -0.0282544 -0.0540615 0.0902995 -0.0196342 -0.0267296
          0.0816611 -0.0211183 -0.0484198 0.0356243 -0.0169741 -0.0342029
          0.0108537 -0.0216076 -0.447808 -0.052492 -0.0226985 -0.433246
          -0.00718751 -0.0210012 -0.361431 -0.0538186 -0.0201853 -0.381395
          0.141866 -0.00647079 -0.337935 0.0898911 -0.00444595 -0.325468
          0.104284 -0.0136701 -0.371997 0.0327665 -0.0135779 -0.313497
          0.505653 0.186408 0.974223 0.566235 0.187544 0.910491
          0.509302 0.18922 1.04712 0.422856 0.180565 0.934743
          0.0700022 -0.0189528 -1.04155 0.118174 -0.0101753 -1.07335
          0.0975126 -0.0129236 -1.08417 0.0971336 -0.00259998 -1.06633
          0.373718 0.18894 1.83094 0.269246 0.161112 1.88195
          0.301773 0.162762 1.76111 0.303986 0.162513 1.85599
          0.185367 -0.0164986 -0.811141 0.267952 -0.0171241 -0.761579
          0.205372 -0.0163374 -0.830822 0.269312 -0.0158084 -0.790747
          0.503551 0.201335 1.4564 0.552352 0.201884 1.33583
          0.69147 0.217185 1.40219 0.675159 0.226764 1.51115
          0.572815 0.164404 0.469028 0.698744 0.164157 0.363125
          0.709794 0.178071 0.568122 0.702014 0.175241 0.559962
          0.105195 -0.00802552 -0.266652 0.113962 -0.0013081 -0.194325
          0.113946 -0.0122499 -0.222739 0.201181 -0.00575203 -0.283796
          0.701053 0.18971 0.85072 0.543584 0.179795 0.887579
          0.696654 0.19816 0.990943 0.539956 0.186254 0.988245
          0.208244 0.0317288 -1.03781 0.16577 0.0305277 -1.08499
          0.196052 0.0376533 -1.03505 0.208914 0.0286063 -1.0707
          0.347512 0.182185 1.38557 0.491 0.196 1.34734
          0.388683 0.182205 1.28846 0.552352 0.201884 1.33583
          0.326886 0.131137 0.105877 0.177901 0.122751 0.105101
          0.198264 0.124889 0.070095 0.13459 0.111976 -0.0718907
          0.474926 0.213993 2.03117 0.458699 0.214588 2.12646
          0.584148 0.228069 2.09401 0.509965 0.214157 2.04142
          0.147867 0.12399 0.215002 -0.0316434 0.123871 0.388691
          0.16556 0.134608 0.433358 0.0887269 0.13043 0.360895
          0.238887 0.0380659 -1.09393 0.207377 0.0208321 -1.10963
          0.228412 0.0286129 -1.10666 0.249546 0.0280093 -1.08662
          0.300169 0.205092 1.53596 0.17973 0.197213 1.44533
          0.212652 0.196452 1.56397 0.209804 0.207864 1.60977
          -0.0443746 -0.0202338 -0.606738 0.0359931 -0.0179081 -0.637707
          0.00229256 -0.0169905 -0.563079 0.00633645 -0.0199511 -0.543667
          0.252819 0.174978 1.51462 0.217421 0.188552 1.6753
          0.35344 0.191337 1.57455 0.201068 0.185051 1.52316
          0.432326 0.0870368 -0.603389 0.421332 0.0907937 -0.716274
          0.46044 0.105433 -0.546765 0.555583 0.106463 -0.608938
          0.326886 0.131137 0.105877 0.177901 0.122751 0.105101
          0.257122 0.135619 0.303109 0.318274 0.14137 0.291124
          0.719557 0.200946 1.05157 0.583709 0.197168 1.17371
          0.726014 0.199269 1.0235 0.509302 0.18922 1.04712
          0.583709 0.197168 1.17371 0.551693 0.196169 1.18361
          0.509302 0.18922 1.04712 0.719557 0.200946 1.05157
          0.153 5.4393e-05 -1.12756 0.166518 0.00346835 -1.12287
          0.169372 0.0112354 -1.1349 0.16328 0.00682162 -1.12711
          0.387815 0.202424 1.98846 0.319383 0.194355 1.9882
          0.335556 0.201341 2.04656 0.311359 0.19366 2.00681
          0.0898911 -0.00444595 -0.325468 0.104284 -0.0136701 -0.371997
          0.0636064 -0.00891908 -0.389929 0.141866 -0.00647079 -0.337935
          0.0130412 -0.00728572 -0.143159 0.0857983 0.00396182 -0.185183
          0.0209038 -0.00974771 -0.210131 0.0108447 -0.00392801 -0.129841
          0.113519 0.179696 1.65371 0.0828364 0.169506 1.55691
          0.0960629 0.183963 1.57344 0.201068 0.185051 1.52316
          0.445539 0.138683 0.0844741 0.694104 0.155148 0.164546
          0.517372 0.152084 0.282314 0.500981 0.133764 0.025035
          0.620393 0.124519 -0.416868 0.56349 0.126046 -0.473892
          0.555583 0.106463 -0.608938 0.46044 0.105433 -0.546765
          0.501895 0.223601 2.13771 0.432863 0.218651 2.13995
          0.457526 0.215988 2.03787 0.542081 0.226308 2.06513
          0.335556 0.201341 2.04656 0.267912 0.193391 2.06131
          0.335164 0.204974 2.06627 0.311359 0.19366 2.00681
          0.301773 0.162762 1.76111 0.395388 0.191512 1.71781
          0.26653 0.162067 1.64719 0.299638 0.182033 1.71781
          0.313847 0.186532 1.91649 0.283203 0.18814 1.84313
          0.387594 0.201059 1.81382 0.373718 0.18894 1.83094
          0.583484 0.229311 2.03987 0.475228 0.212726 1.96844
          0.565696 0.22903 1.9938 0.542081 0.226308 2.06513
          0.151948 -0.00220459 -0.376901 0.123339 0.00193013 -0.276106
          0.141866 -0.00647079 -0.337935 0.215795 0.00348826 -0.339919
          0.17973 0.197213 1.44533 0.0565896 0.186773 1.3944
          0.212652 0.196452 1.56397 0.0874426 0.20017 1.52277
          0.212652 0.196452 1.56397 0.0565896 0.186773 1.3944
          0.0960629 0.183963 1.57344 0.0874426 0.20017 1.52277
          0.173 0.00588326 -1.11985 0.181061 0.0164242 -1.12749
          0.195515 0.00872119 -1.11504 0.211839 0.00640367 -1.08357
          0.317265 0.193703 1.98205 0.268413 0.19547 2.02507
          0.301902 0.190563 2.02495 0.289096 0.190872 2.09747
          -0.0953438 -0.016709 -0.120506 -0.0277683 -0.0134212 -0.149544
          -0.0382728 -0.0119119 -0.0861697 -0.0354252 -0.0123842 -0.100673
          0.263276 -0.0148749 -0.93916 0.267997 -0.0182575 -0.926114
          0.251392 -0.0149688 -0.992494 0.209323 -0.0136238 -0.907578
          0.253788 0.0760074 -0.685864 0.181637 0.0729893 -0.691136
          0.185762 0.0662311 -0.795337 0.136757 0.0683191 -0.748962
          -0.0171008 -0.0138017 -0.174494 0.00486405 -0.0137133 -0.10608
          0.0279292 -0.0130824 -0.150911 -0.0354252 -0.0123842 -0.100673
          0.106339 0.029652 -1.04331 0.079169 0.0414585 -0.973045
          0.133288 0.0434323 -0.997365 0.180739 0.0425605 -1.00764
          0.38689 0.188117 1.5561 0.252819 0.174978 1.51462
          0.26653 0.162067 1.64719 0.206569 0.161767 1.63429
          -0.106391 -0.0133016 -0.666373 -0.0730244 -0.00840171 -0.641354
          -0.0182043 -0.00505826 -0.712925 -0.0602992 -0.000919334 -0.759307
          0.555537 0.202478 1.4184 0.690279 0.214152 1.44669
          0.576437 0.21161 1.62788 0.491887 0.204341 1.55134
          0.318274 0.14137 0.291124 0.326886 0.131137 0.105877
          0.387406 0.143248 0.223329 0.517372 0.152084 0.282314
          0.196263 0.0293345 -1.09673 0.170804 0.0193801 -1.12604
          0.20182 0.0253005 -1.11961 0.207377 0.0208321 -1.10963
          0.367694 0.056094 -0.989246 0.304287 0.0480379 -1.00984
          0.333011 0.0545899 -0.945405 0.337729 0.0622297 -0.971894
          0.24497 0.0543441 -1.03067 0.245796 0.0542283 -1.01114
          0.226725 0.0569851 -0.976381 0.180739 0.0425605 -1.00764
          0.071029 0.042301 -0.936173 0.079169 0.0414585 -0.973045
          0.13282 0.0487597 -0.935717 0.0502769 0.0524165 -0.884212
          0.349309 0.0887881 -0.620987 0.30705 0.0854688 -0.699613
          0.46044 0.105433 -0.546765 0.421332 0.0907937 -0.716274
          0.0827109 -0.0196146 -1.08085 0.0893929 -0.023841 -1.08672
          0.126155 -0.0162538 -1.11475 0.0975126 -0.0129236 -1.08417
          0.538118 0.159808 0.49707 0.702014 0.175241 0.559962
          0.542691 0.172558 0.701274 0.697082 0.177494 0.642558
          0.141866 -0.00647079 -0.337935 0.104284 -0.0136701 -0.371997
          0.0636064 -0.00891908 -0.389929 0.156717 -0.00972851 -0.433933
          0.262477 -0.0189119 -0.593392 0.139282 -0.0208527 -0.568469
          0.259363 -0.0222661 -0.561488 0.253552 -0.0181023 -0.513482
          0.646271 0.129887 -0.217498 0.629611 0.117661 -0.264494
          0.492783 0.111952 -0.323366 0.618914 0.118881 -0.360852
          -0.0681067 -0.0183736 -0.314081 -0.0449147 -0.0230668 -0.390274
          -0.0658888 -0.0192985 -0.331415 0.00554623 -0.0230099 -0.354419
          0.145403 0.00751687 -0.157499 0.0915026 0.0116161 -0.076386
          0.099324 0.0220357 -0.0811408 0.0761817 0.015298 -0.0967612
          -0.0953438 -0.016709 -0.120506 -0.0367899 -0.00800258 -0.0599512
          -0.0748015 -0.00789741 -0.0695534 -0.0354252 -0.0123842 -0.100673
          0.551693 0.196169 1.18361 0.706821 0.206865 1.16605
          0.704115 0.209655 1.28711 0.584036 0.203196 1.31556
          0.39061 0.201088 1.94817 0.373512 0.195207 2.01143
          0.317265 0.193703 1.98205 0.388864 0.195535 2.04031
          0.245796 0.0542283 -1.01114 0.230153 0.0452618 -0.998765
          0.209562 0.0518334 -0.953749 0.180739 0.0425605 -1.00764
          0.0807397 0.0461835 -1.02818 0.117393 0.0308707 -1.07992
          0.0954567 0.0390706 -1.02908 0.136467 0.0366424 -1.05661
          0.276125 0.0947165 -0.379639 0.147113 0.0900758 -0.449962
          0.368363 0.0880234 -0.492427 0.27013 0.0773494 -0.610887
          -0.0446746 0.0048848 -0.846644 -0.0854006 -0.00804012 -0.75767
          -0.0584268 -0.00413948 -0.841123 0.00753187 -0.00795808 -0.801634
          0.0771466 -0.0128792 -0.667253 0.08759 -0.0181695 -0.700148
          0.118225 -0.016529 -0.643321 0.0185148 -0.0145913 -0.704614
          0.327877 0.110293 -0.24624 0.409685 0.106138 -0.277549
          0.471473 0.100582 -0.394055 0.492783 0.111952 -0.323366
          0.0098671 -0.0137665 -0.188363 0.0155697 -0.00945334 -0.0979218
          0.0279292 -0.0130824 -0.150911 0.0540416 -0.00937549 -0.175074
          0.351222 0.0854695 -0.909379 0.226725 0.0569851 -0.976381
          0.260874 0.0644344 -0.917065 0.29765 0.0780915 -0.862205
          0.520411 0.143817 -0.00516023 0.560566 0.146458 0.0640076
          0.634897 0.160619 0.195354 0.530358 0.152472 0.215311
          0.172928 0.0182889 -1.13082 0.154846 0.0182198 -1.12627
          0.170804 0.0193801 -1.12604 0.160153 0.0242505 -1.10792
          0.474926 0.213993 2.03117 0.457526 0.215988 2.03787
          0.475228 0.212726 1.96844 0.542081 0.226308 2.06513
          0.17471 0.0103553 -1.13275 0.169372 0.0112354 -1.1349
          0.170804 0.0193801 -1.12604 0.175656 0.012652 -1.13595
          0.203472 -0.0139074 -0.880859 0.10775 -0.0136116 -0.885602
          0.185367 -0.0164986 -0.811141 0.096068 -0.0160099 -0.794129
          0.0277173 -0.0112998 -0.0430308 0.0356243 -0.0169741 -0.0342029
          0 0 0 0 0 0
          0.0130412 -0.00728572 -0.143159 -0.0185362 -0.0123417 -0.194536
          -0.0607624 -0.0176287 -0.188494 -0.0423323 -0.0154299 -0.123609
          0.599127 0.22786 1.89649 0.533699 0.223492 1.9141
          0.565696 0.22903 1.9938 0.589482 0.227665 1.9636
          0.520411 0.143817 -0.00516023 0.600665 0.140251 -0.22772
          0.684195 0.149966 -0.00656958 0.666764 0.142636 -0.158079
          0.535403 0.202873 1.41079 0.491887 0.204341 1.55134
          0.553382 0.208726 1.55042 0.690279 0.214152 1.44669
          0.0829014 -0.0282544 -0.0540615 0.0902995 -0.0196342 -0.0267296
          0.0356243 -0.0169741 -0.0342029 0.0519787 -0.0134986 -0.00942474
          0.364843 0.200645 1.94868 0.279451 0.199044 1.96301
          0.268785 0.212902 1.90147 0.280536 0.198948 1.94003
          -0.05098 -0.00222087 -0.02854 -0.0579892 0.00142708 -0.0394255
          -0.0148586 -0.00274295 -0.0245388 -0.0144841 0.000148197 -0.0285603
          0.185334 -0.00195267 -1.08471 0.194464 -0.00870049 -1.02577
          0.17137 -0.00547832 -1.04012 0.129918 -0.0092143 -1.0239
          0.377788 0.0443525 -0.963537 0.304318 0.0314598 -1.01045
          0.270998 0.0410123 -0.998166 0.304287 0.0480379 -1.00984
          0.22557 -0.000403006 -1.0551 0.168965 -0.00515665 -1.0663
          0.173041 -0.00280863 -1.09202 0.211839 0.00640367 -1.08357
          0.0256823 -0.00354785 -0.929701 -0.033664 0.00291065 -0.906916
          -0.0584268 -0.00413948 -0.841123 0.0353563 0.00122208 -0.86422
          0.424412 0.120747 0.0174048 0.28116 0.113647 -0.106809
          0.307201 0.123835 0.0687832 0.484097 0.122155 -0.0630469
          0.0714426 0.0506437 -0.980392 0.123689 0.0542317 -0.925889
          0.0758894 0.0556241 -0.975666 0.13712 0.0459501 -1.00016
          0.105195 -0.00802552 -0.266652 0.113962 -0.0013081 -0.194325
          0.201181 -0.00575203 -0.283796 0.187575 0.00581802 -0.251084
          0.0845877 -0.0255065 -0.751434 0.183531 -0.02037 -0.75319
          0.16914 -0.0179375 -0.857877 0.117074 -0.0194202 -0.800314
          0.153728 0.181466 1.28935 0.261654 0.180809 1.21446
          0.163265 0.169482 1.05637 0.166401 0.179047 1.13145
          0.438328 0.0812215 -0.897867 0.421482 0.0973892 -0.84509
          0.344774 0.0734123 -0.938354 0.477897 0.0912087 -0.814626
          0.631716 0.207156 1.76701 0.62833 0.215461 1.78832
          0.522544 0.209758 1.82278 0.645948 0.213288 1.70657
          0.374364 0.188654 1.22074 0.261654 0.180809 1.21446
          0.245913 0.189513 1.4291 0.153728 0.181466 1.28935
          0.383928 0.195509 1.93412 0.451908 0.205792 1.91859
          0.37796 0.1901 1.89347 0.461908 0.207616 1.89904
          0.383928 0.195509 1.93412 0.385207 0.197499 1.95846
          0.37796 0.1901 1.89347 0.451908 0.205792 1.91859
          -0.0401972 -0.0186737 -0.295772 -0.128186 -0.0211097 -0.310567
          -0.0658888 -0.0192985 -0.331415 -0.122225 -0.0168075 -0.28944
          0.483334 0.195034 1.26309 0.376293 0.185483 1.21542
          0.261654 0.180809 1.21446 0.374364 0.188654 1.22074
          0.586206 0.198766 1.24339 0.374364 0.188654 1.22074
          0.482423 0.197254 1.34396 0.441927 0.190179 1.14735
          0.374364 0.188654 1.22074 0.404649 0.196522 1.41683
          0.482423 0.197254 1.34396 0.356278 0.194339 1.30124
          0.196263 0.0293345 -1.09673 0.217644 0.0373622 -1.05651
          0.171435 0.0306672 -1.08531 0.169675 0.0299189 -1.08729
          0.267912 0.193391 2.06131 0.222369 0.164522 2.12041
          0.338076 0.210966 2.13269 0.305763 0.193747 2.10138
          0.349891 0.19974 1.53891 0.245913 0.189513 1.4291
          0.276521 0.195515 1.38913 0.404649 0.196522 1.41683
          0.411463 0.0864855 -0.395732 0.273244 0.100067 -0.260464
          0.409685 0.106138 -0.277549 0.276125 0.0947165 -0.379639
          0.345308 0.152407 0.481869 0.189242 0.142522 0.483109
          0.318274 0.14137 0.291124 0.374349 0.146448 0.377404
          0.542691 0.172558 0.701274 0.477178 0.161787 0.54982
          0.522672 0.172355 0.662797 0.705183 0.183313 0.70671
          0.542691 0.172558 0.701274 0.329965 0.158701 0.681063
          0.4665 0.174973 0.832093 0.477178 0.161787 0.54982
          0.118225 -0.016529 -0.643321 0.193335 -0.0140792 -0.680673
          0.187113 -0.0166802 -0.683439 0.187662 -0.015708 -0.769458
          -0.0115162 -0.00567168 -0.051575 0.00765813 -0.00792034 -0.0270135
          0.028315 -0.0144495 -0.0665337 0.0100932 -0.00802936 -0.0535907
          -0.0115162 -0.00567168 -0.051575 0.00486405 -0.0137133 -0.10608
          0.0100932 -0.00802936 -0.0535907 0.028315 -0.0144495 -0.0665337
          0.105195 -0.00802552 -0.266652 0.141866 -0.00647079 -0.337935
          0.104284 -0.0136701 -0.371997 0.0327665 -0.0135779 -0.313497
          0.19703 -0.0117658 -0.773249 0.206243 -0.0142357 -0.811176
          0.193335 -0.0140792 -0.680673 0.117498 -0.0127052 -0.774123
          0.183164 -0.0170671 -0.589371 0.187113 -0.0166802 -0.683439
          0.269356 -0.0163645 -0.701896 0.262477 -0.0189119 -0.593392
          0.113519 0.179696 1.65371 0.0960629 0.183963 1.57344
          0.133766 0.196158 1.68813 0.217421 0.188552 1.6753
          0.0853681 -0.0229088 -0.641772 -0.0365529 -0.0262545 -0.615241
          0.048454 -0.0268886 -0.585892 -0.0168768 -0.0233283 -0.525649
          0.486593 0.117221 -0.379886 0.348836 0.102855 -0.459932
          0.432143 0.100045 -0.469631 0.492783 0.111952 -0.323366
          0.509965 0.214157 2.04142 0.480039 0.211585 2.11979
          0.463114 0.205583 2.00861 0.390222 0.200457 2.03097
          0.521873 0.106124 -0.181104 0.411463 0.0864855 -0.395732
          0.409685 0.106138 -0.277549 0.530506 0.0929514 -0.325622
          -0.0126816 -0.00885974 -0.0401906 -0.0382728 -0.0119119 -0.0861697
          -0.0240264 -0.0123724 -0.0492764 0.00316235 -0.00774175 -0.084285
          0.334286 0.120649 -0.0685765 0.177901 0.122751 0.105101
          0.326886 0.131137 0.105877 0.13459 0.111976 -0.0718907
          0.376293 0.185483 1.21542 0.37001 0.190326 1.4178
          0.347512 0.182185 1.38557 0.473613 0.191655 1.24082
          0.245953 0.0105992 -1.09164 0.195749 -0.00968941 -1.11628
          0.197806 0.00805325 -1.12213 0.18286 0.00239008 -1.10851
          0.0127683 -0.0225709 -0.775399 0.00945855 -0.0154396 -0.791267
          0.08759 -0.0181695 -0.700148 0.096068 -0.0160099 -0.794129
          0.332843 0.0408597 -1.02195 0.304318 0.0314598 -1.01045
          0.304287 0.0480379 -1.00984 0.247711 0.0274887 -1.06388
          0.163265 0.169482 1.05637 0.364277 0.178104 1.03208
          0.170346 0.164995 1.04243 0.224316 0.165267 0.860861
          0.096068 -0.0160099 -0.794129 0.15297 -0.0190904 -0.707837
          0.117074 -0.0194202 -0.800314 0.185367 -0.0164986 -0.811141
          0.0971336 -0.00259998 -1.06633 0.0771644 0.0116483 -1.06883
          0.118271 0.00736987 -1.08369 0.118354 0.00659017 -1.09692
          0.328671 0.0418834 -0.942546 0.270998 0.0410123 -0.998166
          0.253697 0.0323901 -0.985347 0.239659 0.0461789 -0.951595
          0.237915 0.172735 1.23496 0.376293 0.185483 1.21542
          0.347512 0.182185 1.38557 0.473613 0.191655 1.24082
          0.268413 0.19547 2.02507 0.317265 0.193703 1.98205
          0.279451 0.199044 1.96301 0.280936 0.193837 2.04554
          -0.128932 -0.0248542 -0.459665 -0.12508 -0.0269195 -0.560752
          -0.12951 -0.024821 -0.478517 -0.0818359 -0.0274569 -0.533937
          0.0389992 -0.0231358 -0.956961 0.0169673 -0.0315692 -0.881613
          0.0555938 -0.0190831 -0.895268 -0.000164951 -0.0258844 -0.847736
          0.521873 0.106124 -0.181104 0.530506 0.0929514 -0.325622
          0.409685 0.106138 -0.277549 0.61602 0.105454 -0.239155
          0.548184 0.208722 1.91561 0.501687 0.207959 1.94509
          0.550847 0.21194 1.99431 0.452807 0.202837 1.95211
          0.257413 0.0399649 -1.08953 0.219527 0.0205329 -1.10211
          0.25696 0.0301693 -1.08253 0.228412 0.0286129 -1.10666
          0.240274 0.217295 1.83279 0.270667 0.21001 1.87832
          0.334915 0.211659 1.88336 0.268785 0.212902 1.90147
          0.0549394 -0.024593 -0.318496 0.0390515 -0.02144 -0.216222
          0.105429 -0.0278619 -0.280035 0.0486358 -0.0214736 -0.314918
          0.177901 0.122751 0.105101 0.113661 0.130721 0.288513
          0.257122 0.135619 0.303109 0.318274 0.14137 0.291124
          0.349891 0.19974 1.53891 0.276521 0.195515 1.38913
          0.382239 0.19942 1.44473 0.404649 0.196522 1.41683
          0.0463607 0.175677 1.37031 0.153728 0.181466 1.28935
          0.202133 0.177184 1.37992 0.149429 0.170536 1.21814
          0.230411 0.202424 1.92573 0.301902 0.190563 2.02495
          0.19858 0.209082 1.9791 0.218066 0.195464 2.02504
          0.16328 0.00682162 -1.12711 0.175656 0.012652 -1.13595
          0.169372 0.0112354 -1.1349 0.180128 0.0144698 -1.13421
          0.157308 0.0350187 -1.04742 0.0954567 0.0390706 -1.02908
          0.117393 0.0308707 -1.07992 0.136467 0.0366424 -1.05661
          0.496235 0.208476 1.73139 0.516936 0.212012 1.83282
          0.399897 0.204163 1.81379 0.387594 0.201059 1.81382
          0.257122 0.135619 0.303109 0.0887269 0.13043 0.360895
          0.16556 0.134608 0.433358 0.189242 0.142522 0.483109
          -0.0482987 -0.0104118 -0.135516 -0.0365595 -0.00573392 -0.0808166
          -0.0320968 -0.00669586 -0.096908 0.00486405 -0.0137133 -0.10608
          0.0223666 0.115204 0.0326147 0.0844691 0.105919 -0.143068
          0.195909 0.124021 0.0195096 0.128655 0.112603 -0.0840872
          0.193318 0.0234298 -1.13418 0.180128 0.0144698 -1.13421
          0.180506 0.0179277 -1.13799 0.204545 0.0286583 -1.12534
          0.209269 0.143736 1.78898 0.147001 0.139934 1.64599
          0.155598 0.132588 1.77496 0.206569 0.161767 1.63429
          0.247711 0.0274887 -1.06388 0.208914 0.0286063 -1.0707
          0.186348 0.0218384 -1.10846 0.23176 0.0157621 -1.09497
          0.477379 0.178653 0.833553 0.407349 0.167289 0.652838
          0.576506 0.177642 0.668802 0.522672 0.172355 0.662797
          -0.0481754 0.101567 -0.142666 0.13459 0.111976 -0.0718907
          -0.0568878 0.101842 -0.151099 0.0804092 0.101522 -0.223941
          0.188444 -0.00778189 -1.02334 0.121469 -0.0144557 -1.02135
          0.165532 -0.00924211 -1.03094 0.145625 -0.00790975 -1.06445
          0.113661 0.130721 0.288513 0.0917604 0.139724 0.490675
          0.189242 0.142522 0.483109 0.195943 0.145332 0.453197
          0.195952 0.0179985 -1.12406 0.188625 0.0125997 -1.1077
          0.206879 0.0273064 -1.10803 0.219527 0.0205329 -1.10211
          0.276521 0.195515 1.38913 0.245913 0.189513 1.4291
          0.300169 0.205092 1.53596 0.17973 0.197213 1.44533
          0.119924 0.137646 0.352982 -0.0342884 0.120438 0.180975
          0.128974 0.130461 0.187026 0.112681 0.128374 0.196126
          0.183085 0.00551842 -1.13081 0.197736 0.00453341 -1.11451
          0.215759 -0.00416399 -1.10589 0.184506 0.00171474 -1.10889
          0.129881 0.0190457 -1.08765 0.106339 0.029652 -1.04331
          0.173956 0.0310747 -1.07793 0.160795 0.0354946 -1.04283
          0.128366 0.144338 0.653264 0.044791 0.133985 0.562318
          0.237981 0.148473 0.653257 0.0477449 0.14016 0.746838
          0.173 0.00588326 -1.11985 0.211839 0.00640367 -1.08357
          0.195515 0.00872119 -1.11504 0.173041 -0.00280863 -1.09202
          0.173 0.00588326 -1.11985 0.211839 0.00640367 -1.08357
          0.173041 -0.00280863 -1.09202 0.168965 -0.00515665 -1.0663
          0.18286 0.00239008 -1.10851 0.179546 -0.00518367 -1.12862
          0.197806 0.00805325 -1.12213 0.153867 -0.00790509 -1.11263
          0.236272 -0.00297843 -1.01559 0.250899 -0.00758936 -0.953821
          0.248905 -0.00813331 -0.987972 0.201734 -0.00779991 -1.01235
          0.166518 0.00346835 -1.12287 0.173041 -0.00280863 -1.09202
          0.184506 0.00171474 -1.10889 0.158522 0.00273212 -1.11049
          -0.0284574 -0.0153834 -0.248114 -0.0209055 -0.0143869 -0.281814
          -0.0185362 -0.0123417 -0.194536 0.0209038 -0.00974771 -0.210131
          0.576506 0.177642 0.668802 0.526269 0.182344 0.807915
          0.654031 0.187533 0.78162 0.542112 0.173101 0.58157
          -0.00718751 -0.0210012 -0.361431 -0.0401972 -0.0186737 -0.295772
          0.0509295 -0.0182737 -0.380621 -0.0538186 -0.0201853 -0.381395
          0.620367 0.233462 1.82271 0.549512 0.222453 1.80015
          0.526642 0.217164 1.86394 0.499489 0.20972 1.78754
          0.520411 0.143817 -0.00516023 0.600665 0.140251 -0.22772
          0.666764 0.142636 -0.158079 0.48131 0.134091 -0.161167
          0.344774 0.0734123 -0.938354 0.392657 0.0753856 -0.971224
          0.337729 0.0622297 -0.971894 0.341916 0.079455 -0.982387
          0.387594 0.201059 1.81382 0.299638 0.182033 1.71781
          0.41749 0.201144 1.6896 0.395388 0.191512 1.71781
          -0.103051 -0.02635 -0.700307 -0.0331069 -0.0207408 -0.7108
          -0.109993 -0.0199922 -0.657779 -0.111952 -0.0240078 -0.643506
          -0.0365529 -0.0262545 -0.615241 -0.111952 -0.0240078 -0.643506
          -0.122119 -0.0235412 -0.572695 -0.0443746 -0.0202338 -0.606738
          0.345308 0.152407 0.481869 0.195943 0.145332 0.453197
          0.189242 0.142522 0.483109 0.0917604 0.139724 0.490675
          0.616494 0.228263 1.82752 0.526642 0.217164 1.86394
          0.599127 0.22786 1.89649 0.603631 0.223803 1.88582
          -0.0953438 -0.016709 -0.120506 -0.108758 -0.0168716 -0.179429
          -0.102932 -0.0223742 -0.141753 -0.0277683 -0.0134212 -0.149544
          0.237915 0.172735 1.23496 0.37001 0.190326 1.4178
          0.347512 0.182185 1.38557 0.376293 0.185483 1.21542
          0.0209038 -0.00974771 -0.210131 -0.0284574 -0.0153834 -0.248114
          -0.0607624 -0.0176287 -0.188494 -0.0185362 -0.0123417 -0.194536
          0.153728 0.181466 1.28935 0.166401 0.179047 1.13145
          0.308892 0.185216 1.1614 0.261654 0.180809 1.21446
          0.581837 0.210988 1.42249 0.697242 0.21442 1.29245
          0.552352 0.201884 1.33583 0.675159 0.226764 1.51115
          0.236193 0.163352 1.23858 0.345197 0.178077 1.18186
          0.237915 0.172735 1.23496 0.347512 0.182185 1.38557
          0.20449 0.1161 0.00797098 0.0436386 0.112423 0.0435163
          0.068297 0.121898 0.190096 0.177901 0.122751 0.105101
          0.0700022 -0.0189528 -1.04155 0.0682129 -0.00638178 -1.0176
          0.0971336 -0.00259998 -1.06633 0.0348273 -0.00834823 -1.03009
          0.364277 0.178104 1.03208 0.477379 0.178653 0.833553
          0.509302 0.18922 1.04712 0.564165 0.19024 1.0193
          0.208709 0.154096 0.550593 0.211578 0.144846 0.361071
          0.339227 0.15615 0.491304 0.121136 0.145829 0.514661
          0.203472 -0.0139074 -0.880859 0.187662 -0.015708 -0.769458
          0.206243 -0.0142357 -0.811176 0.16486 -0.0132007 -0.873521
          -0.127933 -0.0196322 -0.359668 -0.0449147 -0.0230668 -0.390274
          -0.052492 -0.0226985 -0.433246 -0.0658888 -0.0192985 -0.331415
          0.15145 0.0745346 -0.685354 0.225286 0.0686452 -0.746878
          0.268257 0.0661042 -0.699179 0.178872 0.0606546 -0.845006
          0.0108537 -0.0216076 -0.447808 0.0509295 -0.0182737 -0.380621
          0.0578659 -0.018722 -0.485896 -0.0382095 -0.0203499 -0.467039
          0.0098671 -0.0137665 -0.188363 0.0279292 -0.0130824 -0.150911
          0.0774893 -0.0166292 -0.179655 0.0540416 -0.00937549 -0.175074
          0.105915 -0.00932992 -0.868497 0.110876 -0.00244741 -0.920145
          0.188761 -0.0117274 -0.865373 0.138454 -0.0082111 -0.93618
          0.399113 0.201668 1.96815 0.395929 0.200623 1.90057
          0.282637 0.191383 1.93899 0.315947 0.196592 1.90816
          0.0771466 -0.0128792 -0.667253 0.0844988 -0.00990728 -0.605686
          0.16105 -0.0100386 -0.662766 0.105463 -0.00918275 -0.727052
          0.477379 0.178653 0.833553 0.526269 0.182344 0.807915
          0.566235 0.187544 0.910491 0.576506 0.177642 0.668802
          -0.0326251 0.140955 0.857926 0.186008 0.158359 0.964154
          0.112514 0.149711 0.813037 -0.0194793 0.147898 0.977767
          0.118354 0.00659017 -1.09692 0.0811437 -0.0025162 -1.07377
          0.145661 0.00531314 -1.11313 0.130874 -0.00297278 -1.10678
          0.186348 0.0218384 -1.10846 0.17471 0.0103553 -1.13275
          0.207377 0.0208321 -1.10963 0.197806 0.00805325 -1.12213
          0.23471 0.0431356 -1.07046 0.280415 0.0522078 -1.06675
          0.238887 0.0380659 -1.09393 0.235505 0.0465084 -1.10819
          0.260676 0.172941 1.9455 0.21655 0.170417 2.02853
          0.282072 0.186107 1.95795 0.210866 0.172476 1.96248
          0.247082 -0.00262737 -1.09337 0.235742 0.0082428 -1.0865
          0.23176 0.0157621 -1.09497 0.208434 0.00138132 -1.11463
          0.217546 0.0982124 -0.384524 0.416411 0.116529 -0.262841
          0.348836 0.102855 -0.459932 0.286155 0.107829 -0.323724
          0.201734 -0.00779991 -1.01235 0.248905 -0.00813331 -0.987972
          0.194464 -0.00870049 -1.02577 0.188752 -0.0119074 -0.967376
          0.328671 0.0418834 -0.942546 0.24366 0.0311635 -1.03462
          0.304318 0.0314598 -1.01045 0.253697 0.0323901 -0.985347
          0.193506 0.157546 1.98437 0.282072 0.186107 1.95795
          0.311359 0.19366 2.00681 0.193506 0.157546 1.98437
          0.270875 -0.0148438 -0.866727 0.274181 -0.0149544 -0.750283
          0.261416 -0.0148291 -0.852965 0.206243 -0.0142357 -0.811176
          0.206243 -0.0142357 -0.811176 0.274841 -0.0128614 -0.74517
          0.261416 -0.0148291 -0.852965 0.19703 -0.0117658 -0.773249
          0.430173 0.0406597 -0.862268 0.328671 0.0418834 -0.942546
          0.368133 0.0290652 -0.963905 0.348094 0.0296688 -0.936452
          0.0675574 -0.0172296 -0.103565 0.0758476 -0.0272059 -0.0749921
          0.0644315 -0.0164299 -0.0698736 0.028315 -0.0144495 -0.0665337
          0.0348273 -0.00834823 -1.03009 0.0682129 -0.00638178 -1.0176
          0.0971336 -0.00259998 -1.06633 0.0346219 0.00470713 -1.02314
          0.206569 0.161767 1.63429 0.0458227 0.142413 1.4792
          0.0561909 0.158821 1.45466 0.172868 0.153489 1.50407
          0.195952 0.0179985 -1.12406 0.17471 0.0103553 -1.13275
          0.207377 0.0208321 -1.10963 0.20182 0.0253005 -1.11961
          0.0665477 -0.0233217 -0.48275 0.0470043 -0.0228191 -0.395565
          0.0536057 -0.025715 -0.403315 0.152232 -0.0233181 -0.476973
          0.173 0.00588326 -1.11985 0.173041 -0.00280863 -1.09202
          0.141749 -0.00792323 -1.10374 0.168965 -0.00515665 -1.0663
          0.0185148 -0.0145913 -0.704614 0.00945855 -0.0154396 -0.791267
          -0.0897965 -0.0172937 -0.75591 -0.0854006 -0.00804012 -0.75767
          -0.0327653 -0.0170453 -0.262145 -0.0681067 -0.0183736 -0.314081
          -0.0658888 -0.0192985 -0.331415 -0.00765868 -0.0207847 -0.286805
          0.280536 0.198948 1.94003 0.19858 0.209082 1.9791
          0.279451 0.199044 1.96301 0.230411 0.202424 1.92573
          0.290634 0.0679208 -1.00623 0.286476 0.052365 -1.03123
          0.344774 0.0734123 -0.938354 0.245796 0.0542283 -1.01114
          -0.130573 -0.0210149 -0.461085 -0.0161619 -0.0175454 -0.372721
          -0.0454728 -0.0174241 -0.455721 -0.132317 -0.0205373 -0.410748
          0.344774 0.0734123 -0.938354 0.341916 0.079455 -0.982387
          0.351222 0.0854695 -0.909379 0.44975 0.100469 -0.891684
          0.290634 0.0679208 -1.00623 0.288575 0.0631171 -1.04643
          0.286476 0.052365 -1.03123 0.245796 0.0542283 -1.01114
          0.341916 0.079455 -0.982387 0.286476 0.052365 -1.03123
          0.344774 0.0734123 -0.938354 0.290634 0.0679208 -1.00623
          0.333011 0.0545899 -0.945405 0.304287 0.0480379 -1.00984
          0.278739 0.0589262 -0.949907 0.337729 0.0622297 -0.971894
          0.250628 0.081338 -0.520796 0.268257 0.0661042 -0.699179
          0.27013 0.0773494 -0.610887 0.376632 0.0687973 -0.609731
          0.339227 0.15615 0.491304 0.345308 0.152407 0.481869
          0.472775 0.161158 0.475347 0.407349 0.167289 0.652838
          0.195952 0.0179985 -1.12406 0.20182 0.0253005 -1.11961
          0.207377 0.0208321 -1.10963 0.228412 0.0286129 -1.10666
          0.139017 0.0506496 -0.867817 0.130594 0.0587253 -0.800895
          0.183089 0.0573615 -0.895068 0.207633 0.0598625 -0.876171
          0.139017 0.0506496 -0.867817 0.0560741 0.0443732 -0.867566
          0.183089 0.0573615 -0.895068 0.130594 0.0587253 -0.800895
          0.526328 0.0902544 -0.665505 0.432326 0.0870368 -0.603389
          0.336885 0.0784927 -0.737575 0.372622 0.0709968 -0.788346
          0.166518 0.00346835 -1.12287 0.17279 0.00720272 -1.12721
          0.184506 0.00171474 -1.10889 0.173041 -0.00280863 -1.09202
          0.335556 0.201341 2.04656 0.338076 0.210966 2.13269
          0.404221 0.212756 2.07781 0.335164 0.204974 2.06627
          0.130689 0.0951538 -0.354446 0.11677 0.082158 -0.49828
          0.173799 0.0876068 -0.503416 -0.00969368 0.0757089 -0.473971
          0.372622 0.0709968 -0.788346 0.258765 0.0665526 -0.86543
          0.257074 0.0669415 -0.796305 0.343916 0.0755584 -0.839382
          0.171138 0.0116209 -1.12877 0.152229 0.0117325 -1.11972
          0.180506 0.0179277 -1.13799 0.172442 0.00860304 -1.13067
          0.432326 0.0870368 -0.603389 0.526328 0.0902544 -0.665505
          0.555583 0.106463 -0.608938 0.575595 0.0982457 -0.520837
          0.0127683 -0.0225709 -0.775399 -0.0840805 -0.0231921 -0.77883
          -0.0801759 -0.0285786 -0.792856 -0.0303082 -0.027155 -0.714006
          0.539956 0.186254 0.988245 0.709038 0.196187 0.93758
          0.578245 0.183818 0.83647 0.564165 0.19024 1.0193
          -0.0115162 -0.00567168 -0.051575 0.00765813 -0.00792034 -0.0270135
          -0.0148586 -0.00274295 -0.0245388 -0.0144841 0.000148197 -0.0285603
          0.709794 0.178071 0.568122 0.712817 0.175067 0.48361
          0.576506 0.177642 0.668802 0.721043 0.181619 0.578553
          0.215453 0.0337856 -1.12044 0.228727 0.046858 -1.13087
          0.204545 0.0349354 -1.14484 0.218194 0.039635 -1.13003
          -0.0117854 -0.00191015 -0.0371014 0.0140221 -0.0136444 -0.0704409
          -0.0115162 -0.00567168 -0.051575 0.00765813 -0.00792034 -0.0270135
          0.260676 0.172941 1.9455 0.210866 0.172476 1.96248
          0.282072 0.186107 1.95795 0.21495 0.157538 1.917
          0.125349 -0.031823 -0.104373 0.0758476 -0.0272059 -0.0749921
          0.111257 -0.0260218 -0.0822399 0.0675574 -0.0172296 -0.103565
          0.169153 0.0211548 -1.10787 0.129881 0.0190457 -1.08765
          0.173956 0.0310747 -1.07793 0.167174 0.0257106 -1.09011
          0.139282 -0.0208527 -0.568469 0.15721 -0.0181165 -0.470608
          0.0665477 -0.0233217 -0.48275 0.152232 -0.0233181 -0.476973
          0.128974 0.130461 0.187026 0.261534 0.137069 0.167727
          0.279769 0.140479 0.25432 0.112681 0.128374 0.196126
          0.538118 0.159808 0.49707 0.542691 0.172558 0.701274
          0.63083 0.166766 0.558058 0.697082 0.177494 0.642558
          0.166462 0.00518771 -1.12544 0.17471 0.0103553 -1.13275
          0.197806 0.00805325 -1.12213 0.195952 0.0179985 -1.12406
          0.273244 0.100067 -0.260464 0.17425 0.103817 -0.236551
          0.0983943 0.103903 -0.1821 0.28116 0.113647 -0.106809
          0.215759 -0.00416399 -1.10589 0.232606 -0.00658906 -1.06714
          0.19541 -0.00381637 -1.08441 0.185334 -0.00195267 -1.08471
          0.248905 -0.00813331 -0.987972 0.201734 -0.00779991 -1.01235
          0.238917 -0.00579035 -1.0335 0.22557 -0.000403006 -1.0551
          0.505427 0.147666 0.375367 0.538118 0.159808 0.49707
          0.63083 0.166766 0.558058 0.692943 0.167956 0.489621
          -0.0115162 -0.00567168 -0.051575 0.0140221 -0.0136444 -0.0704409
          0.00486405 -0.0137133 -0.10608 0.028315 -0.0144495 -0.0665337
          0.0450981 0.00208091 -0.0389618 0.0752352 -0.00582282 -0.0580352
          0.0222848 -0.00558348 -0.0278639 0.0514415 -0.00199443 -0.0580778
          0.244901 -0.0225574 -0.460818 0.170921 -0.0275196 -0.439577
          0.251856 -0.0261606 -0.495461 0.238033 -0.0270216 -0.40716
          0.0360046 -0.0165645 -0.266146 0.0774893 -0.0166292 -0.179655
          0.116656 -0.0213041 -0.272863 0.113946 -0.0122499 -0.222739
          0.151547 0.002157 -1.08222 0.118271 0.00736987 -1.08369
          0.171138 0.0116209 -1.12877 0.152229 0.0117325 -1.11972
          0.08759 -0.0181695 -0.700148 0.187113 -0.0166802 -0.683439
          0.15297 -0.0190904 -0.707837 0.187662 -0.015708 -0.769458
          0.388864 0.195535 2.04031 0.373512 0.195207 2.01143
          0.268413 0.19547 2.02507 0.280936 0.193837 2.04554
          0.48037 0.206131 1.89605 0.610188 0.213279 1.85818
          0.548184 0.208722 1.91561 0.501687 0.207959 1.94509
          0.550847 0.21194 1.99431 0.524651 0.210655 2.04711
          0.587098 0.215487 2.08402 0.509731 0.207944 2.04718
          0.424412 0.120747 0.0174048 0.28116 0.113647 -0.106809
          0.384774 0.108005 -0.146912 0.20449 0.1161 0.00797098
          0.206243 -0.0142357 -0.811176 0.19703 -0.0117658 -0.773249
          0.188761 -0.0117274 -0.865373 0.122618 -0.00782457 -0.823936
          0.0845378 0.147411 0.941905 0.186008 0.158359 0.964154
          0.131058 0.158108 1.10918 0.238844 0.162658 1.06277
          0.325379 0.126608 -0.0892965 0.339176 0.123145 -0.0956363
          0.465816 0.133938 -0.0723265 0.317615 0.133859 0.0941603
          0.00586034 0.0936913 -0.408731 0.0886722 0.0972271 -0.326607
          0.147113 0.0900758 -0.449962 -0.0370501 0.0890911 -0.462169
          0.40147 0.202094 1.56307 0.40384 0.206217 1.66463
          0.349891 0.19974 1.53891 0.491887 0.204341 1.55134
          -0.0365595 -0.00573392 -0.0808166 -0.0547892 0.00314345 -0.0505998
          -0.0144841 0.000148197 -0.0285603 -0.0726572 -0.00236831 -0.0718477
          0.185367 -0.0164986 -0.811141 0.26285 -0.0130069 -0.876853
          0.203472 -0.0139074 -0.880859 0.269312 -0.0158084 -0.790747
          0.672307 0.142273 0.106764 0.484097 0.122155 -0.0630469
          0.500981 0.133764 0.025035 0.657557 0.130487 -0.0379752
          0.209269 0.143736 1.78898 0.299638 0.182033 1.71781
          0.155598 0.132588 1.77496 0.269246 0.161112 1.88195
          0.521873 0.106124 -0.181104 0.384774 0.108005 -0.146912
          0.409685 0.106138 -0.277549 0.411463 0.0864855 -0.395732
          0.254776 -0.0120806 -0.974703 0.245603 -0.0133778 -1.02696
          0.238917 -0.00579035 -1.0335 0.194464 -0.00870049 -1.02577
          0.0855231 0.00918058 -1.04601 0.0508581 0.018267 -1.0146
          0.120011 0.0152541 -1.07142 0.114495 0.0252058 -1.087
          0.325688 0.148226 0.386022 0.517372 0.152084 0.282314
          0.472775 0.161158 0.475347 0.345308 0.152407 0.481869
          -0.0144841 0.000148197 -0.0285603 -0.0547892 0.00314345 -0.0505998
          -0.0579892 0.00142708 -0.0394255 -0.0726572 -0.00236831 -0.0718477
          0.20182 0.0253005 -1.11961 0.204545 0.0286583 -1.12534
          0.193318 0.0234298 -1.13418 0.215453 0.0337856 -1.12044
          0.500108 0.0770506 -0.481701 0.411463 0.0864855 -0.395732
          0.591099 0.0927801 -0.384602 0.368363 0.0880234 -0.492427
          0.178948 0.0060033 -1.13028 0.175656 0.012652 -1.13595
          0.172928 0.0182889 -1.13082 0.167554 0.01164 -1.12899
          -0.122119 -0.0235412 -0.572695 -0.12951 -0.024821 -0.478517
          -0.0168768 -0.0233283 -0.525649 -0.0382095 -0.0203499 -0.467039
          0.136467 0.0366424 -1.05661 0.0954567 0.0390706 -1.02908
          0.0714426 0.0506437 -0.980392 0.13712 0.0459501 -1.00016
          0.221732 -0.0110052 -0.922852 0.250899 -0.00758936 -0.953821
          0.236272 -0.00297843 -1.01559 0.188444 -0.00778189 -1.02334
          0.0893929 -0.023841 -1.08672 0.0577682 -0.0281423 -1.02948
          0.111914 -0.0174845 -1.05123 0.0700022 -0.0189528 -1.04155
          0.317615 0.133859 0.0941603 0.520411 0.143817 -0.00516023
          0.560566 0.146458 0.0640076 0.465816 0.133938 -0.0723265
          0.294959 0.204801 1.7903 0.196196 0.1941 1.84397
          0.270667 0.21001 1.87832 0.165846 0.208743 1.78842
          -0.0131994 0.152042 0.931257 -0.0229897 0.146215 0.749164
          0.12317 0.154811 0.798318 -0.0285253 0.143236 0.763847
          0.475228 0.212726 1.96844 0.457526 0.215988 2.03787
          0.565696 0.22903 1.9938 0.542081 0.226308 2.06513
          0.461908 0.207616 1.89904 0.399113 0.201668 1.96815
          0.475228 0.212726 1.96844 0.508874 0.214006 1.95539
          0.311949 0.159912 0.662099 0.407349 0.167289 0.652838
          0.171797 0.154438 0.655168 0.346798 0.170757 0.800478
          0.178216 -0.0244722 -0.612851 0.255679 -0.0244262 -0.591251
          0.229013 -0.0198355 -0.706495 0.267072 -0.0190794 -0.684281
          0.328671 0.0418834 -0.942546 0.270998 0.0410123 -0.998166
          0.304318 0.0314598 -1.01045 0.24366 0.0311635 -1.03462
          0.0566149 0.0415331 -0.855794 0.130594 0.0587253 -0.800895
          0.139017 0.0506496 -0.867817 0.0768571 0.0522908 -0.774606
          -0.0840805 -0.0231921 -0.77883 -0.103051 -0.02635 -0.700307
          -0.0801759 -0.0285786 -0.792856 -0.0303082 -0.027155 -0.714006
          0.270667 0.21001 1.87832 0.280536 0.198948 1.94003
          0.334915 0.211659 1.88336 0.268785 0.212902 1.90147
          0.327201 0.179018 1.03886 0.364277 0.178104 1.03208
          0.163265 0.169482 1.05637 0.224316 0.165267 0.860861
          0.163265 0.169482 1.05637 0.170346 0.164995 1.04243
          0.00285029 0.158127 1.12293 -0.0131994 0.152042 0.931257
          0.645948 0.213288 1.70657 0.496235 0.208476 1.73139
          0.495762 0.206714 1.74814 0.542925 0.207163 1.63277
          0.27013 0.0773494 -0.610887 0.268257 0.0661042 -0.699179
          0.351173 0.074105 -0.680571 0.376632 0.0687973 -0.609731
          0.45466 0.0726495 -0.847837 0.372622 0.0709968 -0.788346
          0.480373 0.0621636 -0.760049 0.492079 0.0833424 -0.762226
          0.167554 0.01164 -1.12899 0.175656 0.012652 -1.13595
          0.172928 0.0182889 -1.13082 0.169372 0.0112354 -1.1349
          0.472775 0.161158 0.475347 0.572815 0.164404 0.469028
          0.712817 0.175067 0.48361 0.709794 0.178071 0.568122
          0.48131 0.134091 -0.161167 0.600665 0.140251 -0.22772
          0.666764 0.142636 -0.158079 0.520384 0.12941 -0.212325
          0.195518 0.107239 -0.222251 0.286155 0.107829 -0.323724
          0.130689 0.0951538 -0.354446 0.237825 0.113705 -0.173142
          0.149429 0.170536 1.21814 0.261654 0.180809 1.21446
          0.163265 0.169482 1.05637 0.153728 0.181466 1.28935
          0.0166565 -0.0213178 -0.651747 -0.0365529 -0.0262545 -0.615241
          0.0853681 -0.0229088 -0.641772 -0.0168768 -0.0233283 -0.525649
          0.35344 0.191337 1.57455 0.201068 0.185051 1.52316
          0.314828 0.197156 1.62844 0.245913 0.189513 1.4291
          0.17973 0.197213 1.44533 0.153728 0.181466 1.28935
          0.0565896 0.186773 1.3944 0.117193 0.187873 1.29336
          0.0752352 -0.00582282 -0.0580352 0.0222848 -0.00558348 -0.0278639
          0.0484699 -0.0108675 -0.030091 0 0 0
          -0.100392 -0.00592964 -0.151989 -0.11324 -0.0126841 -0.205618
          -0.0501823 -0.013834 -0.19697 -0.0876838 -0.00939058 -0.201846
          0.0774893 -0.0166292 -0.179655 0.166261 -0.0163788 -0.191247
          0.188511 -0.0162307 -0.249986 0.113946 -0.0122499 -0.222739
          0.110453 -0.0208346 -0.375156 0.0578659 -0.018722 -0.485896
          0.0509295 -0.0182737 -0.380621 0.15721 -0.0181165 -0.470608
          0.618914 0.118881 -0.360852 0.492783 0.111952 -0.323366
          0.432143 0.100045 -0.469631 0.603846 0.108722 -0.404598
          0.508874 0.214006 1.95539 0.474926 0.213993 2.03117
          0.475228 0.212726 1.96844 0.589482 0.227665 1.9636
          0.420039 0.179584 0.88187 0.346798 0.170757 0.800478
          0.299283 0.172557 0.858087 0.405571 0.173315 0.753173
          0.0804219 -0.014032 -0.565645 0.158259 -0.00736322 -0.539283
          0.158713 -0.0124128 -0.593162 0.0844988 -0.00990728 -0.605686
          0.0983943 0.103903 -0.1821 0.17425 0.103817 -0.236551
          0.105133 0.110602 -0.0678035 0.28116 0.113647 -0.106809
          0.522672 0.172355 0.662797 0.329965 0.158701 0.681063
          0.4665 0.174973 0.832093 0.311949 0.159912 0.662099
          0.117074 -0.0194202 -0.800314 0.117877 -0.0213928 -0.722719
          0.183531 -0.02037 -0.75319 0.205372 -0.0163374 -0.830822
          0.0700022 -0.0189528 -1.04155 0.0313912 -0.0323034 -1.04785
          0.0577682 -0.0281423 -1.02948 0.00904144 -0.0242568 -1.0025
          0.509965 0.214157 2.04142 0.390222 0.200457 2.03097
          0.461807 0.207187 1.95549 0.399113 0.201668 1.96815
          0.299053 0.0864083 -0.553598 0.277729 0.0975518 -0.410816
          0.432143 0.100045 -0.469631 0.348836 0.102855 -0.459932
          -0.0117854 -0.00191015 -0.0371014 -0.0144841 0.000148197 -0.0285603
          -0.0115162 -0.00567168 -0.051575 -0.0365595 -0.00573392 -0.0808166
          0.0771644 0.0116483 -1.06883 0.118271 0.00736987 -1.08369
          0.114495 0.0252058 -1.087 0.0855231 0.00918058 -1.04601
          -0.0168768 -0.0233283 -0.525649 0.0166565 -0.0213178 -0.651747
          -0.0443746 -0.0202338 -0.606738 0.00633645 -0.0199511 -0.543667
          0.716643 0.195296 0.903992 0.477379 0.178653 0.833553
          0.566235 0.187544 0.910491 0.721535 0.189703 0.763471
          0.236193 0.163352 1.23858 0.388683 0.182205 1.28846
          0.345197 0.178077 1.18186 0.293607 0.171942 1.3809
          -0.00718751 -0.0210012 -0.361431 -0.0401972 -0.0186737 -0.295772
          -0.0538186 -0.0201853 -0.381395 -0.0658888 -0.0192985 -0.331415
          0.17279 0.00720272 -1.12721 0.195515 0.00872119 -1.11504
          0.179579 0.0122846 -1.12692 0.176707 0.00807449 -1.12962
          0.167554 0.01164 -1.12899 0.176707 0.00807449 -1.12962
          0.178948 0.0060033 -1.13028 0.175656 0.012652 -1.13595
          0.204545 0.0286583 -1.12534 0.182059 0.0298849 -1.13052
          0.180506 0.0179277 -1.13799 0.204545 0.0349354 -1.14484
          0.204545 0.0286583 -1.12534 0.182059 0.0298849 -1.13052
          0.204545 0.0349354 -1.14484 0.228727 0.046858 -1.13087
          0.176707 0.00807449 -1.12962 0.166518 0.00346835 -1.12287
          0.183085 0.00551842 -1.13081 0.175656 0.012652 -1.13595
          0.00815519 -0.0112139 -0.565742 0.00229256 -0.0169905 -0.563079
          0.0804219 -0.014032 -0.565645 0.0470197 -0.0148555 -0.460253
          0.260676 0.172941 1.9455 0.21495 0.157538 1.917
          0.282072 0.186107 1.95795 0.269246 0.161112 1.88195
          0.247711 0.0274887 -1.06388 0.235742 0.0082428 -1.0865
          0.278414 0.0118281 -1.0665 0.296311 0.00918623 -1.04173
          0.549512 0.222453 1.80015 0.458089 0.203362 1.84714
          0.526642 0.217164 1.86394 0.499489 0.20972 1.78754
          0.564528 0.133583 0.140069 0.424412 0.120747 0.0174048
          0.376157 0.134811 0.252378 0.520946 0.131935 0.0779313
          0.0463607 0.175677 1.37031 0.0171941 0.169817 1.175
          0.153728 0.181466 1.28935 0.149429 0.170536 1.21814
          0.151547 0.002157 -1.08222 0.17137 -0.00547832 -1.04012
          0.19541 -0.00381637 -1.08441 0.172972 3.67282e-05 -1.0698
          0.0540416 -0.00937549 -0.175074 0.0098671 -0.0137665 -0.188363
          0.0130412 -0.00728572 -0.143159 0.0209038 -0.00974771 -0.210131
          0.206569 0.161767 1.63429 0.172868 0.153489 1.50407
          0.0561909 0.158821 1.45466 0.252819 0.174978 1.51462
          0.0740804 -0.0196889 -0.590591 0.15297 -0.0190904 -0.707837
          0.118225 -0.016529 -0.643321 0.187113 -0.0166802 -0.683439
          0.105133 0.110602 -0.0678035 -0.0687295 0.107069 -0.0607881
          -0.0655243 0.111919 0.0879617 -0.0565269 0.110644 0.0352962
          0.157544 0.0198756 -1.12909 0.154597 0.0268177 -1.11213
          0.164869 0.0206331 -1.12188 0.170804 0.0193801 -1.12604
          0.283203 0.18814 1.84313 0.18332 0.150667 1.79197
          0.234576 0.164884 1.9288 0.166313 0.182704 1.76022
          0.112681 0.128374 0.196126 0.195909 0.124021 0.0195096
          0.261534 0.137069 0.167727 0.317615 0.133859 0.0941603
          -0.108082 -0.0140942 -0.171628 -0.0950276 -0.0100972 -0.12574
          -0.0354252 -0.0123842 -0.100673 -0.0953438 -0.016709 -0.120506
          0.0983943 0.103903 -0.1821 0.105133 0.110602 -0.0678035
          0.0436386 0.112423 0.0435163 0.20449 0.1161 0.00797098
          0.150219 0.0219777 -1.11042 0.145661 0.00531314 -1.11313
          0.125307 0.0114024 -1.09595 0.176476 0.0148389 -1.10969
          -0.0557656 -0.0116304 -0.863214 0.0256823 -0.00354785 -0.929701
          -0.0584268 -0.00413948 -0.841123 0.0547873 -0.00956248 -0.875966
          0.173799 0.0876068 -0.503416 0.117851 0.0788018 -0.593398
          0.188323 0.0883993 -0.510283 0.108892 0.0931933 -0.375589
          0.153867 -0.00790509 -1.11263 0.139827 -0.00620229 -1.11706
          0.159927 0.00494235 -1.10631 0.130043 -0.00557288 -1.10149
          0.616494 0.228263 1.82752 0.516936 0.212012 1.83282
          0.603631 0.223803 1.88582 0.619954 0.221042 1.81518
          0.195952 0.0179985 -1.12406 0.204545 0.0286583 -1.12534
          0.20182 0.0253005 -1.11961 0.228412 0.0286129 -1.10666
          0.392657 0.0753856 -0.971224 0.337729 0.0622297 -0.971894
          0.438328 0.0812215 -0.897867 0.344774 0.0734123 -0.938354
          0.329965 0.158701 0.681063 0.333142 0.149548 0.503453
          0.345308 0.152407 0.481869 0.477178 0.161787 0.54982
          -0.0397156 0.136079 0.577023 -0.0418792 0.129004 0.391246
          0.0917604 0.139724 0.490675 -0.0497639 0.127401 0.409391
          -0.12951 -0.024821 -0.478517 -0.0818359 -0.0274569 -0.533937
          -0.12508 -0.0269195 -0.560752 -0.0168768 -0.0233283 -0.525649
          0.526642 0.217164 1.86394 0.516936 0.212012 1.83282
          0.616494 0.228263 1.82752 0.499489 0.20972 1.78754
          -0.0303082 -0.027155 -0.714006 -0.0538285 -0.0315591 -0.675075
          -0.103051 -0.02635 -0.700307 -0.0460202 -0.0328352 -0.760958
          0.118271 0.00736987 -1.08369 0.114495 0.0252058 -1.087
          0.143377 0.0172557 -1.10458 0.143848 0.028966 -1.11295
          0.267714 0.0382249 -1.05959 0.290625 0.0440846 -1.07206
          0.320388 0.0571591 -1.04914 0.298409 0.0337659 -1.05963
          0.480039 0.211585 2.11979 0.417589 0.200862 2.11155
          0.463114 0.205583 2.00861 0.390222 0.200457 2.03097
          -0.00718751 -0.0210012 -0.361431 -0.00765868 -0.0207847 -0.286805
          0.0486358 -0.0214736 -0.314918 -0.0327653 -0.0170453 -0.262145
          -0.0171008 -0.0138017 -0.174494 0.0098671 -0.0137665 -0.188363
          0.0374318 -0.0190485 -0.230557 0.0360046 -0.0165645 -0.266146
          -0.0331069 -0.0207408 -0.7108 -0.111952 -0.0240078 -0.643506
          -0.103051 -0.02635 -0.700307 -0.0303082 -0.027155 -0.714006
          0.269246 0.161112 1.88195 0.155598 0.132588 1.77496
          0.163942 0.138154 1.85165 0.234576 0.164884 1.9288
          0.492783 0.111952 -0.323366 0.348836 0.102855 -0.459932
          0.432143 0.100045 -0.469631 0.416411 0.116529 -0.262841
          0.631716 0.207156 1.76701 0.522544 0.209758 1.82278
          0.495762 0.206714 1.74814 0.645948 0.213288 1.70657
          0.18739 0.0247255 -1.1202 0.205207 0.033256 -1.10889
          0.177514 0.0162521 -1.13173 0.198031 0.0285388 -1.14317
          0.131058 0.158108 1.10918 0.149429 0.170536 1.21814
          0.00285029 0.158127 1.12293 0.0112062 0.150211 1.24102
          0.188423 0.00272913 -1.13564 0.203198 -0.00291793 -1.12128
          0.19375 -0.00246694 -1.13874 0.191011 0.0101408 -1.14815
          0.326886 0.131137 0.105877 0.339176 0.123145 -0.0956363
          0.445539 0.138683 0.0844741 0.334286 0.120649 -0.0685765
          0.0063197 0.158562 0.854408 0.121709 0.163601 0.920525
          -0.000663582 0.160485 1.00411 -0.0126079 0.152453 0.828881
          0.186008 0.158359 0.964154 0.112514 0.149711 0.813037
          0.20704 0.159521 0.859824 0.314863 0.163832 0.842115
          0.170346 0.164995 1.04243 0.149429 0.170536 1.21814
          0.00285029 0.158127 1.12293 0.131058 0.158108 1.10918
          0.111257 -0.0260218 -0.0822399 0.0675574 -0.0172296 -0.103565
          0.109537 -0.0163913 -0.0963933 0.153858 -0.0236808 -0.156252
          0.22557 -0.000403006 -1.0551 0.173041 -0.00280863 -1.09202
          0.216435 -0.000885015 -1.08431 0.211839 0.00640367 -1.08357
          0.334286 0.120649 -0.0685765 0.500981 0.133764 0.025035
          0.445539 0.138683 0.0844741 0.326886 0.131137 0.105877
          0.128974 0.130461 0.187026 0.195909 0.124021 0.0195096
          0.261534 0.137069 0.167727 0.112681 0.128374 0.196126
          0.347512 0.182185 1.38557 0.37001 0.190326 1.4178
          0.503551 0.201335 1.4564 0.473613 0.191655 1.24082
          0.502812 0.120214 -0.176552 0.673207 0.140736 0.00567184
          0.637193 0.117486 -0.179374 0.629611 0.117661 -0.264494
          0.18286 0.00239008 -1.10851 0.188625 0.0125997 -1.1077
          0.197806 0.00805325 -1.12213 0.219527 0.0205329 -1.10211
          0.20449 0.1161 0.00797098 0.0436386 0.112423 0.0435163
          0.147867 0.12399 0.215002 0.068297 0.121898 0.190096
          0.348836 0.102855 -0.459932 0.173799 0.0876068 -0.503416
          0.230729 0.0840752 -0.586159 0.217546 0.0982124 -0.384524
          0.048454 -0.0268886 -0.585892 -0.00588535 -0.0269348 -0.514974
          0.0665477 -0.0233217 -0.48275 -0.0168768 -0.0233283 -0.525649
          0.182197 -0.0121593 -0.958737 0.188752 -0.0119074 -0.967376
          0.248905 -0.00813331 -0.987972 0.201734 -0.00779991 -1.01235
          0.182197 -0.0121593 -0.958737 0.188752 -0.0119074 -0.967376
          0.201734 -0.00779991 -1.01235 0.165532 -0.00924211 -1.03094
          0.140684 -0.013983 -0.516463 0.0578659 -0.018722 -0.485896
          0.0470197 -0.0148555 -0.460253 0.0804219 -0.014032 -0.565645
          0.335694 0.0749483 -1.03428 0.280415 0.0522078 -1.06675
          0.286476 0.052365 -1.03123 0.288575 0.0631171 -1.04643
          0.300169 0.205092 1.53596 0.245913 0.189513 1.4291
          0.276521 0.195515 1.38913 0.349891 0.19974 1.53891
          -0.0320968 -0.00669586 -0.096908 0.0140221 -0.0136444 -0.0704409
          0.0342889 -0.0194191 -0.133678 0.00486405 -0.0137133 -0.10608
          0.117074 -0.0194202 -0.800314 0.15297 -0.0190904 -0.707837
          0.117877 -0.0213928 -0.722719 0.205372 -0.0163374 -0.830822
          0.12311 -0.0240496 -0.19082 0.173193 -0.0331804 -0.207257
          0.194208 -0.0324585 -0.282328 0.193086 -0.0253065 -0.24717
          -0.0327653 -0.0170453 -0.262145 -0.0501823 -0.013834 -0.19697
          0.0374318 -0.0190485 -0.230557 -0.0171008 -0.0138017 -0.174494
          -0.00325904 0.140961 1.09947 0.238844 0.162658 1.06277
          0.131058 0.158108 1.10918 0.236193 0.163352 1.23858
          0.0857983 0.00396182 -0.185183 0.113962 -0.0013081 -0.194325
          0.143686 0.0124576 -0.177216 0.0649561 0.00117694 -0.133957
          0.194202 -0.00451249 -1.06016 0.201734 -0.00779991 -1.01235
          0.238917 -0.00579035 -1.0335 0.194464 -0.00870049 -1.02577
          0.0130412 -0.00728572 -0.143159 0.0660439 -0.0028024 -0.102152
          0.0155697 -0.00945334 -0.0979218 0.0540416 -0.00937549 -0.175074
          0.37001 0.190326 1.4178 0.503551 0.201335 1.4564
          0.35344 0.191337 1.57455 0.38689 0.188117 1.5561
          0.0130412 -0.00728572 -0.143159 -0.0185362 -0.0123417 -0.194536
          -0.0423323 -0.0154299 -0.123609 0.0108447 -0.00392801 -0.129841
          0.483334 0.195034 1.26309 0.551693 0.196169 1.18361
          0.704115 0.209655 1.28711 0.535403 0.202873 1.41079
          0.0578659 -0.018722 -0.485896 -0.0382095 -0.0203499 -0.467039
          0.0470197 -0.0148555 -0.460253 0.00633645 -0.0199511 -0.543667
          0.37001 0.190326 1.4178 0.35344 0.191337 1.57455
          0.314828 0.197156 1.62844 0.245913 0.189513 1.4291
          -0.0194793 0.147898 0.977767 0.131058 0.158108 1.10918
          0.00285029 0.158127 1.12293 0.0112062 0.150211 1.24102
          0.563634 0.119736 -0.0221902 0.424412 0.120747 0.0174048
          0.564528 0.133583 0.140069 0.520946 0.131935 0.0779313
          0.376293 0.185483 1.21542 0.551693 0.196169 1.18361
          0.483334 0.195034 1.26309 0.535403 0.202873 1.41079
          -0.0726572 -0.00236831 -0.0718477 -0.0748015 -0.00789741 -0.0695534
          -0.0365595 -0.00573392 -0.0808166 -0.0950276 -0.0100972 -0.12574
          0.465399 0.19799 1.51567 0.503551 0.201335 1.4564
          0.491 0.196 1.34734 0.347512 0.182185 1.38557
          0.672307 0.142273 0.106764 0.520946 0.131935 0.0779313
          0.500981 0.133764 0.025035 0.484097 0.122155 -0.0630469
          0.253788 0.0760074 -0.685864 0.225286 0.0686452 -0.746878
          0.257074 0.0669415 -0.796305 0.351173 0.074105 -0.680571
          -0.0854006 -0.00804012 -0.75767 -0.0182043 -0.00505826 -0.712925
          0.00753187 -0.00795808 -0.801634 -0.0602992 -0.000919334 -0.759307
          0.294959 0.204801 1.7903 0.283203 0.18814 1.84313
          0.272421 0.182674 1.91203 0.196196 0.1941 1.84397
          0.156925 0.0462572 -0.961802 0.180739 0.0425605 -1.00764
          0.160795 0.0354946 -1.04283 0.226725 0.0569851 -0.976381
          0.0740804 -0.0196889 -0.590591 0.0578659 -0.018722 -0.485896
          0.140684 -0.013983 -0.516463 0.0804219 -0.014032 -0.565645
          0.0471266 -0.0191522 -1.04979 0.0700022 -0.0189528 -1.04155
          0.0971336 -0.00259998 -1.06633 0.0348273 -0.00834823 -1.03009
          0.110453 -0.0208346 -0.375156 0.134253 -0.0150344 -0.313891
          0.160769 -0.0155552 -0.394325 0.0509295 -0.0182737 -0.380621
          0.173 0.00588326 -1.11985 0.17279 0.00720272 -1.12721
          0.147967 -0.00385141 -1.1071 0.173041 -0.00280863 -1.09202
          0.166518 0.00346835 -1.12287 0.16328 0.00682162 -1.12711
          0.153 5.4393e-05 -1.12756 0.130874 -0.00297278 -1.10678
          0.141621 -0.0194922 -1.11645 0.126155 -0.0162538 -1.11475
          0.157185 -0.00844997 -1.13379 0.139827 -0.00620229 -1.11706
          0.0250515 0.0571414 -0.717461 0.0566149 0.0415331 -0.855794
          0.0768571 0.0522908 -0.774606 0.130594 0.0587253 -0.800895
          0.0108447 -0.00392801 -0.129841 0.0388059 0.00445072 -0.0978631
          0.0130412 -0.00728572 -0.143159 0.0649561 0.00117694 -0.133957
          0.399897 0.204163 1.81379 0.40384 0.206217 1.66463
          0.320545 0.196448 1.74209 0.294959 0.204801 1.7903
          0.278414 0.0118281 -1.0665 0.23176 0.0157621 -1.09497
          0.245953 0.0105992 -1.09164 0.247082 -0.00262737 -1.09337
          0.280536 0.198948 1.94003 0.230411 0.202424 1.92573
          0.279451 0.199044 1.96301 0.268785 0.212902 1.90147
          0.230411 0.202424 1.92573 0.282637 0.191383 1.93899
          0.280536 0.198948 1.94003 0.317265 0.193703 1.98205
          0.48037 0.206131 1.89605 0.454738 0.206806 1.89198
          0.39061 0.201088 1.94817 0.376374 0.20549 1.89003
          0.162981 0.0702291 -0.700182 0.130594 0.0587253 -0.800895
          0.124865 0.0743217 -0.614662 0.0250515 0.0571414 -0.717461
          0.269356 -0.0163645 -0.701896 0.274181 -0.0149544 -0.750283
          0.268345 -0.0141714 -0.849032 0.187662 -0.015708 -0.769458
          0.209323 -0.0136238 -0.907578 0.138454 -0.0082111 -0.93618
          0.188761 -0.0117274 -0.865373 0.18506 -0.0112596 -0.943555
          0.610188 0.213279 1.85818 0.598111 0.217808 1.93833
          0.548184 0.208722 1.91561 0.501687 0.207959 1.94509
          0.0971336 -0.00259998 -1.06633 0.0682129 -0.00638178 -1.0176
          0.139782 -0.00357415 -1.07587 0.0957739 -0.000896939 -1.02438
          0.105463 -0.00918275 -0.727052 0.0771466 -0.0128792 -0.667253
          0.0251875 -0.00748686 -0.660161 0.0418954 -0.00556855 -0.770226
          0.500108 0.0770506 -0.481701 0.411463 0.0864855 -0.395732
          0.432167 0.0766004 -0.589968 0.376632 0.0687973 -0.609731
          0.205207 0.033256 -1.10889 0.187816 0.025274 -1.11521
          0.177514 0.0162521 -1.13173 0.193318 0.0234298 -1.13418
          0.126494 -0.0116239 -0.962722 0.138454 -0.0082111 -0.93618
          0.0547873 -0.00956248 -0.875966 0.105915 -0.00932992 -0.868497
          0.367694 0.056094 -0.989246 0.267714 0.0382249 -1.05959
          0.320388 0.0571591 -1.04914 0.332843 0.0408597 -1.02195
          0.0171941 0.169817 1.175 0.149429 0.170536 1.21814
          0.163265 0.169482 1.05637 0.153728 0.181466 1.28935
          0.59149 0.218173 2.02627 0.463114 0.205583 2.00861
          0.509965 0.214157 2.04142 0.524651 0.210655 2.04711
          0.521873 0.106124 -0.181104 0.484097 0.122155 -0.0630469
          0.637193 0.117486 -0.179374 0.409685 0.106138 -0.277549
          0 0 0 0 0 0
          0.0484699 -0.0108675 -0.030091 0 0 0
          0.587716 0.22395 2.01079 0.474926 0.213993 2.03117
          0.584148 0.228069 2.09401 0.509965 0.214157 2.04142
          0.0807397 0.0461835 -1.02818 0.136467 0.0366424 -1.05661
          0.13712 0.0459501 -1.00016 0.143772 0.0417257 -1.04399
          0.125349 -0.031823 -0.104373 0.0991233 -0.0291402 -0.14598
          0.0675574 -0.0172296 -0.103565 0.153858 -0.0236808 -0.156252
          -0.05098 -0.00222087 -0.02854 -0.0496443 5.77154e-05 -0.00611242
          -0.0579892 0.00142708 -0.0394255 0 0 0
          0.0853681 -0.0229088 -0.641772 0.139282 -0.0208527 -0.568469
          0.187251 -0.0208078 -0.643288 0.15297 -0.0190904 -0.707837
          0.139282 -0.0208527 -0.568469 0.187251 -0.0208078 -0.643288
          0.183164 -0.0170671 -0.589371 0.262477 -0.0189119 -0.593392
          0.272319 0.0902591 -0.581238 0.349309 0.0887881 -0.620987
          0.230729 0.0840752 -0.586159 0.30705 0.0854688 -0.699613
          0.198264 0.124889 0.070095 0.339176 0.123145 -0.0956363
          0.326886 0.131137 0.105877 0.334286 0.120649 -0.0685765
          0.575595 0.0982457 -0.520837 0.432326 0.0870368 -0.603389
          0.564627 0.0850216 -0.517364 0.585277 0.0965456 -0.446988
          0.373512 0.195207 2.01143 0.44968 0.200513 2.01221
          0.446707 0.199139 2.07562 0.388864 0.195535 2.04031
          0.244901 -0.0225574 -0.460818 0.15721 -0.0181165 -0.470608
          0.230366 -0.0190663 -0.394513 0.253552 -0.0181023 -0.513482
          0.553382 0.208726 1.55042 0.37001 0.190326 1.4178
          0.35344 0.191337 1.57455 0.491887 0.204341 1.55134
          0.539956 0.186254 0.988245 0.361484 0.173451 1.00011
          0.553202 0.194862 1.1531 0.451127 0.184652 1.08346
          0.273244 0.100067 -0.260464 0.0983943 0.103903 -0.1821
          0.0886722 0.0972271 -0.326607 0.129141 0.0946554 -0.378284
          0.16328 0.00682162 -1.12711 0.166518 0.00346835 -1.12287
          0.169372 0.0112354 -1.1349 0.175656 0.012652 -1.13595
          0.0540416 -0.00937549 -0.175074 0.0649561 0.00117694 -0.133957
          0.0209038 -0.00974771 -0.210131 0.0130412 -0.00728572 -0.143159
          0.301773 0.162762 1.76111 0.373718 0.18894 1.83094
          0.303986 0.162513 1.85599 0.380334 0.185943 1.81351
          0.15796 0.017913 -1.13832 0.169372 0.0112354 -1.1349
          0.1666 0.0195752 -1.13536 0.157544 0.0198756 -1.12909
          -0.0295207 -0.0156766 -0.182455 -0.0501823 -0.013834 -0.19697
          -0.0327653 -0.0170453 -0.262145 -0.00765868 -0.0207847 -0.286805
          0.223532 -0.00797952 -1.09888 0.19541 -0.00381637 -1.08441
          0.237216 -0.0138459 -1.0667 0.205167 -0.0060995 -1.09322
          0.202133 0.177184 1.37992 0.245913 0.189513 1.4291
          0.37001 0.190326 1.4178 0.261654 0.180809 1.21446
          0.314828 0.197156 1.62844 0.217421 0.188552 1.6753
          0.212652 0.196452 1.56397 0.201068 0.185051 1.52316
          0.17425 0.103817 -0.236551 0.0804092 0.101522 -0.223941
          0.13459 0.111976 -0.0718907 0.195518 0.107239 -0.222251
          0.0098671 -0.0137665 -0.188363 0.0774893 -0.0166292 -0.179655
          0.113946 -0.0122499 -0.222739 0.0540416 -0.00937549 -0.175074
          0.37001 0.190326 1.4178 0.201068 0.185051 1.52316
          0.35344 0.191337 1.57455 0.245913 0.189513 1.4291
          0.124865 0.0743217 -0.614662 0.181637 0.0729893 -0.691136
          0.230729 0.0840752 -0.586159 0.117851 0.0788018 -0.593398
          0.166462 0.00518771 -1.12544 0.188625 0.0125997 -1.1077
          0.173365 0.0162593 -1.12608 0.195952 0.0179985 -1.12406
          -0.0131994 0.152042 0.931257 -0.0126079 0.152453 0.828881
          0.121709 0.163601 0.920525 0.12317 0.154811 0.798318
          0.598111 0.217808 1.93833 0.524651 0.210655 2.04711
          0.550847 0.21194 1.99431 0.501687 0.207959 1.94509
          -0.0818359 -0.0274569 -0.533937 -0.0365529 -0.0262545 -0.615241
          -0.0168768 -0.0233283 -0.525649 -0.00588535 -0.0269348 -0.514974
          0.0714426 0.0506437 -0.980392 0.123689 0.0542317 -0.925889
          0.0482068 0.0676577 -0.882717 0.0758894 0.0556241 -0.975666
          0.173799 0.0876068 -0.503416 -0.00969368 0.0757089 -0.473971
          0.11677 0.082158 -0.49828 0.124865 0.0743217 -0.614662
          0.0917604 0.139724 0.490675 -0.0418792 0.129004 0.391246
          -0.0397156 0.136079 0.577023 -0.0284562 0.14066 0.608061
          0.157185 -0.00844997 -1.13379 0.153 5.4393e-05 -1.12756
          0.160877 0.00282591 -1.14115 0.17471 0.0103553 -1.13275
          0.311949 0.159912 0.662099 0.349722 0.170056 0.845586
          0.407349 0.167289 0.652838 0.346798 0.170757 0.800478
          0.475537 0.165971 0.715955 0.237981 0.148473 0.653257
          0.368946 0.164907 0.841573 0.329965 0.158701 0.681063
          0.00633645 -0.0199511 -0.543667 0.0359931 -0.0179081 -0.637707
          0.00229256 -0.0169905 -0.563079 0.0740804 -0.0196889 -0.590591
          0.238887 0.0380659 -1.09393 0.196263 0.0293345 -1.09673
          0.267714 0.0382249 -1.05959 0.217644 0.0373622 -1.05651
          0.563634 0.119736 -0.0221902 0.484097 0.122155 -0.0630469
          0.384774 0.108005 -0.146912 0.424412 0.120747 0.0174048
          0.152649 0.0237462 -1.12026 0.123387 0.0269296 -1.10146
          0.150219 0.0219777 -1.11042 0.118354 0.00659017 -1.09692
          0.445539 0.138683 0.0844741 0.694104 0.155148 0.164546
          0.530358 0.152472 0.215311 0.517372 0.152084 0.282314
          0.185038 -0.0112891 -0.966454 0.17137 -0.00547832 -1.04012
          0.194464 -0.00870049 -1.02577 0.126494 -0.0116239 -0.962722
          -0.0117854 -0.00191015 -0.0371014 0.00714858 -0.00373127 -0.00222902
          0.0307875 -0.0144254 -0.0138309 0.00765813 -0.00792034 -0.0270135
          0.151948 -0.00220459 -0.376901 0.0898911 -0.00444595 -0.325468
          0.0636064 -0.00891908 -0.389929 0.156717 -0.00972851 -0.433933
          0.361484 0.173451 1.00011 0.20704 0.159521 0.859824
          0.349722 0.170056 0.845586 0.314863 0.163832 0.842115
          0.00229256 -0.0169905 -0.563079 0.0740804 -0.0196889 -0.590591
          0.0578659 -0.018722 -0.485896 0.00633645 -0.0199511 -0.543667
          0.0100932 -0.00802936 -0.0535907 0.00613925 -0.00568058 -0.0229973
          0.00765813 -0.00792034 -0.0270135 0.0277173 -0.0112998 -0.0430308
          0.0360046 -0.0165645 -0.266146 0.0098671 -0.0137665 -0.188363
          0.113946 -0.0122499 -0.222739 0.0540416 -0.00937549 -0.175074
          0.169153 0.0211548 -1.10787 0.129881 0.0190457 -1.08765
          0.171435 0.0306672 -1.08531 0.173956 0.0310747 -1.07793
          0.345308 0.152407 0.481869 0.572815 0.164404 0.469028
          0.472775 0.161158 0.475347 0.477178 0.161787 0.54982
          0.185038 -0.0112891 -0.966454 0.209323 -0.0136238 -0.907578
          0.251392 -0.0149688 -0.992494 0.18506 -0.0112596 -0.943555
          0.206908 0.133411 0.224806 0.318274 0.14137 0.291124
          0.325688 0.148226 0.386022 0.113661 0.130721 0.288513
          0.0804092 0.101522 -0.223941 -0.0453011 0.0930471 -0.305608
          -0.0568878 0.101842 -0.151099 -0.0481754 0.101567 -0.142666
          -0.0414189 0.136588 0.693819 0.112514 0.149711 0.813037
          -0.0285253 0.143236 0.763847 -0.0326251 0.140955 0.857926
          -0.0497639 0.127401 0.409391 0.0917604 0.139724 0.490675
          0.189242 0.142522 0.483109 0.113661 0.130721 0.288513
          0.0222848 -0.00558348 -0.0278639 0.0174988 0.00881202 -0.0123778
          0.0514415 -0.00199443 -0.0580778 0.0244272 -0.00123409 -0.0380729
          0.486593 0.117221 -0.379886 0.348836 0.102855 -0.459932
          0.46044 0.105433 -0.546765 0.432143 0.100045 -0.469631
          0.0845877 -0.0255065 -0.751434 0.148357 -0.0229473 -0.694047
          0.183531 -0.02037 -0.75319 0.117877 -0.0213928 -0.722719
          0.0687574 0.142446 0.463576 -0.0288902 0.130995 0.360327
          0.211578 0.144846 0.361071 0.119924 0.137646 0.352982
          0.206243 -0.0142357 -0.811176 0.16486 -0.0132007 -0.873521
          0.187662 -0.015708 -0.769458 0.117498 -0.0127052 -0.774123
          0.44205 0.135678 0.148091 0.326886 0.131137 0.105877
          0.257122 0.135619 0.303109 0.318274 0.14137 0.291124
          0.0330385 0.0694828 -0.548444 0.0698984 0.0613448 -0.665753
          0.160511 0.0789107 -0.595206 0.124865 0.0743217 -0.614662
          0.180128 0.0144698 -1.13421 0.173365 0.0162593 -1.12608
          0.180506 0.0179277 -1.13799 0.204545 0.0286583 -1.12534
          0.20704 0.159521 0.859824 0.12317 0.154811 0.798318
          0.224316 0.165267 0.860861 0.349722 0.170056 0.845586
          0.249546 0.0280093 -1.08662 0.228412 0.0286129 -1.10666
          0.25696 0.0301693 -1.08253 0.219527 0.0205329 -1.10211
          0.333142 0.149548 0.503453 0.329965 0.158701 0.681063
          0.542691 0.172558 0.701274 0.477178 0.161787 0.54982
          0.387815 0.202424 1.98846 0.313847 0.186532 1.91649
          0.282072 0.186107 1.95795 0.282637 0.191383 1.93899
          0.411463 0.0864855 -0.395732 0.273244 0.100067 -0.260464
          0.276125 0.0947165 -0.379639 0.250628 0.081338 -0.520796
          0.503551 0.201335 1.4564 0.473613 0.191655 1.24082
          0.535403 0.202873 1.41079 0.584036 0.203196 1.31556
          0 0 0 0.0174988 0.00881202 -0.0123778
          0 0 0 0.0222848 -0.00558348 -0.0278639
          -0.0171008 -0.0138017 -0.174494 0.0279292 -0.0130824 -0.150911
          0.0374318 -0.0190485 -0.230557 0.0098671 -0.0137665 -0.188363
          0.147867 0.12399 0.215002 0.068297 0.121898 0.190096
          0.257122 0.135619 0.303109 0.177901 0.122751 0.105101
          0.206243 -0.0142357 -0.811176 0.187662 -0.015708 -0.769458
          0.193335 -0.0140792 -0.680673 0.117498 -0.0127052 -0.774123
          0.20449 0.1161 0.00797098 0.068297 0.121898 0.190096
          0.147867 0.12399 0.215002 0.177901 0.122751 0.105101
          0.0389992 -0.0231358 -0.956961 0.0555938 -0.0190831 -0.895268
          0.10091 -0.0208321 -0.887682 0.123149 -0.0160708 -0.964579
          0.483334 0.195034 1.26309 0.376293 0.185483 1.21542
          0.404649 0.196522 1.41683 0.261654 0.180809 1.21446
          0.177901 0.122751 0.105101 0.105133 0.110602 -0.0678035
          -0.0655243 0.111919 0.0879617 -0.0565269 0.110644 0.0352962
          0.477379 0.178653 0.833553 0.346798 0.170757 0.800478
          0.526269 0.182344 0.807915 0.407349 0.167289 0.652838
          0.141621 -0.0194922 -1.11645 0.0827109 -0.0196146 -1.08085
          0.126155 -0.0162538 -1.11475 0.139827 -0.00620229 -1.11706
          0.048454 -0.0268886 -0.585892 -0.0168768 -0.0233283 -0.525649
          0.0665477 -0.0233217 -0.48275 0.0853681 -0.0229088 -0.641772
          0.373718 0.18894 1.83094 0.303986 0.162513 1.85599
          0.380334 0.185943 1.81351 0.37796 0.1901 1.89347
          0.522672 0.172355 0.662797 0.311949 0.159912 0.662099
          0.4665 0.174973 0.832093 0.349722 0.170056 0.845586
          0.716643 0.195296 0.903992 0.566235 0.187544 0.910491
          0.723765 0.196142 0.912449 0.721535 0.189703 0.763471
          0.522544 0.209758 1.82278 0.501687 0.207959 1.94509
          0.523184 0.21308 1.90131 0.605988 0.219487 1.8842
          0.716643 0.195296 0.903992 0.566235 0.187544 0.910491
          0.719557 0.200946 1.05157 0.723765 0.196142 0.912449
          0.17425 0.103817 -0.236551 0.28116 0.113647 -0.106809
          0.273244 0.100067 -0.260464 0.276125 0.0947165 -0.379639
          0.177787 0.00281491 -1.11165 0.183085 0.00551842 -1.13081
          0.215759 -0.00416399 -1.10589 0.184506 0.00171474 -1.10889
          0.40384 0.206217 1.66463 0.314828 0.197156 1.62844
          0.41749 0.201144 1.6896 0.320545 0.196448 1.74209
          0.373718 0.18894 1.83094 0.380334 0.185943 1.81351
          0.395388 0.191512 1.71781 0.458955 0.20145 1.7537
          -0.0515571 -0.0303915 -0.88369 -0.0581836 -0.0358302 -0.840197
          0.0169673 -0.0315692 -0.881613 -0.000164951 -0.0258844 -0.847736
          0.672307 0.142273 0.106764 0.500981 0.133764 0.025035
          0.685457 0.150589 0.168031 0.673207 0.140736 0.00567184
          0.237981 0.148473 0.653257 0.128366 0.144338 0.653264
          0.16556 0.134608 0.433358 0.044791 0.133985 0.562318
          0.327877 0.110293 -0.24624 0.409685 0.106138 -0.277549
          0.277729 0.0975518 -0.410816 0.471473 0.100582 -0.394055
          0.535403 0.202873 1.41079 0.704115 0.209655 1.28711
          0.483334 0.195034 1.26309 0.712901 0.206388 1.22555
          0.474926 0.213993 2.03117 0.394078 0.205558 2.05199
          0.441118 0.216517 2.13214 0.458699 0.214588 2.12646
          0.15796 0.017913 -1.13832 0.146472 0.0258741 -1.12314
          0.162798 0.0130179 -1.13538 0.157544 0.0198756 -1.12909
          0.346798 0.170757 0.800478 0.224316 0.165267 0.860861
          0.327201 0.179018 1.03886 0.299283 0.172557 0.858087
          0.172928 0.0182889 -1.13082 0.167554 0.01164 -1.12899
          0.154846 0.0182198 -1.12627 0.15795 0.0127548 -1.12438
          0.290634 0.0679208 -1.00623 0.245796 0.0542283 -1.01114
          0.344774 0.0734123 -0.938354 0.260874 0.0644344 -0.917065
          0.238844 0.162658 1.06277 0.345197 0.178077 1.18186
          0.131058 0.158108 1.10918 0.236193 0.163352 1.23858
          0.0740804 -0.0196889 -0.590591 0.0578659 -0.018722 -0.485896
          0.0804219 -0.014032 -0.565645 0.00229256 -0.0169905 -0.563079
          0.273244 0.100067 -0.260464 0.129141 0.0946554 -0.378284
          0.276125 0.0947165 -0.379639 0.250628 0.081338 -0.520796
          0.496235 0.208476 1.73139 0.399897 0.204163 1.81379
          0.495762 0.206714 1.74814 0.40384 0.206217 1.66463
          0.121709 0.163601 0.920525 0.224316 0.165267 0.860861
          0.327201 0.179018 1.03886 0.163265 0.169482 1.05637
          0.445539 0.138683 0.0844741 0.560566 0.146458 0.0640076
          0.694104 0.155148 0.164546 0.500981 0.133764 0.025035
          0.0642946 -0.0122501 -0.806808 0.10775 -0.0136116 -0.885602
          0.0547873 -0.00956248 -0.875966 0.105915 -0.00932992 -0.868497
          0.173365 0.0162593 -1.12608 0.145661 0.00531314 -1.11313
          0.150219 0.0219777 -1.11042 0.176476 0.0148389 -1.10969
          0.139827 -0.00620229 -1.11706 0.130874 -0.00297278 -1.10678
          0.130043 -0.00557288 -1.10149 0.0975126 -0.0129236 -1.08417
          0.183164 -0.0170671 -0.589371 0.158713 -0.0124128 -0.593162
          0.193335 -0.0140792 -0.680673 0.118225 -0.016529 -0.643321
          0.0359931 -0.0179081 -0.637707 0.0740804 -0.0196889 -0.590591
          0.0804219 -0.014032 -0.565645 0.00229256 -0.0169905 -0.563079
          0.367694 0.056094 -0.989246 0.337729 0.0622297 -0.971894
          0.286476 0.052365 -1.03123 0.304287 0.0480379 -1.00984
          -0.0871916 -0.0208251 -0.097455 -0.0698807 -0.0189799 -0.0582118
          -0.0382728 -0.0119119 -0.0861697 -0.0785707 -0.0230823 -0.0930104
          0.0708915 -0.0190248 -0.830437 0.117074 -0.0194202 -0.800314
          0.0127683 -0.0225709 -0.775399 0.0289583 -0.0292126 -0.794661
          0.373512 0.195207 2.01143 0.279451 0.199044 1.96301
          0.364843 0.200645 1.94868 0.317265 0.193703 1.98205
          0.0130412 -0.00728572 -0.143159 0.0388059 0.00445072 -0.0978631
          0.00316235 -0.00774175 -0.084285 0.0649561 0.00117694 -0.133957
          0.208709 0.154096 0.550593 0.0687574 0.142446 0.463576
          0.211578 0.144846 0.361071 0.121136 0.145829 0.514661
          -0.108758 -0.0168716 -0.179429 -0.0525861 -0.0158793 -0.211183
          -0.119881 -0.0218471 -0.219262 -0.0607624 -0.0176287 -0.188494
          0.524651 0.210655 2.04711 0.55343 0.219074 2.12334
          0.587098 0.215487 2.08402 0.50375 0.208821 2.11494
          0.477897 0.0912087 -0.814626 0.343916 0.0755584 -0.839382
          0.344774 0.0734123 -0.938354 0.438328 0.0812215 -0.897867
          -0.100392 -0.00592964 -0.151989 -0.0501823 -0.013834 -0.19697
          -0.0295207 -0.0156766 -0.182455 -0.0876838 -0.00939058 -0.201846
          0.36166 0.0661805 -0.870565 0.363754 0.0521145 -0.84867
          0.44217 0.0557325 -0.843822 0.372622 0.0709968 -0.788346
          -0.109993 -0.0199922 -0.657779 -0.106391 -0.0133016 -0.666373
          -0.0323988 -0.0141205 -0.630091 0.0185148 -0.0145913 -0.704614
          0.599127 0.22786 1.89649 0.475228 0.212726 1.96844
          0.533699 0.223492 1.9141 0.589482 0.227665 1.9636
          -0.000164951 -0.0258844 -0.847736 0.0127683 -0.0225709 -0.775399
          -0.0303082 -0.027155 -0.714006 -0.0460202 -0.0328352 -0.760958
          0.129141 0.0946554 -0.378284 0.0392936 0.0887872 -0.524484
          0.00586034 0.0936913 -0.408731 0.147113 0.0900758 -0.449962
          0.162798 0.0130179 -1.13538 0.160877 0.00282591 -1.14115
          0.169372 0.0112354 -1.1349 0.17471 0.0103553 -1.13275
          0.383928 0.195509 1.93412 0.399113 0.201668 1.96815
          0.387815 0.202424 1.98846 0.475228 0.212726 1.96844
          0.257413 0.0399649 -1.08953 0.208938 0.0367803 -1.11163
          0.240259 0.0430863 -1.11282 0.258456 0.0565514 -1.10446
          0.620367 0.233462 1.82271 0.499489 0.20972 1.78754
          0.526642 0.217164 1.86394 0.616494 0.228263 1.82752
          0.0771644 0.0116483 -1.06883 0.118354 0.00659017 -1.09692
          0.125307 0.0114024 -1.09595 0.123387 0.0269296 -1.10146
          0.376157 0.134811 0.252378 0.395931 0.139444 0.273135
          0.505427 0.147666 0.375367 0.54103 0.141297 0.259453
          0.517372 0.152084 0.282314 0.694104 0.155148 0.164546
          0.698744 0.164157 0.363125 0.685457 0.150589 0.168031
          0.428379 0.0567763 -0.892945 0.363754 0.0521145 -0.84867
          0.44217 0.0557325 -0.843822 0.36166 0.0661805 -0.870565
          0.169372 0.0112354 -1.1349 0.179579 0.0122846 -1.12692
          0.1666 0.0195752 -1.13536 0.154846 0.0182198 -1.12627
          0.153858 -0.0236808 -0.156252 0.12311 -0.0240496 -0.19082
          0.0991233 -0.0291402 -0.14598 0.0675574 -0.0172296 -0.103565
          0.327877 0.110293 -0.24624 0.471473 0.100582 -0.394055
          0.277729 0.0975518 -0.410816 0.492783 0.111952 -0.323366
          0.228412 0.0286129 -1.10666 0.240259 0.0430863 -1.11282
          0.215453 0.0337856 -1.12044 0.238887 0.0380659 -1.09393
          0.368363 0.0880234 -0.492427 0.411463 0.0864855 -0.395732
          0.591099 0.0927801 -0.384602 0.471473 0.100582 -0.394055
          0.10116 0.0650096 -0.847493 0.158016 0.0603311 -0.849714
          0.109161 0.0700203 -0.752531 0.178872 0.0606546 -0.845006
          0.388864 0.195535 2.04031 0.390222 0.200457 2.03097
          0.289096 0.190872 2.09747 0.317265 0.193703 1.98205
          0.0579845 0.00399531 -0.987319 0.0508581 0.018267 -1.0146
          0.0855231 0.00918058 -1.04601 0.0435622 0.0159591 -1.03065
          0.530358 0.152472 0.215311 0.694104 0.155148 0.164546
          0.634897 0.160619 0.195354 0.710123 0.168797 0.351904
          0.0807397 0.0461835 -1.02818 0.136467 0.0366424 -1.05661
          0.143772 0.0417257 -1.04399 0.121689 0.038873 -1.0749
          0.615925 0.16858 0.39627 0.49059 0.156432 0.291865
          0.634897 0.160619 0.195354 0.530358 0.152472 0.215311
          0.0771466 -0.0128792 -0.667253 0.0359931 -0.0179081 -0.637707
          0.0804219 -0.014032 -0.565645 0.00229256 -0.0169905 -0.563079
          0.603631 0.223803 1.88582 0.461908 0.207616 1.89904
          0.599127 0.22786 1.89649 0.589482 0.227665 1.9636
          0.181637 0.0729893 -0.691136 0.24453 0.0708505 -0.80429
          0.253788 0.0760074 -0.685864 0.185762 0.0662311 -0.795337
          0.0353563 0.00122208 -0.86422 -0.0584268 -0.00413948 -0.841123
          0.0256823 -0.00354785 -0.929701 0.00753187 -0.00795808 -0.801634
          0.068297 0.121898 0.190096 0.0824626 0.120069 0.102868
          -0.0584419 0.120704 0.269333 0.113661 0.130721 0.288513
          0.230729 0.0840752 -0.586159 0.117851 0.0788018 -0.593398
          0.188323 0.0883993 -0.510283 0.173799 0.0876068 -0.503416
          0.150219 0.0219777 -1.11042 0.165049 0.0352555 -1.11584
          0.182059 0.0298849 -1.13052 0.208938 0.0367803 -1.11163
          0.0660439 -0.0028024 -0.102152 0.0915026 0.0116161 -0.076386
          0.145403 0.00751687 -0.157499 0.0761817 0.015298 -0.0967612
          0.709794 0.178071 0.568122 0.578844 0.169726 0.498809
          0.522672 0.172355 0.662797 0.576506 0.177642 0.668802
          0.472775 0.161158 0.475347 0.710123 0.168797 0.351904
          0.578844 0.169726 0.498809 0.712817 0.175067 0.48361
          0.59459 0.220233 1.95943 0.461807 0.207187 1.95549
          0.463114 0.205583 2.00861 0.501687 0.207959 1.94509
          -0.0296118 0.0834849 -0.573164 0.101692 0.0805584 -0.621601
          0.0297149 0.0817309 -0.656534 -0.00846173 0.0762337 -0.687888
          0.409685 0.106138 -0.277549 0.502812 0.120214 -0.176552
          0.471473 0.100582 -0.394055 0.492783 0.111952 -0.323366
          0.128655 0.112603 -0.0840872 -0.0481754 0.101567 -0.142666
          0.0804092 0.101522 -0.223941 0.13459 0.111976 -0.0718907
          0.00945855 -0.0154396 -0.791267 0.0185148 -0.0145913 -0.704614
          0.08759 -0.0181695 -0.700148 0.096068 -0.0160099 -0.794129
          0.584148 0.228069 2.09401 0.458699 0.214588 2.12646
          0.474926 0.213993 2.03117 0.501895 0.223601 2.13771
          0.372622 0.0709968 -0.788346 0.36166 0.0661805 -0.870565
          0.258765 0.0665526 -0.86543 0.343916 0.0755584 -0.839382
          0.37001 0.190326 1.4178 0.473613 0.191655 1.24082
          0.376293 0.185483 1.21542 0.535403 0.202873 1.41079
          0.40384 0.206217 1.66463 0.41749 0.201144 1.6896
          0.491887 0.204341 1.55134 0.496235 0.208476 1.73139
          0.550847 0.21194 1.99431 0.59149 0.218173 2.02627
          0.587098 0.215487 2.08402 0.524651 0.210655 2.04711
          -0.05098 -0.00222087 -0.02854 0 0 0
          -0.0148586 -0.00274295 -0.0245388 0 0 0
          0.165532 -0.00924211 -1.03094 0.201734 -0.00779991 -1.01235
          0.194464 -0.00870049 -1.02577 0.188752 -0.0119074 -0.967376
          0.208244 0.0317288 -1.03781 0.16577 0.0305277 -1.08499
          0.208914 0.0286063 -1.0707 0.229005 0.0188687 -1.0652
          0.17279 0.00720272 -1.12721 0.166518 0.00346835 -1.12287
          0.147967 -0.00385141 -1.1071 0.173041 -0.00280863 -1.09202
          0.128655 0.112603 -0.0840872 0.198264 0.124889 0.070095
          0.112681 0.128374 0.196126 -0.04001 0.111053 0.0264647
          0.0223666 0.115204 0.0326147 0.128655 0.112603 -0.0840872
          0.112681 0.128374 0.196126 -0.04001 0.111053 0.0264647
          0.0374318 -0.0190485 -0.230557 0.0937305 -0.0266664 -0.206198
          0.116656 -0.0213041 -0.272863 0.12311 -0.0240496 -0.19082
          0.387815 0.202424 1.98846 0.282072 0.186107 1.95795
          0.311359 0.19366 2.00681 0.282637 0.191383 1.93899
          0.130874 -0.00297278 -1.10678 0.0971336 -0.00259998 -1.06633
          0.158522 0.00273212 -1.11049 0.118354 0.00659017 -1.09692
          0.311359 0.19366 2.00681 0.282072 0.186107 1.95795
          0.193506 0.157546 1.98437 0.282637 0.191383 1.93899
          0.118225 -0.016529 -0.643321 0.140684 -0.013983 -0.516463
          0.158713 -0.0124128 -0.593162 0.0804219 -0.014032 -0.565645
          0.371903 0.120611 -0.274683 0.286155 0.107829 -0.323724
          0.486593 0.117221 -0.379886 0.416411 0.116529 -0.262841
          0.245796 0.0542283 -1.01114 0.209562 0.0518334 -0.953749
          0.156925 0.0462572 -0.961802 0.180739 0.0425605 -1.00764
          0.486593 0.117221 -0.379886 0.348836 0.102855 -0.459932
          0.492783 0.111952 -0.323366 0.416411 0.116529 -0.262841
          0.215759 -0.00416399 -1.10589 0.232606 -0.00658906 -1.06714
          0.223532 -0.00797952 -1.09888 0.19541 -0.00381637 -1.08441
          -0.0284574 -0.0153834 -0.248114 -0.0513797 -0.0175883 -0.319843
          -0.088756 -0.0207238 -0.274965 -0.0209055 -0.0143869 -0.281814
          0.148357 -0.0229473 -0.694047 0.048454 -0.0268886 -0.585892
          0.0853681 -0.0229088 -0.641772 0.0252257 -0.0287216 -0.667561
          0.13712 0.0459501 -1.00016 0.136467 0.0366424 -1.05661
          0.196052 0.0376533 -1.03505 0.143772 0.0417257 -1.04399
          0.392601 0.103022 -0.67509 0.244295 0.0843376 -0.648259
          0.240642 0.0771923 -0.746678 0.30705 0.0854688 -0.699613
          0.136467 0.0366424 -1.05661 0.196052 0.0376533 -1.03505
          0.143772 0.0417257 -1.04399 0.16577 0.0305277 -1.08499
          0.399897 0.204163 1.81379 0.40384 0.206217 1.66463
          0.273528 0.207587 1.68961 0.389267 0.209684 1.72946
          0.12311 -0.0240496 -0.19082 0.194208 -0.0324585 -0.282328
          0.116656 -0.0213041 -0.272863 0.193086 -0.0253065 -0.24717
          0.147867 0.12399 0.215002 0.068297 0.121898 0.190096
          -0.0316434 0.123871 0.388691 0.0887269 0.13043 0.360895
          0.334286 0.120649 -0.0685765 0.13459 0.111976 -0.0718907
          0.339176 0.123145 -0.0956363 0.195518 0.107239 -0.222251
          -0.0171008 -0.0138017 -0.174494 0.0374318 -0.0190485 -0.230557
          -0.0327653 -0.0170453 -0.262145 0.0360046 -0.0165645 -0.266146
          0.394078 0.205558 2.05199 0.387815 0.202424 1.98846
          0.311359 0.19366 2.00681 0.399113 0.201668 1.96815
          0.491887 0.204341 1.55134 0.576437 0.21161 1.62788
          0.41749 0.201144 1.6896 0.553382 0.208726 1.55042
          0.165532 -0.00924211 -1.03094 0.148011 -0.0139621 -0.990689
          0.123149 -0.0160708 -0.964579 0.121469 -0.0144557 -1.02135
          0.603837 0.200727 1.3922 0.482423 0.197254 1.34396
          0.586206 0.198766 1.24339 0.555537 0.202478 1.4184
          0.176707 0.00807449 -1.12962 0.179579 0.0122846 -1.12692
          0.178948 0.0060033 -1.13028 0.197736 0.00453341 -1.11451
          0.404221 0.212756 2.07781 0.387815 0.202424 1.98846
          0.394078 0.205558 2.05199 0.474926 0.213993 2.03117
          0.555537 0.202478 1.4184 0.622191 0.203573 1.52752
          0.603837 0.200727 1.3922 0.498836 0.200919 1.48789
          0.182059 0.0298849 -1.13052 0.165049 0.0352555 -1.11584
          0.169031 0.0358445 -1.13262 0.185967 0.0478477 -1.12964
          0.260676 0.172941 1.9455 0.21655 0.170417 2.02853
          0.319383 0.194355 1.9882 0.282072 0.186107 1.95795
          0.0470197 -0.0148555 -0.460253 0.0107608 -0.0144463 -0.385426
          0.057422 -0.00958656 -0.504466 -0.0432089 -0.0131838 -0.487029
          0.0107608 -0.0144463 -0.385426 -0.0513797 -0.0175883 -0.319843
          -0.0299594 -0.014765 -0.366911 -0.0454728 -0.0174241 -0.455721
          -0.108758 -0.0168716 -0.179429 -0.0354252 -0.0123842 -0.100673
          -0.0277683 -0.0134212 -0.149544 -0.0953438 -0.016709 -0.120506
          0.182197 -0.0121593 -0.958737 0.156523 -0.0152272 -0.89299
          0.188752 -0.0119074 -0.967376 0.123149 -0.0160708 -0.964579
          -0.0331069 -0.0207408 -0.7108 -0.0303082 -0.027155 -0.714006
          -0.103051 -0.02635 -0.700307 0.0127683 -0.0225709 -0.775399
          0.454738 0.206806 1.89198 0.501687 0.207959 1.94509
          0.48037 0.206131 1.89605 0.39061 0.201088 1.94817
          0.15795 0.0127548 -1.12438 0.167692 0.00789246 -1.13227
          0.172928 0.0182889 -1.13082 0.181922 0.0120482 -1.13884
          -0.0454728 -0.0174241 -0.455721 -0.0299594 -0.014765 -0.366911
          0.0107608 -0.0144463 -0.385426 -0.0432089 -0.0131838 -0.487029
          0.0675574 -0.0172296 -0.103565 0.0358098 -0.0173367 -0.15829
          0.0991233 -0.0291402 -0.14598 0.0574409 -0.0227267 -0.0946761
          0.492783 0.111952 -0.323366 0.502812 0.120214 -0.176552
          0.646271 0.129887 -0.217498 0.416411 0.116529 -0.262841
          0.0356243 -0.0169741 -0.0342029 0.0277173 -0.0112998 -0.0430308
          0.0802511 -0.012505 -0.0646586 0.0644315 -0.0164299 -0.0698736
          0.526642 0.217164 1.86394 0.451908 0.205792 1.91859
          0.533699 0.223492 1.9141 0.475228 0.212726 1.96844
          0.00286609 -0.009542 -0.984145 0.0348273 -0.00834823 -1.03009
          0.0682129 -0.00638178 -1.0176 0.00182079 -0.0183532 -0.985129
          0.171435 0.0306672 -1.08531 0.129881 0.0190457 -1.08765
          0.120681 0.0270317 -1.07656 0.173956 0.0310747 -1.07793
          -0.0277683 -0.0134212 -0.149544 0.0098671 -0.0137665 -0.188363
          0.0130412 -0.00728572 -0.143159 0.0155697 -0.00945334 -0.0979218
          0.472255 0.204702 1.63519 0.40147 0.202094 1.56307
          0.40384 0.206217 1.66463 0.338599 0.20772 1.64709
          0.0774893 -0.0166292 -0.179655 0.153858 -0.0236808 -0.156252
          0.166261 -0.0163788 -0.191247 0.0934466 -0.0105912 -0.154028
          0.160769 -0.0155552 -0.394325 0.216657 -0.00509489 -0.339147
          0.225279 -0.013258 -0.37308 0.238356 -0.0109887 -0.42744
          0.576506 0.177642 0.668802 0.405571 0.173315 0.753173
          0.526269 0.182344 0.807915 0.542112 0.173101 0.58157
          0.164186 0.0118026 -1.14029 0.181061 0.0164242 -1.12749
          0.17279 0.00720272 -1.12721 0.173 0.00588326 -1.11985
          0.483334 0.195034 1.26309 0.37001 0.190326 1.4178
          0.404649 0.196522 1.41683 0.376293 0.185483 1.21542
          0.35344 0.191337 1.57455 0.503551 0.201335 1.4564
          0.460626 0.203436 1.6395 0.38689 0.188117 1.5561
          0.0477449 0.14016 0.746838 -0.0326251 0.140955 0.857926
          0.112514 0.149711 0.813037 -0.0414189 0.136588 0.693819
          -0.0280559 -0.012453 -0.9239 0.0256823 -0.00354785 -0.929701
          -0.0557656 -0.0116304 -0.863214 0.0102294 -0.0145549 -0.890416
          0.230366 -0.0190663 -0.394513 0.212099 -0.0193911 -0.323621
          0.225279 -0.013258 -0.37308 0.134253 -0.0150344 -0.313891
          0.319383 0.194355 1.9882 0.282072 0.186107 1.95795
          0.311359 0.19366 2.00681 0.387815 0.202424 1.98846
          0.376157 0.134811 0.252378 0.520946 0.131935 0.0779313
          0.54103 0.141297 0.259453 0.564528 0.133583 0.140069
          0.158586 0.163992 1.36561 0.347512 0.182185 1.38557
          0.202133 0.177184 1.37992 0.252819 0.174978 1.51462
          0.18739 0.0247255 -1.1202 0.173956 0.0310747 -1.07793
          0.205207 0.033256 -1.10889 0.167174 0.0257106 -1.09011
          0.235505 0.0465084 -1.10819 0.205207 0.033256 -1.10889
          0.238887 0.0380659 -1.09393 0.23471 0.0431356 -1.07046
          0.474586 0.213783 1.97551 0.385207 0.197499 1.95846
          0.457526 0.215988 2.03787 0.387815 0.202424 1.98846
          0.23471 0.0431356 -1.07046 0.207944 0.034123 -1.08695
          0.217644 0.0373622 -1.05651 0.173956 0.0310747 -1.07793
          0.319383 0.194355 1.9882 0.282072 0.186107 1.95795
          0.335556 0.201341 2.04656 0.311359 0.19366 2.00681
          0.206908 0.133411 0.224806 0.195943 0.145332 0.453197
          0.119924 0.137646 0.352982 0.113661 0.130721 0.288513
          0.106339 0.029652 -1.04331 0.079169 0.0414585 -0.973045
          0.180739 0.0425605 -1.00764 0.0930218 0.0316273 -0.984041
          0.603631 0.223803 1.88582 0.461908 0.207616 1.89904
          0.589482 0.227665 1.9636 0.508874 0.214006 1.95539
          0.387406 0.143248 0.223329 0.318274 0.14137 0.291124
          0.325688 0.148226 0.386022 0.206908 0.133411 0.224806
          0.10091 -0.0208321 -0.887682 0.0555938 -0.0190831 -0.895268
          0.0169673 -0.0315692 -0.881613 -0.000164951 -0.0258844 -0.847736
          0.0388059 0.00445072 -0.0978631 0.0376237 0.00315363 -0.0667112
          0.0649561 0.00117694 -0.133957 0.0761817 0.015298 -0.0967612
          0.105429 -0.0278619 -0.280035 0.172218 -0.0297435 -0.346252
          0.116656 -0.0213041 -0.272863 0.194208 -0.0324585 -0.282328
          0.206879 0.0273064 -1.10803 0.240259 0.0430863 -1.11282
          0.204545 0.0286583 -1.12534 0.228412 0.0286129 -1.10666
          0.371903 0.120611 -0.274683 0.286155 0.107829 -0.323724
          0.457237 0.119913 -0.42142 0.486593 0.117221 -0.379886
          -0.102932 -0.0223742 -0.141753 -0.0277683 -0.0134212 -0.149544
          -0.0607624 -0.0176287 -0.188494 -0.0423323 -0.0154299 -0.123609
          -0.108758 -0.0168716 -0.179429 -0.0607624 -0.0176287 -0.188494
          -0.102932 -0.0223742 -0.141753 -0.0277683 -0.0134212 -0.149544
          0.136467 0.0366424 -1.05661 0.154597 0.0268177 -1.11213
          0.169675 0.0299189 -1.08729 0.137762 0.0328383 -1.10196
          0.367694 0.056094 -0.989246 0.377788 0.0443525 -0.963537
          0.333011 0.0545899 -0.945405 0.304287 0.0480379 -1.00984
          0.0360046 -0.0165645 -0.266146 0.0327665 -0.0135779 -0.313497
          0.0509295 -0.0182737 -0.380621 -0.0161619 -0.0175454 -0.372721
          0.105915 -0.00932992 -0.868497 0.117498 -0.0127052 -0.774123
          0.206243 -0.0142357 -0.811176 0.122618 -0.00782457 -0.823936
          0.587716 0.22395 2.01079 0.474926 0.213993 2.03117
          0.583484 0.229311 2.03987 0.584148 0.228069 2.09401
          0.458089 0.203362 1.84714 0.451908 0.205792 1.91859
          0.533699 0.223492 1.9141 0.526642 0.217164 1.86394
          0.371903 0.120611 -0.274683 0.258244 0.101278 -0.423532
          0.457237 0.119913 -0.42142 0.286155 0.107829 -0.323724
          0.461908 0.207616 1.89904 0.387594 0.201059 1.81382
          0.516936 0.212012 1.83282 0.499489 0.20972 1.78754
          0.055218 -0.0096646 -0.961593 -0.00299887 0.00214633 -0.960482
          0.0579845 0.00399531 -0.987319 0.0682129 -0.00638178 -1.0176
          0.376293 0.185483 1.21542 0.254887 0.168468 1.07544
          0.237915 0.172735 1.23496 0.364277 0.178104 1.03208
          0.166313 0.182704 1.76022 0.234576 0.164884 1.9288
          0.283203 0.18814 1.84313 0.196196 0.1941 1.84397
          0.218194 0.039635 -1.13003 0.18739 0.0247255 -1.1202
          0.205207 0.033256 -1.10889 0.235505 0.0465084 -1.10819
          0.516531 0.151569 0.353601 0.333142 0.149548 0.503453
          0.538118 0.159808 0.49707 0.374349 0.146448 0.377404
          0.277479 0.0228469 -1.01923 0.208244 0.0317288 -1.03781
          0.24366 0.0311635 -1.03462 0.229005 0.0188687 -1.0652
          0.317265 0.193703 1.98205 0.373512 0.195207 2.01143
          0.279451 0.199044 1.96301 0.280936 0.193837 2.04554
          0.15795 0.0127548 -1.12438 0.148992 0.0128559 -1.11395
          0.138486 0.0182829 -1.10666 0.177514 0.0162521 -1.13173
          0.273244 0.100067 -0.260464 0.28116 0.113647 -0.106809
          0.0983943 0.103903 -0.1821 0.20449 0.1161 0.00797098
          -0.0126079 0.152453 0.828881 -0.0185965 0.146966 0.68783
          0.171797 0.154438 0.655168 -0.0229897 0.146215 0.749164
          0.207944 0.034123 -1.08695 0.20182 0.0253005 -1.11961
          0.196263 0.0293345 -1.09673 0.187816 0.025274 -1.11521
          0.225286 0.0686452 -0.746878 0.317734 0.059831 -0.79408
          0.268257 0.0661042 -0.699179 0.268148 0.05214 -0.841647
          0.314828 0.197156 1.62844 0.294959 0.204801 1.7903
          0.273528 0.207587 1.68961 0.217421 0.188552 1.6753
          0.160511 0.0789107 -0.595206 0.272319 0.0902591 -0.581238
          0.244295 0.0843376 -0.648259 0.332754 0.0979477 -0.592942
          0.645948 0.213288 1.70657 0.62833 0.215461 1.78832
          0.522544 0.209758 1.82278 0.496235 0.208476 1.73139
          0.257122 0.135619 0.303109 0.113661 0.130721 0.288513
          0.189242 0.142522 0.483109 0.318274 0.14137 0.291124
          0.0740804 -0.0196889 -0.590591 0.08759 -0.0181695 -0.700148
          0.0853681 -0.0229088 -0.641772 0.0166565 -0.0213178 -0.651747
          0.404221 0.212756 2.07781 0.335556 0.201341 2.04656
          0.335164 0.204974 2.06627 0.387815 0.202424 1.98846
          -0.0186939 0.0795216 -0.446417 -0.00969368 0.0757089 -0.473971
          0.124865 0.0743217 -0.614662 0.00455765 0.0641691 -0.598263
          -0.0148586 -0.00274295 -0.0245388 0 0 0
          0 0 0 0 0 0
          0.128655 0.112603 -0.0840872 0.198264 0.124889 0.070095
          0.339176 0.123145 -0.0956363 0.317615 0.133859 0.0941603
          -0.0168768 -0.0233283 -0.525649 -0.12508 -0.0269195 -0.560752
          -0.122119 -0.0235412 -0.572695 -0.0365529 -0.0262545 -0.615241
          0.432326 0.0870368 -0.603389 0.575595 0.0982457 -0.520837
          0.555583 0.106463 -0.608938 0.59157 0.110913 -0.485872
          0.260191 -0.011571 -0.929422 0.182197 -0.0121593 -0.958737
          0.250899 -0.00758936 -0.953821 0.26285 -0.0130069 -0.876853
          0.492079 0.0833424 -0.762226 0.36166 0.0661805 -0.870565
          0.477897 0.0912087 -0.814626 0.45466 0.0726495 -0.847837
          0.145661 0.00531314 -1.11313 0.0811437 -0.0025162 -1.07377
          0.125307 0.0114024 -1.09595 0.130043 -0.00557288 -1.10149
          0.3056 0.0562813 -0.888644 0.428379 0.0567763 -0.892945
          0.328671 0.0418834 -0.942546 0.333011 0.0545899 -0.945405
          0.387406 0.143248 0.223329 0.517372 0.152084 0.282314
          0.325688 0.148226 0.386022 0.318274 0.14137 0.291124
          0.0471266 -0.0191522 -1.04979 0.0971336 -0.00259998 -1.06633
          0.0975126 -0.0129236 -1.08417 0.0811437 -0.0025162 -1.07377
          0.131058 0.158108 1.10918 0.237915 0.172735 1.23496
          0.149429 0.170536 1.21814 0.0112062 0.150211 1.24102
          0.394227 0.144542 0.157778 0.530358 0.152472 0.215311
          0.387406 0.143248 0.223329 0.317615 0.133859 0.0941603
          0.333011 0.0545899 -0.945405 0.428379 0.0567763 -0.892945
          0.328671 0.0418834 -0.942546 0.377788 0.0443525 -0.963537
          0.188625 0.0125997 -1.1077 0.195952 0.0179985 -1.12406
          0.197806 0.00805325 -1.12213 0.219527 0.0205329 -1.10211
          0.0660439 -0.0028024 -0.102152 0.0607489 -0.00918772 -0.0791758
          0.0112358 -0.00689671 -0.058432 0.0155697 -0.00945334 -0.0979218
          -0.0579892 0.00142708 -0.0394255 -0.0144841 0.000148197 -0.0285603
          -0.0115162 -0.00567168 -0.051575 -0.0148586 -0.00274295 -0.0245388
          0.387594 0.201059 1.81382 0.373718 0.18894 1.83094
          0.395388 0.191512 1.71781 0.499489 0.20972 1.78754
          -0.0295207 -0.0156766 -0.182455 0.0342889 -0.0194191 -0.133678
          0.0390515 -0.02144 -0.216222 0.0358098 -0.0173367 -0.15829
          0.20704 0.159521 0.859824 0.311949 0.159912 0.662099
          0.12317 0.154811 0.798318 0.349722 0.170056 0.845586
          0.520411 0.143817 -0.00516023 0.560566 0.146458 0.0640076
          0.530358 0.152472 0.215311 0.394227 0.144542 0.157778
          0.505427 0.147666 0.375367 0.538118 0.159808 0.49707
          0.692943 0.167956 0.489621 0.516531 0.151569 0.353601
          0.245796 0.0542283 -1.01114 0.278739 0.0589262 -0.949907
          0.260874 0.0644344 -0.917065 0.209562 0.0518334 -0.953749
          0.118271 0.00736987 -1.08369 0.139782 -0.00357415 -1.07587
          0.151547 0.002157 -1.08222 0.0957739 -0.000896939 -1.02438
          0.121469 -0.0144557 -1.02135 0.129918 -0.0092143 -1.0239
          0.123149 -0.0160708 -0.964579 0.165532 -0.00924211 -1.03094
          0.105915 -0.00932992 -0.868497 0.206243 -0.0142357 -0.811176
          0.188761 -0.0117274 -0.865373 0.122618 -0.00782457 -0.823936
          0.521873 0.106124 -0.181104 0.384774 0.108005 -0.146912
          0.484097 0.122155 -0.0630469 0.409685 0.106138 -0.277549
          0.257122 0.135619 0.303109 0.189242 0.142522 0.483109
          0.16556 0.134608 0.433358 0.333142 0.149548 0.503453
          0.26653 0.162067 1.64719 0.147001 0.139934 1.64599
          0.209269 0.143736 1.78898 0.206569 0.161767 1.63429
          0.21495 0.157538 1.917 0.163942 0.138154 1.85165
          0.234576 0.164884 1.9288 0.269246 0.161112 1.88195
          0.640978 0.234054 1.73243 0.549512 0.222453 1.80015
          0.620367 0.233462 1.82271 0.499489 0.20972 1.78754
          0.193318 0.0234298 -1.13418 0.181922 0.0120482 -1.13884
          0.177514 0.0162521 -1.13173 0.193758 0.0212416 -1.1506
          0.416411 0.116529 -0.262841 0.334286 0.120649 -0.0685765
          0.327877 0.110293 -0.24624 0.502812 0.120214 -0.176552
          0.0327665 -0.0135779 -0.313497 0.0898911 -0.00444595 -0.325468
          0.104284 -0.0136701 -0.371997 0.0636064 -0.00891908 -0.389929
          0.160153 0.0242505 -1.10792 0.177514 0.0162521 -1.13173
          0.138486 0.0182829 -1.10666 0.169153 0.0211548 -1.10787
          0.138486 0.0182829 -1.10666 0.129881 0.0190457 -1.08765
          0.120681 0.0270317 -1.07656 0.169153 0.0211548 -1.10787
          -0.0117854 -0.00191015 -0.0371014 -0.0547892 0.00314345 -0.0505998
          -0.0195698 0.00244057 -0.00847001 -0.0144841 0.000148197 -0.0285603
          0.18739 0.0247255 -1.1202 0.177514 0.0162521 -1.13173
          0.205207 0.033256 -1.10889 0.169153 0.0211548 -1.10787
          0.153 5.4393e-05 -1.12756 0.16328 0.00682162 -1.12711
          0.166462 0.00518771 -1.12544 0.130874 -0.00297278 -1.10678
          0.166462 0.00518771 -1.12544 0.153 5.4393e-05 -1.12756
          0.17471 0.0103553 -1.13275 0.16328 0.00682162 -1.12711
          0.00815519 -0.0112139 -0.565742 0.0804219 -0.014032 -0.565645
          0.057422 -0.00958656 -0.504466 0.0470197 -0.0148555 -0.460253
          0.327877 0.110293 -0.24624 0.334286 0.120649 -0.0685765
          0.409685 0.106138 -0.277549 0.502812 0.120214 -0.176552
          0.337729 0.0622297 -0.971894 0.304287 0.0480379 -1.00984
          0.278739 0.0589262 -0.949907 0.286476 0.052365 -1.03123
          0.187251 -0.0208078 -0.643288 0.178216 -0.0244722 -0.612851
          0.259363 -0.0222661 -0.561488 0.18615 -0.0263881 -0.527732
          0.195749 -0.00968941 -1.11628 0.141621 -0.0194922 -1.11645
          0.179546 -0.00518367 -1.12862 0.153867 -0.00790509 -1.11263
          0.18286 0.00239008 -1.10851 0.197806 0.00805325 -1.12213
          0.166462 0.00518771 -1.12544 0.153867 -0.00790509 -1.11263
          0.106339 0.029652 -1.04331 0.133288 0.0434323 -0.997365
          0.0954567 0.0390706 -1.02908 0.157308 0.0350187 -1.04742
          0.0920557 -0.0255886 -0.845827 0.117074 -0.0194202 -0.800314
          0.16914 -0.0179375 -0.857877 0.10091 -0.0208321 -0.887682
          0.472255 0.204702 1.63519 0.338599 0.20772 1.64709
          0.40384 0.206217 1.66463 0.389267 0.209684 1.72946
          0.148357 -0.0229473 -0.694047 0.0853681 -0.0229088 -0.641772
          0.187251 -0.0208078 -0.643288 0.117877 -0.0213928 -0.722719
          0.169372 0.0112354 -1.1349 0.17279 0.00720272 -1.12721
          0.1666 0.0195752 -1.13536 0.179579 0.0122846 -1.12692
          0.0244272 -0.00123409 -0.0380729 0.0019014 -0.00258287 -0.0143042
          0.0174988 0.00881202 -0.0123778 0.00878838 0.011498 -0.00445242
          0.0983943 0.103903 -0.1821 0.105133 0.110602 -0.0678035
          -0.0687295 0.107069 -0.0607881 0.0436386 0.112423 0.0435163
          0.0771466 -0.0128792 -0.667253 0.00229256 -0.0169905 -0.563079
          0.00815519 -0.0112139 -0.565742 -0.0323988 -0.0141205 -0.630091
          0.0771466 -0.0128792 -0.667253 0.0185148 -0.0145913 -0.704614
          -0.0323988 -0.0141205 -0.630091 0.0251875 -0.00748686 -0.660161
          0.37001 0.190326 1.4178 0.503551 0.201335 1.4564
          0.553382 0.208726 1.55042 0.35344 0.191337 1.57455
          0.245953 0.0105992 -1.09164 0.18286 0.00239008 -1.10851
          0.197806 0.00805325 -1.12213 0.219527 0.0205329 -1.10211
          -0.1189 -0.0141354 -0.266283 -0.0658888 -0.0192985 -0.331415
          -0.122225 -0.0168075 -0.28944 -0.0327653 -0.0170453 -0.262145
          0.363754 0.0521145 -0.84867 0.428379 0.0567763 -0.892945
          0.328671 0.0418834 -0.942546 0.3056 0.0562813 -0.888644
          0.539956 0.186254 0.988245 0.314863 0.163832 0.842115
          0.361484 0.173451 1.00011 0.4665 0.174973 0.832093
          0.235505 0.0465084 -1.10819 0.18739 0.0247255 -1.1202
          0.205207 0.033256 -1.10889 0.203025 0.040745 -1.06991
          -0.130573 -0.0210149 -0.461085 -0.132317 -0.0205373 -0.410748
          -0.131659 -0.0221287 -0.396732 -0.0161619 -0.0175454 -0.372721
          0.206908 0.133411 0.224806 0.325688 0.148226 0.386022
          0.195943 0.145332 0.453197 0.113661 0.130721 0.288513
          0.555537 0.202478 1.4184 0.483334 0.195034 1.26309
          0.586206 0.198766 1.24339 0.583709 0.197168 1.17371
          -0.0327653 -0.0170453 -0.262145 -0.0501823 -0.013834 -0.19697
          -0.0681067 -0.0183736 -0.314081 -0.00765868 -0.0207847 -0.286805
          0.209323 -0.0136238 -0.907578 0.267997 -0.0182575 -0.926114
          0.18506 -0.0112596 -0.943555 0.188761 -0.0117274 -0.865373
          0.543584 0.179795 0.887579 0.368946 0.164907 0.841573
          0.539956 0.186254 0.988245 0.4665 0.174973 0.832093
          0.116656 -0.0213041 -0.272863 0.188511 -0.0162307 -0.249986
          0.212099 -0.0193911 -0.323621 0.134253 -0.0150344 -0.313891
          0.28116 0.113647 -0.106809 0.177901 0.122751 0.105101
          0.13459 0.111976 -0.0718907 0.105133 0.110602 -0.0678035
          0 0 0 0.0174988 0.00881202 -0.0123778
          0.0222848 -0.00558348 -0.0278639 0.0244272 -0.00123409 -0.0380729
          0.157185 -0.00844997 -1.13379 0.134934 -0.0107202 -1.12126
          0.153352 0.000889392 -1.13561 0.153 5.4393e-05 -1.12756
          0.118271 0.00736987 -1.08369 0.152649 0.0237462 -1.12026
          0.152229 0.0117325 -1.11972 0.118354 0.00659017 -1.09692
          0.134253 -0.0150344 -0.313891 0.105195 -0.00802552 -0.266652
          0.104284 -0.0136701 -0.371997 0.0360046 -0.0165645 -0.266146
          0.157185 -0.00844997 -1.13379 0.153352 0.000889392 -1.13561
          0.160877 0.00282591 -1.14115 0.153 5.4393e-05 -1.12756
          0.311949 0.159912 0.662099 0.346798 0.170757 0.800478
          0.171797 0.154438 0.655168 0.224316 0.165267 0.860861
          -0.05098 -0.00222087 -0.02854 -0.0579892 0.00142708 -0.0394255
          -0.0144841 0.000148197 -0.0285603 0 0 0
          0.315947 0.196592 1.90816 0.399897 0.204163 1.81379
          0.387594 0.201059 1.81382 0.294959 0.204801 1.7903
          0.178948 0.0060033 -1.13028 0.197736 0.00453341 -1.11451
          0.201398 -0.00242298 -1.12266 0.183085 0.00551842 -1.13081
          0.148357 -0.0229473 -0.694047 0.112536 -0.0265035 -0.552338
          0.178216 -0.0244722 -0.612851 0.0853681 -0.0229088 -0.641772
          0.196052 0.0376533 -1.03505 0.169675 0.0299189 -1.08729
          0.217644 0.0373622 -1.05651 0.208914 0.0286063 -1.0707
          0.500981 0.133764 0.025035 0.334286 0.120649 -0.0685765
          0.502812 0.120214 -0.176552 0.484097 0.122155 -0.0630469
          0.130689 0.0951538 -0.354446 0.0377004 0.0814389 -0.41916
          0.11677 0.082158 -0.49828 -0.00969368 0.0757089 -0.473971
          0.112681 0.128374 0.196126 0.261534 0.137069 0.167727
          0.279769 0.140479 0.25432 0.317615 0.133859 0.0941603
          0.0388059 0.00445072 -0.0978631 0.0649561 0.00117694 -0.133957
          0.0857983 0.00396182 -0.185183 0.0761817 0.015298 -0.0967612
          0.0389992 -0.0231358 -0.956961 -0.0120033 -0.0375333 -0.962701
          0.00904144 -0.0242568 -1.0025 0.0577682 -0.0281423 -1.02948
          0.399113 0.201668 1.96815 0.313847 0.186532 1.91649
          0.282637 0.191383 1.93899 0.395929 0.200623 1.90057
          0.476062 0.182941 1.06639 0.539956 0.186254 0.988245
          0.553202 0.194862 1.1531 0.703544 0.206163 1.12416
          0.16486 -0.0132007 -0.873521 0.188752 -0.0119074 -0.967376
          0.203472 -0.0139074 -0.880859 0.126494 -0.0116239 -0.962722
          0.399897 0.204163 1.81379 0.40384 0.206217 1.66463
          0.294959 0.204801 1.7903 0.273528 0.207587 1.68961
          -0.00765868 -0.0207847 -0.286805 0.0374318 -0.0190485 -0.230557
          -0.0327653 -0.0170453 -0.262145 0.0390515 -0.02144 -0.216222
          0.516255 0.0666313 -0.664582 0.402724 0.0628676 -0.720252
          0.432167 0.0766004 -0.589968 0.540798 0.0820835 -0.610499
          0.457237 0.119913 -0.42142 0.258244 0.101278 -0.423532
          0.332754 0.0979477 -0.592942 0.348836 0.102855 -0.459932
          0.695025 0.206879 1.43571 0.622191 0.203573 1.52752
          0.603837 0.200727 1.3922 0.555537 0.202478 1.4184
          0.695025 0.206879 1.43571 0.690279 0.214152 1.44669
          0.669866 0.212344 1.60442 0.555537 0.202478 1.4184
          0.491887 0.204341 1.55134 0.498836 0.200919 1.48789
          0.555537 0.202478 1.4184 0.404649 0.196522 1.41683
          0.0740804 -0.0196889 -0.590591 0.15297 -0.0190904 -0.707837
          0.139282 -0.0208527 -0.568469 0.0853681 -0.0229088 -0.641772
          0.244295 0.0843376 -0.648259 0.162981 0.0702291 -0.700182
          0.240642 0.0771923 -0.746678 0.181637 0.0729893 -0.691136
          0.096068 -0.0160099 -0.794129 0.08759 -0.0181695 -0.700148
          0.15297 -0.0190904 -0.707837 0.187662 -0.015708 -0.769458
          0.106339 0.029652 -1.04331 0.157308 0.0350187 -1.04742
          0.0954567 0.0390706 -1.02908 0.120681 0.0270317 -1.07656
          -0.1189 -0.0141354 -0.266283 -0.0681067 -0.0183736 -0.314081
          -0.0658888 -0.0192985 -0.331415 -0.0327653 -0.0170453 -0.262145
          0.180128 0.0144698 -1.13421 0.166462 0.00518771 -1.12544
          0.16328 0.00682162 -1.12711 0.173365 0.0162593 -1.12608
          0.180128 0.0144698 -1.13421 0.16328 0.00682162 -1.12711
          0.180506 0.0179277 -1.13799 0.173365 0.0162593 -1.12608
          0.0174988 0.00881202 -0.0123778 0.0450981 0.00208091 -0.0389618
          0.0915026 0.0116161 -0.076386 0.0547054 0.0263362 -0.0374226
          0.483334 0.195034 1.26309 0.509302 0.18922 1.04712
          0.327201 0.179018 1.03886 0.374364 0.188654 1.22074
          0.0855231 0.00918058 -1.04601 0.0508581 0.018267 -1.0146
          0.11213 0.00272844 -1.0007 0.120011 0.0152541 -1.07142
          0.0071006 0.167298 1.0351 0.121709 0.163601 0.920525
          0.166401 0.179047 1.13145 -0.000663582 0.160485 1.00411
          0.158522 0.00273212 -1.11049 0.151547 0.002157 -1.08222
          0.177787 0.00281491 -1.11165 0.171138 0.0116209 -1.12877
          0.177787 0.00281491 -1.11165 0.151547 0.002157 -1.08222
          0.171214 0.0112742 -1.12197 0.171138 0.0116209 -1.12877
          0.18739 0.0247255 -1.1202 0.177514 0.0162521 -1.13173
          0.174612 0.0120543 -1.13495 0.198031 0.0285388 -1.14317
          0.50375 0.208821 2.11494 0.417589 0.200862 2.11155
          0.388864 0.195535 2.04031 0.463114 0.205583 2.00861
          0.278414 0.0118281 -1.0665 0.249546 0.0280093 -1.08662
          0.23176 0.0157621 -1.09497 0.247711 0.0274887 -1.06388
          0.172928 0.0182889 -1.13082 0.178948 0.0060033 -1.13028
          0.167554 0.01164 -1.12899 0.15795 0.0127548 -1.12438
          0.0155697 -0.00945334 -0.0979218 0.0660439 -0.0028024 -0.102152
          0.0934466 -0.0105912 -0.154028 0.0540416 -0.00937549 -0.175074
          0.505653 0.186408 0.974223 0.566235 0.187544 0.910491
          0.422856 0.180565 0.934743 0.420039 0.179584 0.88187
          -0.0167663 0.144702 0.598091 0.0687574 0.142446 0.463576
          0.114131 0.153668 0.647563 0.121136 0.145829 0.514661
          0.19703 -0.0117658 -0.773249 0.274181 -0.0149544 -0.750283
          0.193335 -0.0140792 -0.680673 0.206243 -0.0142357 -0.811176
          0.477379 0.178653 0.833553 0.346798 0.170757 0.800478
          0.422856 0.180565 0.934743 0.526269 0.182344 0.807915
          0.24453 0.0708505 -0.80429 0.181637 0.0729893 -0.691136
          0.240642 0.0771923 -0.746678 0.130594 0.0587253 -0.800895
          0.566235 0.187544 0.910491 0.477379 0.178653 0.833553
          0.509302 0.18922 1.04712 0.422856 0.180565 0.934743
          0.0560741 0.0443732 -0.867566 0.130684 0.0586593 -0.849266
          0.071029 0.042301 -0.936173 0.183089 0.0573615 -0.895068
          0.13966 -0.00867676 -0.146496 0.0915026 0.0116161 -0.076386
          0.145403 0.00751687 -0.157499 0.0660439 -0.0028024 -0.102152
          0.372631 0.0938046 -0.780209 0.50631 0.108577 -0.776937
          0.544752 0.115314 -0.671386 0.421332 0.0907937 -0.716274
          0.16486 -0.0132007 -0.873521 0.203472 -0.0139074 -0.880859
          0.10775 -0.0136116 -0.885602 0.126494 -0.0116239 -0.962722
          0.17088 -0.00538913 -0.207319 0.13966 -0.00867676 -0.146496
          0.145403 0.00751687 -0.157499 0.0934466 -0.0105912 -0.154028
          -0.0547892 0.00314345 -0.0505998 -0.0594745 0.00179271 -0.0195266
          -0.0144841 0.000148197 -0.0285603 -0.0579892 0.00142708 -0.0394255
          0.17088 -0.00538913 -0.207319 0.113946 -0.0122499 -0.222739
          0.0934466 -0.0105912 -0.154028 0.113962 -0.0013081 -0.194325
          0.123689 0.0542317 -0.925889 0.157521 0.0469226 -0.985977
          0.13712 0.0459501 -1.00016 0.239659 0.0461789 -0.951595
          0.17973 0.197213 1.44533 0.245913 0.189513 1.4291
          0.0565896 0.186773 1.3944 0.153728 0.181466 1.28935
          0.499489 0.20972 1.78754 0.373718 0.18894 1.83094
          0.461908 0.207616 1.89904 0.387594 0.201059 1.81382
          0.238887 0.0380659 -1.09393 0.249546 0.0280093 -1.08662
          0.267714 0.0382249 -1.05959 0.196263 0.0293345 -1.09673
          0.158016 0.0603311 -0.849714 0.123689 0.0542317 -0.925889
          0.13282 0.0487597 -0.935717 0.1823 0.048595 -0.960625
          0.152232 -0.0233181 -0.476973 0.169053 -0.0237773 -0.375043
          0.113767 -0.0266257 -0.372606 0.170921 -0.0275196 -0.439577
          0.195518 0.107239 -0.222251 0.339176 0.123145 -0.0956363
          0.286155 0.107829 -0.323724 0.237825 0.113705 -0.173142
          0.361484 0.173451 1.00011 0.349722 0.170056 0.845586
          0.364277 0.178104 1.03208 0.4665 0.174973 0.832093
          0.502812 0.120214 -0.176552 0.673207 0.140736 0.00567184
          0.646271 0.129887 -0.217498 0.527923 0.13303 -0.0882344
          0.59149 0.218173 2.02627 0.55343 0.219074 2.12334
          0.587098 0.215487 2.08402 0.524651 0.210655 2.04711
          0.294977 0.0648741 -1.08627 0.29089 0.05429 -1.08344
          0.240259 0.0430863 -1.11282 0.258456 0.0565514 -1.10446
          0.187113 -0.0166802 -0.683439 0.15297 -0.0190904 -0.707837
          0.269356 -0.0163645 -0.701896 0.187251 -0.0208078 -0.643288
          -0.00969368 0.0757089 -0.473971 0.0330385 0.0694828 -0.548444
          0.11677 0.082158 -0.49828 0.124865 0.0743217 -0.614662
          0.318274 0.14137 0.291124 0.345308 0.152407 0.481869
          0.374349 0.146448 0.377404 0.517372 0.152084 0.282314
          0.15796 0.017913 -1.13832 0.160877 0.00282591 -1.14115
          0.164186 0.0118026 -1.14029 0.169372 0.0112354 -1.1349
          0.15796 0.017913 -1.13832 0.164186 0.0118026 -1.14029
          0.1666 0.0195752 -1.13536 0.169372 0.0112354 -1.1349
          0.172928 0.0182889 -1.13082 0.177514 0.0162521 -1.13173
          0.138486 0.0182829 -1.10666 0.160153 0.0242505 -1.10792
          -0.0443746 -0.0202338 -0.606738 -0.0382095 -0.0203499 -0.467039
          0.00229256 -0.0169905 -0.563079 -0.122298 -0.0197349 -0.569304
          0 0 0 0 0 0
          -0.0148586 -0.00274295 -0.0245388 0 0 0
          0.0346219 0.00470713 -1.02314 -0.00299887 0.00214633 -0.960482
          0.0579845 0.00399531 -0.987319 0.0435622 0.0159591 -1.03065
          0.158522 0.00273212 -1.11049 0.183085 0.00551842 -1.13081
          0.184506 0.00171474 -1.10889 0.166518 0.00346835 -1.12287
          0.236272 -0.00297843 -1.01559 0.188444 -0.00778189 -1.02334
          0.201734 -0.00779991 -1.01235 0.22557 -0.000403006 -1.0551
          0 0 0 0.0519787 -0.0134986 -0.00942474
          0.0356243 -0.0169741 -0.0342029 0.0531873 -0.00509933 -0.00647402
          0.392601 0.103022 -0.67509 0.544752 0.115314 -0.671386
          0.494421 0.118116 -0.60257 0.421332 0.0907937 -0.716274
          0.153858 -0.0236808 -0.156252 0.0675574 -0.0172296 -0.103565
          0.109537 -0.0163913 -0.0963933 0.13966 -0.00867676 -0.146496
          0.472255 0.204702 1.63519 0.40384 0.206217 1.66463
          0.495762 0.206714 1.74814 0.389267 0.209684 1.72946
          -0.131659 -0.0221287 -0.396732 -0.0161619 -0.0175454 -0.372721
          -0.0538186 -0.0201853 -0.381395 -0.130573 -0.0210149 -0.461085
          0 0 0 0 0 0
          0 0 0 -0.020548 -0.00832014 -0.0250458
          0.709794 0.178071 0.568122 0.712817 0.175067 0.48361
          0.578844 0.169726 0.498809 0.576506 0.177642 0.668802
          0.334286 0.120649 -0.0685765 0.13459 0.111976 -0.0718907
          0.198264 0.124889 0.070095 0.339176 0.123145 -0.0956363
          0.421482 0.0973892 -0.84509 0.50631 0.108577 -0.776937
          0.421332 0.0907937 -0.716274 0.477897 0.0912087 -0.814626
          0.0374318 -0.0190485 -0.230557 0.0774893 -0.0166292 -0.179655
          0.116656 -0.0213041 -0.272863 0.0360046 -0.0165645 -0.266146
          0.201068 0.185051 1.52316 0.202133 0.177184 1.37992
          0.0303563 0.162405 1.30879 0.0463607 0.175677 1.37031
          0.610188 0.213279 1.85818 0.598111 0.217808 1.93833
          0.501687 0.207959 1.94509 0.605988 0.219487 1.8842
          0.315947 0.196592 1.90816 0.272421 0.182674 1.91203
          0.387594 0.201059 1.81382 0.395929 0.200623 1.90057
          -0.00765868 -0.0207847 -0.286805 0.0486358 -0.0214736 -0.314918
          0.0374318 -0.0190485 -0.230557 0.0390515 -0.02144 -0.216222
          0.290625 0.0440846 -1.07206 0.249546 0.0280093 -1.08662
          0.298409 0.0337659 -1.05963 0.267714 0.0382249 -1.05959
          0.209562 0.0518334 -0.953749 0.278739 0.0589262 -0.949907
          0.258765 0.0665526 -0.86543 0.238684 0.0574548 -0.90005
          0.0486358 -0.0214736 -0.314918 0.0390515 -0.02144 -0.216222
          0.105429 -0.0278619 -0.280035 0.0374318 -0.0190485 -0.230557
          0.566235 0.187544 0.910491 0.420039 0.179584 0.88187
          0.505653 0.186408 0.974223 0.526269 0.182344 0.807915
          0.18739 0.0247255 -1.1202 0.169153 0.0211548 -1.10787
          0.205207 0.033256 -1.10889 0.173956 0.0310747 -1.07793
          0.205207 0.033256 -1.10889 0.169153 0.0211548 -1.10787
          0.187816 0.025274 -1.11521 0.173956 0.0310747 -1.07793
          -0.0161619 -0.0175454 -0.372721 0.0509295 -0.0182737 -0.380621
          0.0578659 -0.018722 -0.485896 0.0470197 -0.0148555 -0.460253
          0.232606 -0.00658906 -1.06714 0.194202 -0.00451249 -1.06016
          0.194464 -0.00870049 -1.02577 0.185334 -0.00195267 -1.08471
          0.130689 0.0951538 -0.354446 0.286155 0.107829 -0.323724
          0.195518 0.107239 -0.222251 0.217546 0.0982124 -0.384524
          0.252819 0.174978 1.51462 0.201068 0.185051 1.52316
          0.35344 0.191337 1.57455 0.202133 0.177184 1.37992
          0.599127 0.22786 1.89649 0.526642 0.217164 1.86394
          0.533699 0.223492 1.9141 0.475228 0.212726 1.96844
          0.0934466 -0.0105912 -0.154028 0.13966 -0.00867676 -0.146496
          0.166261 -0.0163788 -0.191247 0.17088 -0.00538913 -0.207319
          0.139282 -0.0208527 -0.568469 0.0578659 -0.018722 -0.485896
          0.0665477 -0.0233217 -0.48275 0.15721 -0.0181165 -0.470608
          0.277479 0.0228469 -1.01923 0.24366 0.0311635 -1.03462
          0.304318 0.0314598 -1.01045 0.229005 0.0188687 -1.0652
          0.00613925 -0.00568058 -0.0229973 0.0222848 -0.00558348 -0.0278639
          0.0277173 -0.0112998 -0.0430308 0.0244272 -0.00123409 -0.0380729
          -0.0370501 0.0890911 -0.462169 0.101692 0.0805584 -0.621601
          0.0392936 0.0887872 -0.524484 -0.0296118 0.0834849 -0.573164
          0.477897 0.0912087 -0.814626 0.343916 0.0755584 -0.839382
          0.421482 0.0973892 -0.84509 0.344774 0.0734123 -0.938354
          -0.04001 0.111053 0.0264647 0.128655 0.112603 -0.0840872
          -0.033115 0.100493 -0.125328 0.0223666 0.115204 0.0326147
          0 0 0 0 0 0
          0.0222848 -0.00558348 -0.0278639 0.0244272 -0.00123409 -0.0380729
          0.00613925 -0.00568058 -0.0229973 0 0 0
          0.0222848 -0.00558348 -0.0278639 0.0244272 -0.00123409 -0.0380729
          0.138486 0.0182829 -1.10666 0.129881 0.0190457 -1.08765
          0.169153 0.0211548 -1.10787 0.148992 0.0128559 -1.11395
          0.416411 0.116529 -0.262841 0.327877 0.110293 -0.24624
          0.277729 0.0975518 -0.410816 0.492783 0.111952 -0.323366
          0.0824626 0.120069 0.102868 0.113661 0.130721 0.288513
          0.112681 0.128374 0.196126 -0.0474959 0.118465 0.181263
          0.20449 0.1161 0.00797098 0.384774 0.108005 -0.146912
          0.273244 0.100067 -0.260464 0.28116 0.113647 -0.106809
          0.209562 0.0518334 -0.953749 0.238684 0.0574548 -0.90005
          0.183089 0.0573615 -0.895068 0.13282 0.0487597 -0.935717
          0.424412 0.120747 0.0174048 0.484097 0.122155 -0.0630469
          0.384774 0.108005 -0.146912 0.28116 0.113647 -0.106809
          0.509302 0.18922 1.04712 0.477379 0.178653 0.833553
          0.578245 0.183818 0.83647 0.564165 0.19024 1.0193
          0.151547 0.002157 -1.08222 0.129918 -0.0092143 -1.0239
          0.17137 -0.00547832 -1.04012 0.0957739 -0.000896939 -1.02438
          0.117851 0.0788018 -0.593398 0.181637 0.0729893 -0.691136
          0.253788 0.0760074 -0.685864 0.136757 0.0683191 -0.748962
          0.123149 -0.0160708 -0.964579 0.126494 -0.0116239 -0.962722
          0.188752 -0.0119074 -0.967376 0.129918 -0.0092143 -1.0239
          0.129918 -0.0092143 -1.0239 0.0880873 -0.014668 -1.01073
          0.139782 -0.00357415 -1.07587 0.118174 -0.0101753 -1.07335
          0.583709 0.197168 1.17371 0.374364 0.188654 1.22074
          0.441927 0.190179 1.14735 0.509302 0.18922 1.04712
          0.10775 -0.0136116 -0.885602 0.126494 -0.0116239 -0.962722
          0.138454 -0.0082111 -0.93618 0.16486 -0.0132007 -0.873521
          0.268413 0.19547 2.02507 0.19858 0.209082 1.9791
          0.279451 0.199044 1.96301 0.280536 0.198948 1.94003
          0.169675 0.0299189 -1.08729 0.170804 0.0193801 -1.12604
          0.160153 0.0242505 -1.10792 0.196263 0.0293345 -1.09673
          0.128655 0.112603 -0.0840872 0.339176 0.123145 -0.0956363
          0.237825 0.113705 -0.173142 0.317615 0.133859 0.0941603
          -0.108758 -0.0168716 -0.179429 -0.0525861 -0.0158793 -0.211183
          -0.0607624 -0.0176287 -0.188494 -0.0277683 -0.0134212 -0.149544
          -0.0168768 -0.0233283 -0.525649 -0.0365529 -0.0262545 -0.615241
          -0.0443746 -0.0202338 -0.606738 0.0166565 -0.0213178 -0.651747
          0.0477449 0.14016 0.746838 0.112514 0.149711 0.813037
          0.128366 0.144338 0.653264 -0.0414189 0.136588 0.693819
          -0.0295207 -0.0156766 -0.182455 0.00486405 -0.0137133 -0.10608
          0.0342889 -0.0194191 -0.133678 0.0358098 -0.0173367 -0.15829
          0.237915 0.172735 1.23496 0.347512 0.182185 1.38557
          0.202133 0.177184 1.37992 0.158586 0.163992 1.36561
          0.158586 0.163992 1.36561 0.131058 0.158108 1.10918
          0.0112062 0.150211 1.24102 0.237915 0.172735 1.23496
          0.00892697 0.142516 1.2659 0.150271 0.155697 1.3658
          0.0112062 0.150211 1.24102 0.158586 0.163992 1.36561
          0.0019014 -0.00258287 -0.0143042 -0.00257965 -0.00261425 -0.0122043
          0.00878838 0.011498 -0.00445242 0.0209124 0.00511759 -0.0548072
          0.274181 -0.0149544 -0.750283 0.274841 -0.0128614 -0.74517
          0.261416 -0.0148291 -0.852965 0.206243 -0.0142357 -0.811176
          0.228412 0.0286129 -1.10666 0.206879 0.0273064 -1.10803
          0.195952 0.0179985 -1.12406 0.204545 0.0286583 -1.12534
          0.113519 0.179696 1.65371 0.133766 0.196158 1.68813
          0.166313 0.182704 1.76022 0.217421 0.188552 1.6753
          0.314828 0.197156 1.62844 0.201068 0.185051 1.52316
          0.212652 0.196452 1.56397 0.245913 0.189513 1.4291
          0.178948 0.0060033 -1.13028 0.183085 0.00551842 -1.13081
          0.181922 0.0120482 -1.13884 0.175656 0.012652 -1.13595
          0.217421 0.188552 1.6753 0.132312 0.154881 1.67008
          0.18332 0.150667 1.79197 0.113519 0.179696 1.65371
          0.252819 0.174978 1.51462 0.347512 0.182185 1.38557
          0.38689 0.188117 1.5561 0.294303 0.168015 1.52233
          0.347512 0.182185 1.38557 0.465399 0.19799 1.51567
          0.38689 0.188117 1.5561 0.294303 0.168015 1.52233
          0.465816 0.133938 -0.0723265 0.666764 0.142636 -0.158079
          0.684195 0.149966 -0.00656958 0.527923 0.13303 -0.0882344
          0.0771466 -0.0128792 -0.667253 -0.0323988 -0.0141205 -0.630091
          0.00815519 -0.0112139 -0.565742 0.0251875 -0.00748686 -0.660161
          0.228412 0.0286129 -1.10666 0.240259 0.0430863 -1.11282
          0.204545 0.0286583 -1.12534 0.215453 0.0337856 -1.12044
          0.472775 0.161158 0.475347 0.407349 0.167289 0.652838
          0.522672 0.172355 0.662797 0.576506 0.177642 0.668802
          0.620393 0.124519 -0.416868 0.59157 0.110913 -0.485872
          0.46044 0.105433 -0.546765 0.555583 0.106463 -0.608938
          0.168965 -0.00515665 -1.0663 0.194202 -0.00451249 -1.06016
          0.173041 -0.00280863 -1.09202 0.145625 -0.00790975 -1.06445
          0.354887 0.191231 2.10335 0.373512 0.195207 2.01143
          0.388864 0.195535 2.04031 0.280936 0.193837 2.04554
          0.17471 0.0103553 -1.13275 0.169372 0.0112354 -1.1349
          0.175656 0.012652 -1.13595 0.180128 0.0144698 -1.13421
          0.0063197 0.158562 0.854408 -0.0185965 0.146966 0.68783
          0.16481 0.162741 0.781435 -0.0126079 0.152453 0.828881
          0.201398 -0.00242298 -1.12266 0.183085 0.00551842 -1.13081
          0.215759 -0.00416399 -1.10589 0.188423 0.00272913 -1.13564
          0.183085 0.00551842 -1.13081 0.176707 0.00807449 -1.12962
          0.178948 0.0060033 -1.13028 0.197736 0.00453341 -1.11451
          0.172868 0.153489 1.50407 0.206569 0.161767 1.63429
          0.26653 0.162067 1.64719 0.294303 0.168015 1.52233
          0.128655 0.112603 -0.0840872 0.13459 0.111976 -0.0718907
          0.198264 0.124889 0.070095 -0.0474617 0.108912 -0.0036774
          0.10775 -0.0136116 -0.885602 0.126494 -0.0116239 -0.962722
          0.105915 -0.00932992 -0.868497 0.138454 -0.0082111 -0.93618
          0.553382 0.208726 1.55042 0.576437 0.21161 1.62788
          0.666629 0.22252 1.59758 0.690279 0.214152 1.44669
          0.24453 0.0708505 -0.80429 0.29765 0.0780915 -0.862205
          0.372631 0.0938046 -0.780209 0.343916 0.0755584 -0.839382
          0.173799 0.0876068 -0.503416 0.188323 0.0883993 -0.510283
          0.277729 0.0975518 -0.410816 0.217546 0.0982124 -0.384524
          0.0845378 0.147411 0.941905 0.131058 0.158108 1.10918
          -0.0194793 0.147898 0.977767 -0.00325904 0.140961 1.09947
          0.217546 0.0982124 -0.384524 0.173799 0.0876068 -0.503416
          0.230729 0.0840752 -0.586159 0.277729 0.0975518 -0.410816
          0.116656 -0.0213041 -0.272863 0.113946 -0.0122499 -0.222739
          0.188511 -0.0162307 -0.249986 0.134253 -0.0150344 -0.313891
          0.0360046 -0.0165645 -0.266146 -0.0401972 -0.0186737 -0.295772
          0.0327665 -0.0135779 -0.313497 -0.0161619 -0.0175454 -0.372721
          0.0360046 -0.0165645 -0.266146 -0.0284574 -0.0153834 -0.248114
          0.0327665 -0.0135779 -0.313497 -0.0401972 -0.0186737 -0.295772
          0.148028 0.00762492 -1.11872 0.129881 0.0190457 -1.08765
          0.169153 0.0211548 -1.10787 0.167174 0.0257106 -1.09011
          0.133766 0.196158 1.68813 0.196196 0.1941 1.84397
          0.294959 0.204801 1.7903 0.165846 0.208743 1.78842
          0.166313 0.182704 1.76022 0.196196 0.1941 1.84397
          0.283203 0.18814 1.84313 0.294959 0.204801 1.7903
          0.133766 0.196158 1.68813 0.166313 0.182704 1.76022
          0.294959 0.204801 1.7903 0.196196 0.1941 1.84397
          0.270998 0.0410123 -0.998166 0.239659 0.0461789 -0.951595
          0.3056 0.0562813 -0.888644 0.230153 0.0452618 -0.998765
          0.270998 0.0410123 -0.998166 0.230153 0.0452618 -0.998765
          0.196052 0.0376533 -1.03505 0.239659 0.0461789 -0.951595
          0.714042 0.187409 0.739804 0.576506 0.177642 0.668802
          0.721535 0.189703 0.763471 0.721043 0.181619 0.578553
          0.276125 0.0947165 -0.379639 0.147113 0.0900758 -0.449962
          0.27013 0.0773494 -0.610887 0.250628 0.081338 -0.520796
          0.586206 0.198766 1.24339 0.483334 0.195034 1.26309
          0.482423 0.197254 1.34396 0.583709 0.197168 1.17371
          0.238844 0.162658 1.06277 0.388683 0.182205 1.28846
          0.345197 0.178077 1.18186 0.236193 0.163352 1.23858
          0.20433 0.0494215 -0.926588 0.233984 0.0560029 -0.869098
          0.126057 0.0571167 -0.91903 0.178872 0.0606546 -0.845006
          0.268148 0.05214 -0.841647 0.233984 0.0560029 -0.869098
          0.20433 0.0494215 -0.926588 0.178872 0.0606546 -0.845006
          -0.0327675 0.087618 -0.432786 -0.0164584 0.0776046 -0.547456
          0.0878293 0.0822467 -0.551896 -0.0158408 0.0788361 -0.594233
          0.193318 0.0234298 -1.13418 0.204545 0.0349354 -1.14484
          0.193758 0.0212416 -1.1506 0.198031 0.0285388 -1.14317
          0.233984 0.0560029 -0.869098 0.20433 0.0494215 -0.926588
          0.283765 0.0410843 -0.917892 0.268148 0.05214 -0.841647
          0.3056 0.0562813 -0.888644 0.238684 0.0574548 -0.90005
          0.239659 0.0461789 -0.951595 0.233984 0.0560029 -0.869098
          0.327877 0.110293 -0.24624 0.409685 0.106138 -0.277549
          0.276125 0.0947165 -0.379639 0.277729 0.0975518 -0.410816
          -0.0327653 -0.0170453 -0.262145 -0.0658888 -0.0192985 -0.331415
          -0.00718751 -0.0210012 -0.361431 -0.00765868 -0.0207847 -0.286805
          -0.126512 -0.0230097 -0.257693 -0.088756 -0.0207238 -0.274965
          -0.0885361 -0.0230579 -0.174972 -0.0607624 -0.0176287 -0.188494
          0.30705 0.0854688 -0.699613 0.343916 0.0755584 -0.839382
          0.421332 0.0907937 -0.716274 0.336885 0.0784927 -0.737575
          0.0845877 -0.0255065 -0.751434 0.117877 -0.0213928 -0.722719
          0.183531 -0.02037 -0.75319 0.117074 -0.0194202 -0.800314
          0.15795 0.0127548 -1.12438 0.154846 0.0182198 -1.12627
          0.160153 0.0242505 -1.10792 0.135998 0.0290872 -1.1078
          0.15795 0.0127548 -1.12438 0.135998 0.0290872 -1.1078
          0.160153 0.0242505 -1.10792 0.138486 0.0182829 -1.10666
          0.372631 0.0938046 -0.780209 0.544752 0.115314 -0.671386
          0.392601 0.103022 -0.67509 0.421332 0.0907937 -0.716274
          0.118271 0.00736987 -1.08369 0.0855231 0.00918058 -1.04601
          0.120011 0.0152541 -1.07142 0.114495 0.0252058 -1.087
          -0.128932 -0.0248542 -0.459665 -0.00588535 -0.0269348 -0.514974
          -0.052492 -0.0226985 -0.433246 -0.0449147 -0.0230668 -0.390274
          0.36166 0.0661805 -0.870565 0.238684 0.0574548 -0.90005
          0.257074 0.0669415 -0.796305 0.258765 0.0665526 -0.86543
          0.270667 0.21001 1.87832 0.268785 0.212902 1.90147
          0.240274 0.217295 1.83279 0.209067 0.217383 1.88188
          0.048454 -0.0268886 -0.585892 0.0665477 -0.0233217 -0.48275
          0.112536 -0.0265035 -0.552338 0.0853681 -0.0229088 -0.641772
          0.325379 0.126608 -0.0892965 0.48131 0.134091 -0.161167
          0.520411 0.143817 -0.00516023 0.465816 0.133938 -0.0723265
          0.325379 0.126608 -0.0892965 0.465816 0.133938 -0.0723265
          0.520411 0.143817 -0.00516023 0.31981 0.134046 0.0434342
          0.121689 0.038873 -1.0749 0.136467 0.0366424 -1.05661
          0.143772 0.0417257 -1.04399 0.16577 0.0305277 -1.08499
          0.499489 0.20972 1.78754 0.458955 0.20145 1.7537
          0.549512 0.222453 1.80015 0.458089 0.203362 1.84714
          0.193335 -0.0140792 -0.680673 0.158713 -0.0124128 -0.593162
          0.16105 -0.0100386 -0.662766 0.0771466 -0.0128792 -0.667253
          0.690279 0.214152 1.44669 0.69147 0.217185 1.40219
          0.535403 0.202873 1.41079 0.704115 0.209655 1.28711
          0.37001 0.190326 1.4178 0.38689 0.188117 1.5561
          0.35344 0.191337 1.57455 0.252819 0.174978 1.51462
          0.235265 -0.00558497 -0.411059 0.258238 -0.0118763 -0.540991
          0.238356 -0.0109887 -0.42744 0.156717 -0.00972851 -0.433933
          0.37001 0.190326 1.4178 0.252819 0.174978 1.51462
          0.35344 0.191337 1.57455 0.202133 0.177184 1.37992
          0.0675574 -0.0172296 -0.103565 0.0644315 -0.0164299 -0.0698736
          0.0277173 -0.0112998 -0.0430308 0.028315 -0.0144495 -0.0665337
          0.00182079 -0.0183532 -0.985129 0.055218 -0.0096646 -0.961593
          0.0880873 -0.014668 -1.01073 0.0682129 -0.00638178 -1.0176
          -0.0953438 -0.016709 -0.120506 -0.0382728 -0.0119119 -0.0861697
          -0.0277683 -0.0134212 -0.149544 -0.102932 -0.0223742 -0.141753
          0.0063197 0.158562 0.854408 0.16481 0.162741 0.781435
          0.138201 0.169455 0.956597 0.121709 0.163601 0.920525
          0.0389992 -0.0231358 -0.956961 0.055218 -0.0096646 -0.961593
          0.0880873 -0.014668 -1.01073 0.00182079 -0.0183532 -0.985129
          -0.0953438 -0.016709 -0.120506 -0.0871916 -0.0208251 -0.097455
          -0.0382728 -0.0119119 -0.0861697 -0.102932 -0.0223742 -0.141753
          0.118225 -0.016529 -0.643321 0.15297 -0.0190904 -0.707837
          0.0740804 -0.0196889 -0.590591 0.08759 -0.0181695 -0.700148
          0.176707 0.00807449 -1.12962 0.195515 0.00872119 -1.11504
          0.179579 0.0122846 -1.12692 0.197736 0.00453341 -1.11451
          -0.0131994 0.152042 0.931257 0.121709 0.163601 0.920525
          0.224316 0.165267 0.860861 0.12317 0.154811 0.798318
          0.134934 -0.0107202 -1.12126 0.0893929 -0.023841 -1.08672
          0.118174 -0.0101753 -1.07335 0.0975126 -0.0129236 -1.08417
          0.335164 0.204974 2.06627 0.267912 0.193391 2.06131
          0.338076 0.210966 2.13269 0.305763 0.193747 2.10138
          0.0482068 0.0676577 -0.882717 0.0494826 0.052463 -0.910515
          0.0247339 0.0644325 -0.803147 0.123689 0.0542317 -0.925889
          0.356278 0.194339 1.30124 0.374364 0.188654 1.22074
          0.245913 0.189513 1.4291 0.153728 0.181466 1.28935
          0.14902 0.0833102 -0.571006 0.147113 0.0900758 -0.449962
          0.250628 0.081338 -0.520796 0.27013 0.0773494 -0.610887
          0.153728 0.181466 1.28935 0.308892 0.185216 1.1614
          0.356278 0.194339 1.30124 0.374364 0.188654 1.22074
          0.00316235 -0.00774175 -0.084285 0.0019014 -0.00258287 -0.0143042
          0.0376237 0.00315363 -0.0667112 0.0209124 0.00511759 -0.0548072
          0.27013 0.0773494 -0.610887 0.14902 0.0833102 -0.571006
          0.268257 0.0661042 -0.699179 0.250628 0.081338 -0.520796
          -0.0726572 -0.00236831 -0.0718477 -0.0748015 -0.00789741 -0.0695534
          -0.0115162 -0.00567168 -0.051575 -0.0365595 -0.00573392 -0.0808166
          0.674729 0.22363 1.53837 0.503551 0.201335 1.4564
          0.69147 0.217185 1.40219 0.675159 0.226764 1.51115
          0.0682129 -0.00638178 -1.0176 0.0346219 0.00470713 -1.02314
          0.0957739 -0.000896939 -1.02438 0.0855231 0.00918058 -1.04601
          0.0682129 -0.00638178 -1.0176 0.0855231 0.00918058 -1.04601
          0.0957739 -0.000896939 -1.02438 0.118271 0.00736987 -1.08369
          0.129141 0.0946554 -0.378284 0.0392936 0.0887872 -0.524484
          0.147113 0.0900758 -0.449962 0.14902 0.0833102 -0.571006
          0.15721 -0.0181165 -0.470608 0.0578659 -0.018722 -0.485896
          0.104284 -0.0136701 -0.371997 0.140684 -0.013983 -0.516463
          0.0307875 -0.0144254 -0.0138309 0.0140221 -0.0136444 -0.0704409
          0.00765813 -0.00792034 -0.0270135 0.0441782 -0.0214942 -0.0490048
          0.0662192 -0.0264858 -0.977787 0.123149 -0.0160708 -0.964579
          0.10098 -0.0230441 -0.930871 0.112132 -0.0186334 -1.01051
          0.106339 0.029652 -1.04331 0.133288 0.0434323 -0.997365
          0.157308 0.0350187 -1.04742 0.180739 0.0425605 -1.00764
          0.123339 0.00193013 -0.276106 0.113962 -0.0013081 -0.194325
          0.105195 -0.00802552 -0.266652 0.187575 0.00581802 -0.251084
          0.153352 0.000889392 -1.13561 0.147967 -0.00385141 -1.1071
          0.153 5.4393e-05 -1.12756 0.134934 -0.0107202 -1.12126
          0.079169 0.0414585 -0.973045 0.0494826 0.052463 -0.910515
          0.13282 0.0487597 -0.935717 0.0502769 0.0524165 -0.884212
          0.461908 0.207616 1.89904 0.37796 0.1901 1.89347
          0.383928 0.195509 1.93412 0.373718 0.18894 1.83094
          0.578844 0.169726 0.498809 0.472775 0.161158 0.475347
          0.522672 0.172355 0.662797 0.576506 0.177642 0.668802
          0.188444 -0.00778189 -1.02334 0.148011 -0.0139621 -0.990689
          0.145625 -0.00790975 -1.06445 0.168965 -0.00515665 -1.0663
          0.432167 0.0766004 -0.589968 0.27013 0.0773494 -0.610887
          0.351173 0.074105 -0.680571 0.376632 0.0687973 -0.609731
          0.430173 0.0406597 -0.862268 0.358861 0.0430357 -0.850377
          0.478524 0.0469546 -0.74553 0.363754 0.0521145 -0.84867
          0.130689 0.0951538 -0.354446 0.173799 0.0876068 -0.503416
          0.217546 0.0982124 -0.384524 0.108892 0.0931933 -0.375589
          0.152649 0.0237462 -1.12026 0.145661 0.00531314 -1.11313
          0.150219 0.0219777 -1.11042 0.173365 0.0162593 -1.12608
          -0.0186939 0.0795216 -0.446417 0.117851 0.0788018 -0.593398
          0.173799 0.0876068 -0.503416 0.108892 0.0931933 -0.375589
          0.217546 0.0982124 -0.384524 0.327877 0.110293 -0.24624
          0.286155 0.107829 -0.323724 0.195518 0.107239 -0.222251
          -0.0331069 -0.0207408 -0.7108 -0.0365529 -0.0262545 -0.615241
          -0.111952 -0.0240078 -0.643506 -0.0303082 -0.027155 -0.714006
          -0.0454728 -0.0174241 -0.455721 -0.128471 -0.0186226 -0.507901
          -0.0432089 -0.0131838 -0.487029 -0.0606808 -0.0122557 -0.560799
          0.0920557 -0.0255886 -0.845827 -0.000164951 -0.0258844 -0.847736
          0.0169673 -0.0315692 -0.881613 0.0289583 -0.0292126 -0.794661
          0.17471 0.0103553 -1.13275 0.175656 0.012652 -1.13595
          0.170804 0.0193801 -1.12604 0.180128 0.0144698 -1.13421
          0.117498 -0.0127052 -0.774123 0.0418954 -0.00556855 -0.770226
          0.105915 -0.00932992 -0.868497 0.0642946 -0.0122501 -0.806808
          0.160153 0.0242505 -1.10792 0.154846 0.0182198 -1.12627
          0.170804 0.0193801 -1.12604 0.157544 0.0198756 -1.12909
          0.0922398 -0.00387143 -0.958975 0.110876 -0.00244741 -0.920145
          0.105915 -0.00932992 -0.868497 0.138454 -0.0082111 -0.93618
          0.00945855 -0.0154396 -0.791267 0.00753187 -0.00795808 -0.801634
          0.0642946 -0.0122501 -0.806808 0.0547873 -0.00956248 -0.875966
          0.40147 0.202094 1.56307 0.542925 0.207163 1.63277
          0.498836 0.200919 1.48789 0.472255 0.204702 1.63519
          0.451127 0.184652 1.08346 0.564165 0.19024 1.0193
          0.364277 0.178104 1.03208 0.551693 0.196169 1.18361
          0.279451 0.199044 1.96301 0.19858 0.209082 1.9791
          0.268413 0.19547 2.02507 0.214937 0.209647 2.04065
          0.260191 -0.011571 -0.929422 0.156523 -0.0152272 -0.89299
          0.182197 -0.0121593 -0.958737 0.26285 -0.0130069 -0.876853
          0.329965 0.158701 0.681063 0.345308 0.152407 0.481869
          0.311949 0.159912 0.662099 0.477178 0.161787 0.54982
          0.121709 0.163601 0.920525 -0.0126079 0.152453 0.828881
          0.224316 0.165267 0.860861 0.12317 0.154811 0.798318
          0.0893929 -0.023841 -1.08672 0.0313912 -0.0323034 -1.04785
          0.0700022 -0.0189528 -1.04155 0.0975126 -0.0129236 -1.08417
          0.134934 -0.0107202 -1.12126 0.0975126 -0.0129236 -1.08417
          0.147967 -0.00385141 -1.1071 0.130874 -0.00297278 -1.10678
          0.535403 0.202873 1.41079 0.404649 0.196522 1.41683
          0.37001 0.190326 1.4178 0.491887 0.204341 1.55134
          0.237915 0.172735 1.23496 0.347512 0.182185 1.38557
          0.345197 0.178077 1.18186 0.473613 0.191655 1.24082
          0.0360046 -0.0165645 -0.266146 0.105195 -0.00802552 -0.266652
          0.104284 -0.0136701 -0.371997 0.0327665 -0.0135779 -0.313497
          0.180739 0.0425605 -1.00764 0.230153 0.0452618 -0.998765
          0.157308 0.0350187 -1.04742 0.217644 0.0373622 -1.05651
          0.46044 0.105433 -0.546765 0.432143 0.100045 -0.469631
          0.432326 0.0870368 -0.603389 0.59157 0.110913 -0.485872
          0.0374318 -0.0190485 -0.230557 0.12311 -0.0240496 -0.19082
          0.116656 -0.0213041 -0.272863 0.0774893 -0.0166292 -0.179655
          0.460286 0.156139 0.54136 0.329965 0.158701 0.681063
          0.475537 0.165971 0.715955 0.542691 0.172558 0.701274
          0.282637 0.191383 1.93899 0.301902 0.190563 2.02495
          0.390222 0.200457 2.03097 0.317265 0.193703 1.98205
          0.230411 0.202424 1.92573 0.193506 0.157546 1.98437
          0.301902 0.190563 2.02495 0.218066 0.195464 2.02504
          0.151547 0.002157 -1.08222 0.118271 0.00736987 -1.08369
          0.143377 0.0172557 -1.10458 0.171138 0.0116209 -1.12877
          0.152649 0.0237462 -1.12026 0.143377 0.0172557 -1.10458
          0.168346 0.0243239 -1.1291 0.143848 0.028966 -1.11295
          0.118271 0.00736987 -1.08369 0.120011 0.0152541 -1.07142
          0.143377 0.0172557 -1.10458 0.114495 0.0252058 -1.087
          0.0330385 0.0694828 -0.548444 0.0698984 0.0613448 -0.665753
          0.124865 0.0743217 -0.614662 0.00455765 0.0641691 -0.598263
          0.00455765 0.0641691 -0.598263 0.124865 0.0743217 -0.614662
          -0.0186939 0.0795216 -0.446417 0.00800832 0.0681307 -0.627782
          0.128655 0.112603 -0.0840872 -0.0321081 0.0923879 -0.258256
          0.195518 0.107239 -0.222251 0.0804092 0.101522 -0.223941
          0.697082 0.177494 0.642558 0.64176 0.17821 0.734424
          0.701053 0.18971 0.85072 0.542691 0.172558 0.701274
          0.183178 0.00281344 -1.13408 0.19375 -0.00246694 -1.13874
          0.18229 0.00818924 -1.14588 0.181922 0.0120482 -1.13884
          0.209323 -0.0136238 -0.907578 0.270875 -0.0148438 -0.866727
          0.261416 -0.0148291 -0.852965 0.206243 -0.0142357 -0.811176
          0.329965 0.158701 0.681063 0.189242 0.142522 0.483109
          0.345308 0.152407 0.481869 0.333142 0.149548 0.503453
          0.00945855 -0.0154396 -0.791267 0.00753187 -0.00795808 -0.801634
          -0.0752176 -0.0108463 -0.79656 -0.0854006 -0.00804012 -0.75767
          0.188423 0.00272913 -1.13564 0.180506 0.0179277 -1.13799
          0.191011 0.0101408 -1.14815 0.181922 0.0120482 -1.13884
          -0.0229897 0.146215 0.749164 -0.0284562 0.14066 0.608061
          0.12317 0.154811 0.798318 0.141115 0.14885 0.667341
          0.311359 0.19366 2.00681 0.193506 0.157546 1.98437
          0.282072 0.186107 1.95795 0.267912 0.193391 2.06131
          0.317734 0.059831 -0.79408 0.344425 0.0532901 -0.764546
          0.268257 0.0661042 -0.699179 0.268148 0.05214 -0.841647
          0.00800832 0.0681307 -0.627782 0.124865 0.0743217 -0.614662
          -0.0186939 0.0795216 -0.446417 0.117851 0.0788018 -0.593398
          0.351173 0.074105 -0.680571 0.317734 0.059831 -0.79408
          0.268257 0.0661042 -0.699179 0.225286 0.0686452 -0.746878
          0.587716 0.22395 2.01079 0.584148 0.228069 2.09401
          0.59149 0.218173 2.02627 0.509965 0.214157 2.04142
          -0.0295207 -0.0156766 -0.182455 0.0358098 -0.0173367 -0.15829
          0.0374318 -0.0190485 -0.230557 -0.0501823 -0.013834 -0.19697
          0.166462 0.00518771 -1.12544 0.157185 -0.00844997 -1.13379
          0.197806 0.00805325 -1.12213 0.17471 0.0103553 -1.13275
          0.103863 -0.00388894 -0.0944656 0.0752352 -0.00582282 -0.0580352
          0.0514415 -0.00199443 -0.0580778 0.0607489 -0.00918772 -0.0791758
          0.103863 -0.00388894 -0.0944656 0.0514415 -0.00199443 -0.0580778
          0.0660439 -0.0028024 -0.102152 0.0607489 -0.00918772 -0.0791758
          -0.11324 -0.0126841 -0.205618 -0.11621 -0.0158091 -0.225044
          -0.0501823 -0.013834 -0.19697 -0.0327653 -0.0170453 -0.262145
          0.616494 0.228263 1.82752 0.516936 0.212012 1.83282
          0.619954 0.221042 1.81518 0.632325 0.224004 1.75653
          0.0636064 -0.00891908 -0.389929 0.127111 -0.00743066 -0.450311
          0.0470197 -0.0148555 -0.460253 0.057422 -0.00958656 -0.504466
          0.170346 0.164995 1.04243 0.349722 0.170056 0.845586
          0.364277 0.178104 1.03208 0.20704 0.159521 0.859824
          0.361484 0.173451 1.00011 0.20704 0.159521 0.859824
          0.364277 0.178104 1.03208 0.349722 0.170056 0.845586
          0.329965 0.158701 0.681063 0.4665 0.174973 0.832093
          0.311949 0.159912 0.662099 0.349722 0.170056 0.845586
          0.225286 0.0686452 -0.746878 0.233984 0.0560029 -0.869098
          0.268148 0.05214 -0.841647 0.178872 0.0606546 -0.845006
          -0.0321081 0.0923879 -0.258256 -0.00969368 0.0757089 -0.473971
          0.130689 0.0951538 -0.354446 -0.0186939 0.0795216 -0.446417
          0.719557 0.200946 1.05157 0.564165 0.19024 1.0193
          0.509302 0.18922 1.04712 0.716643 0.195296 0.903992
          -0.033115 0.100493 -0.125328 -0.0474617 0.108912 -0.0036774
          0.128655 0.112603 -0.0840872 -0.04001 0.111053 0.0264647
          -0.033115 0.100493 -0.125328 -0.0481754 0.101567 -0.142666
          0.128655 0.112603 -0.0840872 -0.0474617 0.108912 -0.0036774
          0.318274 0.14137 0.291124 0.374349 0.146448 0.377404
          0.44205 0.135678 0.148091 0.554677 0.147962 0.233816
          0.564165 0.19024 1.0193 0.709038 0.196187 0.93758
          0.706821 0.206865 1.16605 0.703544 0.206163 1.12416
          0.148357 -0.0229473 -0.694047 0.178216 -0.0244722 -0.612851
          0.229013 -0.0198355 -0.706495 0.187251 -0.0208078 -0.643288
          0.162798 0.0130179 -1.13538 0.146472 0.0258741 -1.12314
          0.164869 0.0206331 -1.12188 0.157544 0.0198756 -1.12909
          0.17279 0.00720272 -1.12721 0.181061 0.0164242 -1.12749
          0.195515 0.00872119 -1.11504 0.173 0.00588326 -1.11985
          0.395929 0.200623 1.90057 0.461807 0.207187 1.95549
          0.454738 0.206806 1.89198 0.39061 0.201088 1.94817
          0.187662 -0.015708 -0.769458 0.187113 -0.0166802 -0.683439
          0.269356 -0.0163645 -0.701896 0.274181 -0.0149544 -0.750283
          0.395929 0.200623 1.90057 0.399113 0.201668 1.96815
          0.461807 0.207187 1.95549 0.39061 0.201088 1.94817
          0.432143 0.100045 -0.469631 0.349309 0.0887881 -0.620987
          0.432326 0.0870368 -0.603389 0.299053 0.0864083 -0.553598
          0.216657 -0.00509489 -0.339147 0.134253 -0.0150344 -0.313891
          0.225279 -0.013258 -0.37308 0.201181 -0.00575203 -0.283796
          0.240259 0.0430863 -1.11282 0.294977 0.0648741 -1.08627
          0.228727 0.046858 -1.13087 0.235505 0.0465084 -1.10819
          0.313847 0.186532 1.91649 0.282072 0.186107 1.95795
          0.272421 0.182674 1.91203 0.234576 0.164884 1.9288
          -0.0117854 -0.00191015 -0.0371014 0.0140221 -0.0136444 -0.0704409
          0.00765813 -0.00792034 -0.0270135 0.0307875 -0.0144254 -0.0138309
          0.148357 -0.0229473 -0.694047 0.229013 -0.0198355 -0.706495
          0.183531 -0.02037 -0.75319 0.187251 -0.0208078 -0.643288
          0.524651 0.210655 2.04711 0.509965 0.214157 2.04142
          0.55343 0.219074 2.12334 0.50375 0.208821 2.11494
          0.622191 0.203573 1.52752 0.669866 0.212344 1.60442
          0.594527 0.204081 1.66253 0.542925 0.207163 1.63277
          0.112132 -0.0186334 -1.01051 0.123149 -0.0160708 -0.964579
          0.10098 -0.0230441 -0.930871 0.148011 -0.0139621 -0.990689
          0.237915 0.172735 1.23496 0.347512 0.182185 1.38557
          0.37001 0.190326 1.4178 0.202133 0.177184 1.37992
          0.202133 0.177184 1.37992 0.347512 0.182185 1.38557
          0.37001 0.190326 1.4178 0.252819 0.174978 1.51462
          0.174612 0.0120543 -1.13495 0.177514 0.0162521 -1.13173
          0.18739 0.0247255 -1.1202 0.169153 0.0211548 -1.10787
          0.0954567 0.0390706 -1.02908 0.079169 0.0414585 -0.973045
          0.0714426 0.0506437 -0.980392 0.133288 0.0434323 -0.997365
          0.629611 0.117661 -0.264494 0.673207 0.140736 0.00567184
          0.646271 0.129887 -0.217498 0.502812 0.120214 -0.176552
          0.327201 0.179018 1.03886 0.285644 0.179109 1.01471
          0.166401 0.179047 1.13145 0.308892 0.185216 1.1614
          0.376293 0.185483 1.21542 0.451127 0.184652 1.08346
          0.345197 0.178077 1.18186 0.254887 0.168468 1.07544
          0.235742 0.0082428 -1.0865 0.196237 0.0163121 -1.0977
          0.23176 0.0157621 -1.09497 0.208434 0.00138132 -1.11463
          0.345197 0.178077 1.18186 0.451127 0.184652 1.08346
          0.473613 0.191655 1.24082 0.553202 0.194862 1.1531
          0.17471 0.0103553 -1.13275 0.170804 0.0193801 -1.12604
          0.207377 0.0208321 -1.10963 0.20182 0.0253005 -1.11961
          0.368363 0.0880234 -0.492427 0.277729 0.0975518 -0.410816
          0.409685 0.106138 -0.277549 0.471473 0.100582 -0.394055
          0.229005 0.0188687 -1.0652 0.196237 0.0163121 -1.0977
          0.23176 0.0157621 -1.09497 0.235742 0.0082428 -1.0865
          0.345308 0.152407 0.481869 0.517372 0.152084 0.282314
          0.472775 0.161158 0.475347 0.572815 0.164404 0.469028
          0.153352 0.000889392 -1.13561 0.17279 0.00720272 -1.12721
          0.147967 -0.00385141 -1.1071 0.173 0.00588326 -1.11985
          0.147967 -0.00385141 -1.1071 0.118174 -0.0101753 -1.07335
          0.139782 -0.00357415 -1.07587 0.130874 -0.00297278 -1.10678
          0.166518 0.00346835 -1.12287 0.153 5.4393e-05 -1.12756
          0.147967 -0.00385141 -1.1071 0.130874 -0.00297278 -1.10678
          0.147967 -0.00385141 -1.1071 0.173041 -0.00280863 -1.09202
          0.139782 -0.00357415 -1.07587 0.118174 -0.0101753 -1.07335
          0.578844 0.169726 0.498809 0.542112 0.173101 0.58157
          0.576506 0.177642 0.668802 0.721043 0.181619 0.578553
          0 0 0 0.0547054 0.0263362 -0.0374226
          0 0 0 0.0174988 0.00881202 -0.0123778
          -0.0897965 -0.0172937 -0.75591 0.0185148 -0.0145913 -0.704614
          -0.109993 -0.0199922 -0.657779 -0.0331069 -0.0207408 -0.7108
          0.183164 -0.0170671 -0.589371 0.258238 -0.0118763 -0.540991
          0.26683 -0.0138364 -0.624716 0.158713 -0.0124128 -0.593162
          0.542691 0.172558 0.701274 0.460286 0.156139 0.54136
          0.63083 0.166766 0.558058 0.475537 0.165971 0.715955
          0.173 0.00588326 -1.11985 0.147967 -0.00385141 -1.1071
          0.141749 -0.00792323 -1.10374 0.173041 -0.00280863 -1.09202
          0.0878293 0.0822467 -0.551896 -0.0164584 0.0776046 -0.547456
          0.117851 0.0788018 -0.593398 0.00251873 0.0698236 -0.678307
          -0.0340695 0.132309 0.416224 0.119924 0.137646 0.352982
          -0.0254253 0.13798 0.494116 0.121136 0.145829 0.514661
          0.177901 0.122751 0.105101 -0.0655243 0.111919 0.0879617
          0.068297 0.121898 0.190096 -0.0565269 0.110644 0.0352962
          0 0 0 0 0 0
          0 0 0 0.0174988 0.00881202 -0.0123778
          0.134934 -0.0107202 -1.12126 0.0893929 -0.023841 -1.08672
          0.141749 -0.00792323 -1.10374 0.118174 -0.0101753 -1.07335
          0.141749 -0.00792323 -1.10374 0.0893929 -0.023841 -1.08672
          0.111914 -0.0174845 -1.05123 0.118174 -0.0101753 -1.07335
          0.0348273 -0.00834823 -1.03009 0.00286609 -0.009542 -0.984145
          0.0682129 -0.00638178 -1.0176 0.0346219 0.00470713 -1.02314
          0.0971336 -0.00259998 -1.06633 0.129918 -0.0092143 -1.0239
          0.139782 -0.00357415 -1.07587 0.0682129 -0.00638178 -1.0176
          0.551693 0.196169 1.18361 0.706821 0.206865 1.16605
          0.584036 0.203196 1.31556 0.473613 0.191655 1.24082
          0.0452892 0.0171097 -0.0497382 0.0174988 0.00881202 -0.0123778
          0.0915026 0.0116161 -0.076386 0.0547054 0.0263362 -0.0374226
          0.0244272 -0.00123409 -0.0380729 0.0019014 -0.00258287 -0.0143042
          0 0 0 0.0174988 0.00881202 -0.0123778
          -0.0186939 0.0795216 -0.446417 -0.0164584 0.0776046 -0.547456
          0.108892 0.0931933 -0.375589 -0.0327675 0.087618 -0.432786
          0.0303563 0.162405 1.30879 0.0171941 0.169817 1.175
          0.149429 0.170536 1.21814 0.00285029 0.158127 1.12293
          0.0463607 0.175677 1.37031 0.0171941 0.169817 1.175
          0.149429 0.170536 1.21814 0.0303563 0.162405 1.30879
          0.163265 0.169482 1.05637 0.149429 0.170536 1.21814
          0.00285029 0.158127 1.12293 0.170346 0.164995 1.04243
          0.196052 0.0376533 -1.03505 0.208244 0.0317288 -1.03781
          0.143772 0.0417257 -1.04399 0.16577 0.0305277 -1.08499
          0.395929 0.200623 1.90057 0.508874 0.214006 1.95539
          0.461807 0.207187 1.95549 0.399113 0.201668 1.96815
          0.148992 0.0128559 -1.11395 0.167692 0.00789246 -1.13227
          0.148028 0.00762492 -1.11872 0.174612 0.0120543 -1.13495
          0.0827109 -0.0196146 -1.08085 0.0471266 -0.0191522 -1.04979
          0.0975126 -0.0129236 -1.08417 0.0811437 -0.0025162 -1.07377
          0.116656 -0.0213041 -0.272863 0.194208 -0.0324585 -0.282328
          0.21664 -0.0255281 -0.33122 0.193086 -0.0253065 -0.24717
          0.116656 -0.0213041 -0.272863 0.193086 -0.0253065 -0.24717
          0.21664 -0.0255281 -0.33122 0.212099 -0.0193911 -0.323621
          0.238887 0.0380659 -1.09393 0.205207 0.033256 -1.10889
          0.207944 0.034123 -1.08695 0.23471 0.0431356 -1.07046
          0.535403 0.202873 1.41079 0.483334 0.195034 1.26309
          0.37001 0.190326 1.4178 0.404649 0.196522 1.41683
          0.150219 0.0219777 -1.11042 0.152649 0.0237462 -1.12026
          0.173365 0.0162593 -1.12608 0.182059 0.0298849 -1.13052
          0.116656 -0.0213041 -0.272863 0.172218 -0.0297435 -0.346252
          0.21664 -0.0255281 -0.33122 0.194208 -0.0324585 -0.282328
          0.116656 -0.0213041 -0.272863 0.193086 -0.0253065 -0.24717
          0.212099 -0.0193911 -0.323621 0.188511 -0.0162307 -0.249986
          -0.05098 -0.00222087 -0.02854 -0.0148586 -0.00274295 -0.0245388
          -0.0485207 -0.00933978 -0.032129 0 0 0
          -0.0816843 -0.000652163 -0.0945631 -0.0726572 -0.00236831 -0.0718477
          -0.0365595 -0.00573392 -0.0808166 -0.0950276 -0.0100972 -0.12574
          -0.0391606 0.125046 0.285413 0.113661 0.130721 0.288513
          -0.0418792 0.129004 0.391246 -0.0474959 0.118465 0.181263
          0.209269 0.143736 1.78898 0.206569 0.161767 1.63429
          0.155598 0.132588 1.77496 0.299638 0.182033 1.71781
          0.180128 0.0144698 -1.13421 0.175656 0.012652 -1.13595
          0.170804 0.0193801 -1.12604 0.172928 0.0182889 -1.13082
          0.148357 -0.0229473 -0.694047 0.0853681 -0.0229088 -0.641772
          0.117877 -0.0213928 -0.722719 0.0252257 -0.0287216 -0.667561
          0.303986 0.162513 1.85599 0.301773 0.162762 1.76111
          0.209269 0.143736 1.78898 0.269246 0.161112 1.88195
          0.254776 -0.0120806 -0.974703 0.194464 -0.00870049 -1.02577
          0.188752 -0.0119074 -0.967376 0.185038 -0.0112891 -0.966454
          0.311949 0.159912 0.662099 0.141115 0.14885 0.667341
          0.329965 0.158701 0.681063 0.20704 0.159521 0.859824
          0.432167 0.0766004 -0.589968 0.411463 0.0864855 -0.395732
          0.368363 0.0880234 -0.492427 0.376632 0.0687973 -0.609731
          0.00285029 0.158127 1.12293 -0.0194793 0.147898 0.977767
          -0.0131994 0.152042 0.931257 0.170346 0.164995 1.04243
          0.525444 0.0638031 -0.598024 0.500108 0.0770506 -0.481701
          0.432167 0.0766004 -0.589968 0.376632 0.0687973 -0.609731
          0.17471 0.0103553 -1.13275 0.170804 0.0193801 -1.12604
          0.20182 0.0253005 -1.11961 0.180128 0.0144698 -1.13421
          0.171138 0.0116209 -1.12877 0.143377 0.0172557 -1.10458
          0.171214 0.0112742 -1.12197 0.168346 0.0243239 -1.1291
          -0.0284574 -0.0153834 -0.248114 0.0327665 -0.0135779 -0.313497
          -0.0161619 -0.0175454 -0.372721 -0.0513797 -0.0175883 -0.319843
          0.157544 0.0198756 -1.12909 0.144416 0.0282204 -1.12747
          0.135998 0.0290872 -1.1078 0.154846 0.0182198 -1.12627
          -0.132317 -0.0205373 -0.410748 -0.132434 -0.021604 -0.332616
          -0.131659 -0.0221287 -0.396732 -0.0161619 -0.0175454 -0.372721
          0.158522 0.00273212 -1.11049 0.0971336 -0.00259998 -1.06633
          0.139782 -0.00357415 -1.07587 0.118354 0.00659017 -1.09692
          0.18332 0.150667 1.79197 0.206569 0.161767 1.63429
          0.155598 0.132588 1.77496 0.132312 0.154881 1.67008
          0.229005 0.0188687 -1.0652 0.208914 0.0286063 -1.0707
          0.247711 0.0274887 -1.06388 0.196237 0.0163121 -1.0977
          0.00455765 0.0641691 -0.598263 0.00800832 0.0681307 -0.627782
          0.0250515 0.0571414 -0.717461 0.124865 0.0743217 -0.614662
          0.00753187 -0.00795808 -0.801634 -0.0182043 -0.00505826 -0.712925
          0.0418954 -0.00556855 -0.770226 -0.0602992 -0.000919334 -0.759307
          0 0 0 0.0531873 -0.00509933 -0.00647402
          0.0484699 -0.0108675 -0.030091 0 0 0
          0.695025 0.206879 1.43571 0.669866 0.212344 1.60442
          0.542925 0.207163 1.63277 0.555537 0.202478 1.4184
          -0.0321081 0.0923879 -0.258256 -0.0186939 0.0795216 -0.446417
          0.108892 0.0931933 -0.375589 -0.0453011 0.0930471 -0.305608
          0.476062 0.182941 1.06639 0.553202 0.194862 1.1531
          0.506516 0.19332 1.21679 0.703544 0.206163 1.12416
          0.00613925 -0.00568058 -0.0229973 0 0 0
          0.0277173 -0.0112998 -0.0430308 0.0222848 -0.00558348 -0.0278639
          0.313847 0.186532 1.91649 0.282072 0.186107 1.95795
          0.282637 0.191383 1.93899 0.272421 0.182674 1.91203
          0.294959 0.204801 1.7903 0.315947 0.196592 1.90816
          0.270667 0.21001 1.87832 0.272421 0.182674 1.91203
          0.315947 0.196592 1.90816 0.272421 0.182674 1.91203
          0.395929 0.200623 1.90057 0.313847 0.186532 1.91649
          0.351222 0.0854695 -0.909379 0.341916 0.079455 -0.982387
          0.344774 0.0734123 -0.938354 0.290634 0.0679208 -1.00623
          0.341916 0.079455 -0.982387 0.288575 0.0631171 -1.04643
          0.286476 0.052365 -1.03123 0.290634 0.0679208 -1.00623
          -0.0342884 0.120438 0.180975 0.112681 0.128374 0.196126
          -0.04001 0.111053 0.0264647 0.0223666 0.115204 0.0326147
          -0.0365595 -0.00573392 -0.0808166 -0.0748015 -0.00789741 -0.0695534
          -0.0354252 -0.0123842 -0.100673 -0.0950276 -0.0100972 -0.12574
          0.675159 0.226764 1.51115 0.540308 0.212462 1.59578
          0.551926 0.218189 1.69449 0.655136 0.228487 1.65267
          0.39061 0.201088 1.94817 0.390222 0.200457 2.03097
          0.463114 0.205583 2.00861 0.388864 0.195535 2.04031
          0.278414 0.0118281 -1.0665 0.235742 0.0082428 -1.0865
          0.23176 0.0157621 -1.09497 0.247082 -0.00262737 -1.09337
          0.374364 0.188654 1.22074 0.308892 0.185216 1.1614
          0.441927 0.190179 1.14735 0.327201 0.179018 1.03886
          0.553382 0.208726 1.55042 0.533951 0.211685 1.71521
          0.576437 0.21161 1.62788 0.460626 0.203436 1.6395
          0.215759 -0.00416399 -1.10589 0.19541 -0.00381637 -1.08441
          0.223532 -0.00797952 -1.09888 0.177787 0.00281491 -1.11165
          0.598111 0.217808 1.93833 0.59149 0.218173 2.02627
          0.550847 0.21194 1.99431 0.524651 0.210655 2.04711
          0.4665 0.174973 0.832093 0.451127 0.184652 1.08346
          0.364277 0.178104 1.03208 0.361484 0.173451 1.00011
          0.0855231 0.00918058 -1.04601 0.0508581 0.018267 -1.0146
          0.114495 0.0252058 -1.087 0.0742282 0.0288745 -1.06535
          0.139282 -0.0208527 -0.568469 0.15297 -0.0190904 -0.707837
          0.187113 -0.0166802 -0.683439 0.187251 -0.0208078 -0.643288
          0.203198 -0.00291793 -1.12128 0.177787 0.00281491 -1.11165
          0.223532 -0.00797952 -1.09888 0.19541 -0.00381637 -1.08441
          0.215759 -0.00416399 -1.10589 0.185334 -0.00195267 -1.08471
          0.19541 -0.00381637 -1.08441 0.177787 0.00281491 -1.11165
          0.15721 -0.0181165 -0.470608 0.0578659 -0.018722 -0.485896
          0.0665477 -0.0233217 -0.48275 0.110453 -0.0208346 -0.375156
          0.480039 0.211585 2.11979 0.417589 0.200862 2.11155
          0.390222 0.200457 2.03097 0.408602 0.205183 2.11483
          0.0930218 0.0316273 -0.984041 0.180739 0.0425605 -1.00764
          0.156925 0.0462572 -0.961802 0.071029 0.042301 -0.936173
          0.117525 0.0398736 -0.929906 0.156925 0.0462572 -0.961802
          0.226725 0.0569851 -0.976381 0.207633 0.0598625 -0.876171
          0.117525 0.0398736 -0.929906 0.156925 0.0462572 -0.961802
          0.156445 0.0377303 -1.01497 0.226725 0.0569851 -0.976381
          0.702014 0.175241 0.559962 0.709794 0.178071 0.568122
          0.522672 0.172355 0.662797 0.705183 0.183313 0.70671
          0.505427 0.147666 0.375367 0.692943 0.167956 0.489621
          0.656898 0.14967 0.306036 0.516531 0.151569 0.353601
          -0.052492 -0.0226985 -0.433246 -0.00588535 -0.0269348 -0.514974
          0.0470043 -0.0228191 -0.395565 0.0536057 -0.025715 -0.403315
          0.206569 0.161767 1.63429 0.172868 0.153489 1.50407
          0.252819 0.174978 1.51462 0.294303 0.168015 1.52233
          0.516531 0.151569 0.353601 0.692943 0.167956 0.489621
          0.656898 0.14967 0.306036 0.681499 0.15071 0.240111
          0.516531 0.151569 0.353601 0.692943 0.167956 0.489621
          0.681499 0.15071 0.240111 0.698744 0.164157 0.363125
          0.598111 0.217808 1.93833 0.59149 0.218173 2.02627
          0.524651 0.210655 2.04711 0.501687 0.207959 1.94509
          0.697082 0.177494 0.642558 0.702014 0.175241 0.559962
          0.542691 0.172558 0.701274 0.705183 0.183313 0.70671
          0.172928 0.0182889 -1.13082 0.170804 0.0193801 -1.12604
          0.187816 0.025274 -1.11521 0.160153 0.0242505 -1.10792
          -0.11621 -0.0158091 -0.225044 -0.128186 -0.0211097 -0.310567
          -0.0525861 -0.0158793 -0.211183 -0.0401972 -0.0186737 -0.295772
          0.416411 0.116529 -0.262841 0.277729 0.0975518 -0.410816
          0.348836 0.102855 -0.459932 0.432143 0.100045 -0.469631
          0.128655 0.112603 -0.0840872 -0.0474617 0.108912 -0.0036774
          0.198264 0.124889 0.070095 -0.04001 0.111053 0.0264647
          0.101692 0.0805584 -0.621601 0.109161 0.0700203 -0.752531
          0.0297149 0.0817309 -0.656534 -0.00846173 0.0762337 -0.687888
          0.153728 0.181466 1.28935 0.261654 0.180809 1.21446
          0.202133 0.177184 1.37992 0.149429 0.170536 1.21814
          0.166518 0.00346835 -1.12287 0.172442 0.00860304 -1.13067
          0.158522 0.00273212 -1.11049 0.183085 0.00551842 -1.13081
          0.404221 0.212756 2.07781 0.335164 0.204974 2.06627
          0.394078 0.205558 2.05199 0.387815 0.202424 1.98846
          0.0209038 -0.00974771 -0.210131 -0.0185362 -0.0123417 -0.194536
          0.0130412 -0.00728572 -0.143159 0.0108447 -0.00392801 -0.129841
          -0.108082 -0.0140942 -0.171628 -0.100392 -0.00592964 -0.151989
          -0.0482987 -0.0104118 -0.135516 -0.0950276 -0.0100972 -0.12574
          0.0185148 -0.0145913 -0.704614 0.0418954 -0.00556855 -0.770226
          0.117498 -0.0127052 -0.774123 0.0642946 -0.0122501 -0.806808
          0.343916 0.0755584 -0.839382 0.260874 0.0644344 -0.917065
          0.344774 0.0734123 -0.938354 0.278739 0.0589262 -0.949907
          0.166313 0.182704 1.76022 0.234576 0.164884 1.9288
          0.234576 0.164884 1.9288 0.283203 0.18814 1.84313
          0.0983943 0.103903 -0.1821 0.0886722 0.0972271 -0.326607
          0.105133 0.110602 -0.0678035 0.17425 0.103817 -0.236551
          0.276125 0.0947165 -0.379639 0.129141 0.0946554 -0.378284
          0.147113 0.0900758 -0.449962 0.250628 0.081338 -0.520796
          0.276125 0.0947165 -0.379639 0.409685 0.106138 -0.277549
          0.368363 0.0880234 -0.492427 0.277729 0.0975518 -0.410816
          0.344774 0.0734123 -0.938354 0.396695 0.0851948 -0.993426
          0.341916 0.079455 -0.982387 0.44975 0.100469 -0.891684
          0.392657 0.0753856 -0.971224 0.396695 0.0851948 -0.993426
          0.341916 0.079455 -0.982387 0.344774 0.0734123 -0.938354
          0.318274 0.14137 0.291124 0.554677 0.147962 0.233816
          0.326886 0.131137 0.105877 0.517372 0.152084 0.282314
          0.343916 0.0755584 -0.839382 0.260874 0.0644344 -0.917065
          0.351222 0.0854695 -0.909379 0.344774 0.0734123 -0.938354
          0.517372 0.152084 0.282314 0.326886 0.131137 0.105877
          0.445539 0.138683 0.0844741 0.554677 0.147962 0.233816
          0.392657 0.0753856 -0.971224 0.396695 0.0851948 -0.993426
          0.344774 0.0734123 -0.938354 0.44975 0.100469 -0.891684
          0.315947 0.196592 1.90816 0.294959 0.204801 1.7903
          0.387594 0.201059 1.81382 0.283203 0.18814 1.84313
          0.124865 0.0743217 -0.614662 0.0698984 0.0613448 -0.665753
          0.0250515 0.0571414 -0.717461 0.00455765 0.0641691 -0.598263
          -0.00765868 -0.0207847 -0.286805 -0.0295207 -0.0156766 -0.182455
          0.0390515 -0.02144 -0.216222 -0.0327653 -0.0170453 -0.262145
          0.125349 -0.031823 -0.104373 0.0991233 -0.0291402 -0.14598
          0.0758476 -0.0272059 -0.0749921 0.0675574 -0.0172296 -0.103565
          0.0802511 -0.012505 -0.0646586 0.0607489 -0.00918772 -0.0791758
          0.0752352 -0.00582282 -0.0580352 0.103863 -0.00388894 -0.0944656
          -0.0391606 0.125046 0.285413 -0.0342884 0.120438 0.180975
          0.112681 0.128374 0.196126 -0.0474959 0.118465 0.181263
          0.0327665 -0.0135779 -0.313497 0.0366677 -0.00708896 -0.252972
          0.0636064 -0.00891908 -0.389929 -0.0209055 -0.0143869 -0.281814
          0.111257 -0.0260218 -0.0822399 0.0644315 -0.0164299 -0.0698736
          0.0816611 -0.0211183 -0.0484198 0.0802511 -0.012505 -0.0646586
          0.30705 0.0854688 -0.699613 0.421332 0.0907937 -0.716274
          0.349309 0.0887881 -0.620987 0.336885 0.0784927 -0.737575
          0.0920557 -0.0255886 -0.845827 0.0708915 -0.0190248 -0.830437
          0.10091 -0.0208321 -0.887682 0.0289583 -0.0292126 -0.794661
          -0.11324 -0.0126841 -0.205618 -0.11621 -0.0158091 -0.225044
          -0.0327653 -0.0170453 -0.262145 -0.122225 -0.0168075 -0.28944
          0.367694 0.056094 -0.989246 0.286476 0.052365 -1.03123
          0.320388 0.0571591 -1.04914 0.267714 0.0382249 -1.05959
          0.106339 0.029652 -1.04331 0.160795 0.0354946 -1.04283
          0.157308 0.0350187 -1.04742 0.173956 0.0310747 -1.07793
          0.00753187 -0.00795808 -0.801634 0.00945855 -0.0154396 -0.791267
          0.0185148 -0.0145913 -0.704614 -0.0854006 -0.00804012 -0.75767
          0.151948 -0.00220459 -0.376901 0.215795 0.00348826 -0.339919
          0.141866 -0.00647079 -0.337935 0.235265 -0.00558497 -0.411059
          0.0758476 -0.0272059 -0.0749921 0.0441782 -0.0214942 -0.0490048
          0.0644315 -0.0164299 -0.0698736 0.028315 -0.0144495 -0.0665337
          0.00554623 -0.0230099 -0.354419 -0.00765868 -0.0207847 -0.286805
          0.0486358 -0.0214736 -0.314918 -0.00718751 -0.0210012 -0.361431
          0.00554623 -0.0230099 -0.354419 -0.00765868 -0.0207847 -0.286805
          0.0549394 -0.024593 -0.318496 0.0486358 -0.0214736 -0.314918
          0.0360046 -0.0165645 -0.266146 0.113946 -0.0122499 -0.222739
          0.116656 -0.0213041 -0.272863 0.134253 -0.0150344 -0.313891
          0.0937305 -0.0266664 -0.206198 0.173193 -0.0331804 -0.207257
          0.194208 -0.0324585 -0.282328 0.12311 -0.0240496 -0.19082
          0.0758894 0.0556241 -0.975666 0.143772 0.0417257 -1.04399
          0.13712 0.0459501 -1.00016 0.157521 0.0469226 -0.985977
          0.00586034 0.0936913 -0.408731 -0.0517243 0.0947152 -0.329892
          0.0886722 0.0972271 -0.326607 -0.0370501 0.0890911 -0.462169
          0.240259 0.0430863 -1.11282 0.258456 0.0565514 -1.10446
          0.228727 0.046858 -1.13087 0.294977 0.0648741 -1.08627
          0.208938 0.0367803 -1.11163 0.182059 0.0298849 -1.13052
          0.240259 0.0430863 -1.11282 0.228727 0.046858 -1.13087
          0.0470197 -0.0148555 -0.460253 0.104284 -0.0136701 -0.371997
          0.0578659 -0.018722 -0.485896 0.140684 -0.013983 -0.516463
          0.299053 0.0864083 -0.553598 0.277729 0.0975518 -0.410816
          0.368363 0.0880234 -0.492427 0.432143 0.100045 -0.469631
          0.207633 0.0598625 -0.876171 0.24453 0.0708505 -0.80429
          0.240642 0.0771923 -0.746678 0.167424 0.0633308 -0.79789
          0.286476 0.052365 -1.03123 0.217644 0.0373622 -1.05651
          0.230153 0.0452618 -0.998765 0.245796 0.0542283 -1.01114
          0.0561909 0.158821 1.45466 0.202133 0.177184 1.37992
          0.0303563 0.162405 1.30879 0.0828364 0.169506 1.55691
          0.411463 0.0864855 -0.395732 0.276125 0.0947165 -0.379639
          0.368363 0.0880234 -0.492427 0.250628 0.081338 -0.520796
          0.0920557 -0.0255886 -0.845827 0.0845877 -0.0255065 -0.751434
          0.117074 -0.0194202 -0.800314 0.0289583 -0.0292126 -0.794661
          0.109161 0.0700203 -0.752531 0.225286 0.0686452 -0.746878
          0.15145 0.0745346 -0.685354 0.178872 0.0606546 -0.845006
          0.109161 0.0700203 -0.752531 0.158016 0.0603311 -0.849714
          0.225286 0.0686452 -0.746878 0.178872 0.0606546 -0.845006
          0.193318 0.0234298 -1.13418 0.193758 0.0212416 -1.1506
          0.177514 0.0162521 -1.13173 0.198031 0.0285388 -1.14317
          0.128366 0.144338 0.653264 0.0887269 0.13043 0.360895
          0.16556 0.134608 0.433358 0.044791 0.133985 0.562318
          0.237981 0.148473 0.653257 0.128366 0.144338 0.653264
          0.329965 0.158701 0.681063 0.333142 0.149548 0.503453
          0.0758894 0.0556241 -0.975666 0.123689 0.0542317 -0.925889
          0.0482068 0.0676577 -0.882717 0.126057 0.0571167 -0.91903
          0.157521 0.0469226 -0.985977 0.123689 0.0542317 -0.925889
          0.126057 0.0571167 -0.91903 0.20433 0.0494215 -0.926588
          -0.00846173 0.0762337 -0.687888 0.0247339 0.0644325 -0.803147
          0.00251873 0.0698236 -0.678307 0.109161 0.0700203 -0.752531
          0.109161 0.0700203 -0.752531 0.158016 0.0603311 -0.849714
          0.136757 0.0683191 -0.748962 0.225286 0.0686452 -0.746878
          0.581837 0.210988 1.42249 0.552352 0.201884 1.33583
          0.503551 0.201335 1.4564 0.675159 0.226764 1.51115
          0.421332 0.0907937 -0.716274 0.50631 0.108577 -0.776937
          0.544752 0.115314 -0.671386 0.477897 0.0912087 -0.814626
          0.421332 0.0907937 -0.716274 0.477897 0.0912087 -0.814626
          0.544752 0.115314 -0.671386 0.492079 0.0833424 -0.762226
          0.421332 0.0907937 -0.716274 0.544752 0.115314 -0.671386
          0.555583 0.106463 -0.608938 0.492079 0.0833424 -0.762226
          0.128655 0.112603 -0.0840872 0.0844691 0.105919 -0.143068
          -0.033115 0.100493 -0.125328 0.0223666 0.115204 0.0326147
          -0.0854006 -0.00804012 -0.75767 -0.106391 -0.0133016 -0.666373
          -0.0182043 -0.00505826 -0.712925 -0.0602992 -0.000919334 -0.759307
          0.0388059 0.00445072 -0.0978631 0.0452892 0.0171097 -0.0497382
          0.0376237 0.00315363 -0.0667112 0.0761817 0.015298 -0.0967612
          0.0247339 0.0644325 -0.803147 0.0372527 0.0525971 -0.826828
          0.0220962 0.0587091 -0.743985 0.136757 0.0683191 -0.748962
          0.18863 0.0787469 -0.62348 0.225286 0.0686452 -0.746878
          0.253788 0.0760074 -0.685864 0.351173 0.074105 -0.680571
          0.0561909 0.158821 1.45466 0.252819 0.174978 1.51462
          0.201068 0.185051 1.52316 0.0828364 0.169506 1.55691
          0.457526 0.215988 2.03787 0.385207 0.197499 1.95846
          0.319383 0.194355 1.9882 0.387815 0.202424 1.98846
          0.277729 0.0975518 -0.410816 0.108892 0.0931933 -0.375589
          0.17425 0.103817 -0.236551 0.327877 0.110293 -0.24624
          0.619954 0.221042 1.81518 0.643071 0.218332 1.70571
          0.516936 0.212012 1.83282 0.62833 0.215461 1.78832
          0.390222 0.200457 2.03097 0.509965 0.214157 2.04142
          0.480039 0.211585 2.11979 0.408602 0.205183 2.11483
          0.261824 -0.0130019 -0.916534 0.188752 -0.0119074 -0.967376
          0.203472 -0.0139074 -0.880859 0.185038 -0.0112891 -0.966454
          0.205207 0.033256 -1.10889 0.215453 0.0337856 -1.12044
          0.218194 0.039635 -1.13003 0.235505 0.0465084 -1.10819
          0.432326 0.0870368 -0.603389 0.540798 0.0820835 -0.610499
          0.526328 0.0902544 -0.665505 0.575595 0.0982457 -0.520837
          0.237915 0.172735 1.23496 0.376293 0.185483 1.21542
          0.364277 0.178104 1.03208 0.170346 0.164995 1.04243
          0.193318 0.0234298 -1.13418 0.172928 0.0182889 -1.13082
          0.20182 0.0253005 -1.11961 0.187816 0.025274 -1.11521
          0.225286 0.0686452 -0.746878 0.136757 0.0683191 -0.748962
          0.257074 0.0669415 -0.796305 0.158016 0.0603311 -0.849714
          0.18863 0.0787469 -0.62348 0.27013 0.0773494 -0.610887
          0.225286 0.0686452 -0.746878 0.351173 0.074105 -0.680571
          0.00486405 -0.0137133 -0.10608 0.0675574 -0.0172296 -0.103565
          0.0155697 -0.00945334 -0.0979218 0.028315 -0.0144495 -0.0665337
          0.526328 0.0902544 -0.665505 0.432326 0.0870368 -0.603389
          0.421332 0.0907937 -0.716274 0.336885 0.0784927 -0.737575
          0.339176 0.123145 -0.0956363 0.13459 0.111976 -0.0718907
          0.198264 0.124889 0.070095 0.195518 0.107239 -0.222251
          0.188444 -0.00778189 -1.02334 0.148011 -0.0139621 -0.990689
          0.165532 -0.00924211 -1.03094 0.121469 -0.0144557 -1.02135
          0.0971336 -0.00259998 -1.06633 0.0682129 -0.00638178 -1.0176
          0.0957739 -0.000896939 -1.02438 0.118271 0.00736987 -1.08369
          0.0971336 -0.00259998 -1.06633 0.0957739 -0.000896939 -1.02438
          0.139782 -0.00357415 -1.07587 0.118271 0.00736987 -1.08369
          0.317734 0.059831 -0.79408 0.363754 0.0521145 -0.84867
          0.268148 0.05214 -0.841647 0.233984 0.0560029 -0.869098
          0.509965 0.214157 2.04142 0.458699 0.214588 2.12646
          0.584148 0.228069 2.09401 0.480039 0.211585 2.11979
          0.117074 -0.0194202 -0.800314 0.0845877 -0.0255065 -0.751434
          0.0452458 -0.0243838 -0.718463 0.0289583 -0.0292126 -0.794661
          0.280536 0.198948 1.94003 0.282637 0.191383 1.93899
          0.315947 0.196592 1.90816 0.317265 0.193703 1.98205
          0.40147 0.202094 1.56307 0.300169 0.205092 1.53596
          0.349891 0.19974 1.53891 0.338599 0.20772 1.64709
          0.373512 0.195207 2.01143 0.388864 0.195535 2.04031
          0.446707 0.199139 2.07562 0.354887 0.191231 2.10335
          0.304287 0.0480379 -1.00984 0.304318 0.0314598 -1.01045
          0.270998 0.0410123 -0.998166 0.247711 0.0274887 -1.06388
          0.24453 0.0708505 -0.80429 0.207633 0.0598625 -0.876171
          0.240642 0.0771923 -0.746678 0.29765 0.0780915 -0.862205
          0.240642 0.0771923 -0.746678 0.29765 0.0780915 -0.862205
          0.372631 0.0938046 -0.780209 0.24453 0.0708505 -0.80429
          0.39061 0.201088 1.94817 0.280536 0.198948 1.94003
          0.315947 0.196592 1.90816 0.317265 0.193703 1.98205
          0.183164 -0.0170671 -0.589371 0.140684 -0.013983 -0.516463
          0.118225 -0.016529 -0.643321 0.0740804 -0.0196889 -0.590591
          0.104619 0.028198 -1.03143 0.106339 0.029652 -1.04331
          0.180739 0.0425605 -1.00764 0.0930218 0.0316273 -0.984041
          -0.108758 -0.0168716 -0.179429 -0.11621 -0.0158091 -0.225044
          -0.0525861 -0.0158793 -0.211183 -0.108082 -0.0140942 -0.171628
          0.388864 0.195535 2.04031 0.417589 0.200862 2.11155
          0.289096 0.190872 2.09747 0.390222 0.200457 2.03097
          -0.0382095 -0.0203499 -0.467039 0.0470197 -0.0148555 -0.460253
          0.00229256 -0.0169905 -0.563079 -0.0454728 -0.0174241 -0.455721
          0.328671 0.0418834 -0.942546 0.3056 0.0562813 -0.888644
          0.270998 0.0410123 -0.998166 0.239659 0.0461789 -0.951595
          0.59459 0.220233 1.95943 0.508874 0.214006 1.95539
          0.589482 0.227665 1.9636 0.587716 0.22395 2.01079
          0.508874 0.214006 1.95539 0.474926 0.213993 2.03117
          0.589482 0.227665 1.9636 0.587716 0.22395 2.01079
          0.0509295 -0.0182737 -0.380621 0.0578659 -0.018722 -0.485896
          0.104284 -0.0136701 -0.371997 0.15721 -0.0181165 -0.470608
          0.473613 0.191655 1.24082 0.551693 0.196169 1.18361
          0.451127 0.184652 1.08346 0.376293 0.185483 1.21542
          0.10116 0.0650096 -0.847493 0.123689 0.0542317 -0.925889
          0.0247339 0.0644325 -0.803147 0.158016 0.0603311 -0.849714
          0.293607 0.171942 1.3809 0.491 0.196 1.34734
          0.388683 0.182205 1.28846 0.347512 0.182185 1.38557
          0.505653 0.186408 0.974223 0.441927 0.190179 1.14735
          0.422856 0.180565 0.934743 0.509302 0.18922 1.04712
          -0.0557656 -0.0116304 -0.863214 -0.0584268 -0.00413948 -0.841123
          -0.0752176 -0.0108463 -0.79656 0.0547873 -0.00956248 -0.875966
          0.158713 -0.0124128 -0.593162 0.158259 -0.00736322 -0.539283
          0.16105 -0.0100386 -0.662766 0.0844988 -0.00990728 -0.605686
          0.183089 0.0573615 -0.895068 0.207633 0.0598625 -0.876171
          0.24453 0.0708505 -0.80429 0.260874 0.0644344 -0.917065
          0.00815519 -0.0112139 -0.565742 0.0470197 -0.0148555 -0.460253
          0.057422 -0.00958656 -0.504466 -0.0454728 -0.0174241 -0.455721
          0.311949 0.159912 0.662099 0.0917604 0.139724 0.490675
          0.141115 0.14885 0.667341 0.171797 0.154438 0.655168
          0.474926 0.213993 2.03117 0.390222 0.200457 2.03097
          0.509965 0.214157 2.04142 0.399113 0.201668 1.96815
          0.317265 0.193703 1.98205 0.19858 0.209082 1.9791
          0.268413 0.19547 2.02507 0.280536 0.198948 1.94003
          0.290634 0.0679208 -1.00623 0.288575 0.0631171 -1.04643
          0.245796 0.0542283 -1.01114 0.24497 0.0543441 -1.03067
          0.141866 -0.00647079 -0.337935 0.235265 -0.00558497 -0.411059
          0.238356 -0.0109887 -0.42744 0.156717 -0.00972851 -0.433933
          0.141866 -0.00647079 -0.337935 0.216657 -0.00509489 -0.339147
          0.238356 -0.0109887 -0.42744 0.235265 -0.00558497 -0.411059
          -0.11621 -0.0158091 -0.225044 -0.127282 -0.0215735 -0.279389
          -0.119881 -0.0218471 -0.219262 -0.0525861 -0.0158793 -0.211183
          0.510427 0.0776933 -0.702508 0.402724 0.0628676 -0.720252
          0.516255 0.0666313 -0.664582 0.540798 0.0820835 -0.610499
          0.424412 0.120747 0.0174048 0.307201 0.123835 0.0687832
          0.376157 0.134811 0.252378 0.520946 0.131935 0.0779313
          0.363754 0.0521145 -0.84867 0.283765 0.0410843 -0.917892
          0.233984 0.0560029 -0.869098 0.3056 0.0562813 -0.888644
          0.527923 0.13303 -0.0882344 0.339176 0.123145 -0.0956363
          0.416411 0.116529 -0.262841 0.334286 0.120649 -0.0685765
          0.0804219 -0.014032 -0.565645 0.0844988 -0.00990728 -0.605686
          0.158713 -0.0124128 -0.593162 0.0771466 -0.0128792 -0.667253
          0.445539 0.138683 0.0844741 0.339176 0.123145 -0.0956363
          0.527923 0.13303 -0.0882344 0.334286 0.120649 -0.0685765
          -0.128186 -0.0211097 -0.310567 -0.0513797 -0.0175883 -0.319843
          -0.127282 -0.0215735 -0.279389 -0.0401972 -0.0186737 -0.295772
          0.12317 0.154811 0.798318 -0.0284562 0.14066 0.608061
          0.171797 0.154438 0.655168 0.141115 0.14885 0.667341
          0.0108537 -0.0216076 -0.447808 0.0665477 -0.0233217 -0.48275
          0.0578659 -0.018722 -0.485896 0.0509295 -0.0182737 -0.380621
          0.317265 0.193703 1.98205 0.301902 0.190563 2.02495
          0.390222 0.200457 2.03097 0.289096 0.190872 2.09747
          0.152232 -0.0233181 -0.476973 0.113767 -0.0266257 -0.372606
          0.0536057 -0.025715 -0.403315 0.170921 -0.0275196 -0.439577
          0.387594 0.201059 1.81382 0.299638 0.182033 1.71781
          0.320545 0.196448 1.74209 0.41749 0.201144 1.6896
          0.244295 0.0843376 -0.648259 0.272319 0.0902591 -0.581238
          0.181637 0.0729893 -0.691136 0.30705 0.0854688 -0.699613
          0.118174 -0.0101753 -1.07335 0.0880873 -0.014668 -1.01073
          0.139782 -0.00357415 -1.07587 0.0971336 -0.00259998 -1.06633
          -0.0295207 -0.0156766 -0.182455 -0.0320968 -0.00669586 -0.096908
          0.0342889 -0.0194191 -0.133678 -0.0482987 -0.0104118 -0.135516
          -0.0474617 0.108912 -0.0036774 0.13459 0.111976 -0.0718907
          0.0824626 0.120069 0.102868 -0.0565269 0.110644 0.0352962
          0.0824626 0.120069 0.102868 0.13459 0.111976 -0.0718907
          0.177901 0.122751 0.105101 -0.0565269 0.110644 0.0352962
          0.113661 0.130721 0.288513 0.0824626 0.120069 0.102868
          -0.0584419 0.120704 0.269333 -0.0474959 0.118465 0.181263
          0.0971336 -0.00259998 -1.06633 0.0346219 0.00470713 -1.02314
          0.118271 0.00736987 -1.08369 0.0771644 0.0116483 -1.06883
          0.0348273 -0.00834823 -1.03009 0.0346219 0.00470713 -1.02314
          0.0971336 -0.00259998 -1.06633 0.0771644 0.0116483 -1.06883
          0.0811437 -0.0025162 -1.07377 0.0348273 -0.00834823 -1.03009
          0.0971336 -0.00259998 -1.06633 0.0771644 0.0116483 -1.06883
          0.395929 0.200623 1.90057 0.508874 0.214006 1.95539
          0.523184 0.21308 1.90131 0.461807 0.207187 1.95549
          -0.0474959 0.118465 0.181263 -0.0474617 0.108912 -0.0036774
          0.0824626 0.120069 0.102868 -0.0565269 0.110644 0.0352962
          0.0824626 0.120069 0.102868 -0.0565269 0.110644 0.0352962
          -0.0584419 0.120704 0.269333 -0.0474959 0.118465 0.181263
          0.0971336 -0.00259998 -1.06633 0.118271 0.00736987 -1.08369
          0.139782 -0.00357415 -1.07587 0.118354 0.00659017 -1.09692
          0.00892697 0.142516 1.2659 0.131058 0.158108 1.10918
          0.0112062 0.150211 1.24102 0.150271 0.155697 1.3658
          0.00892697 0.142516 1.2659 0.236193 0.163352 1.23858
          0.131058 0.158108 1.10918 0.150271 0.155697 1.3658
          0.238887 0.0380659 -1.09393 0.207377 0.0208321 -1.10963
          0.196263 0.0293345 -1.09673 0.20182 0.0253005 -1.11961
          0.204545 0.0286583 -1.12534 0.204545 0.0349354 -1.14484
          0.180506 0.0179277 -1.13799 0.193318 0.0234298 -1.13418
          0.509302 0.18922 1.04712 0.566235 0.187544 0.910491
          0.716643 0.195296 0.903992 0.578245 0.183818 0.83647
          0.716643 0.195296 0.903992 0.509302 0.18922 1.04712
          0.719557 0.200946 1.05157 0.566235 0.187544 0.910491
          0.232606 -0.00658906 -1.06714 0.238917 -0.00579035 -1.0335
          0.245603 -0.0133778 -1.02696 0.194464 -0.00870049 -1.02577
          0.185334 -0.00195267 -1.08471 0.194464 -0.00870049 -1.02577
          0.19541 -0.00381637 -1.08441 0.17137 -0.00547832 -1.04012
          0.185038 -0.0112891 -0.966454 0.194464 -0.00870049 -1.02577
          0.188752 -0.0119074 -0.967376 0.126494 -0.0116239 -0.962722
          0.185334 -0.00195267 -1.08471 0.165532 -0.00924211 -1.03094
          0.194464 -0.00870049 -1.02577 0.129918 -0.0092143 -1.0239
          0.245953 0.0105992 -1.09164 0.249546 0.0280093 -1.08662
          0.25696 0.0301693 -1.08253 0.219527 0.0205329 -1.10211
          -0.0397156 0.136079 0.577023 -0.0523907 0.129622 0.506003
          0.189242 0.142522 0.483109 0.141115 0.14885 0.667341
          0.458955 0.20145 1.7537 0.373718 0.18894 1.83094
          0.380334 0.185943 1.81351 0.458089 0.203362 1.84714
          0.147001 0.139934 1.64599 0.206569 0.161767 1.63429
          0.0458227 0.142413 1.4792 0.132312 0.154881 1.67008
          0.0714426 0.0506437 -0.980392 0.079169 0.0414585 -0.973045
          0.0494826 0.052463 -0.910515 0.133288 0.0434323 -0.997365
          0.188752 -0.0119074 -0.967376 0.248905 -0.00813331 -0.987972
          0.194464 -0.00870049 -1.02577 0.254776 -0.0120806 -0.974703
          0.483334 0.195034 1.26309 0.404649 0.196522 1.41683
          0.555537 0.202478 1.4184 0.482423 0.197254 1.34396
          0.695025 0.206879 1.43571 0.690279 0.214152 1.44669
          0.555537 0.202478 1.4184 0.712901 0.206388 1.22555
          0.112681 0.128374 0.196126 -0.04001 0.111053 0.0264647
          0.198264 0.124889 0.070095 0.0824626 0.120069 0.102868
          0.0971336 -0.00259998 -1.06633 0.0880873 -0.014668 -1.01073
          0.139782 -0.00357415 -1.07587 0.129918 -0.0092143 -1.0239
          0.136202 0.00593033 -1.04905 0.0957739 -0.000896939 -1.02438
          0.143934 -0.00495345 -1.0015 0.11213 0.00272844 -1.0007
          0.172972 3.67282e-05 -1.0698 0.151547 0.002157 -1.08222
          0.143934 -0.00495345 -1.0015 0.136202 0.00593033 -1.04905
          0.334286 0.120649 -0.0685765 0.28116 0.113647 -0.106809
          0.13459 0.111976 -0.0718907 0.17425 0.103817 -0.236551
          0.334286 0.120649 -0.0685765 0.177901 0.122751 0.105101
          0.13459 0.111976 -0.0718907 0.28116 0.113647 -0.106809
          0.237981 0.148473 0.653257 0.16556 0.134608 0.433358
          0.333142 0.149548 0.503453 0.330553 0.141912 0.420265
          0.460286 0.156139 0.54136 0.329965 0.158701 0.681063
          0.542691 0.172558 0.701274 0.333142 0.149548 0.503453
          0.327201 0.179018 1.03886 0.261654 0.180809 1.21446
          0.166401 0.179047 1.13145 0.163265 0.169482 1.05637
          0.237981 0.148473 0.653257 0.330553 0.141912 0.420265
          0.333142 0.149548 0.503453 0.460286 0.156139 0.54136
          0.0185148 -0.0145913 -0.704614 0.0418954 -0.00556855 -0.770226
          0.0642946 -0.0122501 -0.806808 0.00753187 -0.00795808 -0.801634
          0.235505 0.0465084 -1.10819 0.205207 0.033256 -1.10889
          0.23471 0.0431356 -1.07046 0.203025 0.040745 -1.06991
          0 0 0 0 0 0
          0 0 0 0.0222848 -0.00558348 -0.0278639
          0.535403 0.202873 1.41079 0.584036 0.203196 1.31556
          0.704115 0.209655 1.28711 0.69147 0.217185 1.40219
          0.110453 -0.0208346 -0.375156 0.169053 -0.0237773 -0.375043
          0.134253 -0.0150344 -0.313891 0.116656 -0.0213041 -0.272863
          0.123149 -0.0160708 -0.964579 0.126494 -0.0116239 -0.962722
          0.156523 -0.0152272 -0.89299 0.188752 -0.0119074 -0.967376
          0.185334 -0.00195267 -1.08471 0.165532 -0.00924211 -1.03094
          0.129918 -0.0092143 -1.0239 0.139782 -0.00357415 -1.07587
          0.709794 0.178071 0.568122 0.522672 0.172355 0.662797
          0.714042 0.187409 0.739804 0.576506 0.177642 0.668802
          -0.0648303 -0.020364 -0.846966 -0.0752176 -0.0108463 -0.79656
          -0.0897965 -0.0172937 -0.75591 0.00945855 -0.0154396 -0.791267
          0.145625 -0.00790975 -1.06445 0.121469 -0.0144557 -1.02135
          0.118174 -0.0101753 -1.07335 0.111914 -0.0174845 -1.05123
          0.461908 0.207616 1.89904 0.508874 0.214006 1.95539
          0.475228 0.212726 1.96844 0.589482 0.227665 1.9636
          0.185367 -0.0164986 -0.811141 0.15297 -0.0190904 -0.707837
          0.205372 -0.0163374 -0.830822 0.267952 -0.0171241 -0.761579
          0.225286 0.0686452 -0.746878 0.257074 0.0669415 -0.796305
          0.351173 0.074105 -0.680571 0.317734 0.059831 -0.79408
          0.380334 0.185943 1.81351 0.371953 0.18296 1.69668
          0.395388 0.191512 1.71781 0.458955 0.20145 1.7537
          0.0560741 0.0443732 -0.867566 0.0372527 0.0525971 -0.826828
          0.130684 0.0586593 -0.849266 0.130594 0.0587253 -0.800895
          0.373715 0.164207 0.582721 0.405571 0.173315 0.753173
          0.407349 0.167289 0.652838 0.542112 0.173101 0.58157
          0.170346 0.164995 1.04243 0.237915 0.172735 1.23496
          0.149429 0.170536 1.21814 0.131058 0.158108 1.10918
          0.0463607 0.175677 1.37031 0.149429 0.170536 1.21814
          0.202133 0.177184 1.37992 0.0303563 0.162405 1.30879
          0.454738 0.206806 1.89198 0.42471 0.207458 1.83215
          0.522544 0.209758 1.82278 0.399897 0.204163 1.81379
          0.496235 0.208476 1.73139 0.399897 0.204163 1.81379
          0.522544 0.209758 1.82278 0.495762 0.206714 1.74814
          0.522544 0.209758 1.82278 0.516936 0.212012 1.83282
          0.454738 0.206806 1.89198 0.399897 0.204163 1.81379
          0.610188 0.213279 1.85818 0.62833 0.215461 1.78832
          0.522544 0.209758 1.82278 0.631716 0.207156 1.76701
          0.347585 0.0741987 -1.04277 0.294977 0.0648741 -1.08627
          0.320388 0.0571591 -1.04914 0.280415 0.0522078 -1.06675
          0.496235 0.208476 1.73139 0.516936 0.212012 1.83282
          0.522544 0.209758 1.82278 0.399897 0.204163 1.81379
          0.44968 0.200513 2.01221 0.524651 0.210655 2.04711
          0.446707 0.199139 2.07562 0.463114 0.205583 2.00861
          0.610188 0.213279 1.85818 0.522544 0.209758 1.82278
          0.528544 0.20717 1.83677 0.631716 0.207156 1.76701
          0.195952 0.0179985 -1.12406 0.17471 0.0103553 -1.13275
          0.20182 0.0253005 -1.11961 0.180128 0.0144698 -1.13421
          0.475228 0.212726 1.96844 0.399113 0.201668 1.96815
          0.474926 0.213993 2.03117 0.508874 0.214006 1.95539
          -0.00969368 0.0757089 -0.473971 0.0330385 0.0694828 -0.548444
          0.124865 0.0743217 -0.614662 0.00455765 0.0641691 -0.598263
          0.16577 0.0305277 -1.08499 0.186348 0.0218384 -1.10846
          0.196237 0.0163121 -1.0977 0.164869 0.0206331 -1.12188
          0.37001 0.190326 1.4178 0.473613 0.191655 1.24082
          0.535403 0.202873 1.41079 0.503551 0.201335 1.4564
          -0.0126816 -0.00885974 -0.0401906 -0.020548 -0.00832014 -0.0250458
          -0.0205164 -0.0113926 -0.024542 -0.0240264 -0.0123724 -0.0492764
          -0.0482987 -0.0104118 -0.135516 -0.0365595 -0.00573392 -0.0808166
          0.00486405 -0.0137133 -0.10608 -0.0354252 -0.0123842 -0.100673
          0.0771644 0.0116483 -1.06883 0.0855231 0.00918058 -1.04601
          0.114495 0.0252058 -1.087 0.0742282 0.0288745 -1.06535
          0.156523 -0.0152272 -0.89299 0.205372 -0.0163374 -0.830822
          0.203472 -0.0139074 -0.880859 0.185367 -0.0164986 -0.811141
          -0.0321081 0.0923879 -0.258256 0.130689 0.0951538 -0.354446
          0.108892 0.0931933 -0.375589 -0.0186939 0.0795216 -0.446417
          -0.0321081 0.0923879 -0.258256 0.130689 0.0951538 -0.354446
          0.195518 0.107239 -0.222251 0.108892 0.0931933 -0.375589
          0.123149 -0.0160708 -0.964579 0.182197 -0.0121593 -0.958737
          0.10098 -0.0230441 -0.930871 0.148011 -0.0139621 -0.990689
          0.130689 0.0951538 -0.354446 0.173799 0.0876068 -0.503416
          0.108892 0.0931933 -0.375589 -0.0186939 0.0795216 -0.446417
          0.0774893 -0.0166292 -0.179655 0.0279292 -0.0130824 -0.150911
          0.0675574 -0.0172296 -0.103565 0.0934466 -0.0105912 -0.154028
          0.259363 -0.0222661 -0.561488 0.178216 -0.0244722 -0.612851
          0.255679 -0.0244262 -0.591251 0.18615 -0.0263881 -0.527732
          0.130689 0.0951538 -0.354446 0.0844691 0.105919 -0.143068
          0.212402 0.107651 -0.258514 -0.0208577 0.0900582 -0.264982
          0.36166 0.0661805 -0.870565 0.337729 0.0622297 -0.971894
          0.278739 0.0589262 -0.949907 0.344774 0.0734123 -0.938354
          0.153 5.4393e-05 -1.12756 0.17279 0.00720272 -1.12721
          0.169372 0.0112354 -1.1349 0.166518 0.00346835 -1.12287
          0.153 5.4393e-05 -1.12756 0.153352 0.000889392 -1.13561
          0.169372 0.0112354 -1.1349 0.17279 0.00720272 -1.12721
          0 0 0 0.0174988 0.00881202 -0.0123778
          0 0 0 0 0 0
          -0.0186939 0.0795216 -0.446417 -0.00969368 0.0757089 -0.473971
          0.173799 0.0876068 -0.503416 0.124865 0.0743217 -0.614662
          0.13459 0.111976 -0.0718907 -0.0565269 0.110644 0.0352962
          0.105133 0.110602 -0.0678035 0.177901 0.122751 0.105101
          0.457526 0.215988 2.03787 0.335556 0.201341 2.04656
          0.404221 0.212756 2.07781 0.387815 0.202424 1.98846
          0.105133 0.110602 -0.0678035 0.177901 0.122751 0.105101
          0.0436386 0.112423 0.0435163 0.20449 0.1161 0.00797098
          0.714042 0.187409 0.739804 0.578245 0.183818 0.83647
          0.576506 0.177642 0.668802 0.522672 0.172355 0.662797
          0.0436386 0.112423 0.0435163 -0.0687295 0.107069 -0.0607881
          -0.0655243 0.111919 0.0879617 0.105133 0.110602 -0.0678035
          0.0577682 -0.0281423 -1.02948 0.0662192 -0.0264858 -0.977787
          0.0880873 -0.014668 -1.01073 0.0389992 -0.0231358 -0.956961
          0.0389992 -0.0231358 -0.956961 -0.0219125 -0.0217282 -0.941717
          0.00904144 -0.0242568 -1.0025 -0.0120033 -0.0375333 -0.962701
          0.129141 0.0946554 -0.378284 0.0512105 0.0999492 -0.292848
          0.0886722 0.0972271 -0.326607 0.00586034 0.0936913 -0.408731
          0.139782 -0.00357415 -1.07587 0.185334 -0.00195267 -1.08471
          0.151547 0.002157 -1.08222 0.17137 -0.00547832 -1.04012
          -0.0295207 -0.0156766 -0.182455 -0.0482987 -0.0104118 -0.135516
          0.0342889 -0.0194191 -0.133678 0.00486405 -0.0137133 -0.10608
          0.139782 -0.00357415 -1.07587 0.185334 -0.00195267 -1.08471
          0.177787 0.00281491 -1.11165 0.151547 0.002157 -1.08222
          0.335556 0.201341 2.04656 0.267912 0.193391 2.06131
          0.338076 0.210966 2.13269 0.335164 0.204974 2.06627
          0.0358098 -0.0173367 -0.15829 0.0574409 -0.0227267 -0.0946761
          0.0675574 -0.0172296 -0.103565 0.028315 -0.0144495 -0.0665337
          -0.0453011 0.0930471 -0.305608 0.0804092 0.101522 -0.223941
          0.108892 0.0931933 -0.375589 -0.0321081 0.0923879 -0.258256
          0.387594 0.201059 1.81382 0.299638 0.182033 1.71781
          0.395388 0.191512 1.71781 0.373718 0.18894 1.83094
          0.697082 0.177494 0.642558 0.542691 0.172558 0.701274
          0.701053 0.18971 0.85072 0.705183 0.183313 0.70671
          0.0247339 0.0644325 -0.803147 0.130684 0.0586593 -0.849266
          0.0372527 0.0525971 -0.826828 0.136757 0.0683191 -0.748962
          0.0547873 -0.00956248 -0.875966 0.0256823 -0.00354785 -0.929701
          0.0353563 0.00122208 -0.86422 0.0922398 -0.00387143 -0.958975
          0.230411 0.202424 1.92573 0.282637 0.191383 1.93899
          0.317265 0.193703 1.98205 0.301902 0.190563 2.02495
          0.282637 0.191383 1.93899 0.301902 0.190563 2.02495
          0.399113 0.201668 1.96815 0.390222 0.200457 2.03097
          0.201398 -0.00242298 -1.12266 0.197736 0.00453341 -1.11451
          0.215759 -0.00416399 -1.10589 0.183085 0.00551842 -1.13081
          0.0353563 0.00122208 -0.86422 0.0256823 -0.00354785 -0.929701
          0.0547873 -0.00956248 -0.875966 0.00753187 -0.00795808 -0.801634
          0.0561909 0.158821 1.45466 0.201068 0.185051 1.52316
          0.202133 0.177184 1.37992 0.0828364 0.169506 1.55691
          0.0922398 -0.00387143 -0.958975 0.0550265 0.00734161 -0.947155
          0.0353563 0.00122208 -0.86422 0.110876 -0.00244741 -0.920145
          -0.0194793 0.147898 0.977767 -0.0285253 0.143236 0.763847
          -0.0131994 0.152042 0.931257 0.12317 0.154811 0.798318
          0.555537 0.202478 1.4184 0.576437 0.21161 1.62788
          0.669866 0.212344 1.60442 0.491887 0.204341 1.55134
          0.542925 0.207163 1.63277 0.496235 0.208476 1.73139
          0.495762 0.206714 1.74814 0.40384 0.206217 1.66463
          0.0574409 -0.0227267 -0.0946761 0.0441782 -0.0214942 -0.0490048
          0.0758476 -0.0272059 -0.0749921 0.028315 -0.0144495 -0.0665337
          0.0574409 -0.0227267 -0.0946761 0.0758476 -0.0272059 -0.0749921
          0.0675574 -0.0172296 -0.103565 0.028315 -0.0144495 -0.0665337
          0.472255 0.204702 1.63519 0.542925 0.207163 1.63277
          0.495762 0.206714 1.74814 0.40384 0.206217 1.66463
          0.40147 0.202094 1.56307 0.40384 0.206217 1.66463
          0.542925 0.207163 1.63277 0.472255 0.204702 1.63519
          0.669866 0.212344 1.60442 0.576437 0.21161 1.62788
          0.542925 0.207163 1.63277 0.491887 0.204341 1.55134
          0.197806 0.00805325 -1.12213 0.157185 -0.00844997 -1.13379
          0.179546 -0.00518367 -1.12862 0.17471 0.0103553 -1.13275
          0.0920557 -0.0255886 -0.845827 0.10091 -0.0208321 -0.887682
          -0.000164951 -0.0258844 -0.847736 0.0289583 -0.0292126 -0.794661
          0.0374318 -0.0190485 -0.230557 0.0937305 -0.0266664 -0.206198
          0.105429 -0.0278619 -0.280035 0.116656 -0.0213041 -0.272863
          0.0390515 -0.02144 -0.216222 0.0937305 -0.0266664 -0.206198
          0.105429 -0.0278619 -0.280035 0.0374318 -0.0190485 -0.230557
          0.158522 0.00273212 -1.11049 0.185334 -0.00195267 -1.08471
          0.177787 0.00281491 -1.11165 0.139782 -0.00357415 -1.07587
          -0.0280559 -0.012453 -0.9239 0.0256823 -0.00354785 -0.929701
          0.0102294 -0.0145549 -0.890416 0.055218 -0.0096646 -0.961593
          0.230366 -0.0190663 -0.394513 0.169053 -0.0237773 -0.375043
          0.238033 -0.0270216 -0.40716 0.21664 -0.0255281 -0.33122
          0.424977 0.152818 0.338667 0.517372 0.152084 0.282314
          0.472775 0.161158 0.475347 0.325688 0.148226 0.386022
          0.311442 0.220331 1.79745 0.270667 0.21001 1.87832
          0.294959 0.204801 1.7903 0.399897 0.204163 1.81379
          -0.0284574 -0.0153834 -0.248114 0.0209038 -0.00974771 -0.210131
          0.0327665 -0.0135779 -0.313497 -0.0209055 -0.0143869 -0.281814
          0.539956 0.186254 0.988245 0.368946 0.164907 0.841573
          0.476062 0.182941 1.06639 0.361484 0.173451 1.00011
          0.124865 0.0743217 -0.614662 0.00800832 0.0681307 -0.627782
          0.0250515 0.0571414 -0.717461 0.181637 0.0729893 -0.691136
          0.389267 0.209684 1.72946 0.273528 0.207587 1.68961
          0.311442 0.220331 1.79745 0.338599 0.20772 1.64709
          0.273528 0.207587 1.68961 0.389267 0.209684 1.72946
          0.311442 0.220331 1.79745 0.399897 0.204163 1.81379
          0.120473 0.204398 1.65206 0.273528 0.207587 1.68961
          0.216007 0.215997 1.73409 0.165846 0.208743 1.78842
          -0.128932 -0.0248542 -0.459665 -0.12951 -0.024821 -0.478517
          -0.130076 -0.0213635 -0.371606 -0.052492 -0.0226985 -0.433246
          0.187251 -0.0208078 -0.643288 0.112536 -0.0265035 -0.552338
          0.178216 -0.0244722 -0.612851 0.139282 -0.0208527 -0.568469
          0.0853681 -0.0229088 -0.641772 0.112536 -0.0265035 -0.552338
          0.187251 -0.0208078 -0.643288 0.139282 -0.0208527 -0.568469
          -0.0579892 0.00142708 -0.0394255 -0.0148586 -0.00274295 -0.0245388
          -0.0115162 -0.00567168 -0.051575 -0.0748015 -0.00789741 -0.0695534
          -0.0579892 0.00142708 -0.0394255 -0.05098 -0.00222087 -0.02854
          -0.0148586 -0.00274295 -0.0245388 -0.0748015 -0.00789741 -0.0695534
          0.0853681 -0.0229088 -0.641772 0.0665477 -0.0233217 -0.48275
          0.112536 -0.0265035 -0.552338 0.139282 -0.0208527 -0.568469
          -0.12951 -0.024821 -0.478517 -0.130076 -0.0213635 -0.371606
          -0.052492 -0.0226985 -0.433246 -0.131659 -0.0221287 -0.396732
          0.00765813 -0.00792034 -0.0270135 0.00714858 -0.00373127 -0.00222902
          0 0 0 0 0 0
          0 0 0 0.00765813 -0.00792034 -0.0270135
          0 0 0 0 0 0
          0.177787 0.00281491 -1.11165 0.180068 0.00297451 -1.1089
          0.171214 0.0112742 -1.12197 0.151547 0.002157 -1.08222
          0.151547 0.002157 -1.08222 0.180068 0.00297451 -1.1089
          0.171214 0.0112742 -1.12197 0.143377 0.0172557 -1.10458
          0.00765813 -0.00792034 -0.0270135 0 0 0
          0 0 0 0.00613925 -0.00568058 -0.0229973
          0.24366 0.0311635 -1.03462 0.208914 0.0286063 -1.0707
          0.247711 0.0274887 -1.06388 0.229005 0.0188687 -1.0652
          0.157185 -0.00844997 -1.13379 0.153 5.4393e-05 -1.12756
          0.17471 0.0103553 -1.13275 0.166462 0.00518771 -1.12544
          0.134253 -0.0150344 -0.313891 0.188511 -0.0162307 -0.249986
          0.212099 -0.0193911 -0.323621 0.201181 -0.00575203 -0.283796
          0.404649 0.196522 1.41683 0.37001 0.190326 1.4178
          0.491887 0.204341 1.55134 0.35344 0.191337 1.57455
          0.404649 0.196522 1.41683 0.382239 0.19942 1.44473
          0.482423 0.197254 1.34396 0.356278 0.194339 1.30124
          0.404649 0.196522 1.41683 0.498836 0.200919 1.48789
          0.482423 0.197254 1.34396 0.382239 0.19942 1.44473
          0.263276 -0.0148749 -0.93916 0.261824 -0.0130019 -0.916534
          0.209323 -0.0136238 -0.907578 0.185038 -0.0112891 -0.966454
          0.263276 -0.0148749 -0.93916 0.270875 -0.0148438 -0.866727
          0.209323 -0.0136238 -0.907578 0.261824 -0.0130019 -0.916534
          0.121709 0.163601 0.920525 0.224316 0.165267 0.860861
          0.163265 0.169482 1.05637 -0.0131994 0.152042 0.931257
          0.17425 0.103817 -0.236551 0.0804092 0.101522 -0.223941
          0.105133 0.110602 -0.0678035 0.13459 0.111976 -0.0718907
          0.404649 0.196522 1.41683 0.37001 0.190326 1.4178
          0.245913 0.189513 1.4291 0.261654 0.180809 1.21446
          0.311442 0.220331 1.79745 0.273528 0.207587 1.68961
          0.216007 0.215997 1.73409 0.338599 0.20772 1.64709
          0.201068 0.185051 1.52316 0.0463607 0.175677 1.37031
          0.0960629 0.183963 1.57344 0.212652 0.196452 1.56397
          0.0771466 -0.0128792 -0.667253 0.117498 -0.0127052 -0.774123
          0.08759 -0.0181695 -0.700148 0.0185148 -0.0145913 -0.704614
          0.399897 0.204163 1.81379 0.516936 0.212012 1.83282
          0.454738 0.206806 1.89198 0.387594 0.201059 1.81382
          0.186008 0.158359 0.964154 0.170346 0.164995 1.04243
          0.254887 0.168468 1.07544 0.20704 0.159521 0.859824
          0.351222 0.0854695 -0.909379 0.290634 0.0679208 -1.00623
          0.344774 0.0734123 -0.938354 0.260874 0.0644344 -0.917065
          0.0071006 0.167298 1.0351 0.0063197 0.158562 0.854408
          0.138201 0.169455 0.956597 0.121709 0.163601 0.920525
          0.0071006 0.167298 1.0351 0.138201 0.169455 0.956597
          0.166401 0.179047 1.13145 0.121709 0.163601 0.920525
          -0.00718751 -0.0210012 -0.361431 -0.0327653 -0.0170453 -0.262145
          0.0360046 -0.0165645 -0.266146 -0.0401972 -0.0186737 -0.295772
          -0.0327653 -0.0170453 -0.262145 -0.0401972 -0.0186737 -0.295772
          -0.122225 -0.0168075 -0.28944 -0.11621 -0.0158091 -0.225044
          -0.0401972 -0.0186737 -0.295772 -0.128186 -0.0211097 -0.310567
          -0.122225 -0.0168075 -0.28944 -0.11621 -0.0158091 -0.225044
          0.00182079 -0.0183532 -0.985129 0.055218 -0.0096646 -0.961593
          0.00286609 -0.009542 -0.984145 -0.0219125 -0.0217282 -0.941717
          0.139782 -0.00357415 -1.07587 0.118271 0.00736987 -1.08369
          0.151547 0.002157 -1.08222 0.158522 0.00273212 -1.11049
          0.139782 -0.00357415 -1.07587 0.151547 0.002157 -1.08222
          0.177787 0.00281491 -1.11165 0.158522 0.00273212 -1.11049
          0.0155697 -0.00945334 -0.0979218 -0.0382728 -0.0119119 -0.0861697
          0.00316235 -0.00774175 -0.084285 -0.0277683 -0.0134212 -0.149544
          0.26653 0.162067 1.64719 0.206569 0.161767 1.63429
          0.301773 0.162762 1.76111 0.299638 0.182033 1.71781
          -0.0401972 -0.0186737 -0.295772 -0.0284574 -0.0153834 -0.248114
          0.0327665 -0.0135779 -0.313497 -0.0161619 -0.0175454 -0.372721
          0.230411 0.202424 1.92573 0.19858 0.209082 1.9791
          0.280536 0.198948 1.94003 0.230411 0.202424 1.92573
          0.0374318 -0.0190485 -0.230557 0.0486358 -0.0214736 -0.314918
          -0.0327653 -0.0170453 -0.262145 0.0360046 -0.0165645 -0.266146
          -0.0446746 0.0048848 -0.846644 -0.0854006 -0.00804012 -0.75767
          0.00753187 -0.00795808 -0.801634 -0.0602992 -0.000919334 -0.759307
          0.130594 0.0587253 -0.800895 0.183089 0.0573615 -0.895068
          0.207633 0.0598625 -0.876171 0.24453 0.0708505 -0.80429
          0.203472 -0.0139074 -0.880859 0.185367 -0.0164986 -0.811141
          0.268345 -0.0141714 -0.849032 0.187662 -0.015708 -0.769458
          0.16486 -0.0132007 -0.873521 0.203472 -0.0139074 -0.880859
          0.185367 -0.0164986 -0.811141 0.096068 -0.0160099 -0.794129
          0.373715 0.164207 0.582721 0.407349 0.167289 0.652838
          0.339227 0.15615 0.491304 0.542112 0.173101 0.58157
          0.389827 0.156966 0.411117 0.542112 0.173101 0.58157
          0.373715 0.164207 0.582721 0.339227 0.15615 0.491304
          0.130594 0.0587253 -0.800895 0.0220962 0.0587091 -0.743985
          0.181637 0.0729893 -0.691136 0.0250515 0.0571414 -0.717461
          -0.0454728 -0.0174241 -0.455721 -0.128471 -0.0186226 -0.507901
          -0.0606808 -0.0122557 -0.560799 0.00229256 -0.0169905 -0.563079
          0.268345 -0.0141714 -0.849032 0.187662 -0.015708 -0.769458
          0.206243 -0.0142357 -0.811176 0.203472 -0.0139074 -0.880859
          0.165049 0.0352555 -1.11584 0.140542 0.0445074 -1.11305
          0.169031 0.0358445 -1.13262 0.185967 0.0478477 -1.12964
          0.187662 -0.015708 -0.769458 0.118225 -0.016529 -0.643321
          0.193335 -0.0140792 -0.680673 0.117498 -0.0127052 -0.774123
          -0.0367899 -0.00800258 -0.0599512 -0.0382728 -0.0119119 -0.0861697
          -0.065013 -0.0122964 -0.0621598 -0.0126816 -0.00885974 -0.0401906
          0.208938 0.0367803 -1.11163 0.185967 0.0478477 -1.12964
          0.182059 0.0298849 -1.13052 0.228727 0.046858 -1.13087
          0.193335 -0.0140792 -0.680673 0.26683 -0.0138364 -0.624716
          0.269356 -0.0163645 -0.701896 0.274181 -0.0149544 -0.750283
          0.26683 -0.0138364 -0.624716 0.270067 -0.0114217 -0.652342
          0.274181 -0.0149544 -0.750283 0.193335 -0.0140792 -0.680673
          0.183164 -0.0170671 -0.589371 0.251263 -0.0139785 -0.497885
          0.26683 -0.0138364 -0.624716 0.258238 -0.0118763 -0.540991
          0.261534 0.137069 0.167727 0.317615 0.133859 0.0941603
          0.394227 0.144542 0.157778 0.279769 0.140479 0.25432
          0.183164 -0.0170671 -0.589371 0.251263 -0.0139785 -0.497885
          0.258238 -0.0118763 -0.540991 0.140684 -0.013983 -0.516463
          0.274181 -0.0149544 -0.750283 0.270067 -0.0114217 -0.652342
          0.274841 -0.0128614 -0.74517 0.193335 -0.0140792 -0.680673
          0.274181 -0.0149544 -0.750283 0.274841 -0.0128614 -0.74517
          0.19703 -0.0117658 -0.773249 0.193335 -0.0140792 -0.680673
          0.674729 0.22363 1.53837 0.675159 0.226764 1.51115
          0.655136 0.228487 1.65267 0.540308 0.212462 1.59578
          0.00486405 -0.0137133 -0.10608 0.0358098 -0.0173367 -0.15829
          0.0675574 -0.0172296 -0.103565 0.028315 -0.0144495 -0.0665337
          0.170804 0.0193801 -1.12604 0.169372 0.0112354 -1.1349
          0.154846 0.0182198 -1.12627 0.172928 0.0182889 -1.13082
          0.150271 0.155697 1.3658 0.236193 0.163352 1.23858
          0.131058 0.158108 1.10918 0.158586 0.163992 1.36561
          0.150271 0.155697 1.3658 0.131058 0.158108 1.10918
          0.0112062 0.150211 1.24102 0.158586 0.163992 1.36561
          0.0358098 -0.0173367 -0.15829 0.0342889 -0.0194191 -0.133678
          0.0991233 -0.0291402 -0.14598 0.0574409 -0.0227267 -0.0946761
          0.371953 0.18296 1.69668 0.38689 0.188117 1.5561
          0.26653 0.162067 1.64719 0.395388 0.191512 1.71781
          0.0560741 0.0443732 -0.867566 0.130684 0.0586593 -0.849266
          0.183089 0.0573615 -0.895068 0.130594 0.0587253 -0.800895
          0.38689 0.188117 1.5561 0.371953 0.18296 1.69668
          0.540308 0.212462 1.59578 0.395388 0.191512 1.71781
          0.301773 0.162762 1.76111 0.371953 0.18296 1.69668
          0.395388 0.191512 1.71781 0.380334 0.185943 1.81351
          0.0353563 0.00122208 -0.86422 -0.0446746 0.0048848 -0.846644
          0.00753187 -0.00795808 -0.801634 -0.0602992 -0.000919334 -0.759307
          -0.0288902 0.130995 0.360327 -0.0391606 0.125046 0.285413
          0.119924 0.137646 0.352982 -0.0340695 0.132309 0.416224
          0.520411 0.143817 -0.00516023 0.530358 0.152472 0.215311
          0.634897 0.160619 0.195354 0.394227 0.144542 0.157778
          0.48037 0.206131 1.89605 0.501687 0.207959 1.94509
          0.452807 0.202837 1.95211 0.39061 0.201088 1.94817
          0.294959 0.204801 1.7903 0.283203 0.18814 1.84313
          0.166313 0.182704 1.76022 0.217421 0.188552 1.6753
          0.273244 0.100067 -0.260464 0.17425 0.103817 -0.236551
          0.276125 0.0947165 -0.379639 0.0886722 0.0972271 -0.326607
          -0.0182043 -0.00505826 -0.712925 -0.106391 -0.0133016 -0.666373
          0.0185148 -0.0145913 -0.704614 -0.0323988 -0.0141205 -0.630091
          0.457237 0.119913 -0.42142 0.332754 0.0979477 -0.592942
          0.494421 0.118116 -0.60257 0.46044 0.105433 -0.546765
          0.56349 0.126046 -0.473892 0.457237 0.119913 -0.42142
          0.494421 0.118116 -0.60257 0.46044 0.105433 -0.546765
          0.46044 0.105433 -0.546765 0.56349 0.126046 -0.473892
          0.555583 0.106463 -0.608938 0.494421 0.118116 -0.60257
          0.46044 0.105433 -0.546765 0.544752 0.115314 -0.671386
          0.494421 0.118116 -0.60257 0.555583 0.106463 -0.608938
          0.421332 0.0907937 -0.716274 0.544752 0.115314 -0.671386
          0.46044 0.105433 -0.546765 0.555583 0.106463 -0.608938
          0.421332 0.0907937 -0.716274 0.544752 0.115314 -0.671386
          0.494421 0.118116 -0.60257 0.46044 0.105433 -0.546765
          0.46044 0.105433 -0.546765 0.392601 0.103022 -0.67509
          0.494421 0.118116 -0.60257 0.421332 0.0907937 -0.716274
          0.354887 0.191231 2.10335 0.417589 0.200862 2.11155
          0.289096 0.190872 2.09747 0.388864 0.195535 2.04031
          0.0470043 -0.0228191 -0.395565 -0.00718751 -0.0210012 -0.361431
          0.0486358 -0.0214736 -0.314918 0.0509295 -0.0182737 -0.380621
          0.332754 0.0979477 -0.592942 0.392601 0.103022 -0.67509
          0.494421 0.118116 -0.60257 0.46044 0.105433 -0.546765
          0.286155 0.107829 -0.323724 0.348836 0.102855 -0.459932
          0.457237 0.119913 -0.42142 0.486593 0.117221 -0.379886
          0.376293 0.185483 1.21542 0.451127 0.184652 1.08346
          0.254887 0.168468 1.07544 0.364277 0.178104 1.03208
          0.361484 0.173451 1.00011 0.451127 0.184652 1.08346
          0.254887 0.168468 1.07544 0.345197 0.178077 1.18186
          0.294959 0.204801 1.7903 0.272421 0.182674 1.91203
          0.270667 0.21001 1.87832 0.196196 0.1941 1.84397
          0.476062 0.182941 1.06639 0.345197 0.178077 1.18186
          0.506516 0.19332 1.21679 0.553202 0.194862 1.1531
          0.476062 0.182941 1.06639 0.361484 0.173451 1.00011
          0.345197 0.178077 1.18186 0.553202 0.194862 1.1531
          -0.128186 -0.0211097 -0.310567 -0.132434 -0.021604 -0.332616
          -0.0513797 -0.0175883 -0.319843 -0.0161619 -0.0175454 -0.372721
          0.203415 0.152634 0.830437 0.112514 0.149711 0.813037
          0.314863 0.163832 0.842115 0.128366 0.144338 0.653264
          0.205207 0.033256 -1.10889 0.238887 0.0380659 -1.09393
          0.215453 0.0337856 -1.12044 0.235505 0.0465084 -1.10819
          -0.0126816 -0.00885974 -0.0401906 0.0019014 -0.00258287 -0.0143042
          0.0112358 -0.00689671 -0.058432 0.00316235 -0.00774175 -0.084285
          0.10775 -0.0136116 -0.885602 0.0547873 -0.00956248 -0.875966
          0.00945855 -0.0154396 -0.791267 0.0642946 -0.0122501 -0.806808
          0.41749 0.201144 1.6896 0.35344 0.191337 1.57455
          0.299638 0.182033 1.71781 0.320545 0.196448 1.74209
          0.399897 0.204163 1.81379 0.41749 0.201144 1.6896
          0.387594 0.201059 1.81382 0.320545 0.196448 1.74209
          0.618914 0.118881 -0.360852 0.486593 0.117221 -0.379886
          0.59157 0.110913 -0.485872 0.432143 0.100045 -0.469631
          0.526328 0.0902544 -0.665505 0.421332 0.0907937 -0.716274
          0.555583 0.106463 -0.608938 0.492079 0.0833424 -0.762226
          0.472775 0.161158 0.475347 0.517372 0.152084 0.282314
          0.712817 0.175067 0.48361 0.572815 0.164404 0.469028
          0.245603 -0.0133778 -1.02696 0.263276 -0.0148749 -0.93916
          0.206809 -0.0107099 -1.02112 0.254776 -0.0120806 -0.974703
          0.600665 0.140251 -0.22772 0.486593 0.117221 -0.379886
          0.64244 0.137669 -0.350307 0.64488 0.133423 -0.290885
          0.486593 0.117221 -0.379886 0.46044 0.105433 -0.546765
          0.59157 0.110913 -0.485872 0.432143 0.100045 -0.469631
          0.245603 -0.0133778 -1.02696 0.263276 -0.0148749 -0.93916
          0.251392 -0.0149688 -0.992494 0.206809 -0.0107099 -1.02112
          0.181922 0.0120482 -1.13884 0.172928 0.0182889 -1.13082
          0.180128 0.0144698 -1.13421 0.193318 0.0234298 -1.13418
          0.193318 0.0234298 -1.13418 0.180128 0.0144698 -1.13421
          0.181922 0.0120482 -1.13884 0.180506 0.0179277 -1.13799
          0.399897 0.204163 1.81379 0.320545 0.196448 1.74209
          0.387594 0.201059 1.81382 0.294959 0.204801 1.7903
          0.0247339 0.0644325 -0.803147 0.0494826 0.052463 -0.910515
          0.130684 0.0586593 -0.849266 0.158016 0.0603311 -0.849714
          0.110453 -0.0208346 -0.375156 0.0486358 -0.0214736 -0.314918
          0.0360046 -0.0165645 -0.266146 0.0509295 -0.0182737 -0.380621
          0.110453 -0.0208346 -0.375156 0.0486358 -0.0214736 -0.314918
          0.116656 -0.0213041 -0.272863 0.0360046 -0.0165645 -0.266146
          0.539956 0.186254 0.988245 0.709038 0.196187 0.93758
          0.564165 0.19024 1.0193 0.703544 0.206163 1.12416
          0.539956 0.186254 0.988245 0.696654 0.19816 0.990943
          0.709038 0.196187 0.93758 0.703544 0.206163 1.12416
          0.183164 -0.0170671 -0.589371 0.0578659 -0.018722 -0.485896
          0.15721 -0.0181165 -0.470608 0.140684 -0.013983 -0.516463
          0.183164 -0.0170671 -0.589371 0.251263 -0.0139785 -0.497885
          0.140684 -0.013983 -0.516463 0.15721 -0.0181165 -0.470608
          -0.12508 -0.0269195 -0.560752 -0.111952 -0.0240078 -0.643506
          -0.122119 -0.0235412 -0.572695 -0.0365529 -0.0262545 -0.615241
          0.262477 -0.0189119 -0.593392 0.251263 -0.0139785 -0.497885
          0.26683 -0.0138364 -0.624716 0.183164 -0.0170671 -0.589371
          0.21495 0.157538 1.917 0.272421 0.182674 1.91203
          0.234576 0.164884 1.9288 0.313847 0.186532 1.91649
          0.550847 0.21194 1.99431 0.524651 0.210655 2.04711
          0.509731 0.207944 2.04718 0.44968 0.200513 2.01221
          0.348836 0.102855 -0.459932 0.258244 0.101278 -0.423532
          0.332754 0.0979477 -0.592942 0.272319 0.0902591 -0.581238
          0.500981 0.133764 0.025035 0.694104 0.155148 0.164546
          0.517372 0.152084 0.282314 0.685457 0.150589 0.168031
          0.59149 0.218173 2.02627 0.509965 0.214157 2.04142
          0.55343 0.219074 2.12334 0.524651 0.210655 2.04711
          0.334286 0.120649 -0.0685765 0.527923 0.13303 -0.0882344
          0.445539 0.138683 0.0844741 0.500981 0.133764 0.025035
          0.394078 0.205558 2.05199 0.335164 0.204974 2.06627
          0.38125 0.210746 2.12329 0.343228 0.197767 2.10279
          0.0108537 -0.0216076 -0.447808 -0.0382095 -0.0203499 -0.467039
          0.00633645 -0.0199511 -0.543667 -0.0168768 -0.0233283 -0.525649
          0.347512 0.182185 1.38557 0.38689 0.188117 1.5561
          0.37001 0.190326 1.4178 0.252819 0.174978 1.51462
          0.347512 0.182185 1.38557 0.503551 0.201335 1.4564
          0.37001 0.190326 1.4178 0.38689 0.188117 1.5561
          0.503551 0.201335 1.4564 0.465399 0.19799 1.51567
          0.38689 0.188117 1.5561 0.347512 0.182185 1.38557
          0.055218 -0.0096646 -0.961593 0.0547873 -0.00956248 -0.875966
          0.10775 -0.0136116 -0.885602 0.126494 -0.0116239 -0.962722
          0.38689 0.188117 1.5561 0.465399 0.19799 1.51567
          0.371953 0.18296 1.69668 0.294303 0.168015 1.52233
          0.371953 0.18296 1.69668 0.294303 0.168015 1.52233
          0.26653 0.162067 1.64719 0.38689 0.188117 1.5561
          0.38689 0.188117 1.5561 0.206569 0.161767 1.63429
          0.26653 0.162067 1.64719 0.299638 0.182033 1.71781
          -0.0515571 -0.0303915 -0.88369 -0.0581836 -0.0358302 -0.840197
          -0.000164951 -0.0258844 -0.847736 -0.0801759 -0.0285786 -0.792856
          0.267714 0.0382249 -1.05959 0.207377 0.0208321 -1.10963
          0.247711 0.0274887 -1.06388 0.196263 0.0293345 -1.09673
          0.160153 0.0242505 -1.10792 0.170804 0.0193801 -1.12604
          0.187816 0.025274 -1.11521 0.196263 0.0293345 -1.09673
          0.318274 0.14137 0.291124 0.113661 0.130721 0.288513
          0.345308 0.152407 0.481869 0.195943 0.145332 0.453197
          0.318274 0.14137 0.291124 0.113661 0.130721 0.288513
          0.189242 0.142522 0.483109 0.345308 0.152407 0.481869
          0.113946 -0.0122499 -0.222739 0.166261 -0.0163788 -0.191247
          0.188511 -0.0162307 -0.249986 0.17088 -0.00538913 -0.207319
          0.0930218 0.0316273 -0.984041 0.071029 0.042301 -0.936173
          0.156925 0.0462572 -0.961802 0.0560741 0.0443732 -0.867566
          0.345308 0.152407 0.481869 0.113661 0.130721 0.288513
          0.189242 0.142522 0.483109 0.195943 0.145332 0.453197
          0.345308 0.152407 0.481869 0.311949 0.159912 0.662099
          0.472775 0.161158 0.475347 0.407349 0.167289 0.652838
          0.345308 0.152407 0.481869 0.311949 0.159912 0.662099
          0.522672 0.172355 0.662797 0.472775 0.161158 0.475347
          0.465399 0.19799 1.51567 0.581837 0.210988 1.42249
          0.540308 0.212462 1.59578 0.675159 0.226764 1.51115
          0.465399 0.19799 1.51567 0.581837 0.210988 1.42249
          0.503551 0.201335 1.4564 0.540308 0.212462 1.59578
          -0.0205164 -0.0113926 -0.024542 0 0 0
          -0.0475923 -0.0145643 -0.0260409 -0.020548 -0.00832014 -0.0250458
          -0.0148586 -0.00274295 -0.0245388 -0.020548 -0.00832014 -0.0250458
          -0.0485207 -0.00933978 -0.032129 0 0 0
          0.390222 0.200457 2.03097 0.343228 0.197767 2.10279
          0.417589 0.200862 2.11155 0.289096 0.190872 2.09747
          0.555537 0.202478 1.4184 0.535403 0.202873 1.41079
          0.483334 0.195034 1.26309 0.712901 0.206388 1.22555
          0.555537 0.202478 1.4184 0.482423 0.197254 1.34396
          0.586206 0.198766 1.24339 0.483334 0.195034 1.26309
          0.535403 0.202873 1.41079 0.404649 0.196522 1.41683
          0.555537 0.202478 1.4184 0.483334 0.195034 1.26309
          0.282637 0.191383 1.93899 0.390222 0.200457 2.03097
          0.399113 0.201668 1.96815 0.317265 0.193703 1.98205
          0.535403 0.202873 1.41079 0.491887 0.204341 1.55134
          0.555537 0.202478 1.4184 0.404649 0.196522 1.41683
          0.00753187 -0.00795808 -0.801634 -0.0584268 -0.00413948 -0.841123
          -0.0752176 -0.0108463 -0.79656 -0.0854006 -0.00804012 -0.75767
          0.39061 0.201088 1.94817 0.399113 0.201668 1.96815
          0.390222 0.200457 2.03097 0.317265 0.193703 1.98205
          0.674729 0.22363 1.53837 0.675159 0.226764 1.51115
          0.540308 0.212462 1.59578 0.503551 0.201335 1.4564
          0.0482068 0.0676577 -0.882717 0.123689 0.0542317 -0.925889
          0.0247339 0.0644325 -0.803147 0.10116 0.0650096 -0.847493
          -0.020548 -0.00832014 -0.0250458 -0.0148586 -0.00274295 -0.0245388
          0 0 0 0 0 0
          0.201734 -0.00779991 -1.01235 0.250899 -0.00758936 -0.953821
          0.182197 -0.0121593 -0.958737 0.188444 -0.00778189 -1.02334
          0.326886 0.131137 0.105877 0.198264 0.124889 0.070095
          0.0824626 0.120069 0.102868 0.206908 0.133411 0.224806
          0.00815519 -0.0112139 -0.565742 0.00229256 -0.0169905 -0.563079
          0.0470197 -0.0148555 -0.460253 -0.0454728 -0.0174241 -0.455721
          -0.0454728 -0.0174241 -0.455721 0.0470197 -0.0148555 -0.460253
          0.057422 -0.00958656 -0.504466 -0.0432089 -0.0131838 -0.487029
          0.520384 0.12941 -0.212325 0.416411 0.116529 -0.262841
          0.465816 0.133938 -0.0723265 0.339176 0.123145 -0.0956363
          -0.0454728 -0.0174241 -0.455721 -0.133267 -0.0188305 -0.415527
          -0.0299594 -0.014765 -0.366911 -0.0432089 -0.0131838 -0.487029
          0.348836 0.102855 -0.459932 0.230729 0.0840752 -0.586159
          0.349309 0.0887881 -0.620987 0.299053 0.0864083 -0.553598
          0.348836 0.102855 -0.459932 0.272319 0.0902591 -0.581238
          0.349309 0.0887881 -0.620987 0.230729 0.0840752 -0.586159
          -0.132317 -0.0205373 -0.410748 -0.133267 -0.0188305 -0.415527
          -0.0299594 -0.014765 -0.366911 -0.0454728 -0.0174241 -0.455721
          0.118354 0.00659017 -1.09692 0.118271 0.00736987 -1.08369
          0.139782 -0.00357415 -1.07587 0.158522 0.00273212 -1.11049
          -0.0658888 -0.0192985 -0.331415 0.00554623 -0.0230099 -0.354419
          -0.00718751 -0.0210012 -0.361431 -0.00765868 -0.0207847 -0.286805
          0.183089 0.0573615 -0.895068 0.209562 0.0518334 -0.953749
          0.258765 0.0665526 -0.86543 0.238684 0.0574548 -0.90005
          0.185334 -0.00195267 -1.08471 0.129918 -0.0092143 -1.0239
          0.17137 -0.00547832 -1.04012 0.139782 -0.00357415 -1.07587
          -0.127933 -0.0196322 -0.359668 -0.0658888 -0.0192985 -0.331415
          -0.130076 -0.0213635 -0.371606 -0.122225 -0.0168075 -0.28944
          0.387815 0.202424 1.98846 0.335556 0.201341 2.04656
          0.335164 0.204974 2.06627 0.311359 0.19366 2.00681
          -0.0474617 0.108912 -0.0036774 0.13459 0.111976 -0.0718907
          0.198264 0.124889 0.070095 0.0824626 0.120069 0.102868
          0.114131 0.153668 0.647563 0.121136 0.145829 0.514661
          0.208709 0.154096 0.550593 0.171797 0.154438 0.655168
          0.44205 0.135678 0.148091 0.307201 0.123835 0.0687832
          0.395931 0.139444 0.273135 0.257122 0.135619 0.303109
          0.0389992 -0.0231358 -0.956961 -0.0515571 -0.0303915 -0.88369
          -0.0120033 -0.0375333 -0.962701 0.0169673 -0.0315692 -0.881613
          0.374364 0.188654 1.22074 0.509302 0.18922 1.04712
          0.327201 0.179018 1.03886 0.441927 0.190179 1.14735
          0.054551 0.0753255 -0.77357 0.0482068 0.0676577 -0.882717
          0.0247339 0.0644325 -0.803147 0.10116 0.0650096 -0.847493
          -0.0171008 -0.0138017 -0.174494 -0.0482987 -0.0104118 -0.135516
          -0.0354252 -0.0123842 -0.100673 -0.108082 -0.0140942 -0.171628
          -0.109993 -0.0199922 -0.657779 0.0185148 -0.0145913 -0.704614
          -0.0443746 -0.0202338 -0.606738 -0.0331069 -0.0207408 -0.7108
          0.103863 -0.00388894 -0.0944656 0.0752352 -0.00582282 -0.0580352
          0.0450981 0.00208091 -0.0389618 0.0514415 -0.00199443 -0.0580778
          0.3056 0.0562813 -0.888644 0.239659 0.0461789 -0.951595
          0.283765 0.0410843 -0.917892 0.233984 0.0560029 -0.869098
          0.128655 0.112603 -0.0840872 0.317615 0.133859 0.0941603
          0.237825 0.113705 -0.173142 0.195909 0.124021 0.0195096
          0.333011 0.0545899 -0.945405 0.377788 0.0443525 -0.963537
          0.328671 0.0418834 -0.942546 0.270998 0.0410123 -0.998166
          0.196052 0.0376533 -1.03505 0.157521 0.0469226 -0.985977
          0.208244 0.0317288 -1.03781 0.239659 0.0461789 -0.951595
          0.239659 0.0461789 -0.951595 0.157521 0.0469226 -0.985977
          0.208244 0.0317288 -1.03781 0.253697 0.0323901 -0.985347
          0.239659 0.0461789 -0.951595 0.157521 0.0469226 -0.985977
          0.253697 0.0323901 -0.985347 0.20433 0.0494215 -0.926588
          0.526328 0.0902544 -0.665505 0.372622 0.0709968 -0.788346
          0.421332 0.0907937 -0.716274 0.492079 0.0833424 -0.762226
          0.334915 0.211659 1.88336 0.270667 0.21001 1.87832
          0.240274 0.217295 1.83279 0.311442 0.220331 1.79745
          0.432326 0.0870368 -0.603389 0.351173 0.074105 -0.680571
          0.336885 0.0784927 -0.737575 0.372622 0.0709968 -0.788346
          0.18739 0.0247255 -1.1202 0.205207 0.033256 -1.10889
          0.203025 0.040745 -1.06991 0.167174 0.0257106 -1.09011
          0.709794 0.178071 0.568122 0.572815 0.164404 0.469028
          0.522672 0.172355 0.662797 0.472775 0.161158 0.475347
          0.197806 0.00805325 -1.12213 0.17471 0.0103553 -1.13275
          0.207377 0.0208321 -1.10963 0.195952 0.0179985 -1.12406
          0.0372527 0.0525971 -0.826828 0.0502769 0.0524165 -0.884212
          0.071029 0.042301 -0.936173 0.130684 0.0586593 -0.849266
          0.130684 0.0586593 -0.849266 0.0502769 0.0524165 -0.884212
          0.071029 0.042301 -0.936173 0.13282 0.0487597 -0.935717
          0.572815 0.164404 0.469028 0.517372 0.152084 0.282314
          0.710123 0.168797 0.351904 0.698744 0.164157 0.363125
          0.130684 0.0586593 -0.849266 0.13282 0.0487597 -0.935717
          0.071029 0.042301 -0.936173 0.183089 0.0573615 -0.895068
          0.0560741 0.0443732 -0.867566 0.0372527 0.0525971 -0.826828
          0.071029 0.042301 -0.936173 0.130684 0.0586593 -0.849266
          0.0247339 0.0644325 -0.803147 0.130684 0.0586593 -0.849266
          0.136757 0.0683191 -0.748962 0.158016 0.0603311 -0.849714
          0.509965 0.214157 2.04142 0.480039 0.211585 2.11979
          0.584148 0.228069 2.09401 0.55343 0.219074 2.12334
          0.509965 0.214157 2.04142 0.584148 0.228069 2.09401
          0.59149 0.218173 2.02627 0.55343 0.219074 2.12334
          0.300169 0.205092 1.53596 0.276521 0.195515 1.38913
          0.382239 0.19942 1.44473 0.349891 0.19974 1.53891
          0.509965 0.214157 2.04142 0.463114 0.205583 2.00861
          0.59149 0.218173 2.02627 0.59459 0.220233 1.95943
          0.509965 0.214157 2.04142 0.480039 0.211585 2.11979
          0.55343 0.219074 2.12334 0.50375 0.208821 2.11494
          0.0509295 -0.0182737 -0.380621 0.134253 -0.0150344 -0.313891
          0.104284 -0.0136701 -0.371997 0.0360046 -0.0165645 -0.266146
          0.0360046 -0.0165645 -0.266146 0.0327665 -0.0135779 -0.313497
          0.104284 -0.0136701 -0.371997 0.0509295 -0.0182737 -0.380621
          -0.00718751 -0.0210012 -0.361431 -0.0401972 -0.0186737 -0.295772
          0.0360046 -0.0165645 -0.266146 0.0509295 -0.0182737 -0.380621
          0.0509295 -0.0182737 -0.380621 -0.0161619 -0.0175454 -0.372721
          0.0578659 -0.018722 -0.485896 -0.0382095 -0.0203499 -0.467039
          0.153352 0.000889392 -1.13561 0.147967 -0.00385141 -1.1071
          0.17279 0.00720272 -1.12721 0.153 5.4393e-05 -1.12756
          0.105195 -0.00802552 -0.266652 0.113946 -0.0122499 -0.222739
          0.134253 -0.0150344 -0.313891 0.201181 -0.00575203 -0.283796
          0.113946 -0.0122499 -0.222739 0.188511 -0.0162307 -0.249986
          0.134253 -0.0150344 -0.313891 0.201181 -0.00575203 -0.283796
          0.113946 -0.0122499 -0.222739 0.17088 -0.00538913 -0.207319
          0.188511 -0.0162307 -0.249986 0.201181 -0.00575203 -0.283796
          0.669866 0.212344 1.60442 0.542925 0.207163 1.63277
          0.645948 0.213288 1.70657 0.594527 0.204081 1.66253
          0.152229 0.0117325 -1.11972 0.171138 0.0116209 -1.12877
          0.152649 0.0237462 -1.12026 0.168346 0.0243239 -1.1291
          0.180506 0.0179277 -1.13799 0.152229 0.0117325 -1.11972
          0.152649 0.0237462 -1.12026 0.182059 0.0298849 -1.13052
          0.63083 0.166766 0.558058 0.475537 0.165971 0.715955
          0.64176 0.17821 0.734424 0.542691 0.172558 0.701274
          0.64176 0.17821 0.734424 0.542691 0.172558 0.701274
          0.543584 0.179795 0.887579 0.701053 0.18971 0.85072
          0.475537 0.165971 0.715955 0.368946 0.164907 0.841573
          0.543584 0.179795 0.887579 0.542691 0.172558 0.701274
          0.17471 0.0103553 -1.13275 0.153 5.4393e-05 -1.12756
          0.160877 0.00282591 -1.14115 0.169372 0.0112354 -1.1349
          0.153 5.4393e-05 -1.12756 0.153352 0.000889392 -1.13561
          0.160877 0.00282591 -1.14115 0.169372 0.0112354 -1.1349
          0.64176 0.17821 0.734424 0.475537 0.165971 0.715955
          0.543584 0.179795 0.887579 0.542691 0.172558 0.701274
          -0.0485207 -0.00933978 -0.032129 -0.0698807 -0.0189799 -0.0582118
          -0.020548 -0.00832014 -0.0250458 -0.065013 -0.0122964 -0.0621598
          0.709794 0.178071 0.568122 0.472775 0.161158 0.475347
          0.522672 0.172355 0.662797 0.578844 0.169726 0.498809
          0.702014 0.175241 0.559962 0.477178 0.161787 0.54982
          0.522672 0.172355 0.662797 0.572815 0.164404 0.469028
          0.492079 0.0833424 -0.762226 0.36166 0.0661805 -0.870565
          0.372622 0.0709968 -0.788346 0.343916 0.0755584 -0.839382
          0.124865 0.0743217 -0.614662 0.173799 0.0876068 -0.503416
          -0.0186939 0.0795216 -0.446417 0.117851 0.0788018 -0.593398
          -0.0897965 -0.0172937 -0.75591 0.0185148 -0.0145913 -0.704614
          -0.0331069 -0.0207408 -0.7108 0.00945855 -0.0154396 -0.791267
          0.506516 0.19332 1.21679 0.345197 0.178077 1.18186
          0.473613 0.191655 1.24082 0.553202 0.194862 1.1531
          0.3056 0.0562813 -0.888644 0.257074 0.0669415 -0.796305
          0.317734 0.059831 -0.79408 0.372622 0.0709968 -0.788346
          0.268413 0.19547 2.02507 0.373512 0.195207 2.01143
          0.317265 0.193703 1.98205 0.280936 0.193837 2.04554
          0.317734 0.059831 -0.79408 0.257074 0.0669415 -0.796305
          0.351173 0.074105 -0.680571 0.372622 0.0709968 -0.788346
          0.268413 0.19547 2.02507 0.19858 0.209082 1.9791
          0.208235 0.204512 2.0408 0.214937 0.209647 2.04065
          0.268413 0.19547 2.02507 0.317265 0.193703 1.98205
          0.19858 0.209082 1.9791 0.19858 0.209082 1.9791
          0.280936 0.193837 2.04554 0.268413 0.19547 2.02507
          0.208235 0.204512 2.0408 0.214937 0.209647 2.04065
          0.268413 0.19547 2.02507 0.19858 0.209082 1.9791
          0.19858 0.209082 1.9791 0.214937 0.209647 2.04065
          0.376293 0.185483 1.21542 0.364277 0.178104 1.03208
          0.327201 0.179018 1.03886 0.509302 0.18922 1.04712
          0.376293 0.185483 1.21542 0.364277 0.178104 1.03208
          0.261654 0.180809 1.21446 0.327201 0.179018 1.03886
          0.376293 0.185483 1.21542 0.261654 0.180809 1.21446
          0.364277 0.178104 1.03208 0.170346 0.164995 1.04243
          0.376293 0.185483 1.21542 0.37001 0.190326 1.4178
          0.404649 0.196522 1.41683 0.261654 0.180809 1.21446
          0.376293 0.185483 1.21542 0.202133 0.177184 1.37992
          0.37001 0.190326 1.4178 0.261654 0.180809 1.21446
          0.502812 0.120214 -0.176552 0.527923 0.13303 -0.0882344
          0.646271 0.129887 -0.217498 0.416411 0.116529 -0.262841
          0.416411 0.116529 -0.262841 0.334286 0.120649 -0.0685765
          0.502812 0.120214 -0.176552 0.527923 0.13303 -0.0882344
          0.177787 0.00281491 -1.11165 0.183085 0.00551842 -1.13081
          0.184506 0.00171474 -1.10889 0.158522 0.00273212 -1.11049
          0.170346 0.164995 1.04243 0.224316 0.165267 0.860861
          0.364277 0.178104 1.03208 0.349722 0.170056 0.845586
          0.349722 0.170056 0.845586 0.364277 0.178104 1.03208
          0.327201 0.179018 1.03886 0.224316 0.165267 0.860861
          0.348836 0.102855 -0.459932 0.272319 0.0902591 -0.581238
          0.46044 0.105433 -0.546765 0.349309 0.0887881 -0.620987
          0.332754 0.0979477 -0.592942 0.30705 0.0854688 -0.699613
          0.46044 0.105433 -0.546765 0.272319 0.0902591 -0.581238
          0.244295 0.0843376 -0.648259 0.272319 0.0902591 -0.581238
          0.30705 0.0854688 -0.699613 0.332754 0.0979477 -0.592942
          0.540798 0.0820835 -0.610499 0.432167 0.0766004 -0.589968
          0.564627 0.0850216 -0.517364 0.432326 0.0870368 -0.603389
          0.311949 0.159912 0.662099 0.477379 0.178653 0.833553
          0.407349 0.167289 0.652838 0.349722 0.170056 0.845586
          0.217546 0.0982124 -0.384524 0.416411 0.116529 -0.262841
          0.286155 0.107829 -0.323724 0.327877 0.110293 -0.24624
          0.364277 0.178104 1.03208 0.477379 0.178653 0.833553
          0.564165 0.19024 1.0193 0.349722 0.170056 0.845586
          0.364277 0.178104 1.03208 0.349722 0.170056 0.845586
          0.564165 0.19024 1.0193 0.4665 0.174973 0.832093
          0.326886 0.131137 0.105877 0.0824626 0.120069 0.102868
          0.177901 0.122751 0.105101 0.206908 0.133411 0.224806
          0.268345 -0.0141714 -0.849032 0.203472 -0.0139074 -0.880859
          0.206243 -0.0142357 -0.811176 0.16486 -0.0132007 -0.873521
          0.0844988 -0.00990728 -0.605686 0.0804219 -0.014032 -0.565645
          0.00815519 -0.0112139 -0.565742 0.0771466 -0.0128792 -0.667253
          0.27013 0.0773494 -0.610887 0.188323 0.0883993 -0.510283
          0.147113 0.0900758 -0.449962 0.299053 0.0864083 -0.553598
          0.27013 0.0773494 -0.610887 0.18863 0.0787469 -0.62348
          0.188323 0.0883993 -0.510283 0.299053 0.0864083 -0.553598
          0.15796 0.017913 -1.13832 0.162798 0.0130179 -1.13538
          0.169372 0.0112354 -1.1349 0.157544 0.0198756 -1.12909
          0.318274 0.14137 0.291124 0.206908 0.133411 0.224806
          0.177901 0.122751 0.105101 0.113661 0.130721 0.288513
          0.156925 0.0462572 -0.961802 0.180739 0.0425605 -1.00764
          0.13282 0.0487597 -0.935717 0.071029 0.042301 -0.936173
          0.527923 0.13303 -0.0882344 0.334286 0.120649 -0.0685765
          0.502812 0.120214 -0.176552 0.500981 0.133764 0.025035
          0.187816 0.025274 -1.11521 0.193318 0.0234298 -1.13418
          0.205207 0.033256 -1.10889 0.215453 0.0337856 -1.12044
          0.160769 -0.0155552 -0.394325 0.140684 -0.013983 -0.516463
          0.104284 -0.0136701 -0.371997 0.156717 -0.00972851 -0.433933
          -0.0370501 0.0890911 -0.462169 0.0878293 0.0822467 -0.551896
          0.101692 0.0805584 -0.621601 -0.0296118 0.0834849 -0.573164
          -0.0277683 -0.0134212 -0.149544 -0.0423323 -0.0154299 -0.123609
          0.00316235 -0.00774175 -0.084285 0.0130412 -0.00728572 -0.143159
          -0.0117854 -0.00191015 -0.0371014 -0.0195698 0.00244057 -0.00847001
          0.00714858 -0.00373127 -0.00222902 -0.0144841 0.000148197 -0.0285603
          0.528544 0.20717 1.83677 0.610188 0.213279 1.85818
          0.548184 0.208722 1.91561 0.48037 0.206131 1.89605
          0.167692 0.00789246 -1.13227 0.181922 0.0120482 -1.13884
          0.18229 0.00818924 -1.14588 0.177514 0.0162521 -1.13173
          0.167692 0.00789246 -1.13227 0.177514 0.0162521 -1.13173
          0.18229 0.00818924 -1.14588 0.174612 0.0120543 -1.13495
          0.174612 0.0120543 -1.13495 0.177514 0.0162521 -1.13173
          0.18229 0.00818924 -1.14588 0.198031 0.0285388 -1.14317
          0.320545 0.196448 1.74209 0.217421 0.188552 1.6753
          0.294959 0.204801 1.7903 0.314828 0.197156 1.62844
          0.40384 0.206217 1.66463 0.314828 0.197156 1.62844
          0.320545 0.196448 1.74209 0.294959 0.204801 1.7903
          0.177514 0.0162521 -1.13173 0.181922 0.0120482 -1.13884
          0.193318 0.0234298 -1.13418 0.172928 0.0182889 -1.13082
          0.177514 0.0162521 -1.13173 0.172928 0.0182889 -1.13082
          0.193318 0.0234298 -1.13418 0.187816 0.025274 -1.11521
          0.158586 0.163992 1.36561 0.347512 0.182185 1.38557
          0.252819 0.174978 1.51462 0.294303 0.168015 1.52233
          0.0975126 -0.0129236 -1.08417 0.0313912 -0.0323034 -1.04785
          0.0700022 -0.0189528 -1.04155 0.0471266 -0.0191522 -1.04979
          0.0975126 -0.0129236 -1.08417 0.0700022 -0.0189528 -1.04155
          0.0893929 -0.023841 -1.08672 0.118174 -0.0101753 -1.07335
          0.0389992 -0.0231358 -0.956961 0.0169673 -0.0315692 -0.881613
          -0.000164951 -0.0258844 -0.847736 -0.0515571 -0.0303915 -0.88369
          0.130874 -0.00297278 -1.10678 0.0975126 -0.0129236 -1.08417
          0.126155 -0.0162538 -1.11475 0.134934 -0.0107202 -1.12126
          0.0366677 -0.00708896 -0.252972 0.123339 0.00193013 -0.276106
          0.105195 -0.00802552 -0.266652 0.0898911 -0.00444595 -0.325468
          0.646271 0.129887 -0.217498 0.486593 0.117221 -0.379886
          0.64488 0.133423 -0.290885 0.618914 0.118881 -0.360852
          0.472775 0.161158 0.475347 0.517372 0.152084 0.282314
          0.710123 0.168797 0.351904 0.712817 0.175067 0.48361
          -0.109993 -0.0199922 -0.657779 -0.0323988 -0.0141205 -0.630091
          -0.122298 -0.0197349 -0.569304 -0.0443746 -0.0202338 -0.606738
          -0.122119 -0.0235412 -0.572695 -0.0382095 -0.0203499 -0.467039
          -0.0443746 -0.0202338 -0.606738 -0.122298 -0.0197349 -0.569304
          0.118354 0.00659017 -1.09692 0.145661 0.00531314 -1.11313
          0.150219 0.0219777 -1.11042 0.152649 0.0237462 -1.12026
          0.372622 0.0709968 -0.788346 0.428379 0.0567763 -0.892945
          0.36166 0.0661805 -0.870565 0.45466 0.0726495 -0.847837
          0.120681 0.0270317 -1.07656 0.117393 0.0308707 -1.07992
          0.138486 0.0182829 -1.10666 0.160153 0.0242505 -1.10792
          -0.122119 -0.0235412 -0.572695 -0.109993 -0.0199922 -0.657779
          -0.122298 -0.0197349 -0.569304 -0.0443746 -0.0202338 -0.606738
          0.160153 0.0242505 -1.10792 0.117393 0.0308707 -1.07992
          0.138486 0.0182829 -1.10666 0.135998 0.0290872 -1.1078
          0.0827109 -0.0196146 -1.08085 0.0313912 -0.0323034 -1.04785
          0.0893929 -0.023841 -1.08672 0.0975126 -0.0129236 -1.08417
          0.0827109 -0.0196146 -1.08085 0.0975126 -0.0129236 -1.08417
          0.130043 -0.00557288 -1.10149 0.0811437 -0.0025162 -1.07377
          -0.108758 -0.0168716 -0.179429 -0.108082 -0.0140942 -0.171628
          -0.0525861 -0.0158793 -0.211183 -0.0354252 -0.0123842 -0.100673
          0.158586 0.163992 1.36561 0.236193 0.163352 1.23858
          0.131058 0.158108 1.10918 0.237915 0.172735 1.23496
          0.158586 0.163992 1.36561 0.236193 0.163352 1.23858
          0.237915 0.172735 1.23496 0.347512 0.182185 1.38557
          0.158586 0.163992 1.36561 0.0303563 0.162405 1.30879
          0.0112062 0.150211 1.24102 0.0561909 0.158821 1.45466
          0.0112062 0.150211 1.24102 0.158586 0.163992 1.36561
          0.0561909 0.158821 1.45466 0.0458227 0.142413 1.4792
          0.202133 0.177184 1.37992 0.0303563 0.162405 1.30879
          0.158586 0.163992 1.36561 0.0561909 0.158821 1.45466
          0.539956 0.186254 0.988245 0.709038 0.196187 0.93758
          0.4665 0.174973 0.832093 0.578245 0.183818 0.83647
          0.578245 0.183818 0.83647 0.522672 0.172355 0.662797
          0.714042 0.187409 0.739804 0.705183 0.183313 0.70671
          0.709038 0.196187 0.93758 0.578245 0.183818 0.83647
          0.714042 0.187409 0.739804 0.705183 0.183313 0.70671
          0.20449 0.1161 0.00797098 0.177901 0.122751 0.105101
          0.147867 0.12399 0.215002 0.269518 0.124347 0.146292
          0.269518 0.124347 0.146292 0.177901 0.122751 0.105101
          0.147867 0.12399 0.215002 0.257122 0.135619 0.303109
          0.23471 0.0431356 -1.07046 0.205207 0.033256 -1.10889
          0.207944 0.034123 -1.08695 0.173956 0.0310747 -1.07793
          -0.0523907 0.129622 0.506003 -0.0584419 0.120704 0.269333
          0.0887269 0.13043 0.360895 -0.0316434 0.123871 0.388691
          0.044791 0.133985 0.562318 -0.0523907 0.129622 0.506003
          0.0887269 0.13043 0.360895 -0.0316434 0.123871 0.388691
          0.044791 0.133985 0.562318 0.0887269 0.13043 0.360895
          0.16556 0.134608 0.433358 -0.0316434 0.123871 0.388691
          -0.000164951 -0.0258844 -0.847736 -0.0801759 -0.0285786 -0.792856
          -0.0840805 -0.0231921 -0.77883 -0.0648303 -0.020364 -0.846966
          0.194464 -0.00870049 -1.02577 0.232606 -0.00658906 -1.06714
          0.19541 -0.00381637 -1.08441 0.17137 -0.00547832 -1.04012
          0.38689 0.188117 1.5561 0.252819 0.174978 1.51462
          0.206569 0.161767 1.63429 0.299638 0.182033 1.71781
          0.299638 0.182033 1.71781 0.252819 0.174978 1.51462
          0.206569 0.161767 1.63429 0.217421 0.188552 1.6753
          0.129141 0.0946554 -0.378284 0.0886722 0.0972271 -0.326607
          0.147113 0.0900758 -0.449962 0.00586034 0.0936913 -0.408731
          0.299638 0.182033 1.71781 0.206569 0.161767 1.63429
          0.132312 0.154881 1.67008 0.217421 0.188552 1.6753
          0.333011 0.0545899 -0.945405 0.238684 0.0574548 -0.90005
          0.3056 0.0562813 -0.888644 0.278739 0.0589262 -0.949907
          0.175656 0.012652 -1.13595 0.169372 0.0112354 -1.1349
          0.170804 0.0193801 -1.12604 0.172928 0.0182889 -1.13082
          0.228412 0.0286129 -1.10666 0.219527 0.0205329 -1.10211
          0.195952 0.0179985 -1.12406 0.206879 0.0273064 -1.10803
          0.432326 0.0870368 -0.603389 0.351173 0.074105 -0.680571
          0.349309 0.0887881 -0.620987 0.336885 0.0784927 -0.737575
          0.372622 0.0709968 -0.788346 0.336885 0.0784927 -0.737575
          0.421332 0.0907937 -0.716274 0.343916 0.0755584 -0.839382
          0.253788 0.0760074 -0.685864 0.24453 0.0708505 -0.80429
          0.336885 0.0784927 -0.737575 0.257074 0.0669415 -0.796305
          0.253788 0.0760074 -0.685864 0.24453 0.0708505 -0.80429
          0.30705 0.0854688 -0.699613 0.336885 0.0784927 -0.737575
          0.367694 0.056094 -0.989246 0.377788 0.0443525 -0.963537
          0.411928 0.066893 -0.924358 0.333011 0.0545899 -0.945405
          0.516936 0.212012 1.83282 0.395929 0.200623 1.90057
          0.454738 0.206806 1.89198 0.387594 0.201059 1.81382
          0.516936 0.212012 1.83282 0.461908 0.207616 1.89904
          0.395929 0.200623 1.90057 0.387594 0.201059 1.81382
          0.461908 0.207616 1.89904 0.373718 0.18894 1.83094
          0.395929 0.200623 1.90057 0.387594 0.201059 1.81382
          0.151547 0.002157 -1.08222 0.136202 0.00593033 -1.04905
          0.180068 0.00297451 -1.1089 0.120011 0.0152541 -1.07142
          0.395929 0.200623 1.90057 0.373718 0.18894 1.83094
          0.313847 0.186532 1.91649 0.387594 0.201059 1.81382
          0.395929 0.200623 1.90057 0.283203 0.18814 1.84313
          0.387594 0.201059 1.81382 0.313847 0.186532 1.91649
          0.395929 0.200623 1.90057 0.313847 0.186532 1.91649
          0.282637 0.191383 1.93899 0.315947 0.196592 1.90816
          0.315947 0.196592 1.90816 0.395929 0.200623 1.90057
          0.387594 0.201059 1.81382 0.399897 0.204163 1.81379
          0.395929 0.200623 1.90057 0.454738 0.206806 1.89198
          0.387594 0.201059 1.81382 0.399897 0.204163 1.81379
          0.153728 0.181466 1.28935 0.0463607 0.175677 1.37031
          0.0565896 0.186773 1.3944 0.0171941 0.169817 1.175
          0.268785 0.212902 1.90147 0.230411 0.202424 1.92573
          0.279451 0.199044 1.96301 0.209067 0.217383 1.88188
          0.187662 -0.015708 -0.769458 0.096068 -0.0160099 -0.794129
          0.08759 -0.0181695 -0.700148 0.117498 -0.0127052 -0.774123
          0.0771466 -0.0128792 -0.667253 0.117498 -0.0127052 -0.774123
          0.118225 -0.016529 -0.643321 0.08759 -0.0181695 -0.700148
          0.655136 0.228487 1.65267 0.533951 0.211685 1.71521
          0.499489 0.20972 1.78754 0.632325 0.224004 1.75653
          0.123689 0.0542317 -0.925889 0.0494826 0.052463 -0.910515
          0.0247339 0.0644325 -0.803147 0.158016 0.0603311 -0.849714
          0.286476 0.052365 -1.03123 0.230153 0.0452618 -0.998765
          0.278739 0.0589262 -0.949907 0.245796 0.0542283 -1.01114
          0.230153 0.0452618 -0.998765 0.238684 0.0574548 -0.90005
          0.3056 0.0562813 -0.888644 0.333011 0.0545899 -0.945405
          0.516936 0.212012 1.83282 0.387594 0.201059 1.81382
          0.496235 0.208476 1.73139 0.533951 0.211685 1.71521
          0.516936 0.212012 1.83282 0.387594 0.201059 1.81382
          0.533951 0.211685 1.71521 0.499489 0.20972 1.78754
          0.499489 0.20972 1.78754 0.516936 0.212012 1.83282
          0.632325 0.224004 1.75653 0.533951 0.211685 1.71521
          0.619954 0.221042 1.81518 0.523184 0.21308 1.90131
          0.605988 0.219487 1.8842 0.516936 0.212012 1.83282
          0.603631 0.223803 1.88582 0.523184 0.21308 1.90131
          0.619954 0.221042 1.81518 0.516936 0.212012 1.83282
          0.62833 0.215461 1.78832 0.619954 0.221042 1.81518
          0.605988 0.219487 1.8842 0.516936 0.212012 1.83282
          0.603631 0.223803 1.88582 0.523184 0.21308 1.90131
          0.605988 0.219487 1.8842 0.619954 0.221042 1.81518
          0.173799 0.0876068 -0.503416 0.286155 0.107829 -0.323724
          0.258244 0.101278 -0.423532 0.130689 0.0951538 -0.354446
          0.173799 0.0876068 -0.503416 0.348836 0.102855 -0.459932
          0.258244 0.101278 -0.423532 0.286155 0.107829 -0.323724
          0.286155 0.107829 -0.323724 0.258244 0.101278 -0.423532
          0.457237 0.119913 -0.42142 0.348836 0.102855 -0.459932
          0.182197 -0.0121593 -0.958737 0.260191 -0.011571 -0.929422
          0.188752 -0.0119074 -0.967376 0.156523 -0.0152272 -0.89299
          0.182197 -0.0121593 -0.958737 0.260191 -0.011571 -0.929422
          0.248905 -0.00813331 -0.987972 0.188752 -0.0119074 -0.967376
          0.17137 -0.00547832 -1.04012 0.206809 -0.0107099 -1.02112
          0.190034 -0.00811258 -1.01657 0.143934 -0.00495345 -1.0015
          0.245603 -0.0133778 -1.02696 0.206809 -0.0107099 -1.02112
          0.194464 -0.00870049 -1.02577 0.254776 -0.0120806 -0.974703
          0.182197 -0.0121593 -0.958737 0.221732 -0.0110052 -0.922852
          0.250899 -0.00758936 -0.953821 0.26285 -0.0130069 -0.876853
          0.221732 -0.0110052 -0.922852 0.250899 -0.00758936 -0.953821
          0.188444 -0.00778189 -1.02334 0.182197 -0.0121593 -0.958737
          0.432326 0.0870368 -0.603389 0.299053 0.0864083 -0.553598
          0.351173 0.074105 -0.680571 0.368363 0.0880234 -0.492427
          0.0934466 -0.0105912 -0.154028 0.113946 -0.0122499 -0.222739
          0.0774893 -0.0166292 -0.179655 0.0540416 -0.00937549 -0.175074
          0.17088 -0.00538913 -0.207319 0.0934466 -0.0105912 -0.154028
          0.145403 0.00751687 -0.157499 0.113962 -0.0013081 -0.194325
          0.349309 0.0887881 -0.620987 0.432143 0.100045 -0.469631
          0.432326 0.0870368 -0.603389 0.46044 0.105433 -0.546765
          0.526328 0.0902544 -0.665505 0.432326 0.0870368 -0.603389
          0.555583 0.106463 -0.608938 0.421332 0.0907937 -0.716274
          0.46044 0.105433 -0.546765 0.432326 0.0870368 -0.603389
          0.555583 0.106463 -0.608938 0.59157 0.110913 -0.485872
          0.432326 0.0870368 -0.603389 0.349309 0.0887881 -0.620987
          0.351173 0.074105 -0.680571 0.299053 0.0864083 -0.553598
          0.348836 0.102855 -0.459932 0.173799 0.0876068 -0.503416
          0.272319 0.0902591 -0.581238 0.230729 0.0840752 -0.586159
          0.509731 0.207944 2.04718 0.524651 0.210655 2.04711
          0.446707 0.199139 2.07562 0.44968 0.200513 2.01221
          -0.0367899 -0.00800258 -0.0599512 -0.065013 -0.0122964 -0.0621598
          -0.0485207 -0.00933978 -0.032129 -0.020548 -0.00832014 -0.0250458
          0.320388 0.0571591 -1.04914 0.294977 0.0648741 -1.08627
          0.29089 0.05429 -1.08344 0.280415 0.0522078 -1.06675
          0.00765813 -0.00792034 -0.0270135 0 0 0
          0 0 0 0.0277173 -0.0112998 -0.0430308
          0.253552 -0.0181023 -0.513482 0.15721 -0.0181165 -0.470608
          0.183164 -0.0170671 -0.589371 0.139282 -0.0208527 -0.568469
          0.188625 0.0125997 -1.1077 0.166462 0.00518771 -1.12544
          0.197806 0.00805325 -1.12213 0.195952 0.0179985 -1.12406
          0.153867 -0.00790509 -1.11263 0.139827 -0.00620229 -1.11706
          0.166462 0.00518771 -1.12544 0.159927 0.00494235 -1.10631
          0.170804 0.0193801 -1.12604 0.154597 0.0268177 -1.11213
          0.160153 0.0242505 -1.10792 0.135998 0.0290872 -1.1078
          0.645948 0.213288 1.70657 0.542925 0.207163 1.63277
          0.495762 0.206714 1.74814 0.594527 0.204081 1.66253
          0.262477 -0.0189119 -0.593392 0.253552 -0.0181023 -0.513482
          0.183164 -0.0170671 -0.589371 0.139282 -0.0208527 -0.568469
          -0.0167663 0.144702 0.598091 -0.0254253 0.13798 0.494116
          0.121136 0.145829 0.514661 -0.0185965 0.146966 0.68783
          -0.0185965 0.146966 0.68783 -0.0167663 0.144702 0.598091
          0.114131 0.153668 0.647563 0.121136 0.145829 0.514661
          0.12311 -0.0240496 -0.19082 0.193086 -0.0253065 -0.24717
          0.116656 -0.0213041 -0.272863 0.188511 -0.0162307 -0.249986
          0.123387 0.0269296 -1.10146 0.140542 0.0445074 -1.11305
          0.152649 0.0237462 -1.12026 0.165049 0.0352555 -1.11584
          0.311442 0.220331 1.79745 0.294959 0.204801 1.7903
          0.216007 0.215997 1.73409 0.273528 0.207587 1.68961
          0.230411 0.202424 1.92573 0.19858 0.209082 1.9791
          0.19858 0.209082 1.9791 0.280536 0.198948 1.94003
          0.152229 0.0117325 -1.11972 0.130874 -0.00297278 -1.10678
          0.118354 0.00659017 -1.09692 0.145661 0.00531314 -1.11313
          0.258765 0.0665526 -0.86543 0.257074 0.0669415 -0.796305
          0.24453 0.0708505 -0.80429 0.185762 0.0662311 -0.795337
          0.273244 0.100067 -0.260464 0.0983943 0.103903 -0.1821
          0.17425 0.103817 -0.236551 0.0886722 0.0972271 -0.326607
          0.314828 0.197156 1.62844 0.273528 0.207587 1.68961
          0.212652 0.196452 1.56397 0.217421 0.188552 1.6753
          0.0353563 0.00122208 -0.86422 -0.033664 0.00291065 -0.906916
          -0.0584268 -0.00413948 -0.841123 -0.0446746 0.0048848 -0.846644
          0.0353563 0.00122208 -0.86422 -0.0194409 0.0113415 -0.926708
          -0.033664 0.00291065 -0.906916 -0.0446746 0.0048848 -0.846644
          0.0550265 0.00734161 -0.947155 -0.0194409 0.0113415 -0.926708
          -0.033664 0.00291065 -0.906916 0.0353563 0.00122208 -0.86422
          0.152229 0.0117325 -1.11972 0.145661 0.00531314 -1.11313
          0.173365 0.0162593 -1.12608 0.16328 0.00682162 -1.12711
          0.152229 0.0117325 -1.11972 0.130874 -0.00297278 -1.10678
          0.145661 0.00531314 -1.11313 0.16328 0.00682162 -1.12711
          0.0222848 -0.00558348 -0.0278639 0.0174988 0.00881202 -0.0123778
          0.0450981 0.00208091 -0.0389618 0.0514415 -0.00199443 -0.0580778
          0.0450981 0.00208091 -0.0389618 0.0174988 0.00881202 -0.0123778
          0.0915026 0.0116161 -0.076386 0.0514415 -0.00199443 -0.0580778
          0.0878293 0.0822467 -0.551896 0.147113 0.0900758 -0.449962
          0.108892 0.0931933 -0.375589 -0.0327675 0.087618 -0.432786
          -0.0370501 0.0890911 -0.462169 -0.0327675 0.087618 -0.432786
          0.147113 0.0900758 -0.449962 0.0878293 0.0822467 -0.551896
          -0.0370501 0.0890911 -0.462169 0.0878293 0.0822467 -0.551896
          0.147113 0.0900758 -0.449962 0.101692 0.0805584 -0.621601
          0.193318 0.0234298 -1.13418 0.204545 0.0349354 -1.14484
          0.180506 0.0179277 -1.13799 0.193758 0.0212416 -1.1506
          0.109161 0.0700203 -0.752531 0.0247339 0.0644325 -0.803147
          0.136757 0.0683191 -0.748962 0.158016 0.0603311 -0.849714
          0.109161 0.0700203 -0.752531 0.0247339 0.0644325 -0.803147
          0.00251873 0.0698236 -0.678307 0.136757 0.0683191 -0.748962
          0.334286 0.120649 -0.0685765 0.28116 0.113647 -0.106809
          0.17425 0.103817 -0.236551 0.327877 0.110293 -0.24624
          0.334286 0.120649 -0.0685765 0.17425 0.103817 -0.236551
          0.13459 0.111976 -0.0718907 0.327877 0.110293 -0.24624
          0.334286 0.120649 -0.0685765 0.327877 0.110293 -0.24624
          0.13459 0.111976 -0.0718907 0.195518 0.107239 -0.222251
          0.339176 0.123145 -0.0956363 0.195518 0.107239 -0.222251
          0.327877 0.110293 -0.24624 0.334286 0.120649 -0.0685765
          0.339176 0.123145 -0.0956363 0.327877 0.110293 -0.24624
          0.416411 0.116529 -0.262841 0.334286 0.120649 -0.0685765
          0.339176 0.123145 -0.0956363 0.195518 0.107239 -0.222251
          0.416411 0.116529 -0.262841 0.327877 0.110293 -0.24624
          0.327877 0.110293 -0.24624 0.416411 0.116529 -0.262841
          0.286155 0.107829 -0.323724 0.195518 0.107239 -0.222251
          0.327877 0.110293 -0.24624 0.17425 0.103817 -0.236551
          0.13459 0.111976 -0.0718907 0.195518 0.107239 -0.222251
          0.327877 0.110293 -0.24624 0.108892 0.0931933 -0.375589
          0.17425 0.103817 -0.236551 0.195518 0.107239 -0.222251
          -0.0525861 -0.0158793 -0.211183 -0.0327653 -0.0170453 -0.262145
          -0.0401972 -0.0186737 -0.295772 0.0360046 -0.0165645 -0.266146
          0.17279 0.00720272 -1.12721 0.195515 0.00872119 -1.11504
          0.184506 0.00171474 -1.10889 0.173041 -0.00280863 -1.09202
          -0.0525861 -0.0158793 -0.211183 -0.0171008 -0.0138017 -0.174494
          -0.0277683 -0.0134212 -0.149544 -0.0354252 -0.0123842 -0.100673
          -0.0871916 -0.0208251 -0.097455 -0.0785707 -0.0230823 -0.0930104
          -0.0382728 -0.0119119 -0.0861697 -0.102932 -0.0223742 -0.141753
          -0.0382728 -0.0119119 -0.0861697 -0.0785707 -0.0230823 -0.0930104
          -0.0423323 -0.0154299 -0.123609 -0.102932 -0.0223742 -0.141753
          -0.0277683 -0.0134212 -0.149544 -0.0382728 -0.0119119 -0.0861697
          -0.0423323 -0.0154299 -0.123609 -0.102932 -0.0223742 -0.141753
          -0.0277683 -0.0134212 -0.149544 -0.0382728 -0.0119119 -0.0861697
          0.00316235 -0.00774175 -0.084285 -0.0423323 -0.0154299 -0.123609
          0.0708915 -0.0190248 -0.830437 0.156523 -0.0152272 -0.89299
          0.096068 -0.0160099 -0.794129 0.117074 -0.0194202 -0.800314
          -0.0382728 -0.0119119 -0.0861697 -0.0785707 -0.0230823 -0.0930104
          -0.0240264 -0.0123724 -0.0492764 -0.0423323 -0.0154299 -0.123609
          -0.0382728 -0.0119119 -0.0861697 -0.0698807 -0.0189799 -0.0582118
          -0.0240264 -0.0123724 -0.0492764 -0.0785707 -0.0230823 -0.0930104
          0.389267 0.209684 1.72946 0.40384 0.206217 1.66463
          0.273528 0.207587 1.68961 0.338599 0.20772 1.64709
          0.263276 -0.0148749 -0.93916 0.267997 -0.0182575 -0.926114
          0.209323 -0.0136238 -0.907578 0.270875 -0.0148438 -0.866727
          0.209323 -0.0136238 -0.907578 0.267997 -0.0182575 -0.926114
          0.251392 -0.0149688 -0.992494 0.18506 -0.0112596 -0.943555
          0.270875 -0.0148438 -0.866727 0.261416 -0.0148291 -0.852965
          0.267997 -0.0182575 -0.926114 0.209323 -0.0136238 -0.907578
          0.692943 0.167956 0.489621 0.702014 0.175241 0.559962
          0.538118 0.159808 0.49707 0.697082 0.177494 0.642558
          0.702014 0.175241 0.559962 0.692943 0.167956 0.489621
          0.538118 0.159808 0.49707 0.572815 0.164404 0.469028
          0.245796 0.0542283 -1.01114 0.156925 0.0462572 -0.961802
          0.226725 0.0569851 -0.976381 0.180739 0.0425605 -1.00764
          0.245796 0.0542283 -1.01114 0.260874 0.0644344 -0.917065
          0.226725 0.0569851 -0.976381 0.156925 0.0462572 -0.961802
          0.207633 0.0598625 -0.876171 0.226725 0.0569851 -0.976381
          0.260874 0.0644344 -0.917065 0.156925 0.0462572 -0.961802
          0.207633 0.0598625 -0.876171 0.156925 0.0462572 -0.961802
          0.260874 0.0644344 -0.917065 0.183089 0.0573615 -0.895068
          0.117525 0.0398736 -0.929906 0.0930218 0.0316273 -0.984041
          0.156445 0.0377303 -1.01497 0.156925 0.0462572 -0.961802
          0.332754 0.0979477 -0.592942 0.392601 0.103022 -0.67509
          0.46044 0.105433 -0.546765 0.30705 0.0854688 -0.699613
          0.160153 0.0242505 -1.10792 0.157544 0.0198756 -1.12909
          0.170804 0.0193801 -1.12604 0.135998 0.0290872 -1.1078
          0.240642 0.0771923 -0.746678 0.372631 0.0938046 -0.780209
          0.392601 0.103022 -0.67509 0.30705 0.0854688 -0.699613
          0.240642 0.0771923 -0.746678 0.372631 0.0938046 -0.780209
          0.30705 0.0854688 -0.699613 0.24453 0.0708505 -0.80429
          0.24453 0.0708505 -0.80429 0.372631 0.0938046 -0.780209
          0.30705 0.0854688 -0.699613 0.343916 0.0755584 -0.839382
          0.0934466 -0.0105912 -0.154028 0.0155697 -0.00945334 -0.0979218
          0.0607489 -0.00918772 -0.0791758 0.0660439 -0.0028024 -0.102152
          0.0934466 -0.0105912 -0.154028 0.0660439 -0.0028024 -0.102152
          0.0607489 -0.00918772 -0.0791758 0.13966 -0.00867676 -0.146496
          0.30705 0.0854688 -0.699613 0.372631 0.0938046 -0.780209
          0.421332 0.0907937 -0.716274 0.343916 0.0755584 -0.839382
          0.30705 0.0854688 -0.699613 0.372631 0.0938046 -0.780209
          0.392601 0.103022 -0.67509 0.421332 0.0907937 -0.716274
          0.30705 0.0854688 -0.699613 0.392601 0.103022 -0.67509
          0.46044 0.105433 -0.546765 0.421332 0.0907937 -0.716274
          0.183164 -0.0170671 -0.589371 0.140684 -0.013983 -0.516463
          0.0740804 -0.0196889 -0.590591 0.0578659 -0.018722 -0.485896
          0.139282 -0.0208527 -0.568469 0.183164 -0.0170671 -0.589371
          0.0740804 -0.0196889 -0.590591 0.0578659 -0.018722 -0.485896
          0.0740804 -0.0196889 -0.590591 0.0578659 -0.018722 -0.485896
          0.0665477 -0.0233217 -0.48275 0.139282 -0.0208527 -0.568469
          0.332843 0.0408597 -1.02195 0.315893 0.0269252 -1.03184
          0.304318 0.0314598 -1.01045 0.247711 0.0274887 -1.06388
          -0.0449147 -0.0230668 -0.390274 -0.052492 -0.0226985 -0.433246
          0.00554623 -0.0230099 -0.354419 0.0470043 -0.0228191 -0.395565
          -0.0126816 -0.00885974 -0.0401906 0.00613925 -0.00568058 -0.0229973
          0 0 0 -0.0148586 -0.00274295 -0.0245388
          0.00613925 -0.00568058 -0.0229973 0 0 0
          0 0 0 -0.0148586 -0.00274295 -0.0245388
          -0.0148586 -0.00274295 -0.0245388 0 0 0
          0.00765813 -0.00792034 -0.0270135 0.00613925 -0.00568058 -0.0229973
          -0.0115162 -0.00567168 -0.051575 -0.0148586 -0.00274295 -0.0245388
          0.00765813 -0.00792034 -0.0270135 0.00613925 -0.00568058 -0.0229973
          0.0853681 -0.0229088 -0.641772 0.112536 -0.0265035 -0.552338
          0.178216 -0.0244722 -0.612851 0.187251 -0.0208078 -0.643288
          0.148357 -0.0229473 -0.694047 0.0853681 -0.0229088 -0.641772
          0.178216 -0.0244722 -0.612851 0.187251 -0.0208078 -0.643288
          0.0100932 -0.00802936 -0.0535907 0.00765813 -0.00792034 -0.0270135
          0.028315 -0.0144495 -0.0665337 0.0277173 -0.0112998 -0.0430308
          0.028315 -0.0144495 -0.0665337 0.0675574 -0.0172296 -0.103565
          0.0100932 -0.00802936 -0.0535907 0.0277173 -0.0112998 -0.0430308
          0.028315 -0.0144495 -0.0665337 0.0675574 -0.0172296 -0.103565
          0.0155697 -0.00945334 -0.0979218 0.0100932 -0.00802936 -0.0535907
          0.0100932 -0.00802936 -0.0535907 0.00486405 -0.0137133 -0.10608
          0.0155697 -0.00945334 -0.0979218 0.028315 -0.0144495 -0.0665337
          0.282072 0.186107 1.95795 0.210866 0.172476 1.96248
          0.193506 0.157546 1.98437 0.234576 0.164884 1.9288
          0.282637 0.191383 1.93899 0.282072 0.186107 1.95795
          0.193506 0.157546 1.98437 0.234576 0.164884 1.9288
          -0.127933 -0.0196322 -0.359668 -0.0449147 -0.0230668 -0.390274
          -0.0658888 -0.0192985 -0.331415 -0.0681067 -0.0183736 -0.314081
          0.313847 0.186532 1.91649 0.282072 0.186107 1.95795
          0.234576 0.164884 1.9288 0.21495 0.157538 1.917
          0.282072 0.186107 1.95795 0.21495 0.157538 1.917
          0.313847 0.186532 1.91649 0.269246 0.161112 1.88195
          0.282072 0.186107 1.95795 0.210866 0.172476 1.96248
          0.234576 0.164884 1.9288 0.21495 0.157538 1.917
          0.151547 0.002157 -1.08222 0.139782 -0.00357415 -1.07587
          0.129918 -0.0092143 -1.0239 0.0957739 -0.000896939 -1.02438
          0.151547 0.002157 -1.08222 0.139782 -0.00357415 -1.07587
          0.17137 -0.00547832 -1.04012 0.129918 -0.0092143 -1.0239
          0.126494 -0.0116239 -0.962722 0.055218 -0.0096646 -0.961593
          0.0957739 -0.000896939 -1.02438 0.129918 -0.0092143 -1.0239
          -0.000164951 -0.0258844 -0.847736 -0.0303082 -0.027155 -0.714006
          -0.0801759 -0.0285786 -0.792856 -0.0460202 -0.0328352 -0.760958
          0.0752352 -0.00582282 -0.0580352 0.0802511 -0.012505 -0.0646586
          0.0484699 -0.0108675 -0.030091 0.0222848 -0.00558348 -0.0278639
          -0.0370501 0.0890911 -0.462169 -0.0327675 0.087618 -0.432786
          0.0878293 0.0822467 -0.551896 -0.0158408 0.0788361 -0.594233
          -0.0171008 -0.0138017 -0.174494 0.00486405 -0.0137133 -0.10608
          -0.0354252 -0.0123842 -0.100673 -0.0482987 -0.0104118 -0.135516
          0.139282 -0.0208527 -0.568469 0.152232 -0.0233181 -0.476973
          0.18615 -0.0263881 -0.527732 0.259363 -0.0222661 -0.561488
          -0.100392 -0.00592964 -0.151989 -0.0816843 -0.000652163 -0.0945631
          -0.0482987 -0.0104118 -0.135516 -0.0950276 -0.0100972 -0.12574
          -0.100392 -0.00592964 -0.151989 -0.0816843 -0.000652163 -0.0945631
          -0.0320968 -0.00669586 -0.096908 -0.0482987 -0.0104118 -0.135516
          -0.0482987 -0.0104118 -0.135516 -0.0320968 -0.00669586 -0.096908
          0.0342889 -0.0194191 -0.133678 0.00486405 -0.0137133 -0.10608
          0.0223666 0.115204 0.0326147 0.128655 0.112603 -0.0840872
          0.195909 0.124021 0.0195096 0.112681 0.128374 0.196126
          0.128974 0.130461 0.187026 0.0223666 0.115204 0.0326147
          0.195909 0.124021 0.0195096 0.112681 0.128374 0.196126
          0.215453 0.0337856 -1.12044 0.20182 0.0253005 -1.11961
          0.204545 0.0286583 -1.12534 0.228412 0.0286129 -1.10666
          0.238844 0.162658 1.06277 0.186008 0.158359 0.964154
          0.131058 0.158108 1.10918 0.254887 0.168468 1.07544
          -0.0365595 -0.00573392 -0.0808166 0.0140221 -0.0136444 -0.0704409
          0.00486405 -0.0137133 -0.10608 -0.0115162 -0.00567168 -0.051575
          0.0389992 -0.0231358 -0.956961 0.0555938 -0.0190831 -0.895268
          0.123149 -0.0160708 -0.964579 0.0919467 -0.0135297 -0.954481
          -0.0547892 0.00314345 -0.0505998 -0.0816843 -0.000652163 -0.0945631
          -0.0726572 -0.00236831 -0.0718477 -0.0365595 -0.00573392 -0.0808166
          0.186008 0.158359 0.964154 0.254887 0.168468 1.07544
          0.361484 0.173451 1.00011 0.20704 0.159521 0.859824
          -0.0254253 0.13798 0.494116 -0.0288902 0.130995 0.360327
          0.119924 0.137646 0.352982 -0.0340695 0.132309 0.416224
          0.131058 0.158108 1.10918 0.237915 0.172735 1.23496
          0.254887 0.168468 1.07544 0.170346 0.164995 1.04243
          -0.0254253 0.13798 0.494116 -0.0288902 0.130995 0.360327
          0.0687574 0.142446 0.463576 0.119924 0.137646 0.352982
          0.361484 0.173451 1.00011 0.451127 0.184652 1.08346
          0.364277 0.178104 1.03208 0.254887 0.168468 1.07544
          0.128974 0.130461 0.187026 0.119924 0.137646 0.352982
          0.112681 0.128374 0.196126 0.279769 0.140479 0.25432
          0.195943 0.145332 0.453197 0.119924 0.137646 0.352982
          0.339227 0.15615 0.491304 0.279769 0.140479 0.25432
          0.195943 0.145332 0.453197 0.211578 0.144846 0.361071
          0.339227 0.15615 0.491304 0.119924 0.137646 0.352982
          0.207944 0.034123 -1.08695 0.215453 0.0337856 -1.12044
          0.205207 0.033256 -1.10889 0.238887 0.0380659 -1.09393
          0.113767 -0.0266257 -0.372606 0.0549394 -0.024593 -0.318496
          0.105429 -0.0278619 -0.280035 0.0486358 -0.0214736 -0.314918
          0.180506 0.0179277 -1.13799 0.152229 0.0117325 -1.11972
          0.182059 0.0298849 -1.13052 0.173365 0.0162593 -1.12608
          0.180506 0.0179277 -1.13799 0.173365 0.0162593 -1.12608
          0.182059 0.0298849 -1.13052 0.204545 0.0286583 -1.12534
          0.0155697 -0.00945334 -0.0979218 0.0112358 -0.00689671 -0.058432
          0.00316235 -0.00774175 -0.084285 -0.0382728 -0.0119119 -0.0861697
          0.0112358 -0.00689671 -0.058432 -0.0126816 -0.00885974 -0.0401906
          0.00316235 -0.00774175 -0.084285 -0.0382728 -0.0119119 -0.0861697
          0.00316235 -0.00774175 -0.084285 0.0019014 -0.00258287 -0.0143042
          0.0112358 -0.00689671 -0.058432 0.0376237 0.00315363 -0.0667112
          0.348836 0.102855 -0.459932 0.332754 0.0979477 -0.592942
          0.46044 0.105433 -0.546765 0.272319 0.0902591 -0.581238
          -0.0367899 -0.00800258 -0.0599512 -0.0126816 -0.00885974 -0.0401906
          -0.065013 -0.0122964 -0.0621598 -0.020548 -0.00832014 -0.0250458
          0.201398 -0.00242298 -1.12266 0.203198 -0.00291793 -1.12128
          0.19375 -0.00246694 -1.13874 0.188423 0.00272913 -1.13564
          0.282637 0.191383 1.93899 0.311359 0.19366 2.00681
          0.399113 0.201668 1.96815 0.301902 0.190563 2.02495
          0.282637 0.191383 1.93899 0.193506 0.157546 1.98437
          0.311359 0.19366 2.00681 0.301902 0.190563 2.02495
          0.193506 0.157546 1.98437 0.193506 0.157546 1.98437
          0.311359 0.19366 2.00681 0.301902 0.190563 2.02495
          0.193506 0.157546 1.98437 0.193506 0.157546 1.98437
          0.301902 0.190563 2.02495 0.218066 0.195464 2.02504
          0.311359 0.19366 2.00681 0.193506 0.157546 1.98437
          0.305763 0.193747 2.10138 0.301902 0.190563 2.02495
          0.343228 0.197767 2.10279 0.311359 0.19366 2.00681
          0.305763 0.193747 2.10138 0.301902 0.190563 2.02495
          0.343228 0.197767 2.10279 0.301902 0.190563 2.02495
          0.305763 0.193747 2.10138 0.250619 0.18662 2.09814
          0.301902 0.190563 2.02495 0.193506 0.157546 1.98437
          0.305763 0.193747 2.10138 0.250619 0.18662 2.09814
          0.317265 0.193703 1.98205 0.268413 0.19547 2.02507
          0.279451 0.199044 1.96301 0.280536 0.198948 1.94003
          0.301902 0.190563 2.02495 0.311359 0.19366 2.00681
          0.399113 0.201668 1.96815 0.390222 0.200457 2.03097
          0.301902 0.190563 2.02495 0.218066 0.195464 2.02504
          0.218435 0.192714 2.09406 0.289096 0.190872 2.09747
          0.165049 0.0352555 -1.11584 0.152649 0.0237462 -1.12026
          0.150219 0.0219777 -1.11042 0.182059 0.0298849 -1.13052
          0.177514 0.0162521 -1.13173 0.148992 0.0128559 -1.11395
          0.138486 0.0182829 -1.10666 0.169153 0.0211548 -1.10787
          0.179546 -0.00518367 -1.12862 0.141621 -0.0194922 -1.11645
          0.157185 -0.00844997 -1.13379 0.153867 -0.00790509 -1.11263
          0.555537 0.202478 1.4184 0.491887 0.204341 1.55134
          0.535403 0.202873 1.41079 0.690279 0.214152 1.44669
          0.690279 0.214152 1.44669 0.704115 0.209655 1.28711
          0.535403 0.202873 1.41079 0.555537 0.202478 1.4184
          0.690279 0.214152 1.44669 0.704115 0.209655 1.28711
          0.555537 0.202478 1.4184 0.712901 0.206388 1.22555
          0.555537 0.202478 1.4184 0.704115 0.209655 1.28711
          0.535403 0.202873 1.41079 0.712901 0.206388 1.22555
          0.349309 0.0887881 -0.620987 0.299053 0.0864083 -0.553598
          0.432143 0.100045 -0.469631 0.348836 0.102855 -0.459932
          0.230366 -0.0190663 -0.394513 0.160769 -0.0155552 -0.394325
          0.225279 -0.013258 -0.37308 0.238356 -0.0109887 -0.42744
          0.252819 0.174978 1.51462 0.299638 0.182033 1.71781
          0.35344 0.191337 1.57455 0.217421 0.188552 1.6753
          0.38689 0.188117 1.5561 0.252819 0.174978 1.51462
          0.299638 0.182033 1.71781 0.35344 0.191337 1.57455
          0.206879 0.0273064 -1.10803 0.228412 0.0286129 -1.10666
          0.219527 0.0205329 -1.10211 0.257413 0.0399649 -1.08953
          0.0019014 -0.00258287 -0.0143042 -0.0205164 -0.0113926 -0.024542
          -0.000539383 -0.000829893 0.000948014 -0.00257965 -0.00261425 -0.0122043
          0.311359 0.19366 2.00681 0.305763 0.193747 2.10138
          0.335164 0.204974 2.06627 0.343228 0.197767 2.10279
          0.37001 0.190326 1.4178 0.202133 0.177184 1.37992
          0.35344 0.191337 1.57455 0.201068 0.185051 1.52316
          0.10775 -0.0136116 -0.885602 0.188752 -0.0119074 -0.967376
          0.156523 -0.0152272 -0.89299 0.126494 -0.0116239 -0.962722
          0.10775 -0.0136116 -0.885602 0.156523 -0.0152272 -0.89299
          0.185367 -0.0164986 -0.811141 0.096068 -0.0160099 -0.794129
          0.0108537 -0.0216076 -0.447808 0.00633645 -0.0199511 -0.543667
          0.0578659 -0.018722 -0.485896 -0.0168768 -0.0233283 -0.525649
          0.13712 0.0459501 -1.00016 0.157521 0.0469226 -0.985977
          0.196052 0.0376533 -1.03505 0.239659 0.0461789 -0.951595
          0.1823 0.048595 -0.960625 0.13712 0.0459501 -1.00016
          0.196052 0.0376533 -1.03505 0.239659 0.0461789 -0.951595
          0.225286 0.0686452 -0.746878 0.257074 0.0669415 -0.796305
          0.317734 0.059831 -0.79408 0.233984 0.0560029 -0.869098
          0.099324 0.0220357 -0.0811408 0.0376237 0.00315363 -0.0667112
          0.0452892 0.0171097 -0.0497382 0.0761817 0.015298 -0.0967612
          0.264919 -0.0113372 -0.599053 0.255812 -0.00763762 -0.52839
          0.270067 -0.0114217 -0.652342 0.158259 -0.00736322 -0.539283
          0.261534 0.137069 0.167727 0.31981 0.134046 0.0434342
          0.394227 0.144542 0.157778 0.317615 0.133859 0.0941603
          0.0452892 0.0171097 -0.0497382 0.0376237 0.00315363 -0.0667112
          0.0915026 0.0116161 -0.076386 0.0174988 0.00881202 -0.0123778
          0.099324 0.0220357 -0.0811408 0.0915026 0.0116161 -0.076386
          0.0376237 0.00315363 -0.0667112 0.0761817 0.015298 -0.0967612
          0.118225 -0.016529 -0.643321 0.0740804 -0.0196889 -0.590591
          0.140684 -0.013983 -0.516463 0.0804219 -0.014032 -0.565645
          0.239659 0.0461789 -0.951595 0.1823 0.048595 -0.960625
          0.123689 0.0542317 -0.925889 0.233984 0.0560029 -0.869098
          0.238684 0.0574548 -0.90005 0.1823 0.048595 -0.960625
          0.239659 0.0461789 -0.951595 0.233984 0.0560029 -0.869098
          0.238684 0.0574548 -0.90005 0.1823 0.048595 -0.960625
          0.233984 0.0560029 -0.869098 0.158016 0.0603311 -0.849714
          0.237825 0.113705 -0.173142 0.317615 0.133859 0.0941603
          0.325379 0.126608 -0.0892965 0.195909 0.124021 0.0195096
          0.0209124 0.00511759 -0.0548072 0.0376237 0.00315363 -0.0667112
          0.0452892 0.0171097 -0.0497382 0.00878838 0.011498 -0.00445242
          0.328671 0.0418834 -0.942546 0.428379 0.0567763 -0.892945
          0.368133 0.0290652 -0.963905 0.377788 0.0443525 -0.963537
          0.237825 0.113705 -0.173142 0.325379 0.126608 -0.0892965
          0.371903 0.120611 -0.274683 0.212402 0.107651 -0.258514
          0.328671 0.0418834 -0.942546 0.3056 0.0562813 -0.888644
          0.239659 0.0461789 -0.951595 0.283765 0.0410843 -0.917892
          0.460626 0.203436 1.6395 0.41749 0.201144 1.6896
          0.499489 0.20972 1.78754 0.533951 0.211685 1.71521
          -0.0205164 -0.0113926 -0.024542 -0.020548 -0.00832014 -0.0250458
          -0.0475923 -0.0145643 -0.0260409 -0.0240264 -0.0123724 -0.0492764
          0.41749 0.201144 1.6896 0.35344 0.191337 1.57455
          0.491887 0.204341 1.55134 0.460626 0.203436 1.6395
          0.41749 0.201144 1.6896 0.460626 0.203436 1.6395
          0.299638 0.182033 1.71781 0.35344 0.191337 1.57455
          -0.0284574 -0.0153834 -0.248114 -0.0209055 -0.0143869 -0.281814
          -0.088756 -0.0207238 -0.274965 -0.0607624 -0.0176287 -0.188494
          0.153867 -0.00790509 -1.11263 0.179546 -0.00518367 -1.12862
          0.166462 0.00518771 -1.12544 0.157185 -0.00844997 -1.13379
          0.41749 0.201144 1.6896 0.387594 0.201059 1.81382
          0.533951 0.211685 1.71521 0.496235 0.208476 1.73139
          0.41749 0.201144 1.6896 0.387594 0.201059 1.81382
          0.499489 0.20972 1.78754 0.533951 0.211685 1.71521
          0.217644 0.0373622 -1.05651 0.230153 0.0452618 -0.998765
          0.196052 0.0376533 -1.03505 0.270998 0.0410123 -0.998166
          0.157308 0.0350187 -1.04742 0.230153 0.0452618 -0.998765
          0.196052 0.0376533 -1.03505 0.217644 0.0373622 -1.05651
          0.258244 0.101278 -0.423532 0.130689 0.0951538 -0.354446
          0.11677 0.082158 -0.49828 0.173799 0.0876068 -0.503416
          0.230153 0.0452618 -0.998765 0.1823 0.048595 -0.960625
          0.196052 0.0376533 -1.03505 0.239659 0.0461789 -0.951595
          0.230153 0.0452618 -0.998765 0.1823 0.048595 -0.960625
          0.239659 0.0461789 -0.951595 0.238684 0.0574548 -0.90005
          0.230153 0.0452618 -0.998765 0.239659 0.0461789 -0.951595
          0.3056 0.0562813 -0.888644 0.238684 0.0574548 -0.90005
          0.13282 0.0487597 -0.935717 0.1823 0.048595 -0.960625
          0.238684 0.0574548 -0.90005 0.158016 0.0603311 -0.849714
          0.239659 0.0461789 -0.951595 0.20433 0.0494215 -0.926588
          0.283765 0.0410843 -0.917892 0.233984 0.0560029 -0.869098
          0.261824 -0.0130019 -0.916534 0.260191 -0.011571 -0.929422
          0.203472 -0.0139074 -0.880859 0.188752 -0.0119074 -0.967376
          0.203472 -0.0139074 -0.880859 0.261824 -0.0130019 -0.916534
          0.268345 -0.0141714 -0.849032 0.260191 -0.011571 -0.929422
          0.239659 0.0461789 -0.951595 0.123689 0.0542317 -0.925889
          0.20433 0.0494215 -0.926588 0.233984 0.0560029 -0.869098
          0.00878838 0.011498 -0.00445242 0.0244272 -0.00123409 -0.0380729
          0.0376237 0.00315363 -0.0667112 0.0174988 0.00881202 -0.0123778
          0.44205 0.135678 0.148091 0.307201 0.123835 0.0687832
          0.376157 0.134811 0.252378 0.395931 0.139444 0.273135
          0.00878838 0.011498 -0.00445242 0.0376237 0.00315363 -0.0667112
          0.0452892 0.0171097 -0.0497382 0.0174988 0.00881202 -0.0123778
          0.0209124 0.00511759 -0.0548072 0.0244272 -0.00123409 -0.0380729
          0.0376237 0.00315363 -0.0667112 0.00878838 0.011498 -0.00445242
          0.099324 0.0220357 -0.0811408 0.0915026 0.0116161 -0.076386
          0.0452892 0.0171097 -0.0497382 0.0376237 0.00315363 -0.0667112
          0.0804219 -0.014032 -0.565645 0.0578659 -0.018722 -0.485896
          0.0470197 -0.0148555 -0.460253 0.00229256 -0.0169905 -0.563079
          0.0844988 -0.00990728 -0.605686 0.0804219 -0.014032 -0.565645
          0.057422 -0.00958656 -0.504466 0.00815519 -0.0112139 -0.565742
          0.0844988 -0.00990728 -0.605686 0.0804219 -0.014032 -0.565645
          0.158259 -0.00736322 -0.539283 0.057422 -0.00958656 -0.504466
          0.172868 0.153489 1.50407 0.150271 0.155697 1.3658
          0.158586 0.163992 1.36561 0.293607 0.171942 1.3809
          0.128655 0.112603 -0.0840872 0.198264 0.124889 0.070095
          0.317615 0.133859 0.0941603 0.195909 0.124021 0.0195096
          0.172868 0.153489 1.50407 0.293607 0.171942 1.3809
          0.158586 0.163992 1.36561 0.294303 0.168015 1.52233
          0.127111 -0.00743066 -0.450311 0.158259 -0.00736322 -0.539283
          0.140684 -0.013983 -0.516463 0.0804219 -0.014032 -0.565645
          0.127111 -0.00743066 -0.450311 0.0804219 -0.014032 -0.565645
          0.140684 -0.013983 -0.516463 0.057422 -0.00958656 -0.504466
          0.127111 -0.00743066 -0.450311 0.158259 -0.00736322 -0.539283
          0.0804219 -0.014032 -0.565645 0.057422 -0.00958656 -0.504466
          0.465399 0.19799 1.51567 0.371953 0.18296 1.69668
          0.540308 0.212462 1.59578 0.38689 0.188117 1.5561
          0.540308 0.212462 1.59578 0.460626 0.203436 1.6395
          0.499489 0.20972 1.78754 0.533951 0.211685 1.71521
          0.540308 0.212462 1.59578 0.581837 0.210988 1.42249
          0.503551 0.201335 1.4564 0.675159 0.226764 1.51115
          0.27013 0.0773494 -0.610887 0.15145 0.0745346 -0.685354
          0.268257 0.0661042 -0.699179 0.14902 0.0833102 -0.571006
          0.258244 0.101278 -0.423532 0.11677 0.082158 -0.49828
          0.160511 0.0789107 -0.595206 0.173799 0.0876068 -0.503416
          0.269246 0.161112 1.88195 0.272421 0.182674 1.91203
          0.313847 0.186532 1.91649 0.283203 0.18814 1.84313
          0.409685 0.106138 -0.277549 0.502812 0.120214 -0.176552
          0.637193 0.117486 -0.179374 0.611773 0.105919 -0.341636
          0.61602 0.105454 -0.239155 0.409685 0.106138 -0.277549
          0.637193 0.117486 -0.179374 0.611773 0.105919 -0.341636
          0.180665 0.00439507 -1.12932 0.17471 0.0103553 -1.13275
          0.186348 0.0218384 -1.10846 0.197806 0.00805325 -1.12213
          0.205207 0.033256 -1.10889 0.193318 0.0234298 -1.13418
          0.177514 0.0162521 -1.13173 0.198031 0.0285388 -1.14317
          -0.0501823 -0.013834 -0.19697 -0.11324 -0.0126841 -0.205618
          -0.0327653 -0.0170453 -0.262145 -0.1189 -0.0141354 -0.266283
          -0.0327653 -0.0170453 -0.262145 -0.0501823 -0.013834 -0.19697
          -0.1189 -0.0141354 -0.266283 -0.0681067 -0.0183736 -0.314081
          0.17471 0.0103553 -1.13275 0.170804 0.0193801 -1.12604
          0.186348 0.0218384 -1.10846 0.207377 0.0208321 -1.10963
          -0.109993 -0.0199922 -0.657779 0.0185148 -0.0145913 -0.704614
          -0.0323988 -0.0141205 -0.630091 -0.0443746 -0.0202338 -0.606738
          0.0758476 -0.0272059 -0.0749921 0.0991233 -0.0291402 -0.14598
          0.0574409 -0.0227267 -0.0946761 0.0675574 -0.0172296 -0.103565
          0.395388 0.191512 1.71781 0.387594 0.201059 1.81382
          0.499489 0.20972 1.78754 0.41749 0.201144 1.6896
          0.311442 0.220331 1.79745 0.334915 0.211659 1.88336
          0.270667 0.21001 1.87832 0.376374 0.20549 1.89003
          0.00554623 -0.0230099 -0.354419 -0.052492 -0.0226985 -0.433246
          -0.00718751 -0.0210012 -0.361431 0.0470043 -0.0228191 -0.395565
          0.0244272 -0.00123409 -0.0380729 0.0019014 -0.00258287 -0.0143042
          0.00878838 0.011498 -0.00445242 0.0209124 0.00511759 -0.0548072
          0.542112 0.173101 0.58157 0.578844 0.169726 0.498809
          0.615925 0.16858 0.39627 0.721043 0.181619 0.578553
          0.00316235 -0.00774175 -0.084285 -0.00286052 -0.00389357 -0.0426216
          0.0209124 0.00511759 -0.0548072 -0.00690965 -0.00854844 -0.0800788
          -0.00690965 -0.00854844 -0.0800788 0.0209124 0.00511759 -0.0548072
          0.00316235 -0.00774175 -0.084285 0.0388059 0.00445072 -0.0978631
          0.254776 -0.0120806 -0.974703 0.260191 -0.011571 -0.929422
          0.261824 -0.0130019 -0.916534 0.188752 -0.0119074 -0.967376
          0.0019014 -0.00258287 -0.0143042 0 0 0
          0.0244272 -0.00123409 -0.0380729 0 0 0
          0 0 0 0 0 0
          0.0019014 -0.00258287 -0.0143042 0 0 0
          0 0 0 0 0 0
          0 0 0 0.0019014 -0.00258287 -0.0143042
          0 0 0 -0.000539383 -0.000829893 0.000948014
          0 0 0 0.0019014 -0.00258287 -0.0143042
          0 0 0 0 0 0
          -0.000539383 -0.000829893 0.000948014 0.0019014 -0.00258287 -0.0143042
          0.217546 0.0982124 -0.384524 0.348836 0.102855 -0.459932
          0.173799 0.0876068 -0.503416 0.286155 0.107829 -0.323724
          0 0 0 0.00613925 -0.00568058 -0.0229973
          -0.0126816 -0.00885974 -0.0401906 0.0019014 -0.00258287 -0.0143042
          0 0 0 0 0 0
          0.00613925 -0.00568058 -0.0229973 0.0019014 -0.00258287 -0.0143042
          0.00613925 -0.00568058 -0.0229973 0 0 0
          0.0244272 -0.00123409 -0.0380729 0.0019014 -0.00258287 -0.0143042
          0.553382 0.208726 1.55042 0.35344 0.191337 1.57455
          0.460626 0.203436 1.6395 0.491887 0.204341 1.55134
          0.0019014 -0.00258287 -0.0143042 0 0 0
          0 0 0 0.00878838 0.011498 -0.00445242
          -0.033664 0.00291065 -0.906916 0.0579845 0.00399531 -0.987319
          0.0550265 0.00734161 -0.947155 0.0256823 -0.00354785 -0.929701
          -0.0280559 -0.012453 -0.9239 -0.00299887 0.00214633 -0.960482
          0.0256823 -0.00354785 -0.929701 0.00286609 -0.009542 -0.984145
          0.0256823 -0.00354785 -0.929701 0.0550265 0.00734161 -0.947155
          -0.033664 0.00291065 -0.906916 0.0353563 0.00122208 -0.86422
          0.117877 -0.0213928 -0.722719 0.117074 -0.0194202 -0.800314
          0.0845877 -0.0255065 -0.751434 0.0452458 -0.0243838 -0.718463
          -0.033664 0.00291065 -0.906916 -0.00299887 0.00214633 -0.960482
          0.0579845 0.00399531 -0.987319 0.0256823 -0.00354785 -0.929701
          0.17279 0.00720272 -1.12721 0.195515 0.00872119 -1.11504
          0.1666 0.0195752 -1.13536 0.179579 0.0122846 -1.12692
          0.17279 0.00720272 -1.12721 0.153352 0.000889392 -1.13561
          0.169372 0.0112354 -1.1349 0.164186 0.0118026 -1.14029
          0.113661 0.130721 0.288513 -0.0418792 0.129004 0.391246
          0.0917604 0.139724 0.490675 0.195943 0.145332 0.453197
          0.48037 0.206131 1.89605 0.522544 0.209758 1.82278
          0.501687 0.207959 1.94509 0.454738 0.206806 1.89198
          0.454738 0.206806 1.89198 0.42471 0.207458 1.83215
          0.48037 0.206131 1.89605 0.522544 0.209758 1.82278
          0.345308 0.152407 0.481869 0.195943 0.145332 0.453197
          0.0917604 0.139724 0.490675 0.311949 0.159912 0.662099
          0.143934 -0.00495345 -1.0015 0.126494 -0.0116239 -0.962722
          0.138454 -0.0082111 -0.93618 0.0922398 -0.00387143 -0.958975
          0.245913 0.189513 1.4291 0.0463607 0.175677 1.37031
          0.212652 0.196452 1.56397 0.0565896 0.186773 1.3944
          0.212652 0.196452 1.56397 0.0463607 0.175677 1.37031
          0.0960629 0.183963 1.57344 0.0565896 0.186773 1.3944
          0.394227 0.144542 0.157778 0.530358 0.152472 0.215311
          0.634897 0.160619 0.195354 0.49059 0.156432 0.291865
          0.156925 0.0462572 -0.961802 0.0930218 0.0316273 -0.984041
          0.156445 0.0377303 -1.01497 0.160795 0.0354946 -1.04283
          0.169372 0.0112354 -1.1349 0.17279 0.00720272 -1.12721
          0.176707 0.00807449 -1.12962 0.166518 0.00346835 -1.12287
          0.230411 0.202424 1.92573 0.19858 0.209082 1.9791
          0.317265 0.193703 1.98205 0.280536 0.198948 1.94003
          0.141115 0.14885 0.667341 0.12317 0.154811 0.798318
          0.311949 0.159912 0.662099 0.171797 0.154438 0.655168
          0.170346 0.164995 1.04243 -0.0194793 0.147898 0.977767
          0.12317 0.154811 0.798318 0.20704 0.159521 0.859824
          0.12317 0.154811 0.798318 0.224316 0.165267 0.860861
          0.170346 0.164995 1.04243 0.20704 0.159521 0.859824
          0.0971336 -0.00259998 -1.06633 0.0811437 -0.0025162 -1.07377
          0.118354 0.00659017 -1.09692 0.130874 -0.00297278 -1.10678
          0.0811437 -0.0025162 -1.07377 0.0771644 0.0116483 -1.06883
          0.0971336 -0.00259998 -1.06633 0.118354 0.00659017 -1.09692
          0.0811437 -0.0025162 -1.07377 0.0771644 0.0116483 -1.06883
          0.118354 0.00659017 -1.09692 0.125307 0.0114024 -1.09595
          0.19858 0.209082 1.9791 0.19858 0.209082 1.9791
          0.317265 0.193703 1.98205 0.280536 0.198948 1.94003
          0.184506 0.00171474 -1.10889 0.194202 -0.00451249 -1.06016
          0.185334 -0.00195267 -1.08471 0.173041 -0.00280863 -1.09202
          0.194202 -0.00451249 -1.06016 0.165532 -0.00924211 -1.03094
          0.173041 -0.00280863 -1.09202 0.145625 -0.00790975 -1.06445
          0.197806 0.00805325 -1.12213 0.195952 0.0179985 -1.12406
          0.207377 0.0208321 -1.10963 0.228412 0.0286129 -1.10666
          0.206243 -0.0142357 -0.811176 0.274181 -0.0149544 -0.750283
          0.193335 -0.0140792 -0.680673 0.187662 -0.015708 -0.769458
          0.268345 -0.0141714 -0.849032 0.274181 -0.0149544 -0.750283
          0.206243 -0.0142357 -0.811176 0.187662 -0.015708 -0.769458
          0.0102294 -0.0145549 -0.890416 -0.0280559 -0.012453 -0.9239
          0.055218 -0.0096646 -0.961593 -0.0219125 -0.0217282 -0.941717
          0.268345 -0.0141714 -0.849032 0.206243 -0.0142357 -0.811176
          0.270875 -0.0148438 -0.866727 0.16486 -0.0132007 -0.873521
          0.268345 -0.0141714 -0.849032 0.274181 -0.0149544 -0.750283
          0.270875 -0.0148438 -0.866727 0.206243 -0.0142357 -0.811176
          0.404649 0.196522 1.41683 0.37001 0.190326 1.4178
          0.35344 0.191337 1.57455 0.349891 0.19974 1.53891
          0.152649 0.0237462 -1.12026 0.168346 0.0243239 -1.1291
          0.184175 0.0291497 -1.1415 0.169031 0.0358445 -1.13262
          0.113962 -0.0013081 -0.194325 0.145403 0.00751687 -0.157499
          0.17088 -0.00538913 -0.207319 0.187575 0.00581802 -0.251084
          0.113962 -0.0013081 -0.194325 0.17088 -0.00538913 -0.207319
          0.201181 -0.00575203 -0.283796 0.187575 0.00581802 -0.251084
          0.113962 -0.0013081 -0.194325 0.17088 -0.00538913 -0.207319
          0.113946 -0.0122499 -0.222739 0.201181 -0.00575203 -0.283796
          0.152649 0.0237462 -1.12026 0.169031 0.0358445 -1.13262
          0.182059 0.0298849 -1.13052 0.165049 0.0352555 -1.11584
          0.113962 -0.0013081 -0.194325 0.145403 0.00751687 -0.157499
          0.187575 0.00581802 -0.251084 0.143686 0.0124576 -0.177216
          0.404649 0.196522 1.41683 0.35344 0.191337 1.57455
          0.491887 0.204341 1.55134 0.349891 0.19974 1.53891
          0.130684 0.0586593 -0.849266 0.0372527 0.0525971 -0.826828
          0.136757 0.0683191 -0.748962 0.0220962 0.0587091 -0.743985
          0.134934 -0.0107202 -1.12126 0.118174 -0.0101753 -1.07335
          0.141749 -0.00792323 -1.10374 0.147967 -0.00385141 -1.1071
          0.503551 0.201335 1.4564 0.473613 0.191655 1.24082
          0.584036 0.203196 1.31556 0.552352 0.201884 1.33583
          0.376293 0.185483 1.21542 0.473613 0.191655 1.24082
          0.551693 0.196169 1.18361 0.584036 0.203196 1.31556
          0.376293 0.185483 1.21542 0.584036 0.203196 1.31556
          0.551693 0.196169 1.18361 0.535403 0.202873 1.41079
          0.584036 0.203196 1.31556 0.697242 0.21442 1.29245
          0.706821 0.206865 1.16605 0.704115 0.209655 1.28711
          0.0174988 0.00881202 -0.0123778 0 0 0
          0 0 0 0.0222848 -0.00558348 -0.0278639
          0.0174988 0.00881202 -0.0123778 0.0019014 -0.00258287 -0.0143042
          0 0 0 0.00878838 0.011498 -0.00445242
          0.69147 0.217185 1.40219 0.503551 0.201335 1.4564
          0.553382 0.208726 1.55042 0.535403 0.202873 1.41079
          -0.0205164 -0.0113926 -0.024542 0 0 0
          -0.000539383 -0.000829893 0.000948014 -0.0475923 -0.0145643 -0.0260409
          0.501687 0.207959 1.94509 0.463114 0.205583 2.00861
          0.452807 0.202837 1.95211 0.39061 0.201088 1.94817
          0.59459 0.220233 1.95943 0.59149 0.218173 2.02627
          0.501687 0.207959 1.94509 0.463114 0.205583 2.00861
          0.59459 0.220233 1.95943 0.59149 0.218173 2.02627
          0.598111 0.217808 1.93833 0.501687 0.207959 1.94509
          0.279769 0.140479 0.25432 0.387406 0.143248 0.223329
          0.325688 0.148226 0.386022 0.206908 0.133411 0.224806
          0.548184 0.208722 1.91561 0.598111 0.217808 1.93833
          0.550847 0.21194 1.99431 0.501687 0.207959 1.94509
          0.173956 0.0310747 -1.07793 0.217644 0.0373622 -1.05651
          0.171435 0.0306672 -1.08531 0.207944 0.034123 -1.08695
          0.173956 0.0310747 -1.07793 0.171435 0.0306672 -1.08531
          0.187816 0.025274 -1.11521 0.207944 0.034123 -1.08695
          0.394078 0.205558 2.05199 0.311359 0.19366 2.00681
          0.343228 0.197767 2.10279 0.301902 0.190563 2.02495
          0.207944 0.034123 -1.08695 0.171435 0.0306672 -1.08531
          0.187816 0.025274 -1.11521 0.196263 0.0293345 -1.09673
          0.168965 -0.00515665 -1.0663 0.173041 -0.00280863 -1.09202
          0.141749 -0.00792323 -1.10374 0.145625 -0.00790975 -1.06445
          0.172442 0.00860304 -1.13067 0.171138 0.0116209 -1.12877
          0.177787 0.00281491 -1.11165 0.188423 0.00272913 -1.13564
          0.168965 -0.00515665 -1.0663 0.145625 -0.00790975 -1.06445
          0.141749 -0.00792323 -1.10374 0.111914 -0.0174845 -1.05123
          0.474926 0.213993 2.03117 0.458699 0.214588 2.12646
          0.509965 0.214157 2.04142 0.394078 0.205558 2.05199
          0.474926 0.213993 2.03117 0.509965 0.214157 2.04142
          0.390222 0.200457 2.03097 0.394078 0.205558 2.05199
          0.394078 0.205558 2.05199 0.509965 0.214157 2.04142
          0.390222 0.200457 2.03097 0.408602 0.205183 2.11483
          0.509965 0.214157 2.04142 0.394078 0.205558 2.05199
          0.480039 0.211585 2.11979 0.408602 0.205183 2.11483
          0.509965 0.214157 2.04142 0.458699 0.214588 2.12646
          0.480039 0.211585 2.11979 0.394078 0.205558 2.05199
          0.394078 0.205558 2.05199 0.458699 0.214588 2.12646
          0.480039 0.211585 2.11979 0.408602 0.205183 2.11483
          0.394078 0.205558 2.05199 0.38125 0.210746 2.12329
          0.458699 0.214588 2.12646 0.408602 0.205183 2.11483
          0.29089 0.05429 -1.08344 0.240259 0.0430863 -1.11282
          0.290625 0.0440846 -1.07206 0.280415 0.0522078 -1.06675
          -0.0525861 -0.0158793 -0.211183 -0.0284574 -0.0153834 -0.248114
          -0.0277683 -0.0134212 -0.149544 0.0098671 -0.0137665 -0.188363
          -0.0525861 -0.0158793 -0.211183 -0.0284574 -0.0153834 -0.248114
          0.0098671 -0.0137665 -0.188363 0.0360046 -0.0165645 -0.266146
          0.10775 -0.0136116 -0.885602 0.126494 -0.0116239 -0.962722
          0.0547873 -0.00956248 -0.875966 0.105915 -0.00932992 -0.868497
          0.0547873 -0.00956248 -0.875966 0.0922398 -0.00387143 -0.958975
          0.0353563 0.00122208 -0.86422 0.105915 -0.00932992 -0.868497
          0.0547873 -0.00956248 -0.875966 0.00753187 -0.00795808 -0.801634
          0.105915 -0.00932992 -0.868497 0.0353563 0.00122208 -0.86422
          0.00753187 -0.00795808 -0.801634 0.0418954 -0.00556855 -0.770226
          0.105915 -0.00932992 -0.868497 0.0353563 0.00122208 -0.86422
          0.105915 -0.00932992 -0.868497 0.0418954 -0.00556855 -0.770226
          0.122618 -0.00782457 -0.823936 0.0353563 0.00122208 -0.86422
          0.110876 -0.00244741 -0.920145 0.105915 -0.00932992 -0.868497
          0.122618 -0.00782457 -0.823936 0.0353563 0.00122208 -0.86422
          0.105915 -0.00932992 -0.868497 0.0922398 -0.00387143 -0.958975
          0.0353563 0.00122208 -0.86422 0.110876 -0.00244741 -0.920145
          0.18863 0.0787469 -0.62348 0.253788 0.0760074 -0.685864
          0.299053 0.0864083 -0.553598 0.351173 0.074105 -0.680571
          0.477897 0.0912087 -0.814626 0.44975 0.100469 -0.891684
          0.421482 0.0973892 -0.84509 0.50631 0.108577 -0.776937
          0.16486 -0.0132007 -0.873521 0.206243 -0.0142357 -0.811176
          0.188761 -0.0117274 -0.865373 0.105915 -0.00932992 -0.868497
          0.16486 -0.0132007 -0.873521 0.117498 -0.0127052 -0.774123
          0.206243 -0.0142357 -0.811176 0.105915 -0.00932992 -0.868497
          0.201068 0.185051 1.52316 0.245913 0.189513 1.4291
          0.202133 0.177184 1.37992 0.0463607 0.175677 1.37031
          0.245913 0.189513 1.4291 0.0463607 0.175677 1.37031
          0.201068 0.185051 1.52316 0.212652 0.196452 1.56397
          0.27013 0.0773494 -0.610887 0.299053 0.0864083 -0.553598
          0.147113 0.0900758 -0.449962 0.368363 0.0880234 -0.492427
          0.27013 0.0773494 -0.610887 0.299053 0.0864083 -0.553598
          0.368363 0.0880234 -0.492427 0.351173 0.074105 -0.680571
          0.27013 0.0773494 -0.610887 0.18863 0.0787469 -0.62348
          0.299053 0.0864083 -0.553598 0.351173 0.074105 -0.680571
          0.209323 -0.0136238 -0.907578 0.105915 -0.00932992 -0.868497
          0.188761 -0.0117274 -0.865373 0.138454 -0.0082111 -0.93618
          0.311949 0.159912 0.662099 0.195943 0.145332 0.453197
          0.0917604 0.139724 0.490675 0.171797 0.154438 0.655168
          0.44205 0.135678 0.148091 0.395931 0.139444 0.273135
          0.374349 0.146448 0.377404 0.318274 0.14137 0.291124
          0.254887 0.168468 1.07544 0.237915 0.172735 1.23496
          0.364277 0.178104 1.03208 0.170346 0.164995 1.04243
          0.299053 0.0864083 -0.553598 0.276125 0.0947165 -0.379639
          0.368363 0.0880234 -0.492427 0.277729 0.0975518 -0.410816
          0.576506 0.177642 0.668802 0.542112 0.173101 0.58157
          0.654031 0.187533 0.78162 0.721043 0.181619 0.578553
          0.0555938 -0.0190831 -0.895268 0.0102294 -0.0145549 -0.890416
          0.00945855 -0.0154396 -0.791267 0.10775 -0.0136116 -0.885602
          0.407349 0.167289 0.652838 0.405571 0.173315 0.753173
          0.576506 0.177642 0.668802 0.542112 0.173101 0.58157
          0.62833 0.215461 1.78832 0.496235 0.208476 1.73139
          0.516936 0.212012 1.83282 0.522544 0.209758 1.82278
          0.62833 0.215461 1.78832 0.516936 0.212012 1.83282
          0.605988 0.219487 1.8842 0.522544 0.209758 1.82278
          0.62833 0.215461 1.78832 0.605988 0.219487 1.8842
          0.610188 0.213279 1.85818 0.522544 0.209758 1.82278
          0.610188 0.213279 1.85818 0.501687 0.207959 1.94509
          0.522544 0.209758 1.82278 0.605988 0.219487 1.8842
          0.206908 0.133411 0.224806 0.317615 0.133859 0.0941603
          0.279769 0.140479 0.25432 0.387406 0.143248 0.223329
          0.394227 0.144542 0.157778 0.387406 0.143248 0.223329
          0.424977 0.152818 0.338667 0.279769 0.140479 0.25432
          0.399897 0.204163 1.81379 0.42471 0.207458 1.83215
          0.522544 0.209758 1.82278 0.495762 0.206714 1.74814
          0.522544 0.209758 1.82278 0.42471 0.207458 1.83215
          0.528544 0.20717 1.83677 0.495762 0.206714 1.74814
          0.631716 0.207156 1.76701 0.522544 0.209758 1.82278
          0.528544 0.20717 1.83677 0.495762 0.206714 1.74814
          0.712961 0.205477 1.16296 0.706821 0.206865 1.16605
          0.704115 0.209655 1.28711 0.551693 0.196169 1.18361
          0.712961 0.205477 1.16296 0.706821 0.206865 1.16605
          0.551693 0.196169 1.18361 0.713145 0.199962 1.03394
          0.712961 0.205477 1.16296 0.551693 0.196169 1.18361
          0.564165 0.19024 1.0193 0.713145 0.199962 1.03394
          0.712961 0.205477 1.16296 0.564165 0.19024 1.0193
          0.551693 0.196169 1.18361 0.719557 0.200946 1.05157
          0.0540416 -0.00937549 -0.175074 0.113962 -0.0013081 -0.194325
          0.0857983 0.00396182 -0.185183 0.0649561 0.00117694 -0.133957
          0.551693 0.196169 1.18361 0.564165 0.19024 1.0193
          0.509302 0.18922 1.04712 0.719557 0.200946 1.05157
          0.564165 0.19024 1.0193 0.509302 0.18922 1.04712
          0.364277 0.178104 1.03208 0.551693 0.196169 1.18361
          0.551693 0.196169 1.18361 0.509302 0.18922 1.04712
          0.364277 0.178104 1.03208 0.376293 0.185483 1.21542
          0.551693 0.196169 1.18361 0.706821 0.206865 1.16605
          0.564165 0.19024 1.0193 0.713145 0.199962 1.03394
          0.483334 0.195034 1.26309 0.376293 0.185483 1.21542
          0.374364 0.188654 1.22074 0.327201 0.179018 1.03886
          0.193506 0.157546 1.98437 0.21655 0.170417 2.02853
          0.267912 0.193391 2.06131 0.193506 0.157546 1.98437
          0.0366677 -0.00708896 -0.252972 0.0857983 0.00396182 -0.185183
          0.0209038 -0.00974771 -0.210131 0.105195 -0.00802552 -0.266652
          0.0209038 -0.00974771 -0.210131 0.0857983 0.00396182 -0.185183
          0.0366677 -0.00708896 -0.252972 0.0108447 -0.00392801 -0.129841
          -0.0185362 -0.0123417 -0.194536 0.0209038 -0.00974771 -0.210131
          0.0366677 -0.00708896 -0.252972 0.0108447 -0.00392801 -0.129841
          0.0209038 -0.00974771 -0.210131 -0.0209055 -0.0143869 -0.281814
          -0.0185362 -0.0123417 -0.194536 0.0366677 -0.00708896 -0.252972
          0.0209038 -0.00974771 -0.210131 0.105195 -0.00802552 -0.266652
          0.113962 -0.0013081 -0.194325 0.0540416 -0.00937549 -0.175074
          0.0209038 -0.00974771 -0.210131 0.0360046 -0.0165645 -0.266146
          0.105195 -0.00802552 -0.266652 0.0540416 -0.00937549 -0.175074
          0.0540416 -0.00937549 -0.175074 0.0360046 -0.0165645 -0.266146
          0.0098671 -0.0137665 -0.188363 0.0209038 -0.00974771 -0.210131
          0.201734 -0.00779991 -1.01235 0.250899 -0.00758936 -0.953821
          0.248905 -0.00813331 -0.987972 0.182197 -0.0121593 -0.958737
          0.0209038 -0.00974771 -0.210131 0.0098671 -0.0137665 -0.188363
          -0.0277683 -0.0134212 -0.149544 -0.0284574 -0.0153834 -0.248114
          0.0209038 -0.00974771 -0.210131 0.0360046 -0.0165645 -0.266146
          0.0098671 -0.0137665 -0.188363 -0.0284574 -0.0153834 -0.248114
          -0.0284574 -0.0153834 -0.248114 0.0360046 -0.0165645 -0.266146
          0.0327665 -0.0135779 -0.313497 0.0209038 -0.00974771 -0.210131
          0.0327665 -0.0135779 -0.313497 0.0360046 -0.0165645 -0.266146
          0.105195 -0.00802552 -0.266652 0.0209038 -0.00974771 -0.210131
          0.0902995 -0.0196342 -0.0267296 0.0531873 -0.00509933 -0.00647402
          0.0816611 -0.0211183 -0.0484198 0.0356243 -0.0169741 -0.0342029
          0.0902995 -0.0196342 -0.0267296 0.0531873 -0.00509933 -0.00647402
          0.0356243 -0.0169741 -0.0342029 0.0519787 -0.0134986 -0.00942474
          0.345308 0.152407 0.481869 0.572815 0.164404 0.469028
          0.374349 0.146448 0.377404 0.517372 0.152084 0.282314
          0.0441782 -0.0214942 -0.0490048 0.0519787 -0.0134986 -0.00942474
          0.0356243 -0.0169741 -0.0342029 0.0307875 -0.0144254 -0.0138309
          0.0307875 -0.0144254 -0.0138309 0.00765813 -0.00792034 -0.0270135
          0.0356243 -0.0169741 -0.0342029 0.0441782 -0.0214942 -0.0490048
          0.0356243 -0.0169741 -0.0342029 0.00765813 -0.00792034 -0.0270135
          0.0307875 -0.0144254 -0.0138309 0 0 0
          0 0 0 0.0356243 -0.0169741 -0.0342029
          0.0307875 -0.0144254 -0.0138309 0 0 0
          0.0277173 -0.0112998 -0.0430308 0.00765813 -0.00792034 -0.0270135
          0.0356243 -0.0169741 -0.0342029 0 0 0
          0.00765813 -0.00792034 -0.0270135 0.028315 -0.0144495 -0.0665337
          0.0277173 -0.0112998 -0.0430308 0.0356243 -0.0169741 -0.0342029
          0.00765813 -0.00792034 -0.0270135 0.028315 -0.0144495 -0.0665337
          0.0356243 -0.0169741 -0.0342029 0.0441782 -0.0214942 -0.0490048
          -0.0126816 -0.00885974 -0.0401906 -0.00286052 -0.00389357 -0.0426216
          0.0019014 -0.00258287 -0.0143042 0.00316235 -0.00774175 -0.084285
          0.0708915 -0.0190248 -0.830437 0.0127683 -0.0225709 -0.775399
          -0.000164951 -0.0258844 -0.847736 0.0289583 -0.0292126 -0.794661
          0.0356243 -0.0169741 -0.0342029 0.0519787 -0.0134986 -0.00942474
          0 0 0 0.0307875 -0.0144254 -0.0138309
          0.64244 0.137669 -0.350307 0.486593 0.117221 -0.379886
          0.56349 0.126046 -0.473892 0.620393 0.124519 -0.416868
          0.64488 0.133423 -0.290885 0.486593 0.117221 -0.379886
          0.64244 0.137669 -0.350307 0.620393 0.124519 -0.416868
          0.64488 0.133423 -0.290885 0.486593 0.117221 -0.379886
          0.620393 0.124519 -0.416868 0.618914 0.118881 -0.360852
          0.620393 0.124519 -0.416868 0.486593 0.117221 -0.379886
          0.59157 0.110913 -0.485872 0.618914 0.118881 -0.360852
          0.620393 0.124519 -0.416868 0.46044 0.105433 -0.546765
          0.59157 0.110913 -0.485872 0.486593 0.117221 -0.379886
          0.620393 0.124519 -0.416868 0.486593 0.117221 -0.379886
          0.56349 0.126046 -0.473892 0.46044 0.105433 -0.546765
          0.486593 0.117221 -0.379886 0.457237 0.119913 -0.42142
          0.56349 0.126046 -0.473892 0.46044 0.105433 -0.546765
          0.0366677 -0.00708896 -0.252972 0.0898911 -0.00444595 -0.325468
          0.0327665 -0.0135779 -0.313497 0.0636064 -0.00891908 -0.389929
          -0.109993 -0.0199922 -0.657779 -0.106391 -0.0133016 -0.666373
          -0.122298 -0.0197349 -0.569304 -0.0323988 -0.0141205 -0.630091
          -0.106391 -0.0133016 -0.666373 -0.125328 -0.0153589 -0.543652
          -0.122298 -0.0197349 -0.569304 -0.0323988 -0.0141205 -0.630091
          0.173799 0.0876068 -0.503416 0.188323 0.0883993 -0.510283
          0.230729 0.0840752 -0.586159 0.277729 0.0975518 -0.410816
          0.722095 0.203045 1.18652 0.586206 0.198766 1.24339
          0.600635 0.195125 1.0911 0.583709 0.197168 1.17371
          0.726014 0.199269 1.0235 0.600635 0.195125 1.0911
          0.583709 0.197168 1.17371 0.722095 0.203045 1.18652
          0.586206 0.198766 1.24339 0.583709 0.197168 1.17371
          0.441927 0.190179 1.14735 0.600635 0.195125 1.0911
          0.726014 0.199269 1.0235 0.583709 0.197168 1.17371
          0.719557 0.200946 1.05157 0.722095 0.203045 1.18652
          0.0486358 -0.0214736 -0.314918 -0.00718751 -0.0210012 -0.361431
          0.0360046 -0.0165645 -0.266146 0.0509295 -0.0182737 -0.380621
          0.238844 0.162658 1.06277 0.361484 0.173451 1.00011
          0.186008 0.158359 0.964154 0.254887 0.168468 1.07544
          0.208709 0.154096 0.550593 0.211578 0.144846 0.361071
          0.389827 0.156966 0.411117 0.339227 0.15615 0.491304
          0.339227 0.15615 0.491304 0.211578 0.144846 0.361071
          0.389827 0.156966 0.411117 0.279769 0.140479 0.25432
          -0.0365595 -0.00573392 -0.0808166 -0.0115162 -0.00567168 -0.051575
          0.00486405 -0.0137133 -0.10608 -0.0354252 -0.0123842 -0.100673
          -0.0144841 0.000148197 -0.0285603 -0.0594745 0.00179271 -0.0195266
          -0.0496443 5.77154e-05 -0.00611242 -0.0579892 0.00142708 -0.0394255
          -0.0579892 0.00142708 -0.0394255 -0.0496443 5.77154e-05 -0.00611242
          -0.0144841 0.000148197 -0.0285603 0 0 0
          0.195943 0.145332 0.453197 0.311949 0.159912 0.662099
          0.345308 0.152407 0.481869 0.339227 0.15615 0.491304
          0.195943 0.145332 0.453197 0.311949 0.159912 0.662099
          0.339227 0.15615 0.491304 0.171797 0.154438 0.655168
          0.339227 0.15615 0.491304 0.311949 0.159912 0.662099
          0.407349 0.167289 0.652838 0.171797 0.154438 0.655168
          0.339227 0.15615 0.491304 0.311949 0.159912 0.662099
          0.345308 0.152407 0.481869 0.407349 0.167289 0.652838
          0.170804 0.0193801 -1.12604 0.207377 0.0208321 -1.10963
          0.196263 0.0293345 -1.09673 0.186348 0.0218384 -1.10846
          0.130594 0.0587253 -0.800895 0.0372527 0.0525971 -0.826828
          0.130684 0.0586593 -0.849266 0.0220962 0.0587091 -0.743985
          0.096068 -0.0160099 -0.794129 0.0185148 -0.0145913 -0.704614
          0.117498 -0.0127052 -0.774123 0.0642946 -0.0122501 -0.806808
          0.096068 -0.0160099 -0.794129 0.0642946 -0.0122501 -0.806808
          0.117498 -0.0127052 -0.774123 0.16486 -0.0132007 -0.873521
          0.240274 0.217295 1.83279 0.294959 0.204801 1.7903
          0.270667 0.21001 1.87832 0.216007 0.215997 1.73409
          0.00316235 -0.00774175 -0.084285 -0.00286052 -0.00389357 -0.0426216
          0.0019014 -0.00258287 -0.0143042 0.0209124 0.00511759 -0.0548072
          -0.108082 -0.0140942 -0.171628 -0.11621 -0.0158091 -0.225044
          -0.0525861 -0.0158793 -0.211183 -0.0171008 -0.0138017 -0.174494
          -0.00846173 0.0762337 -0.687888 0.109161 0.0700203 -0.752531
          0.00251873 0.0698236 -0.678307 0.101692 0.0805584 -0.621601
          0.109161 0.0700203 -0.752531 0.136757 0.0683191 -0.748962
          0.00251873 0.0698236 -0.678307 0.101692 0.0805584 -0.621601
          0.109161 0.0700203 -0.752531 0.136757 0.0683191 -0.748962
          0.101692 0.0805584 -0.621601 0.18863 0.0787469 -0.62348
          0.109161 0.0700203 -0.752531 0.18863 0.0787469 -0.62348
          0.101692 0.0805584 -0.621601 0.225286 0.0686452 -0.746878
          0.109161 0.0700203 -0.752531 0.101692 0.0805584 -0.621601
          0.15145 0.0745346 -0.685354 0.225286 0.0686452 -0.746878
          0.15145 0.0745346 -0.685354 0.101692 0.0805584 -0.621601
          0.27013 0.0773494 -0.610887 0.225286 0.0686452 -0.746878
          0.14902 0.0833102 -0.571006 0.101692 0.0805584 -0.621601
          0.27013 0.0773494 -0.610887 0.15145 0.0745346 -0.685354
          0.14902 0.0833102 -0.571006 0.15145 0.0745346 -0.685354
          0.0297149 0.0817309 -0.656534 0.101692 0.0805584 -0.621601
          0.0392936 0.0887872 -0.524484 0.14902 0.0833102 -0.571006
          0.0297149 0.0817309 -0.656534 0.101692 0.0805584 -0.621601
          0.0392936 0.0887872 -0.524484 0.101692 0.0805584 -0.621601
          0.0297149 0.0817309 -0.656534 -0.0296118 0.0834849 -0.573164
          0.147113 0.0900758 -0.449962 0.14902 0.0833102 -0.571006
          0.0392936 0.0887872 -0.524484 0.101692 0.0805584 -0.621601
          0.14902 0.0833102 -0.571006 0.101692 0.0805584 -0.621601
          0.147113 0.0900758 -0.449962 0.27013 0.0773494 -0.610887
          0.101692 0.0805584 -0.621601 0.18863 0.0787469 -0.62348
          0.147113 0.0900758 -0.449962 0.27013 0.0773494 -0.610887
          0.101692 0.0805584 -0.621601 0.18863 0.0787469 -0.62348
          0.27013 0.0773494 -0.610887 0.225286 0.0686452 -0.746878
          0.10775 -0.0136116 -0.885602 0.138454 -0.0082111 -0.93618
          0.105915 -0.00932992 -0.868497 0.16486 -0.0132007 -0.873521
          0.15796 0.017913 -1.13832 0.160877 0.00282591 -1.14115
          0.169372 0.0112354 -1.1349 0.162798 0.0130179 -1.13538
          0.0878293 0.0822467 -0.551896 -0.0327675 0.087618 -0.432786
          0.108892 0.0931933 -0.375589 -0.0164584 0.0776046 -0.547456
          0.20433 0.0494215 -0.926588 0.123689 0.0542317 -0.925889
          0.126057 0.0571167 -0.91903 0.233984 0.0560029 -0.869098
          0.233984 0.0560029 -0.869098 0.123689 0.0542317 -0.925889
          0.126057 0.0571167 -0.91903 0.158016 0.0603311 -0.849714
          0.233984 0.0560029 -0.869098 0.158016 0.0603311 -0.849714
          0.126057 0.0571167 -0.91903 0.178872 0.0606546 -0.845006
          0.233984 0.0560029 -0.869098 0.1823 0.048595 -0.960625
          0.123689 0.0542317 -0.925889 0.158016 0.0603311 -0.849714
          0.233984 0.0560029 -0.869098 0.257074 0.0669415 -0.796305
          0.3056 0.0562813 -0.888644 0.238684 0.0574548 -0.90005
          0.230411 0.202424 1.92573 0.230411 0.202424 1.92573
          0.270667 0.21001 1.87832 0.209067 0.217383 1.88188
          0.0463607 0.175677 1.37031 0.153728 0.181466 1.28935
          0.245913 0.189513 1.4291 0.202133 0.177184 1.37992
          -0.0658888 -0.0192985 -0.331415 -0.0449147 -0.0230668 -0.390274
          -0.052492 -0.0226985 -0.433246 -0.00718751 -0.0210012 -0.361431
          0.345308 0.152407 0.481869 0.195943 0.145332 0.453197
          0.325688 0.148226 0.386022 0.318274 0.14137 0.291124
          0.20182 0.0253005 -1.11961 0.180128 0.0144698 -1.13421
          0.193318 0.0234298 -1.13418 0.204545 0.0286583 -1.12534
          0.193318 0.0234298 -1.13418 0.172928 0.0182889 -1.13082
          0.180128 0.0144698 -1.13421 0.20182 0.0253005 -1.11961
          -0.05098 -0.00222087 -0.02854 -0.0148586 -0.00274295 -0.0245388
          -0.065013 -0.0122964 -0.0621598 -0.0485207 -0.00933978 -0.032129
          0.245913 0.189513 1.4291 0.0463607 0.175677 1.37031
          0.0565896 0.186773 1.3944 0.153728 0.181466 1.28935
          0.230411 0.202424 1.92573 0.268785 0.212902 1.90147
          0.270667 0.21001 1.87832 0.209067 0.217383 1.88188
          0.258765 0.0665526 -0.86543 0.36166 0.0661805 -0.870565
          0.238684 0.0574548 -0.90005 0.278739 0.0589262 -0.949907
          0.270667 0.21001 1.87832 0.294959 0.204801 1.7903
          0.165846 0.208743 1.78842 0.216007 0.215997 1.73409
          0.0740804 -0.0196889 -0.590591 0.15297 -0.0190904 -0.707837
          0.0853681 -0.0229088 -0.641772 0.08759 -0.0181695 -0.700148
          0.15297 -0.0190904 -0.707837 0.096068 -0.0160099 -0.794129
          0.117074 -0.0194202 -0.800314 0.08759 -0.0181695 -0.700148
          0.0127683 -0.0225709 -0.775399 0.00945855 -0.0154396 -0.791267
          -0.0331069 -0.0207408 -0.7108 0.08759 -0.0181695 -0.700148
          0.00945855 -0.0154396 -0.791267 0.0185148 -0.0145913 -0.704614
          -0.0331069 -0.0207408 -0.7108 0.08759 -0.0181695 -0.700148
          0.269246 0.161112 1.88195 0.18332 0.150667 1.79197
          0.155598 0.132588 1.77496 0.234576 0.164884 1.9288
          -0.0871916 -0.0208251 -0.097455 -0.0698807 -0.0189799 -0.0582118
          -0.065013 -0.0122964 -0.0621598 -0.0382728 -0.0119119 -0.0861697
          -0.065013 -0.0122964 -0.0621598 -0.0698807 -0.0189799 -0.0582118
          -0.020548 -0.00832014 -0.0250458 -0.0382728 -0.0119119 -0.0861697
          0.108319 0.0271842 -1.01937 0.0930218 0.0316273 -0.984041
          0.156445 0.0377303 -1.01497 0.117525 0.0398736 -0.929906
          0.151948 -0.00220459 -0.376901 0.141866 -0.00647079 -0.337935
          0.0898911 -0.00444595 -0.325468 0.156717 -0.00972851 -0.433933
          0.723765 0.196142 0.912449 0.566235 0.187544 0.910491
          0.726014 0.199269 1.0235 0.654031 0.187533 0.78162
          0.183089 0.0573615 -0.895068 0.209562 0.0518334 -0.953749
          0.260874 0.0644344 -0.917065 0.258765 0.0665526 -0.86543
          0.258765 0.0665526 -0.86543 0.238684 0.0574548 -0.90005
          0.257074 0.0669415 -0.796305 0.185762 0.0662311 -0.795337
          0.128366 0.144338 0.653264 0.20704 0.159521 0.859824
          0.329965 0.158701 0.681063 0.141115 0.14885 0.667341
          0.189242 0.142522 0.483109 0.141115 0.14885 0.667341
          0.128366 0.144338 0.653264 0.329965 0.158701 0.681063
          0.128366 0.144338 0.653264 0.189242 0.142522 0.483109
          0.329965 0.158701 0.681063 0.333142 0.149548 0.503453
          0.128366 0.144338 0.653264 0.16556 0.134608 0.433358
          0.189242 0.142522 0.483109 0.333142 0.149548 0.503453
          0.189242 0.142522 0.483109 0.0887269 0.13043 0.360895
          0.16556 0.134608 0.433358 0.128366 0.144338 0.653264
          0.189242 0.142522 0.483109 -0.0523907 0.129622 0.506003
          0.0887269 0.13043 0.360895 0.128366 0.144338 0.653264
          0.141115 0.14885 0.667341 -0.0523907 0.129622 0.506003
          0.189242 0.142522 0.483109 0.128366 0.144338 0.653264
          -0.0397156 0.136079 0.577023 -0.0523907 0.129622 0.506003
          0.141115 0.14885 0.667341 0.128366 0.144338 0.653264
          -0.0397156 0.136079 0.577023 0.128366 0.144338 0.653264
          0.141115 0.14885 0.667341 -0.0414189 0.136588 0.693819
          -0.0397156 0.136079 0.577023 -0.0523907 0.129622 0.506003
          0.128366 0.144338 0.653264 -0.0414189 0.136588 0.693819
          0.188752 -0.0119074 -0.967376 0.194464 -0.00870049 -1.02577
          0.129918 -0.0092143 -1.0239 0.126494 -0.0116239 -0.962722
          0.188752 -0.0119074 -0.967376 0.194464 -0.00870049 -1.02577
          0.165532 -0.00924211 -1.03094 0.129918 -0.0092143 -1.0239
          0.337729 0.0622297 -0.971894 0.392657 0.0753856 -0.971224
          0.286476 0.052365 -1.03123 0.341916 0.079455 -0.982387
          0.249546 0.0280093 -1.08662 0.197806 0.00805325 -1.12213
          0.228412 0.0286129 -1.10666 0.219527 0.0205329 -1.10211
          0.0607489 -0.00918772 -0.0791758 0.0222848 -0.00558348 -0.0278639
          0.0244272 -0.00123409 -0.0380729 0.0277173 -0.0112998 -0.0430308
          0.503551 0.201335 1.4564 0.552352 0.201884 1.33583
          0.584036 0.203196 1.31556 0.69147 0.217185 1.40219
          0.376157 0.134811 0.252378 0.330553 0.141912 0.420265
          0.395931 0.139444 0.273135 0.257122 0.135619 0.303109
          0.0675574 -0.0172296 -0.103565 0.109537 -0.0163913 -0.0963933
          0.13966 -0.00867676 -0.146496 0.0607489 -0.00918772 -0.0791758
          0.187662 -0.015708 -0.769458 0.193335 -0.0140792 -0.680673
          0.187113 -0.0166802 -0.683439 0.274181 -0.0149544 -0.750283
          0.21495 0.157538 1.917 0.234576 0.164884 1.9288
          0.234576 0.164884 1.9288 0.272421 0.182674 1.91203
          0.294959 0.204801 1.7903 0.315947 0.196592 1.90816
          0.272421 0.182674 1.91203 0.283203 0.18814 1.84313
          0.258765 0.0665526 -0.86543 0.278739 0.0589262 -0.949907
          0.260874 0.0644344 -0.917065 0.343916 0.0755584 -0.839382
          0.0171941 0.169817 1.175 0.149429 0.170536 1.21814
          0.00285029 0.158127 1.12293 0.163265 0.169482 1.05637
          0.247711 0.0274887 -1.06388 0.23176 0.0157621 -1.09497
          0.186348 0.0218384 -1.10846 0.207377 0.0208321 -1.10963
          0.383928 0.195509 1.93412 0.373718 0.18894 1.83094
          0.313847 0.186532 1.91649 0.395929 0.200623 1.90057
          0.00316235 -0.00774175 -0.084285 0.0660439 -0.0028024 -0.102152
          0.0155697 -0.00945334 -0.0979218 0.0130412 -0.00728572 -0.143159
          0.387815 0.202424 1.98846 0.385207 0.197499 1.95846
          0.383928 0.195509 1.93412 0.475228 0.212726 1.96844
          0.197806 0.00805325 -1.12213 0.23176 0.0157621 -1.09497
          0.207377 0.0208321 -1.10963 0.186348 0.0218384 -1.10846
          0.197806 0.00805325 -1.12213 0.23176 0.0157621 -1.09497
          0.186348 0.0218384 -1.10846 0.180665 0.00439507 -1.12932
          -0.0161619 -0.0175454 -0.372721 -0.0513797 -0.0175883 -0.319843
          0.0107608 -0.0144463 -0.385426 -0.0454728 -0.0174241 -0.455721
          0.0636064 -0.00891908 -0.389929 0.104284 -0.0136701 -0.371997
          0.0327665 -0.0135779 -0.313497 0.0107608 -0.0144463 -0.385426
          0.0470197 -0.0148555 -0.460253 0.0107608 -0.0144463 -0.385426
          0.0636064 -0.00891908 -0.389929 0.057422 -0.00958656 -0.504466
          0.23176 0.0157621 -1.09497 0.196237 0.0163121 -1.0977
          0.186348 0.0218384 -1.10846 0.180665 0.00439507 -1.12932
          0.572815 0.164404 0.469028 0.477178 0.161787 0.54982
          0.522672 0.172355 0.662797 0.472775 0.161158 0.475347
          -0.000164951 -0.0258844 -0.847736 0.00945855 -0.0154396 -0.791267
          -0.0648303 -0.020364 -0.846966 0.0127683 -0.0225709 -0.775399
          0.117851 0.0788018 -0.593398 0.0878293 0.0822467 -0.551896
          0.108892 0.0931933 -0.375589 -0.0164584 0.0776046 -0.547456
          -0.00718751 -0.0210012 -0.361431 -0.0538186 -0.0201853 -0.381395
          0.0509295 -0.0182737 -0.380621 0.0108537 -0.0216076 -0.447808
          -0.0581836 -0.0358302 -0.840197 -0.0460202 -0.0328352 -0.760958
          -0.000164951 -0.0258844 -0.847736 -0.0801759 -0.0285786 -0.792856
          -0.0581836 -0.0358302 -0.840197 -0.0460202 -0.0328352 -0.760958
          0.0169673 -0.0315692 -0.881613 -0.000164951 -0.0258844 -0.847736
          0.0289583 -0.0292126 -0.794661 -0.000164951 -0.0258844 -0.847736
          0.0169673 -0.0315692 -0.881613 -0.0460202 -0.0328352 -0.760958
          0.0289583 -0.0292126 -0.794661 0.0127683 -0.0225709 -0.775399
          -0.000164951 -0.0258844 -0.847736 -0.0460202 -0.0328352 -0.760958
          0.39061 0.201088 1.94817 0.461807 0.207187 1.95549
          0.463114 0.205583 2.00861 0.390222 0.200457 2.03097
          0.499489 0.20972 1.78754 0.516936 0.212012 1.83282
          0.616494 0.228263 1.82752 0.632325 0.224004 1.75653
          0.160795 0.0354946 -1.04283 0.0930218 0.0316273 -0.984041
          0.104619 0.028198 -1.03143 0.180739 0.0425605 -1.00764
          0.0470197 -0.0148555 -0.460253 0.156717 -0.00972851 -0.433933
          0.104284 -0.0136701 -0.371997 0.140684 -0.013983 -0.516463
          0.0470197 -0.0148555 -0.460253 0.127111 -0.00743066 -0.450311
          0.156717 -0.00972851 -0.433933 0.140684 -0.013983 -0.516463
          0.0636064 -0.00891908 -0.389929 0.127111 -0.00743066 -0.450311
          0.156717 -0.00972851 -0.433933 0.0470197 -0.0148555 -0.460253
          0.0636064 -0.00891908 -0.389929 0.156717 -0.00972851 -0.433933
          0.104284 -0.0136701 -0.371997 0.0470197 -0.0148555 -0.460253
          0.356278 0.194339 1.30124 0.245913 0.189513 1.4291
          0.276521 0.195515 1.38913 0.153728 0.181466 1.28935
          0.151948 -0.00220459 -0.376901 0.156717 -0.00972851 -0.433933
          0.0636064 -0.00891908 -0.389929 0.127111 -0.00743066 -0.450311
          0.151948 -0.00220459 -0.376901 0.225716 -0.00209465 -0.442633
          0.156717 -0.00972851 -0.433933 0.127111 -0.00743066 -0.450311
          0.151948 -0.00220459 -0.376901 0.225716 -0.00209465 -0.442633
          0.235265 -0.00558497 -0.411059 0.156717 -0.00972851 -0.433933
          0.21495 0.157538 1.917 0.234576 0.164884 1.9288
          0.272421 0.182674 1.91203 0.269246 0.161112 1.88195
          0.270667 0.21001 1.87832 0.315947 0.196592 1.90816
          0.230411 0.202424 1.92573 0.272421 0.182674 1.91203
          0.21495 0.157538 1.917 0.269246 0.161112 1.88195
          0.272421 0.182674 1.91203 0.313847 0.186532 1.91649
          0.225716 -0.00209465 -0.442633 0.255812 -0.00763762 -0.52839
          0.235265 -0.00558497 -0.411059 0.156717 -0.00972851 -0.433933
          0.225716 -0.00209465 -0.442633 0.255812 -0.00763762 -0.52839
          0.156717 -0.00972851 -0.433933 0.158259 -0.00736322 -0.539283
          0.225716 -0.00209465 -0.442633 0.156717 -0.00972851 -0.433933
          0.127111 -0.00743066 -0.450311 0.158259 -0.00736322 -0.539283
          0.127111 -0.00743066 -0.450311 0.156717 -0.00972851 -0.433933
          0.140684 -0.013983 -0.516463 0.158259 -0.00736322 -0.539283
          0.156717 -0.00972851 -0.433933 0.255812 -0.00763762 -0.52839
          0.140684 -0.013983 -0.516463 0.158259 -0.00736322 -0.539283
          0.156717 -0.00972851 -0.433933 0.255812 -0.00763762 -0.52839
          0.258238 -0.0118763 -0.540991 0.140684 -0.013983 -0.516463
          0.156717 -0.00972851 -0.433933 0.258238 -0.0118763 -0.540991
          0.251263 -0.0139785 -0.497885 0.140684 -0.013983 -0.516463
          0.39061 0.201088 1.94817 0.399113 0.201668 1.96815
          0.461807 0.207187 1.95549 0.390222 0.200457 2.03097
          0.530358 0.152472 0.215311 0.445539 0.138683 0.0844741
          0.387406 0.143248 0.223329 0.317615 0.133859 0.0941603
          0.235265 -0.00558497 -0.411059 0.255812 -0.00763762 -0.52839
          0.258238 -0.0118763 -0.540991 0.156717 -0.00972851 -0.433933
          0.208938 0.0367803 -1.11163 0.182059 0.0298849 -1.13052
          0.204545 0.0286583 -1.12534 0.240259 0.0430863 -1.11282
          0.240259 0.0430863 -1.11282 0.29089 0.05429 -1.08344
          0.257413 0.0399649 -1.08953 0.258456 0.0565514 -1.10446
          0.424412 0.120747 0.0174048 0.20449 0.1161 0.00797098
          0.269518 0.124347 0.146292 0.307201 0.123835 0.0687832
          0.424412 0.120747 0.0174048 0.269518 0.124347 0.146292
          0.376157 0.134811 0.252378 0.307201 0.123835 0.0687832
          0.28116 0.113647 -0.106809 0.307201 0.123835 0.0687832
          0.105133 0.110602 -0.0678035 0.20449 0.1161 0.00797098
          0.28116 0.113647 -0.106809 0.177901 0.122751 0.105101
          0.105133 0.110602 -0.0678035 0.307201 0.123835 0.0687832
          0.307201 0.123835 0.0687832 0.177901 0.122751 0.105101
          0.105133 0.110602 -0.0678035 0.20449 0.1161 0.00797098
          0.307201 0.123835 0.0687832 0.177901 0.122751 0.105101
          0.257122 0.135619 0.303109 0.326886 0.131137 0.105877
          0.709038 0.196187 0.93758 0.564165 0.19024 1.0193
          0.713145 0.199962 1.03394 0.578245 0.183818 0.83647
          0.709038 0.196187 0.93758 0.578245 0.183818 0.83647
          0.713145 0.199962 1.03394 0.716643 0.195296 0.903992
          0.709038 0.196187 0.93758 0.578245 0.183818 0.83647
          0.716643 0.195296 0.903992 0.714042 0.187409 0.739804
          0.578245 0.183818 0.83647 0.564165 0.19024 1.0193
          0.713145 0.199962 1.03394 0.716643 0.195296 0.903992
          0.349722 0.170056 0.845586 0.578245 0.183818 0.83647
          0.564165 0.19024 1.0193 0.4665 0.174973 0.832093
          0.522672 0.172355 0.662797 0.349722 0.170056 0.845586
          0.4665 0.174973 0.832093 0.578245 0.183818 0.83647
          0.4665 0.174973 0.832093 0.542691 0.172558 0.701274
          0.522672 0.172355 0.662797 0.578245 0.183818 0.83647
          0.4665 0.174973 0.832093 0.542691 0.172558 0.701274
          0.578245 0.183818 0.83647 0.705183 0.183313 0.70671
          0.578245 0.183818 0.83647 0.542691 0.172558 0.701274
          0.522672 0.172355 0.662797 0.705183 0.183313 0.70671
          0.522672 0.172355 0.662797 0.349722 0.170056 0.845586
          0.578245 0.183818 0.83647 0.477379 0.178653 0.833553
          0.578245 0.183818 0.83647 0.477379 0.178653 0.833553
          0.576506 0.177642 0.668802 0.522672 0.172355 0.662797
          0.578245 0.183818 0.83647 0.477379 0.178653 0.833553
          0.721535 0.189703 0.763471 0.576506 0.177642 0.668802
          0.349722 0.170056 0.845586 0.477379 0.178653 0.833553
          0.564165 0.19024 1.0193 0.578245 0.183818 0.83647
          -0.132434 -0.021604 -0.332616 -0.133267 -0.0188305 -0.415527
          -0.088756 -0.0207238 -0.274965 -0.0513797 -0.0175883 -0.319843
          -0.132317 -0.0205373 -0.410748 -0.132434 -0.021604 -0.332616
          -0.0513797 -0.0175883 -0.319843 -0.133267 -0.0188305 -0.415527
          -0.132317 -0.0205373 -0.410748 -0.0513797 -0.0175883 -0.319843
          -0.0299594 -0.014765 -0.366911 -0.133267 -0.0188305 -0.415527
          -0.0513797 -0.0175883 -0.319843 -0.132317 -0.0205373 -0.410748
          -0.0299594 -0.014765 -0.366911 -0.0454728 -0.0174241 -0.455721
          0.560566 0.146458 0.0640076 0.465816 0.133938 -0.0723265
          0.527923 0.13303 -0.0882344 0.445539 0.138683 0.0844741
          -0.0161619 -0.0175454 -0.372721 -0.132317 -0.0205373 -0.410748
          -0.0513797 -0.0175883 -0.319843 -0.0454728 -0.0174241 -0.455721
          -0.0161619 -0.0175454 -0.372721 -0.132434 -0.021604 -0.332616
          -0.0513797 -0.0175883 -0.319843 -0.132317 -0.0205373 -0.410748
          -0.0658888 -0.0192985 -0.331415 -0.0449147 -0.0230668 -0.390274
          -0.00718751 -0.0210012 -0.361431 0.00554623 -0.0230099 -0.354419
          0.339176 0.123145 -0.0956363 0.371903 0.120611 -0.274683
          0.465816 0.133938 -0.0723265 0.520384 0.12941 -0.212325
          -0.0513797 -0.0175883 -0.319843 -0.088756 -0.0207238 -0.274965
          -0.0209055 -0.0143869 -0.281814 -0.0299594 -0.014765 -0.366911
          -0.0513797 -0.0175883 -0.319843 -0.133267 -0.0188305 -0.415527
          -0.088756 -0.0207238 -0.274965 -0.0299594 -0.014765 -0.366911
          0.166518 0.00346835 -1.12287 0.147967 -0.00385141 -1.1071
          0.158522 0.00273212 -1.11049 0.130874 -0.00297278 -1.10678
          0.166518 0.00346835 -1.12287 0.130874 -0.00297278 -1.10678
          0.158522 0.00273212 -1.11049 0.16328 0.00682162 -1.12711
          0.158522 0.00273212 -1.11049 0.147967 -0.00385141 -1.1071
          0.139782 -0.00357415 -1.07587 0.130874 -0.00297278 -1.10678
          0.130874 -0.00297278 -1.10678 0.0971336 -0.00259998 -1.06633
          0.139782 -0.00357415 -1.07587 0.158522 0.00273212 -1.11049
          0.158522 0.00273212 -1.11049 0.173041 -0.00280863 -1.09202
          0.139782 -0.00357415 -1.07587 0.147967 -0.00385141 -1.1071
          0.158522 0.00273212 -1.11049 0.173041 -0.00280863 -1.09202
          0.185334 -0.00195267 -1.08471 0.139782 -0.00357415 -1.07587
          0.0547873 -0.00956248 -0.875966 0.0256823 -0.00354785 -0.929701
          0.0922398 -0.00387143 -0.958975 0.055218 -0.0096646 -0.961593
          0.0166565 -0.0213178 -0.651747 0.0452458 -0.0243838 -0.718463
          0.0853681 -0.0229088 -0.641772 -0.0365529 -0.0262545 -0.615241
          0.158522 0.00273212 -1.11049 0.118271 0.00736987 -1.08369
          0.151547 0.002157 -1.08222 0.152229 0.0117325 -1.11972
          0.118354 0.00659017 -1.09692 0.118271 0.00736987 -1.08369
          0.158522 0.00273212 -1.11049 0.152229 0.0117325 -1.11972
          0.399113 0.201668 1.96815 0.383928 0.195509 1.93412
          0.395929 0.200623 1.90057 0.461908 0.207616 1.89904
          0.692943 0.167956 0.489621 0.538118 0.159808 0.49707
          0.63083 0.166766 0.558058 0.697082 0.177494 0.642558
          0.475228 0.212726 1.96844 0.385207 0.197499 1.95846
          0.383928 0.195509 1.93412 0.474586 0.213783 1.97551
          0.461908 0.207616 1.89904 0.399113 0.201668 1.96815
          0.383928 0.195509 1.93412 0.475228 0.212726 1.96844
          0.0649561 0.00117694 -0.133957 0.0660439 -0.0028024 -0.102152
          0.0130412 -0.00728572 -0.143159 0.0540416 -0.00937549 -0.175074
          0.632325 0.224004 1.75653 0.499489 0.20972 1.78754
          0.620367 0.233462 1.82271 0.616494 0.228263 1.82752
          0.183089 0.0573615 -0.895068 0.13282 0.0487597 -0.935717
          0.238684 0.0574548 -0.90005 0.130684 0.0586593 -0.849266
          0.0893929 -0.023841 -1.08672 0.0700022 -0.0189528 -1.04155
          0.111914 -0.0174845 -1.05123 0.118174 -0.0101753 -1.07335
          0.0700022 -0.0189528 -1.04155 0.00182079 -0.0183532 -0.985129
          0.0880873 -0.014668 -1.01073 0.0682129 -0.00638178 -1.0176
          0.0700022 -0.0189528 -1.04155 0.0880873 -0.014668 -1.01073
          0.118174 -0.0101753 -1.07335 0.0971336 -0.00259998 -1.06633
          0.147867 0.12399 0.215002 0.0887269 0.13043 0.360895
          0.257122 0.135619 0.303109 0.068297 0.121898 0.190096
          0.395929 0.200623 1.90057 0.523184 0.21308 1.90131
          0.454738 0.206806 1.89198 0.461807 0.207187 1.95549
          0.326886 0.131137 0.105877 0.198264 0.124889 0.070095
          0.177901 0.122751 0.105101 0.0824626 0.120069 0.102868
          0.208709 0.154096 0.550593 0.171797 0.154438 0.655168
          0.121136 0.145829 0.514661 0.339227 0.15615 0.491304
          0.0577682 -0.0281423 -1.02948 0.0389992 -0.0231358 -0.956961
          0.0880873 -0.014668 -1.01073 0.0700022 -0.0189528 -1.04155
          0.0700022 -0.0189528 -1.04155 0.0389992 -0.0231358 -0.956961
          0.0880873 -0.014668 -1.01073 0.00182079 -0.0183532 -0.985129
          0.160511 0.0789107 -0.595206 0.272319 0.0902591 -0.581238
          0.124865 0.0743217 -0.614662 0.244295 0.0843376 -0.648259
          0.16328 0.00682162 -1.12711 0.130874 -0.00297278 -1.10678
          0.145661 0.00531314 -1.11313 0.166462 0.00518771 -1.12544
          0.00286609 -0.009542 -0.984145 -0.00299887 0.00214633 -0.960482
          0.0682129 -0.00638178 -1.0176 0.0346219 0.00470713 -1.02314
          0.055218 -0.0096646 -0.961593 -0.00299887 0.00214633 -0.960482
          0.0682129 -0.00638178 -1.0176 0.00286609 -0.009542 -0.984145
          0.230411 0.202424 1.92573 0.301902 0.190563 2.02495
          0.317265 0.193703 1.98205 0.19858 0.209082 1.9791
          0.129918 -0.0092143 -1.0239 0.055218 -0.0096646 -0.961593
          0.0957739 -0.000896939 -1.02438 0.0682129 -0.00638178 -1.0176
          0.0682129 -0.00638178 -1.0176 0.129918 -0.0092143 -1.0239
          0.139782 -0.00357415 -1.07587 0.0957739 -0.000896939 -1.02438
          0.129918 -0.0092143 -1.0239 0.055218 -0.0096646 -0.961593
          0.0682129 -0.00638178 -1.0176 0.0880873 -0.014668 -1.01073
          -0.0185965 0.146966 0.68783 0.121136 0.145829 0.514661
          0.114131 0.153668 0.647563 0.171797 0.154438 0.655168
          -0.0185965 0.146966 0.68783 0.121136 0.145829 0.514661
          0.171797 0.154438 0.655168 -0.0284562 0.14066 0.608061
          -0.0185965 0.146966 0.68783 -0.0254253 0.13798 0.494116
          0.121136 0.145829 0.514661 -0.0284562 0.14066 0.608061
          -0.0167663 0.144702 0.598091 0.0687574 0.142446 0.463576
          0.121136 0.145829 0.514661 -0.0254253 0.13798 0.494116
          0.171435 0.0306672 -1.08531 0.217644 0.0373622 -1.05651
          0.157308 0.0350187 -1.04742 0.169675 0.0299189 -1.08729
          0.207944 0.034123 -1.08695 0.217644 0.0373622 -1.05651
          0.171435 0.0306672 -1.08531 0.196263 0.0293345 -1.09673
          0.247711 0.0274887 -1.06388 0.208914 0.0286063 -1.0707
          0.196263 0.0293345 -1.09673 0.207377 0.0208321 -1.10963
          0.247711 0.0274887 -1.06388 0.208914 0.0286063 -1.0707
          0.217644 0.0373622 -1.05651 0.196263 0.0293345 -1.09673
          0.208914 0.0286063 -1.0707 0.169675 0.0299189 -1.08729
          0.217644 0.0373622 -1.05651 0.196263 0.0293345 -1.09673
          0.208914 0.0286063 -1.0707 0.169675 0.0299189 -1.08729
          0.196263 0.0293345 -1.09673 0.186348 0.0218384 -1.10846
          0.208914 0.0286063 -1.0707 0.186348 0.0218384 -1.10846
          0.196263 0.0293345 -1.09673 0.207377 0.0208321 -1.10963
          0.208914 0.0286063 -1.0707 0.16577 0.0305277 -1.08499
          0.169675 0.0299189 -1.08729 0.186348 0.0218384 -1.10846
          0.208914 0.0286063 -1.0707 0.16577 0.0305277 -1.08499
          0.186348 0.0218384 -1.10846 0.196237 0.0163121 -1.0977
          0.208914 0.0286063 -1.0707 0.196237 0.0163121 -1.0977
          0.186348 0.0218384 -1.10846 0.23176 0.0157621 -1.09497
          0.149429 0.170536 1.21814 0.202133 0.177184 1.37992
          0.376293 0.185483 1.21542 0.261654 0.180809 1.21446
          0.149429 0.170536 1.21814 0.261654 0.180809 1.21446
          0.376293 0.185483 1.21542 0.170346 0.164995 1.04243
          0.237915 0.172735 1.23496 0.149429 0.170536 1.21814
          0.376293 0.185483 1.21542 0.170346 0.164995 1.04243
          0.237915 0.172735 1.23496 0.202133 0.177184 1.37992
          0.376293 0.185483 1.21542 0.149429 0.170536 1.21814
          0.237915 0.172735 1.23496 0.149429 0.170536 1.21814
          0.158586 0.163992 1.36561 0.202133 0.177184 1.37992
          0.237915 0.172735 1.23496 0.149429 0.170536 1.21814
          0.0112062 0.150211 1.24102 0.158586 0.163992 1.36561
          0.149429 0.170536 1.21814 0.0303563 0.162405 1.30879
          0.0112062 0.150211 1.24102 0.158586 0.163992 1.36561
          0.149429 0.170536 1.21814 0.0303563 0.162405 1.30879
          0.158586 0.163992 1.36561 0.202133 0.177184 1.37992
          0.172928 0.0182889 -1.13082 0.170804 0.0193801 -1.12604
          0.20182 0.0253005 -1.11961 0.187816 0.025274 -1.11521
          0.196263 0.0293345 -1.09673 0.170804 0.0193801 -1.12604
          0.187816 0.025274 -1.11521 0.20182 0.0253005 -1.11961
          -0.128471 -0.0186226 -0.507901 -0.125328 -0.0153589 -0.543652
          -0.0432089 -0.0131838 -0.487029 -0.0606808 -0.0122557 -0.560799
          -0.0382095 -0.0203499 -0.467039 -0.0454728 -0.0174241 -0.455721
          0.00229256 -0.0169905 -0.563079 -0.128471 -0.0186226 -0.507901
          -0.128471 -0.0186226 -0.507901 -0.133267 -0.0188305 -0.415527
          -0.0432089 -0.0131838 -0.487029 -0.125328 -0.0153589 -0.543652
          0.130684 0.0586593 -0.849266 0.158016 0.0603311 -0.849714
          0.257074 0.0669415 -0.796305 0.136757 0.0683191 -0.748962
          0.130684 0.0586593 -0.849266 0.238684 0.0574548 -0.90005
          0.257074 0.0669415 -0.796305 0.158016 0.0603311 -0.849714
          0.130684 0.0586593 -0.849266 0.13282 0.0487597 -0.935717
          0.238684 0.0574548 -0.90005 0.158016 0.0603311 -0.849714
          0.158016 0.0603311 -0.849714 0.130684 0.0586593 -0.849266
          0.13282 0.0487597 -0.935717 0.123689 0.0542317 -0.925889
          0.158016 0.0603311 -0.849714 0.0494826 0.052463 -0.910515
          0.130684 0.0586593 -0.849266 0.123689 0.0542317 -0.925889
          0.130684 0.0586593 -0.849266 0.0494826 0.052463 -0.910515
          0.13282 0.0487597 -0.935717 0.123689 0.0542317 -0.925889
          0.130684 0.0586593 -0.849266 0.0494826 0.052463 -0.910515
          0.0502769 0.0524165 -0.884212 0.13282 0.0487597 -0.935717
          0.203472 -0.0139074 -0.880859 0.188752 -0.0119074 -0.967376
          0.156523 -0.0152272 -0.89299 0.10775 -0.0136116 -0.885602
          0.203472 -0.0139074 -0.880859 0.188752 -0.0119074 -0.967376
          0.10775 -0.0136116 -0.885602 0.126494 -0.0116239 -0.962722
          0.203472 -0.0139074 -0.880859 0.260191 -0.011571 -0.929422
          0.156523 -0.0152272 -0.89299 0.188752 -0.0119074 -0.967376
          0.156523 -0.0152272 -0.89299 0.26285 -0.0130069 -0.876853
          0.260191 -0.011571 -0.929422 0.203472 -0.0139074 -0.880859
          0.553382 0.208726 1.55042 0.503551 0.201335 1.4564
          0.460626 0.203436 1.6395 0.35344 0.191337 1.57455
          0.503551 0.201335 1.4564 0.553382 0.208726 1.55042
          0.460626 0.203436 1.6395 0.540308 0.212462 1.59578
          0.503551 0.201335 1.4564 0.674729 0.22363 1.53837
          0.553382 0.208726 1.55042 0.540308 0.212462 1.59578
          0.674729 0.22363 1.53837 0.540308 0.212462 1.59578
          0.655136 0.228487 1.65267 0.553382 0.208726 1.55042
          0.674729 0.22363 1.53837 0.553382 0.208726 1.55042
          0.655136 0.228487 1.65267 0.666629 0.22252 1.59758
          0.674729 0.22363 1.53837 0.553382 0.208726 1.55042
          0.666629 0.22252 1.59758 0.690279 0.214152 1.44669
          0.18286 0.00239008 -1.10851 0.195749 -0.00968941 -1.11628
          0.179546 -0.00518367 -1.12862 0.153867 -0.00790509 -1.11263
          0.666629 0.22252 1.59758 0.553382 0.208726 1.55042
          0.655136 0.228487 1.65267 0.533951 0.211685 1.71521
          0.553382 0.208726 1.55042 0.540308 0.212462 1.59578
          0.655136 0.228487 1.65267 0.533951 0.211685 1.71521
          0.553382 0.208726 1.55042 0.460626 0.203436 1.6395
          0.540308 0.212462 1.59578 0.533951 0.211685 1.71521
          0.179546 -0.00518367 -1.12862 0.197806 0.00805325 -1.12213
          0.166462 0.00518771 -1.12544 0.157185 -0.00844997 -1.13379
          0 0 0 0 0 0
          0.0019014 -0.00258287 -0.0143042 -0.020548 -0.00832014 -0.0250458
          0 0 0 -0.020548 -0.00832014 -0.0250458
          0.0019014 -0.00258287 -0.0143042 -0.0126816 -0.00885974 -0.0401906
          -0.0126816 -0.00885974 -0.0401906 -0.0148586 -0.00274295 -0.0245388
          0 0 0 -0.020548 -0.00832014 -0.0250458
          0.0019014 -0.00258287 -0.0143042 -0.020548 -0.00832014 -0.0250458
          -0.0205164 -0.0113926 -0.024542 -0.0126816 -0.00885974 -0.0401906
          0.0019014 -0.00258287 -0.0143042 -0.020548 -0.00832014 -0.0250458
          -0.000539383 -0.000829893 0.000948014 -0.0205164 -0.0113926 -0.024542
          0.0019014 -0.00258287 -0.0143042 0 0 0
          -0.000539383 -0.000829893 0.000948014 -0.020548 -0.00832014 -0.0250458
          -0.020548 -0.00832014 -0.0250458 0 0 0
          -0.000539383 -0.000829893 0.000948014 -0.0205164 -0.0113926 -0.024542
          0 0 0 -0.0507192 -0.00677239 -0.00585858
          0 0 0 -0.020548 -0.00832014 -0.0250458
          0 0 0 -0.0507192 -0.00677239 -0.00585858
          -0.020548 -0.00832014 -0.0250458 -0.0485207 -0.00933978 -0.032129
          -0.0485207 -0.00933978 -0.032129 -0.0507192 -0.00677239 -0.00585858
          -0.020548 -0.00832014 -0.0250458 -0.0698807 -0.0189799 -0.0582118
          -0.020548 -0.00832014 -0.0250458 -0.0507192 -0.00677239 -0.00585858
          -0.0475923 -0.0145643 -0.0260409 -0.0698807 -0.0189799 -0.0582118
          -0.020548 -0.00832014 -0.0250458 -0.0698807 -0.0189799 -0.0582118
          -0.0475923 -0.0145643 -0.0260409 -0.0240264 -0.0123724 -0.0492764
          -0.020548 -0.00832014 -0.0250458 -0.0698807 -0.0189799 -0.0582118
          -0.0240264 -0.0123724 -0.0492764 -0.0382728 -0.0119119 -0.0861697
          0 0 0 -0.0507192 -0.00677239 -0.00585858
          -0.0475923 -0.0145643 -0.0260409 -0.020548 -0.00832014 -0.0250458
          0.317615 0.133859 0.0941603 0.445539 0.138683 0.0844741
          0.387406 0.143248 0.223329 0.326886 0.131137 0.105877
          0.0389992 -0.0231358 -0.956961 0.0102294 -0.0145549 -0.890416
          -0.0219125 -0.0217282 -0.941717 -0.0515571 -0.0303915 -0.88369
          0.0389992 -0.0231358 -0.956961 -0.000164951 -0.0258844 -0.847736
          0.0102294 -0.0145549 -0.890416 -0.0515571 -0.0303915 -0.88369
          0.0389992 -0.0231358 -0.956961 0.0555938 -0.0190831 -0.895268
          0.0102294 -0.0145549 -0.890416 -0.000164951 -0.0258844 -0.847736
          0.0555938 -0.0190831 -0.895268 0.055218 -0.0096646 -0.961593
          0.0389992 -0.0231358 -0.956961 0.0102294 -0.0145549 -0.890416
          0.0555938 -0.0190831 -0.895268 0.0102294 -0.0145549 -0.890416
          -0.000164951 -0.0258844 -0.847736 0.0127683 -0.0225709 -0.775399
          0.0555938 -0.0190831 -0.895268 0.00945855 -0.0154396 -0.791267
          0.0102294 -0.0145549 -0.890416 0.0127683 -0.0225709 -0.775399
          0.0102294 -0.0145549 -0.890416 0.00945855 -0.0154396 -0.791267
          -0.000164951 -0.0258844 -0.847736 0.0127683 -0.0225709 -0.775399
          0.0102294 -0.0145549 -0.890416 0.00945855 -0.0154396 -0.791267
          -0.0648303 -0.020364 -0.846966 -0.000164951 -0.0258844 -0.847736
          0.0102294 -0.0145549 -0.890416 -0.000164951 -0.0258844 -0.847736
          -0.0648303 -0.020364 -0.846966 -0.0515571 -0.0303915 -0.88369
          -0.0219125 -0.0217282 -0.941717 0.0102294 -0.0145549 -0.890416
          -0.0648303 -0.020364 -0.846966 -0.0515571 -0.0303915 -0.88369
          0.0102294 -0.0145549 -0.890416 -0.0648303 -0.020364 -0.846966
          -0.0280559 -0.012453 -0.9239 -0.0219125 -0.0217282 -0.941717
          0.208434 0.00138132 -1.11463 0.196237 0.0163121 -1.0977
          0.23176 0.0157621 -1.09497 0.180665 0.00439507 -1.12932
          0.40384 0.206217 1.66463 0.314828 0.197156 1.62844
          0.294959 0.204801 1.7903 0.273528 0.207587 1.68961
          0.108892 0.0931933 -0.375589 0.0804092 0.101522 -0.223941
          0.195518 0.107239 -0.222251 -0.0321081 0.0923879 -0.258256
          -0.0280559 -0.012453 -0.9239 -0.0557656 -0.0116304 -0.863214
          -0.0648303 -0.020364 -0.846966 0.0102294 -0.0145549 -0.890416
          -0.0280559 -0.012453 -0.9239 -0.033664 0.00291065 -0.906916
          -0.0557656 -0.0116304 -0.863214 0.0256823 -0.00354785 -0.929701
          0.695025 0.206879 1.43571 0.669866 0.212344 1.60442
          0.622191 0.203573 1.52752 0.542925 0.207163 1.63277
          0.622191 0.203573 1.52752 0.542925 0.207163 1.63277
          0.594527 0.204081 1.66253 0.472255 0.204702 1.63519
          0.498836 0.200919 1.48789 0.542925 0.207163 1.63277
          0.622191 0.203573 1.52752 0.472255 0.204702 1.63519
          0.12311 -0.0240496 -0.19082 0.173193 -0.0331804 -0.207257
          0.0991233 -0.0291402 -0.14598 0.0937305 -0.0266664 -0.206198
          -0.122119 -0.0235412 -0.572695 -0.0168768 -0.0233283 -0.525649
          0.00633645 -0.0199511 -0.543667 -0.0382095 -0.0203499 -0.467039
          0.311359 0.19366 2.00681 0.335164 0.204974 2.06627
          0.394078 0.205558 2.05199 0.343228 0.197767 2.10279
          0.123149 -0.0160708 -0.964579 0.10775 -0.0136116 -0.885602
          0.10091 -0.0208321 -0.887682 0.156523 -0.0152272 -0.89299
          0.123149 -0.0160708 -0.964579 0.156523 -0.0152272 -0.89299
          0.10091 -0.0208321 -0.887682 0.182197 -0.0121593 -0.958737
          0.123149 -0.0160708 -0.964579 0.10091 -0.0208321 -0.887682
          0.10098 -0.0230441 -0.930871 0.182197 -0.0121593 -0.958737
          0.182197 -0.0121593 -0.958737 0.16914 -0.0179375 -0.857877
          0.10091 -0.0208321 -0.887682 0.10098 -0.0230441 -0.930871
          0.182197 -0.0121593 -0.958737 0.16914 -0.0179375 -0.857877
          0.156523 -0.0152272 -0.89299 0.10091 -0.0208321 -0.887682
          0.10091 -0.0208321 -0.887682 0.117074 -0.0194202 -0.800314
          0.16914 -0.0179375 -0.857877 0.156523 -0.0152272 -0.89299
          0.0108537 -0.0216076 -0.447808 -0.0382095 -0.0203499 -0.467039
          0.0578659 -0.018722 -0.485896 0.00633645 -0.0199511 -0.543667
          0.472775 0.161158 0.475347 0.325688 0.148226 0.386022
          0.339227 0.15615 0.491304 0.424977 0.152818 0.338667
          0.318274 0.14137 0.291124 0.517372 0.152084 0.282314
          0.325688 0.148226 0.386022 0.345308 0.152407 0.481869
          0.24366 0.0311635 -1.03462 0.239659 0.0461789 -0.951595
          0.208244 0.0317288 -1.03781 0.253697 0.0323901 -0.985347
          0.141621 -0.0194922 -1.11645 0.139827 -0.00620229 -1.11706
          0.153867 -0.00790509 -1.11263 0.130043 -0.00557288 -1.10149
          0.139827 -0.00620229 -1.11706 0.126155 -0.0162538 -1.11475
          0.134934 -0.0107202 -1.12126 0.130874 -0.00297278 -1.10678
          0.253697 0.0323901 -0.985347 0.24366 0.0311635 -1.03462
          0.277479 0.0228469 -1.01923 0.208244 0.0317288 -1.03781
          0.270998 0.0410123 -0.998166 0.239659 0.0461789 -0.951595
          0.24366 0.0311635 -1.03462 0.253697 0.0323901 -0.985347
          0.183085 0.00551842 -1.13081 0.172442 0.00860304 -1.13067
          0.181922 0.0120482 -1.13884 0.175656 0.012652 -1.13595
          0.166518 0.00346835 -1.12287 0.16328 0.00682162 -1.12711
          0.158522 0.00273212 -1.11049 0.172442 0.00860304 -1.13067
          0.166518 0.00346835 -1.12287 0.172442 0.00860304 -1.13067
          0.183085 0.00551842 -1.13081 0.175656 0.012652 -1.13595
          0.183085 0.00551842 -1.13081 0.172442 0.00860304 -1.13067
          0.188423 0.00272913 -1.13564 0.181922 0.0120482 -1.13884
          -0.0126079 0.152453 0.828881 0.171797 0.154438 0.655168
          0.121709 0.163601 0.920525 0.224316 0.165267 0.860861
          0.0063197 0.158562 0.854408 0.16481 0.162741 0.781435
          0.121709 0.163601 0.920525 -0.0126079 0.152453 0.828881
          0.0071006 0.167298 1.0351 0.0063197 0.158562 0.854408
          0.121709 0.163601 0.920525 -0.000663582 0.160485 1.00411
          0.151547 0.002157 -1.08222 0.0957739 -0.000896939 -1.02438
          0.17137 -0.00547832 -1.04012 0.143934 -0.00495345 -1.0015
          0.151547 0.002157 -1.08222 0.0957739 -0.000896939 -1.02438
          0.143934 -0.00495345 -1.0015 0.136202 0.00593033 -1.04905
          0.143934 -0.00495345 -1.0015 0.129918 -0.0092143 -1.0239
          0.126494 -0.0116239 -0.962722 0.0957739 -0.000896939 -1.02438
          0.0957739 -0.000896939 -1.02438 0.126494 -0.0116239 -0.962722
          0.143934 -0.00495345 -1.0015 0.0922398 -0.00387143 -0.958975
          0.500108 0.0770506 -0.481701 0.411463 0.0864855 -0.395732
          0.530506 0.0929514 -0.325622 0.591099 0.0927801 -0.384602
          0.471473 0.100582 -0.394055 0.411463 0.0864855 -0.395732
          0.591099 0.0927801 -0.384602 0.530506 0.0929514 -0.325622
          0.190034 -0.00811258 -1.01657 0.185038 -0.0112891 -0.966454
          0.18506 -0.0112596 -0.943555 0.143934 -0.00495345 -1.0015
          0.190034 -0.00811258 -1.01657 0.143934 -0.00495345 -1.0015
          0.18506 -0.0112596 -0.943555 0.11213 0.00272844 -1.0007
          0.181637 0.0729893 -0.691136 0.24453 0.0708505 -0.80429
          0.30705 0.0854688 -0.699613 0.253788 0.0760074 -0.685864
          0.110453 -0.0208346 -0.375156 0.160769 -0.0155552 -0.394325
          0.230366 -0.0190663 -0.394513 0.15721 -0.0181165 -0.470608
          0.153858 -0.0236808 -0.156252 0.0934466 -0.0105912 -0.154028
          0.0675574 -0.0172296 -0.103565 0.13966 -0.00867676 -0.146496
          -0.0523907 0.129622 0.506003 -0.0497639 0.127401 0.409391
          0.0887269 0.13043 0.360895 -0.0584419 0.120704 0.269333
          0.0934466 -0.0105912 -0.154028 0.0607489 -0.00918772 -0.0791758
          0.0675574 -0.0172296 -0.103565 0.13966 -0.00867676 -0.146496
          0.0887269 0.13043 0.360895 -0.0497639 0.127401 0.409391
          0.113661 0.130721 0.288513 -0.0584419 0.120704 0.269333
          -0.0497639 0.127401 0.409391 -0.0418792 0.129004 0.391246
          0.113661 0.130721 0.288513 -0.0584419 0.120704 0.269333
          -0.0397156 0.136079 0.577023 0.0917604 0.139724 0.490675
          0.189242 0.142522 0.483109 -0.0523907 0.129622 0.506003
          0.141115 0.14885 0.667341 0.189242 0.142522 0.483109
          -0.0397156 0.136079 0.577023 0.0917604 0.139724 0.490675
          0.0917604 0.139724 0.490675 -0.0340695 0.132309 0.416224
          0.195943 0.145332 0.453197 -0.0418792 0.129004 0.391246
          -0.0284562 0.14066 0.608061 -0.0340695 0.132309 0.416224
          0.0917604 0.139724 0.490675 -0.0418792 0.129004 0.391246
          0.254887 0.168468 1.07544 0.170346 0.164995 1.04243
          0.364277 0.178104 1.03208 0.20704 0.159521 0.859824
          0.206569 0.161767 1.63429 0.0561909 0.158821 1.45466
          0.0458227 0.142413 1.4792 0.132312 0.154881 1.67008
          0.206569 0.161767 1.63429 0.0561909 0.158821 1.45466
          0.132312 0.154881 1.67008 0.0828364 0.169506 1.55691
          0.217421 0.188552 1.6753 0.206569 0.161767 1.63429
          0.132312 0.154881 1.67008 0.0828364 0.169506 1.55691
          0.206569 0.161767 1.63429 0.0828364 0.169506 1.55691
          0.217421 0.188552 1.6753 0.201068 0.185051 1.52316
          0.252819 0.174978 1.51462 0.206569 0.161767 1.63429
          0.217421 0.188552 1.6753 0.201068 0.185051 1.52316
          0.252819 0.174978 1.51462 0.0828364 0.169506 1.55691
          0.206569 0.161767 1.63429 0.201068 0.185051 1.52316
          0.252819 0.174978 1.51462 0.0561909 0.158821 1.45466
          0.206569 0.161767 1.63429 0.0828364 0.169506 1.55691
          0.0954567 0.0390706 -1.02908 0.133288 0.0434323 -0.997365
          0.0714426 0.0506437 -0.980392 0.13712 0.0459501 -1.00016
          0.0954567 0.0390706 -1.02908 0.157308 0.0350187 -1.04742
          0.133288 0.0434323 -0.997365 0.136467 0.0366424 -1.05661
          0.180506 0.0179277 -1.13799 0.168346 0.0243239 -1.1291
          0.171138 0.0116209 -1.12877 0.184175 0.0291497 -1.1415
          0.171138 0.0116209 -1.12877 0.168346 0.0243239 -1.1291
          0.191011 0.0101408 -1.14815 0.184175 0.0291497 -1.1415
          0.171138 0.0116209 -1.12877 0.171214 0.0112742 -1.12197
          0.191011 0.0101408 -1.14815 0.168346 0.0243239 -1.1291
          -0.0182043 -0.00505826 -0.712925 0.0185148 -0.0145913 -0.704614
          0.0251875 -0.00748686 -0.660161 -0.0323988 -0.0141205 -0.630091
          -0.0323988 -0.0141205 -0.630091 -0.0730244 -0.00840171 -0.641354
          0.0251875 -0.00748686 -0.660161 -0.0182043 -0.00505826 -0.712925
          0.325379 0.126608 -0.0892965 0.371903 0.120611 -0.274683
          0.48131 0.134091 -0.161167 0.465816 0.133938 -0.0723265
          0.465816 0.133938 -0.0723265 0.339176 0.123145 -0.0956363
          0.527923 0.13303 -0.0882344 0.445539 0.138683 0.0844741
          0.0108537 -0.0216076 -0.447808 -0.0538186 -0.0201853 -0.381395
          0.0509295 -0.0182737 -0.380621 -0.0382095 -0.0203499 -0.467039
          -0.0382095 -0.0203499 -0.467039 -0.052492 -0.0226985 -0.433246
          0.0108537 -0.0216076 -0.447808 -0.0538186 -0.0201853 -0.381395
          -0.052492 -0.0226985 -0.433246 0.0108537 -0.0216076 -0.447808
          -0.0168768 -0.0233283 -0.525649 -0.0382095 -0.0203499 -0.467039
          -0.0449147 -0.0230668 -0.390274 0.0470043 -0.0228191 -0.395565
          0.00554623 -0.0230099 -0.354419 0.0536057 -0.025715 -0.403315
          0.465816 0.133938 -0.0723265 0.371903 0.120611 -0.274683
          0.48131 0.134091 -0.161167 0.520384 0.12941 -0.212325
          -0.052492 -0.0226985 -0.433246 0.0665477 -0.0233217 -0.48275
          -0.0168768 -0.0233283 -0.525649 0.0108537 -0.0216076 -0.447808
          0.0845877 -0.0255065 -0.751434 0.0252257 -0.0287216 -0.667561
          0.0452458 -0.0243838 -0.718463 0.0289583 -0.0292126 -0.794661
          0.0452458 -0.0243838 -0.718463 0.0252257 -0.0287216 -0.667561
          0.0853681 -0.0229088 -0.641772 -0.0365529 -0.0262545 -0.615241
          0.0579845 0.00399531 -0.987319 -0.0194409 0.0113415 -0.926708
          -0.033664 0.00291065 -0.906916 0.0550265 0.00734161 -0.947155
          0.0579845 0.00399531 -0.987319 -0.0194409 0.0113415 -0.926708
          0.0550265 0.00734161 -0.947155 0.0508581 0.018267 -1.0146
          -0.00299887 0.00214633 -0.960482 -0.0194409 0.0113415 -0.926708
          0.0579845 0.00399531 -0.987319 0.0508581 0.018267 -1.0146
          0.0579845 0.00399531 -0.987319 -0.00299887 0.00214633 -0.960482
          0.0508581 0.018267 -1.0146 0.0435622 0.0159591 -1.03065
          0.124865 0.0743217 -0.614662 0.130594 0.0587253 -0.800895
          0.181637 0.0729893 -0.691136 0.0250515 0.0571414 -0.717461
          -0.00299887 0.00214633 -0.960482 -0.0194409 0.0113415 -0.926708
          -0.033664 0.00291065 -0.906916 0.0579845 0.00399531 -0.987319
          0.0922398 -0.00387143 -0.958975 0.0579845 0.00399531 -0.987319
          0.0550265 0.00734161 -0.947155 0.11213 0.00272844 -1.0007
          0.0922398 -0.00387143 -0.958975 0.0957739 -0.000896939 -1.02438
          0.0579845 0.00399531 -0.987319 0.11213 0.00272844 -1.0007
          0.055218 -0.0096646 -0.961593 0.0579845 0.00399531 -0.987319
          0.0922398 -0.00387143 -0.958975 0.0957739 -0.000896939 -1.02438
          0.0957739 -0.000896939 -1.02438 0.11213 0.00272844 -1.0007
          0.136202 0.00593033 -1.04905 0.0579845 0.00399531 -0.987319
          0.170346 0.164995 1.04243 -0.0194793 0.147898 0.977767
          -0.0131994 0.152042 0.931257 0.12317 0.154811 0.798318
          -0.0131994 0.152042 0.931257 0.224316 0.165267 0.860861
          0.170346 0.164995 1.04243 0.12317 0.154811 0.798318
          -0.0131994 0.152042 0.931257 -0.0126079 0.152453 0.828881
          0.12317 0.154811 0.798318 -0.0229897 0.146215 0.749164
          -0.0126079 0.152453 0.828881 0.171797 0.154438 0.655168
          0.12317 0.154811 0.798318 -0.0229897 0.146215 0.749164
          -0.0126079 0.152453 0.828881 0.171797 0.154438 0.655168
          0.224316 0.165267 0.860861 0.12317 0.154811 0.798318
          0.12317 0.154811 0.798318 0.224316 0.165267 0.860861
          0.311949 0.159912 0.662099 0.171797 0.154438 0.655168
          0.12317 0.154811 0.798318 0.311949 0.159912 0.662099
          0.224316 0.165267 0.860861 0.349722 0.170056 0.845586
          -0.0229897 0.146215 0.749164 -0.0284562 0.14066 0.608061
          0.171797 0.154438 0.655168 0.12317 0.154811 0.798318
          0.354887 0.191231 2.10335 0.388864 0.195535 2.04031
          0.268413 0.19547 2.02507 0.280936 0.193837 2.04554
          0.525444 0.0638031 -0.598024 0.432167 0.0766004 -0.589968
          0.564627 0.0850216 -0.517364 0.516255 0.0666313 -0.664582
          0.525444 0.0638031 -0.598024 0.500108 0.0770506 -0.481701
          0.564627 0.0850216 -0.517364 0.432167 0.0766004 -0.589968
          0.500108 0.0770506 -0.481701 0.368363 0.0880234 -0.492427
          0.564627 0.0850216 -0.517364 0.432167 0.0766004 -0.589968
          0.500108 0.0770506 -0.481701 0.411463 0.0864855 -0.395732
          0.368363 0.0880234 -0.492427 0.432167 0.0766004 -0.589968
          0.368363 0.0880234 -0.492427 0.27013 0.0773494 -0.610887
          0.351173 0.074105 -0.680571 0.432167 0.0766004 -0.589968
          0.182059 0.0298849 -1.13052 0.169031 0.0358445 -1.13262
          0.204545 0.0349354 -1.14484 0.185967 0.0478477 -1.12964
          0.182059 0.0298849 -1.13052 0.185967 0.0478477 -1.12964
          0.204545 0.0349354 -1.14484 0.228727 0.046858 -1.13087
          0.182059 0.0298849 -1.13052 0.169031 0.0358445 -1.13262
          0.184175 0.0291497 -1.1415 0.204545 0.0349354 -1.14484
          0.182059 0.0298849 -1.13052 0.184175 0.0291497 -1.1415
          0.180506 0.0179277 -1.13799 0.204545 0.0349354 -1.14484
          0.0660439 -0.0028024 -0.102152 0.0376237 0.00315363 -0.0667112
          0.00316235 -0.00774175 -0.084285 0.0112358 -0.00689671 -0.058432
          0.424977 0.152818 0.338667 0.339227 0.15615 0.491304
          0.389827 0.156966 0.411117 0.279769 0.140479 0.25432
          0.389827 0.156966 0.411117 0.394227 0.144542 0.157778
          0.424977 0.152818 0.338667 0.279769 0.140479 0.25432
          0.389827 0.156966 0.411117 0.394227 0.144542 0.157778
          0.49059 0.156432 0.291865 0.424977 0.152818 0.338667
          0.240259 0.0430863 -1.11282 0.228727 0.046858 -1.13087
          0.215453 0.0337856 -1.12044 0.218194 0.039635 -1.13003
          0.424977 0.152818 0.338667 0.49059 0.156432 0.291865
          0.615925 0.16858 0.39627 0.530358 0.152472 0.215311
          0.198031 0.0285388 -1.14317 0.205207 0.033256 -1.10889
          0.215453 0.0337856 -1.12044 0.218194 0.039635 -1.13003
          0.530358 0.152472 0.215311 0.517372 0.152084 0.282314
          0.710123 0.168797 0.351904 0.424977 0.152818 0.338667
          -0.0340695 0.132309 0.416224 0.119924 0.137646 0.352982
          0.195943 0.145332 0.453197 -0.0418792 0.129004 0.391246
          -0.0340695 0.132309 0.416224 -0.0391606 0.125046 0.285413
          0.119924 0.137646 0.352982 -0.0418792 0.129004 0.391246
          0.394227 0.144542 0.157778 0.530358 0.152472 0.215311
          0.49059 0.156432 0.291865 0.424977 0.152818 0.338667
          0.257413 0.0399649 -1.08953 0.25696 0.0301693 -1.08253
          0.290625 0.0440846 -1.07206 0.228412 0.0286129 -1.10666
          -0.0148586 -0.00274295 -0.0245388 -0.0144841 0.000148197 -0.0285603
          0 0 0 0 0 0
          -0.0144841 0.000148197 -0.0285603 0 0 0
          0 0 0 0 0 0
          -0.0144841 0.000148197 -0.0285603 -0.0496443 5.77154e-05 -0.00611242
          0 0 0 0 0 0
          -0.0144841 0.000148197 -0.0285603 -0.0496443 5.77154e-05 -0.00611242
          -0.0195698 0.00244057 -0.00847001 0 0 0
          -0.0144841 0.000148197 -0.0285603 -0.0195698 0.00244057 -0.00847001
          0.00714858 -0.00373127 -0.00222902 0 0 0
          0.00765813 -0.00792034 -0.0270135 -0.0144841 0.000148197 -0.0285603
          0.00714858 -0.00373127 -0.00222902 0 0 0
          -0.0144841 0.000148197 -0.0285603 0.00765813 -0.00792034 -0.0270135
          0 0 0 0 0 0
          -0.0594745 0.00179271 -0.0195266 -0.0496443 5.77154e-05 -0.00611242
          -0.0195698 0.00244057 -0.00847001 -0.0144841 0.000148197 -0.0285603
          -0.0547892 0.00314345 -0.0505998 -0.0594745 0.00179271 -0.0195266
          -0.0195698 0.00244057 -0.00847001 -0.0144841 0.000148197 -0.0285603
          0.348094 0.0296688 -0.936452 0.304318 0.0314598 -1.01045
          0.277479 0.0228469 -1.01923 0.328671 0.0418834 -0.942546
          0.267072 -0.0190794 -0.684281 0.178216 -0.0244722 -0.612851
          0.255679 -0.0244262 -0.591251 0.187251 -0.0208078 -0.643288
          0.267072 -0.0190794 -0.684281 0.187251 -0.0208078 -0.643288
          0.255679 -0.0244262 -0.591251 0.259363 -0.0222661 -0.561488
          0.187251 -0.0208078 -0.643288 0.178216 -0.0244722 -0.612851
          0.255679 -0.0244262 -0.591251 0.259363 -0.0222661 -0.561488
          0.16481 0.162741 0.781435 0.224316 0.165267 0.860861
          0.346798 0.170757 0.800478 0.299283 0.172557 0.858087
          0.16481 0.162741 0.781435 0.346798 0.170757 0.800478
          0.275032 0.163779 0.686588 0.299283 0.172557 0.858087
          0.16481 0.162741 0.781435 0.346798 0.170757 0.800478
          0.171797 0.154438 0.655168 0.275032 0.163779 0.686588
          0.16481 0.162741 0.781435 0.224316 0.165267 0.860861
          0.171797 0.154438 0.655168 0.346798 0.170757 0.800478
          0.171797 0.154438 0.655168 0.407349 0.167289 0.652838
          0.275032 0.163779 0.686588 0.346798 0.170757 0.800478
          0.275032 0.163779 0.686588 0.407349 0.167289 0.652838
          0.405571 0.173315 0.753173 0.346798 0.170757 0.800478
          0.275032 0.163779 0.686588 0.346798 0.170757 0.800478
          0.405571 0.173315 0.753173 0.299283 0.172557 0.858087
          0.346798 0.170757 0.800478 0.405571 0.173315 0.753173
          0.526269 0.182344 0.807915 0.407349 0.167289 0.652838
          -0.0365529 -0.0262545 -0.615241 -0.0331069 -0.0207408 -0.7108
          -0.111952 -0.0240078 -0.643506 0.0166565 -0.0213178 -0.651747
          0.160769 -0.0155552 -0.394325 0.140684 -0.013983 -0.516463
          0.156717 -0.00972851 -0.433933 0.251263 -0.0139785 -0.497885
          0.185038 -0.0112891 -0.966454 0.138454 -0.0082111 -0.93618
          0.18506 -0.0112596 -0.943555 0.143934 -0.00495345 -1.0015
          0.230366 -0.0190663 -0.394513 0.134253 -0.0150344 -0.313891
          0.225279 -0.013258 -0.37308 0.160769 -0.0155552 -0.394325
          0.36166 0.0661805 -0.870565 0.343916 0.0755584 -0.839382
          0.477897 0.0912087 -0.814626 0.438328 0.0812215 -0.897867
          0.16577 0.0305277 -1.08499 0.154597 0.0268177 -1.11213
          0.186348 0.0218384 -1.10846 0.164869 0.0206331 -1.12188
          0.16577 0.0305277 -1.08499 0.137762 0.0328383 -1.10196
          0.154597 0.0268177 -1.11213 0.164869 0.0206331 -1.12188
          0.16577 0.0305277 -1.08499 0.169675 0.0299189 -1.08729
          0.154597 0.0268177 -1.11213 0.137762 0.0328383 -1.10196
          0.16577 0.0305277 -1.08499 0.169675 0.0299189 -1.08729
          0.186348 0.0218384 -1.10846 0.154597 0.0268177 -1.11213
          0.186348 0.0218384 -1.10846 0.154597 0.0268177 -1.11213
          0.169675 0.0299189 -1.08729 0.170804 0.0193801 -1.12604
          0.164869 0.0206331 -1.12188 0.146472 0.0258741 -1.12314
          0.137762 0.0328383 -1.10196 0.154597 0.0268177 -1.11213
          0.146472 0.0258741 -1.12314 0.137762 0.0328383 -1.10196
          0.154597 0.0268177 -1.11213 0.123209 0.0351891 -1.10413
          0.146472 0.0258741 -1.12314 0.154597 0.0268177 -1.11213
          0.135998 0.0290872 -1.1078 0.123209 0.0351891 -1.10413
          0 0 0 0 0 0
          0.0277173 -0.0112998 -0.0430308 0.0222848 -0.00558348 -0.0278639
          0.0222848 -0.00558348 -0.0278639 0.0277173 -0.0112998 -0.0430308
          0.0356243 -0.0169741 -0.0342029 0 0 0
          0.17279 0.00720272 -1.12721 0.195515 0.00872119 -1.11504
          0.176707 0.00807449 -1.12962 0.184506 0.00171474 -1.10889
          0.135998 0.0290872 -1.1078 0.154597 0.0268177 -1.11213
          0.117393 0.0308707 -1.07992 0.123209 0.0351891 -1.10413
          0.154597 0.0268177 -1.11213 0.117393 0.0308707 -1.07992
          0.160153 0.0242505 -1.10792 0.135998 0.0290872 -1.1078
          0.154597 0.0268177 -1.11213 0.137762 0.0328383 -1.10196
          0.117393 0.0308707 -1.07992 0.123209 0.0351891 -1.10413
          0.154597 0.0268177 -1.11213 0.117393 0.0308707 -1.07992
          0.137762 0.0328383 -1.10196 0.121689 0.038873 -1.0749
          0.0358098 -0.0173367 -0.15829 -0.0482987 -0.0104118 -0.135516
          0.00486405 -0.0137133 -0.10608 -0.0171008 -0.0138017 -0.174494
          0.130594 0.0587253 -0.800895 0.130684 0.0586593 -0.849266
          0.185762 0.0662311 -0.795337 0.0220962 0.0587091 -0.743985
          0.185762 0.0662311 -0.795337 0.238684 0.0574548 -0.90005
          0.257074 0.0669415 -0.796305 0.130684 0.0586593 -0.849266
          0.130684 0.0586593 -0.849266 0.257074 0.0669415 -0.796305
          0.185762 0.0662311 -0.795337 0.136757 0.0683191 -0.748962
          0.185762 0.0662311 -0.795337 0.24453 0.0708505 -0.80429
          0.253788 0.0760074 -0.685864 0.257074 0.0669415 -0.796305
          0.253788 0.0760074 -0.685864 0.185762 0.0662311 -0.795337
          0.257074 0.0669415 -0.796305 0.136757 0.0683191 -0.748962
          0.183089 0.0573615 -0.895068 0.238684 0.0574548 -0.90005
          0.185762 0.0662311 -0.795337 0.130684 0.0586593 -0.849266
          0.183089 0.0573615 -0.895068 0.130684 0.0586593 -0.849266
          0.185762 0.0662311 -0.795337 0.130594 0.0587253 -0.800895
          0.12311 -0.0240496 -0.19082 0.0774893 -0.0166292 -0.179655
          0.0358098 -0.0173367 -0.15829 0.0675574 -0.0172296 -0.103565
          0.12311 -0.0240496 -0.19082 0.0358098 -0.0173367 -0.15829
          0.0991233 -0.0291402 -0.14598 0.0675574 -0.0172296 -0.103565
          0.0358098 -0.0173367 -0.15829 0.12311 -0.0240496 -0.19082
          0.0991233 -0.0291402 -0.14598 0.0937305 -0.0266664 -0.206198
          0.0374318 -0.0190485 -0.230557 0.0937305 -0.0266664 -0.206198
          0.12311 -0.0240496 -0.19082 0.0358098 -0.0173367 -0.15829
          0.0374318 -0.0190485 -0.230557 0.0358098 -0.0173367 -0.15829
          0.12311 -0.0240496 -0.19082 0.0774893 -0.0166292 -0.179655
          0.0358098 -0.0173367 -0.15829 0.0937305 -0.0266664 -0.206198
          0.0390515 -0.02144 -0.216222 0.0374318 -0.0190485 -0.230557
          0.153867 -0.00790509 -1.11263 0.197806 0.00805325 -1.12213
          0.166462 0.00518771 -1.12544 0.179546 -0.00518367 -1.12862
          0.555537 0.202478 1.4184 0.669866 0.212344 1.60442
          0.542925 0.207163 1.63277 0.491887 0.204341 1.55134
          0.197806 0.00805325 -1.12213 0.179546 -0.00518367 -1.12862
          0.180665 0.00439507 -1.12932 0.17471 0.0103553 -1.13275
          0.555537 0.202478 1.4184 0.690279 0.214152 1.44669
          0.669866 0.212344 1.60442 0.576437 0.21161 1.62788
          0.690279 0.214152 1.44669 0.666629 0.22252 1.59758
          0.669866 0.212344 1.60442 0.576437 0.21161 1.62788
          0.553382 0.208726 1.55042 0.576437 0.21161 1.62788
          0.41749 0.201144 1.6896 0.460626 0.203436 1.6395
          0.0975126 -0.0129236 -1.08417 0.118174 -0.0101753 -1.07335
          0.147967 -0.00385141 -1.1071 0.130874 -0.00297278 -1.10678
          0.0975126 -0.0129236 -1.08417 0.118174 -0.0101753 -1.07335
          0.130874 -0.00297278 -1.10678 0.0971336 -0.00259998 -1.06633
          0.0975126 -0.0129236 -1.08417 0.0971336 -0.00259998 -1.06633
          0.130874 -0.00297278 -1.10678 0.0811437 -0.0025162 -1.07377
          0.0975126 -0.0129236 -1.08417 0.130874 -0.00297278 -1.10678
          0.130043 -0.00557288 -1.10149 0.0811437 -0.0025162 -1.07377
          0.068297 0.121898 0.190096 -0.0584419 0.120704 0.269333
          0.0887269 0.13043 0.360895 0.113661 0.130721 0.288513
          0.068297 0.121898 0.190096 0.0887269 0.13043 0.360895
          0.257122 0.135619 0.303109 0.113661 0.130721 0.288513
          0.0887269 0.13043 0.360895 0.068297 0.121898 0.190096
          -0.0316434 0.123871 0.388691 -0.0584419 0.120704 0.269333
          0.068297 0.121898 0.190096 -0.0578161 0.11548 0.183378
          -0.0316434 0.123871 0.388691 -0.0584419 0.120704 0.269333
          0.068297 0.121898 0.190096 -0.0578161 0.11548 0.183378
          -0.0584419 0.120704 0.269333 -0.0655243 0.111919 0.0879617
          0.068297 0.121898 0.190096 -0.0655243 0.111919 0.0879617
          -0.0584419 0.120704 0.269333 -0.0565269 0.110644 0.0352962
          0.068297 0.121898 0.190096 -0.0578161 0.11548 0.183378
          -0.0655243 0.111919 0.0879617 0.0436386 0.112423 0.0435163
          0.0436386 0.112423 0.0435163 0.105133 0.110602 -0.0678035
          -0.0655243 0.111919 0.0879617 0.068297 0.121898 0.190096
          0.171435 0.0306672 -1.08531 0.157308 0.0350187 -1.04742
          0.117393 0.0308707 -1.07992 0.169675 0.0299189 -1.08729
          0.147967 -0.00385141 -1.1071 0.141749 -0.00792323 -1.10374
          0.145625 -0.00790975 -1.06445 0.118174 -0.0101753 -1.07335
          0.147967 -0.00385141 -1.1071 0.141749 -0.00792323 -1.10374
          0.173041 -0.00280863 -1.09202 0.145625 -0.00790975 -1.06445
          0.145625 -0.00790975 -1.06445 0.118174 -0.0101753 -1.07335
          0.141749 -0.00792323 -1.10374 0.111914 -0.0174845 -1.05123
          0.0700022 -0.0189528 -1.04155 0.00182079 -0.0183532 -0.985129
          0.0682129 -0.00638178 -1.0176 0.0348273 -0.00834823 -1.03009
          0.172442 0.00860304 -1.13067 0.180506 0.0179277 -1.13799
          0.171138 0.0116209 -1.12877 0.188423 0.00272913 -1.13564
          0.183085 0.00551842 -1.13081 0.158522 0.00273212 -1.11049
          0.177787 0.00281491 -1.11165 0.172442 0.00860304 -1.13067
          0.0700022 -0.0189528 -1.04155 0.00904144 -0.0242568 -1.0025
          0.00182079 -0.0183532 -0.985129 0.0348273 -0.00834823 -1.03009
          0.145625 -0.00790975 -1.06445 0.129918 -0.0092143 -1.0239
          0.139782 -0.00357415 -1.07587 0.118174 -0.0101753 -1.07335
          0.618914 0.118881 -0.360852 0.486593 0.117221 -0.379886
          0.432143 0.100045 -0.469631 0.492783 0.111952 -0.323366
          0.372631 0.0938046 -0.780209 0.29765 0.0780915 -0.862205
          0.421482 0.0973892 -0.84509 0.343916 0.0755584 -0.839382
          0.421482 0.0973892 -0.84509 0.29765 0.0780915 -0.862205
          0.351222 0.0854695 -0.909379 0.343916 0.0755584 -0.839382
          0.421482 0.0973892 -0.84509 0.343916 0.0755584 -0.839382
          0.351222 0.0854695 -0.909379 0.344774 0.0734123 -0.938354
          0.327877 0.110293 -0.24624 0.502812 0.120214 -0.176552
          0.409685 0.106138 -0.277549 0.492783 0.111952 -0.323366
          0.372631 0.0938046 -0.780209 0.421482 0.0973892 -0.84509
          0.421332 0.0907937 -0.716274 0.343916 0.0755584 -0.839382
          0.344774 0.0734123 -0.938354 0.44975 0.100469 -0.891684
          0.351222 0.0854695 -0.909379 0.421482 0.0973892 -0.84509
          0.438328 0.0812215 -0.897867 0.44975 0.100469 -0.891684
          0.344774 0.0734123 -0.938354 0.421482 0.0973892 -0.84509
          0.629611 0.117661 -0.264494 0.502812 0.120214 -0.176552
          0.646271 0.129887 -0.217498 0.492783 0.111952 -0.323366
          0.509731 0.207944 2.04718 0.50375 0.208821 2.11494
          0.522161 0.209032 2.11053 0.446707 0.199139 2.07562
          0.0758476 -0.0272059 -0.0749921 0.0441782 -0.0214942 -0.0490048
          0.0356243 -0.0169741 -0.0342029 0.0644315 -0.0164299 -0.0698736
          0.333011 0.0545899 -0.945405 0.230153 0.0452618 -0.998765
          0.278739 0.0589262 -0.949907 0.304287 0.0480379 -1.00984
          0.333011 0.0545899 -0.945405 0.270998 0.0410123 -0.998166
          0.230153 0.0452618 -0.998765 0.304287 0.0480379 -1.00984
          0.304287 0.0480379 -1.00984 0.377788 0.0443525 -0.963537
          0.333011 0.0545899 -0.945405 0.270998 0.0410123 -0.998166
          0.539956 0.186254 0.988245 0.368946 0.164907 0.841573
          0.361484 0.173451 1.00011 0.314863 0.163832 0.842115
          0.539956 0.186254 0.988245 0.368946 0.164907 0.841573
          0.314863 0.163832 0.842115 0.4665 0.174973 0.832093
          0.238844 0.162658 1.06277 0.314863 0.163832 0.842115
          0.361484 0.173451 1.00011 0.368946 0.164907 0.841573
          0.332843 0.0408597 -1.02195 0.304287 0.0480379 -1.00984
          0.267714 0.0382249 -1.05959 0.247711 0.0274887 -1.06388
          0.267714 0.0382249 -1.05959 0.304287 0.0480379 -1.00984
          0.217644 0.0373622 -1.05651 0.247711 0.0274887 -1.06388
          0.286476 0.052365 -1.03123 0.304287 0.0480379 -1.00984
          0.217644 0.0373622 -1.05651 0.267714 0.0382249 -1.05959
          0.286476 0.052365 -1.03123 0.304287 0.0480379 -1.00984
          0.230153 0.0452618 -0.998765 0.217644 0.0373622 -1.05651
          0.304287 0.0480379 -1.00984 0.230153 0.0452618 -0.998765
          0.278739 0.0589262 -0.949907 0.286476 0.052365 -1.03123
          0.304287 0.0480379 -1.00984 0.270998 0.0410123 -0.998166
          0.230153 0.0452618 -0.998765 0.217644 0.0373622 -1.05651
          0.304287 0.0480379 -1.00984 0.270998 0.0410123 -0.998166
          0.217644 0.0373622 -1.05651 0.247711 0.0274887 -1.06388
          0.238844 0.162658 1.06277 0.203415 0.152634 0.830437
          0.314863 0.163832 0.842115 0.368946 0.164907 0.841573
          0.24453 0.0708505 -0.80429 0.343916 0.0755584 -0.839382
          0.30705 0.0854688 -0.699613 0.336885 0.0784927 -0.737575
          0.279769 0.140479 0.25432 0.119924 0.137646 0.352982
          0.112681 0.128374 0.196126 0.206908 0.133411 0.224806
          0.0934466 -0.0105912 -0.154028 0.13966 -0.00867676 -0.146496
          0.145403 0.00751687 -0.157499 0.0660439 -0.0028024 -0.102152
          0.0934466 -0.0105912 -0.154028 0.0660439 -0.0028024 -0.102152
          0.145403 0.00751687 -0.157499 0.113962 -0.0013081 -0.194325
          0.349891 0.19974 1.53891 0.498836 0.200919 1.48789
          0.404649 0.196522 1.41683 0.382239 0.19942 1.44473
          0.113962 -0.0013081 -0.194325 0.113946 -0.0122499 -0.222739
          0.0934466 -0.0105912 -0.154028 0.0540416 -0.00937549 -0.175074
          0.153858 -0.0236808 -0.156252 0.0774893 -0.0166292 -0.179655
          0.0675574 -0.0172296 -0.103565 0.0934466 -0.0105912 -0.154028
          0.183089 0.0573615 -0.895068 0.185762 0.0662311 -0.795337
          0.24453 0.0708505 -0.80429 0.130594 0.0587253 -0.800895
          0.0934466 -0.0105912 -0.154028 0.0155697 -0.00945334 -0.0979218
          0.0675574 -0.0172296 -0.103565 0.0607489 -0.00918772 -0.0791758
          0.180506 0.0179277 -1.13799 0.152649 0.0237462 -1.12026
          0.184175 0.0291497 -1.1415 0.182059 0.0298849 -1.13052
          0.180506 0.0179277 -1.13799 0.168346 0.0243239 -1.1291
          0.184175 0.0291497 -1.1415 0.152649 0.0237462 -1.12026
          0.152649 0.0237462 -1.12026 0.171138 0.0116209 -1.12877
          0.180506 0.0179277 -1.13799 0.168346 0.0243239 -1.1291
          0.182059 0.0298849 -1.13052 0.152649 0.0237462 -1.12026
          0.173365 0.0162593 -1.12608 0.152229 0.0117325 -1.11972
          0.152229 0.0117325 -1.11972 0.152649 0.0237462 -1.12026
          0.173365 0.0162593 -1.12608 0.145661 0.00531314 -1.11313
          0.152229 0.0117325 -1.11972 0.118354 0.00659017 -1.09692
          0.152649 0.0237462 -1.12026 0.145661 0.00531314 -1.11313
          0.253552 -0.0181023 -0.513482 0.251263 -0.0139785 -0.497885
          0.183164 -0.0170671 -0.589371 0.15721 -0.0181165 -0.470608
          0.253552 -0.0181023 -0.513482 0.139282 -0.0208527 -0.568469
          0.152232 -0.0233181 -0.476973 0.15721 -0.0181165 -0.470608
          -0.0854006 -0.00804012 -0.75767 -0.0182043 -0.00505826 -0.712925
          0.0185148 -0.0145913 -0.704614 0.00753187 -0.00795808 -0.801634
          0.152649 0.0237462 -1.12026 0.140542 0.0445074 -1.11305
          0.143848 0.028966 -1.11295 0.169031 0.0358445 -1.13262
          0.152649 0.0237462 -1.12026 0.140542 0.0445074 -1.11305
          0.169031 0.0358445 -1.13262 0.165049 0.0352555 -1.11584
          0.207944 0.034123 -1.08695 0.20182 0.0253005 -1.11961
          0.215453 0.0337856 -1.12044 0.238887 0.0380659 -1.09393
          0.520411 0.143817 -0.00516023 0.666764 0.142636 -0.158079
          0.465816 0.133938 -0.0723265 0.48131 0.134091 -0.161167
          0.166462 0.00518771 -1.12544 0.139827 -0.00620229 -1.11706
          0.153 5.4393e-05 -1.12756 0.130874 -0.00297278 -1.10678
          0.130874 -0.00297278 -1.10678 0.139827 -0.00620229 -1.11706
          0.145661 0.00531314 -1.11313 0.166462 0.00518771 -1.12544
          0.130874 -0.00297278 -1.10678 0.130043 -0.00557288 -1.10149
          0.145661 0.00531314 -1.11313 0.139827 -0.00620229 -1.11706
          0.262477 -0.0189119 -0.593392 0.251263 -0.0139785 -0.497885
          0.183164 -0.0170671 -0.589371 0.253552 -0.0181023 -0.513482
          0.153867 -0.00790509 -1.11263 0.139827 -0.00620229 -1.11706
          0.157185 -0.00844997 -1.13379 0.166462 0.00518771 -1.12544
          0.157185 -0.00844997 -1.13379 0.139827 -0.00620229 -1.11706
          0.153 5.4393e-05 -1.12756 0.166462 0.00518771 -1.12544
          0.157185 -0.00844997 -1.13379 0.139827 -0.00620229 -1.11706
          0.134934 -0.0107202 -1.12126 0.153 5.4393e-05 -1.12756
          0.157185 -0.00844997 -1.13379 0.126155 -0.0162538 -1.11475
          0.134934 -0.0107202 -1.12126 0.139827 -0.00620229 -1.11706
          0.372622 0.0709968 -0.788346 0.238684 0.0574548 -0.90005
          0.257074 0.0669415 -0.796305 0.36166 0.0661805 -0.870565
          0.372622 0.0709968 -0.788346 0.3056 0.0562813 -0.888644
          0.238684 0.0574548 -0.90005 0.36166 0.0661805 -0.870565
          0.128655 0.112603 -0.0840872 0.237825 0.113705 -0.173142
          0.339176 0.123145 -0.0956363 0.195518 0.107239 -0.222251
          0.428379 0.0567763 -0.892945 0.36166 0.0661805 -0.870565
          0.44217 0.0557325 -0.843822 0.372622 0.0709968 -0.788346
          0.128655 0.112603 -0.0840872 0.130689 0.0951538 -0.354446
          0.237825 0.113705 -0.173142 0.195518 0.107239 -0.222251
          0.36166 0.0661805 -0.870565 0.428379 0.0567763 -0.892945
          0.3056 0.0562813 -0.888644 0.333011 0.0545899 -0.945405
          0.3056 0.0562813 -0.888644 0.333011 0.0545899 -0.945405
          0.278739 0.0589262 -0.949907 0.36166 0.0661805 -0.870565
          0.36166 0.0661805 -0.870565 0.3056 0.0562813 -0.888644
          0.238684 0.0574548 -0.90005 0.278739 0.0589262 -0.949907
          0.280415 0.0522078 -1.06675 0.290625 0.0440846 -1.07206
          0.320388 0.0571591 -1.04914 0.267714 0.0382249 -1.05959
          0.279769 0.140479 0.25432 0.119924 0.137646 0.352982
          0.206908 0.133411 0.224806 0.195943 0.145332 0.453197
          0.36166 0.0661805 -0.870565 0.428379 0.0567763 -0.892945
          0.333011 0.0545899 -0.945405 0.411928 0.066893 -0.924358
          0.36166 0.0661805 -0.870565 0.411928 0.066893 -0.924358
          0.344774 0.0734123 -0.938354 0.438328 0.0812215 -0.897867
          0.15297 -0.0190904 -0.707837 0.117877 -0.0213928 -0.722719
          0.0853681 -0.0229088 -0.641772 0.08759 -0.0181695 -0.700148
          0.15297 -0.0190904 -0.707837 0.117074 -0.0194202 -0.800314
          0.117877 -0.0213928 -0.722719 0.08759 -0.0181695 -0.700148
          0.26653 0.162067 1.64719 0.206569 0.161767 1.63429
          0.209269 0.143736 1.78898 0.301773 0.162762 1.76111
          -0.0365529 -0.0262545 -0.615241 -0.0538285 -0.0315591 -0.675075
          -0.103051 -0.02635 -0.700307 -0.0303082 -0.027155 -0.714006
          0.38689 0.188117 1.5561 0.395388 0.191512 1.71781
          0.540308 0.212462 1.59578 0.460626 0.203436 1.6395
          0.38689 0.188117 1.5561 0.35344 0.191337 1.57455
          0.395388 0.191512 1.71781 0.460626 0.203436 1.6395
          0.38689 0.188117 1.5561 0.35344 0.191337 1.57455
          0.299638 0.182033 1.71781 0.395388 0.191512 1.71781
          0.395388 0.191512 1.71781 0.38689 0.188117 1.5561
          0.26653 0.162067 1.64719 0.299638 0.182033 1.71781
          0.395388 0.191512 1.71781 0.35344 0.191337 1.57455
          0.299638 0.182033 1.71781 0.460626 0.203436 1.6395
          0.540308 0.212462 1.59578 0.460626 0.203436 1.6395
          0.395388 0.191512 1.71781 0.499489 0.20972 1.78754
          0.540308 0.212462 1.59578 0.395388 0.191512 1.71781
          0.458955 0.20145 1.7537 0.499489 0.20972 1.78754
          0.395388 0.191512 1.71781 0.371953 0.18296 1.69668
          0.540308 0.212462 1.59578 0.458955 0.20145 1.7537
          -0.126512 -0.0230097 -0.257693 -0.0513797 -0.0175883 -0.319843
          -0.088756 -0.0207238 -0.274965 -0.0284574 -0.0153834 -0.248114
          -0.0607624 -0.0176287 -0.188494 -0.0209055 -0.0143869 -0.281814
          -0.088756 -0.0207238 -0.274965 -0.0185362 -0.0123417 -0.194536
          -0.0607624 -0.0176287 -0.188494 -0.088756 -0.0207238 -0.274965
          -0.0885361 -0.0230579 -0.174972 -0.0185362 -0.0123417 -0.194536
          -0.0607624 -0.0176287 -0.188494 -0.0185362 -0.0123417 -0.194536
          -0.0885361 -0.0230579 -0.174972 -0.0423323 -0.0154299 -0.123609
          0.236272 -0.00297843 -1.01559 0.250899 -0.00758936 -0.953821
          0.201734 -0.00779991 -1.01235 0.188444 -0.00778189 -1.02334
          0.148357 -0.0229473 -0.694047 0.117877 -0.0213928 -0.722719
          0.0845877 -0.0255065 -0.751434 0.0252257 -0.0287216 -0.667561
          0.173041 -0.00280863 -1.09202 0.195515 0.00872119 -1.11504
          0.184506 0.00171474 -1.10889 0.216435 -0.000885015 -1.08431
          0.238887 0.0380659 -1.09393 0.207377 0.0208321 -1.10963
          0.249546 0.0280093 -1.08662 0.196263 0.0293345 -1.09673
          0.184506 0.00171474 -1.10889 0.173041 -0.00280863 -1.09202
          0.185334 -0.00195267 -1.08471 0.158522 0.00273212 -1.11049
          0.184506 0.00171474 -1.10889 0.216435 -0.000885015 -1.08431
          0.215759 -0.00416399 -1.10589 0.185334 -0.00195267 -1.08471
          0.197736 0.00453341 -1.11451 0.216435 -0.000885015 -1.08431
          0.215759 -0.00416399 -1.10589 0.184506 0.00171474 -1.10889
          0.184506 0.00171474 -1.10889 0.195515 0.00872119 -1.11504
          0.197736 0.00453341 -1.11451 0.216435 -0.000885015 -1.08431
          0.0256823 -0.00354785 -0.929701 -0.0584268 -0.00413948 -0.841123
          0.0547873 -0.00956248 -0.875966 0.00753187 -0.00795808 -0.801634
          0.0256823 -0.00354785 -0.929701 -0.00299887 0.00214633 -0.960482
          0.055218 -0.0096646 -0.961593 0.00286609 -0.009542 -0.984145
          0.0256823 -0.00354785 -0.929701 -0.00299887 0.00214633 -0.960482
          0.0579845 0.00399531 -0.987319 0.055218 -0.0096646 -0.961593
          0.0256823 -0.00354785 -0.929701 0.0579845 0.00399531 -0.987319
          0.0922398 -0.00387143 -0.958975 0.055218 -0.0096646 -0.961593
          0.0256823 -0.00354785 -0.929701 0.0579845 0.00399531 -0.987319
          0.0550265 0.00734161 -0.947155 0.0922398 -0.00387143 -0.958975
          0.0256823 -0.00354785 -0.929701 0.0550265 0.00734161 -0.947155
          0.0353563 0.00122208 -0.86422 0.0922398 -0.00387143 -0.958975
          0.128655 0.112603 -0.0840872 -0.0321081 0.0923879 -0.258256
          0.0804092 0.101522 -0.223941 -0.0481754 0.101567 -0.142666
          0.128655 0.112603 -0.0840872 0.0804092 0.101522 -0.223941
          0.195518 0.107239 -0.222251 0.13459 0.111976 -0.0718907
          0.338599 0.20772 1.64709 0.273528 0.207587 1.68961
          0.209804 0.207864 1.60977 0.300169 0.205092 1.53596
          0.338599 0.20772 1.64709 0.273528 0.207587 1.68961
          0.216007 0.215997 1.73409 0.209804 0.207864 1.60977
          0.209804 0.207864 1.60977 0.273528 0.207587 1.68961
          0.216007 0.215997 1.73409 0.120473 0.204398 1.65206
          0.209804 0.207864 1.60977 0.212652 0.196452 1.56397
          0.273528 0.207587 1.68961 0.120473 0.204398 1.65206
          0.273528 0.207587 1.68961 0.212652 0.196452 1.56397
          0.209804 0.207864 1.60977 0.300169 0.205092 1.53596
          0.0983943 0.103903 -0.1821 -0.061984 0.099625 -0.212676
          0.105133 0.110602 -0.0678035 0.0886722 0.0972271 -0.326607
          0.0512105 0.0999492 -0.292848 0.0886722 0.0972271 -0.326607
          -0.0517243 0.0947152 -0.329892 -0.061984 0.099625 -0.212676
          0.217421 0.188552 1.6753 0.0828364 0.169506 1.55691
          0.113519 0.179696 1.65371 0.201068 0.185051 1.52316
          0.217421 0.188552 1.6753 0.132312 0.154881 1.67008
          0.113519 0.179696 1.65371 0.0828364 0.169506 1.55691
          0.273528 0.207587 1.68961 0.294959 0.204801 1.7903
          0.216007 0.215997 1.73409 0.165846 0.208743 1.78842
          0.48037 0.206131 1.89605 0.42471 0.207458 1.83215
          0.528544 0.20717 1.83677 0.522544 0.209758 1.82278
          0.27592 0.0587676 -1.08134 0.240259 0.0430863 -1.11282
          0.280415 0.0522078 -1.06675 0.235505 0.0465084 -1.10819
          0.280415 0.0522078 -1.06675 0.240259 0.0430863 -1.11282
          0.238887 0.0380659 -1.09393 0.235505 0.0465084 -1.10819
          0.294977 0.0648741 -1.08627 0.347585 0.0741987 -1.04277
          0.320388 0.0571591 -1.04914 0.29089 0.05429 -1.08344
          0.160795 0.0354946 -1.04283 0.180739 0.0425605 -1.00764
          0.157308 0.0350187 -1.04742 0.173956 0.0310747 -1.07793
          0.173956 0.0310747 -1.07793 0.23471 0.0431356 -1.07046
          0.160795 0.0354946 -1.04283 0.180739 0.0425605 -1.00764
          0.173956 0.0310747 -1.07793 0.23471 0.0431356 -1.07046
          0.203025 0.040745 -1.06991 0.160795 0.0354946 -1.04283
          0.167174 0.0257106 -1.09011 0.173956 0.0310747 -1.07793
          0.203025 0.040745 -1.06991 0.160795 0.0354946 -1.04283
          0.167174 0.0257106 -1.09011 0.160795 0.0354946 -1.04283
          0.203025 0.040745 -1.06991 0.156445 0.0377303 -1.01497
          0.167174 0.0257106 -1.09011 0.120312 0.0189782 -1.0635
          0.160795 0.0354946 -1.04283 0.156445 0.0377303 -1.01497
          0.120312 0.0189782 -1.0635 0.160795 0.0354946 -1.04283
          0.156445 0.0377303 -1.01497 0.108319 0.0271842 -1.01937
          0.120312 0.0189782 -1.0635 0.104619 0.028198 -1.03143
          0.160795 0.0354946 -1.04283 0.108319 0.0271842 -1.01937
          0.108319 0.0271842 -1.01937 0.104619 0.028198 -1.03143
          0.160795 0.0354946 -1.04283 0.0930218 0.0316273 -0.984041
          0.108319 0.0271842 -1.01937 0.160795 0.0354946 -1.04283
          0.156445 0.0377303 -1.01497 0.0930218 0.0316273 -0.984041
          0.160795 0.0354946 -1.04283 0.24497 0.0543441 -1.03067
          0.203025 0.040745 -1.06991 0.156445 0.0377303 -1.01497
          0.24497 0.0543441 -1.03067 0.160795 0.0354946 -1.04283
          0.226725 0.0569851 -0.976381 0.156445 0.0377303 -1.01497
          0.24497 0.0543441 -1.03067 0.180739 0.0425605 -1.00764
          0.226725 0.0569851 -0.976381 0.160795 0.0354946 -1.04283
          0.245796 0.0542283 -1.01114 0.24497 0.0543441 -1.03067
          0.160795 0.0354946 -1.04283 0.180739 0.0425605 -1.00764
          0.23471 0.0431356 -1.07046 0.245796 0.0542283 -1.01114
          0.160795 0.0354946 -1.04283 0.180739 0.0425605 -1.00764
          0.23471 0.0431356 -1.07046 0.245796 0.0542283 -1.01114
          0.203025 0.040745 -1.06991 0.160795 0.0354946 -1.04283
          0.245796 0.0542283 -1.01114 0.24497 0.0543441 -1.03067
          0.203025 0.040745 -1.06991 0.160795 0.0354946 -1.04283
          0.299638 0.182033 1.71781 0.18332 0.150667 1.79197
          0.155598 0.132588 1.77496 0.269246 0.161112 1.88195
          0.299638 0.182033 1.71781 0.18332 0.150667 1.79197
          0.283203 0.18814 1.84313 0.217421 0.188552 1.6753
          0.299638 0.182033 1.71781 0.18332 0.150667 1.79197
          0.269246 0.161112 1.88195 0.283203 0.18814 1.84313
          0.299638 0.182033 1.71781 0.206569 0.161767 1.63429
          0.155598 0.132588 1.77496 0.18332 0.150667 1.79197
          0.299638 0.182033 1.71781 0.206569 0.161767 1.63429
          0.18332 0.150667 1.79197 0.132312 0.154881 1.67008
          0.351222 0.0854695 -0.909379 0.290634 0.0679208 -1.00623
          0.260874 0.0644344 -0.917065 0.226725 0.0569851 -0.976381
          0.108892 0.0931933 -0.375589 0.0886722 0.0972271 -0.326607
          0.17425 0.103817 -0.236551 0.0804092 0.101522 -0.223941
          0.600635 0.195125 1.0911 0.583709 0.197168 1.17371
          0.441927 0.190179 1.14735 0.509302 0.18922 1.04712
          0.583709 0.197168 1.17371 0.600635 0.195125 1.0911
          0.726014 0.199269 1.0235 0.509302 0.18922 1.04712
          0.113962 -0.0013081 -0.194325 0.145403 0.00751687 -0.157499
          0.143686 0.0124576 -0.177216 0.0649561 0.00117694 -0.133957
          0.0649561 0.00117694 -0.133957 0.0934466 -0.0105912 -0.154028
          0.0660439 -0.0028024 -0.102152 0.0540416 -0.00937549 -0.175074
          0.201734 -0.00779991 -1.01235 0.182197 -0.0121593 -0.958737
          0.165532 -0.00924211 -1.03094 0.148011 -0.0139621 -0.990689
          0.712817 0.175067 0.48361 0.710123 0.168797 0.351904
          0.578844 0.169726 0.498809 0.721043 0.181619 0.578553
          0.188444 -0.00778189 -1.02334 0.182197 -0.0121593 -0.958737
          0.201734 -0.00779991 -1.01235 0.148011 -0.0139621 -0.990689
          0.40147 0.202094 1.56307 0.349891 0.19974 1.53891
          0.40384 0.206217 1.66463 0.338599 0.20772 1.64709
          0.40384 0.206217 1.66463 0.349891 0.19974 1.53891
          0.273528 0.207587 1.68961 0.338599 0.20772 1.64709
          0.40384 0.206217 1.66463 0.349891 0.19974 1.53891
          0.314828 0.197156 1.62844 0.273528 0.207587 1.68961
          0.349891 0.19974 1.53891 0.212652 0.196452 1.56397
          0.314828 0.197156 1.62844 0.273528 0.207587 1.68961
          0.349891 0.19974 1.53891 0.212652 0.196452 1.56397
          0.273528 0.207587 1.68961 0.300169 0.205092 1.53596
          0.338599 0.20772 1.64709 0.349891 0.19974 1.53891
          0.273528 0.207587 1.68961 0.300169 0.205092 1.53596
          0.300169 0.205092 1.53596 0.245913 0.189513 1.4291
          0.349891 0.19974 1.53891 0.212652 0.196452 1.56397
          0.457526 0.215988 2.03787 0.474926 0.213993 2.03117
          0.404221 0.212756 2.07781 0.441118 0.216517 2.13214
          0.349891 0.19974 1.53891 0.245913 0.189513 1.4291
          0.314828 0.197156 1.62844 0.212652 0.196452 1.56397
          0.245913 0.189513 1.4291 0.37001 0.190326 1.4178
          0.349891 0.19974 1.53891 0.314828 0.197156 1.62844
          0.349891 0.19974 1.53891 0.37001 0.190326 1.4178
          0.35344 0.191337 1.57455 0.314828 0.197156 1.62844
          0.349891 0.19974 1.53891 0.35344 0.191337 1.57455
          0.491887 0.204341 1.55134 0.314828 0.197156 1.62844
          0.0971336 -0.00259998 -1.06633 0.0855231 0.00918058 -1.04601
          0.0682129 -0.00638178 -1.0176 0.118271 0.00736987 -1.08369
          0.506516 0.19332 1.21679 0.703544 0.206163 1.12416
          0.553202 0.194862 1.1531 0.641142 0.207467 1.26476
          0.553202 0.194862 1.1531 0.703544 0.206163 1.12416
          0.697242 0.21442 1.29245 0.641142 0.207467 1.26476
          0.0971336 -0.00259998 -1.06633 0.0346219 0.00470713 -1.02314
          0.0682129 -0.00638178 -1.0176 0.0855231 0.00918058 -1.04601
          0.553202 0.194862 1.1531 0.703544 0.206163 1.12416
          0.706821 0.206865 1.16605 0.697242 0.21442 1.29245
          0.553202 0.194862 1.1531 0.564165 0.19024 1.0193
          0.706821 0.206865 1.16605 0.703544 0.206163 1.12416
          0.553202 0.194862 1.1531 0.706821 0.206865 1.16605
          0.564165 0.19024 1.0193 0.551693 0.196169 1.18361
          0.0512105 0.0999492 -0.292848 -0.0630916 0.0986318 -0.295763
          -0.0517243 0.0947152 -0.329892 0.00586034 0.0936913 -0.408731
          0.114131 0.153668 0.647563 0.208709 0.154096 0.550593
          0.275032 0.163779 0.686588 0.171797 0.154438 0.655168
          0.00586034 0.0936913 -0.408731 0.0392936 0.0887872 -0.524484
          -0.0370501 0.0890911 -0.462169 0.147113 0.0900758 -0.449962
          0.00586034 0.0936913 -0.408731 -0.0370501 0.0890911 -0.462169
          0.0392936 0.0887872 -0.524484 -0.0296118 0.0834849 -0.573164
          0.404649 0.196522 1.41683 0.245913 0.189513 1.4291
          0.356278 0.194339 1.30124 0.374364 0.188654 1.22074
          0.404649 0.196522 1.41683 0.245913 0.189513 1.4291
          0.374364 0.188654 1.22074 0.261654 0.180809 1.21446
          0.229013 -0.0198355 -0.706495 0.267072 -0.0190794 -0.684281
          0.267952 -0.0171241 -0.761579 0.187251 -0.0208078 -0.643288
          0.229013 -0.0198355 -0.706495 0.267952 -0.0171241 -0.761579
          0.183531 -0.02037 -0.75319 0.187251 -0.0208078 -0.643288
          0.229013 -0.0198355 -0.706495 0.267952 -0.0171241 -0.761579
          0.233867 -0.0167969 -0.797427 0.183531 -0.02037 -0.75319
          0.525444 0.0638031 -0.598024 0.376632 0.0687973 -0.609731
          0.432167 0.0766004 -0.589968 0.402724 0.0628676 -0.720252
          0.525444 0.0638031 -0.598024 0.402724 0.0628676 -0.720252
          0.432167 0.0766004 -0.589968 0.516255 0.0666313 -0.664582
          0.185367 -0.0164986 -0.811141 0.15297 -0.0190904 -0.707837
          0.267952 -0.0171241 -0.761579 0.269312 -0.0158084 -0.790747
          0.402724 0.0628676 -0.720252 0.351173 0.074105 -0.680571
          0.432167 0.0766004 -0.589968 0.540798 0.0820835 -0.610499
          0.376632 0.0687973 -0.609731 0.351173 0.074105 -0.680571
          0.432167 0.0766004 -0.589968 0.402724 0.0628676 -0.720252
          0.187251 -0.0208078 -0.643288 0.267952 -0.0171241 -0.761579
          0.183531 -0.02037 -0.75319 0.15297 -0.0190904 -0.707837
          0.187251 -0.0208078 -0.643288 0.267072 -0.0190794 -0.684281
          0.267952 -0.0171241 -0.761579 0.15297 -0.0190904 -0.707837
          0.15297 -0.0190904 -0.707837 0.267072 -0.0190794 -0.684281
          0.267952 -0.0171241 -0.761579 0.269312 -0.0158084 -0.790747
          0.277729 0.0975518 -0.410816 0.416411 0.116529 -0.262841
          0.348836 0.102855 -0.459932 0.217546 0.0982124 -0.384524
          0.566235 0.187544 0.910491 0.505653 0.186408 0.974223
          0.726014 0.199269 1.0235 0.654031 0.187533 0.78162
          0.600635 0.195125 1.0911 0.505653 0.186408 0.974223
          0.726014 0.199269 1.0235 0.566235 0.187544 0.910491
          0.600635 0.195125 1.0911 0.566235 0.187544 0.910491
          0.726014 0.199269 1.0235 0.509302 0.18922 1.04712
          0.600635 0.195125 1.0911 0.505653 0.186408 0.974223
          0.566235 0.187544 0.910491 0.509302 0.18922 1.04712
          0.173799 0.0876068 -0.503416 0.188323 0.0883993 -0.510283
          0.217546 0.0982124 -0.384524 0.108892 0.0931933 -0.375589
          0.719557 0.200946 1.05157 0.509302 0.18922 1.04712
          0.726014 0.199269 1.0235 0.566235 0.187544 0.910491
          0.719557 0.200946 1.05157 0.566235 0.187544 0.910491
          0.726014 0.199269 1.0235 0.723765 0.196142 0.912449
          0.566235 0.187544 0.910491 0.477379 0.178653 0.833553
          0.716643 0.195296 0.903992 0.578245 0.183818 0.83647
          0.198264 0.124889 0.070095 0.317615 0.133859 0.0941603
          0.206908 0.133411 0.224806 0.387406 0.143248 0.223329
          0.183164 -0.0170671 -0.589371 0.26683 -0.0138364 -0.624716
          0.269356 -0.0163645 -0.701896 0.187113 -0.0166802 -0.683439
          0.183164 -0.0170671 -0.589371 0.26683 -0.0138364 -0.624716
          0.187113 -0.0166802 -0.683439 0.193335 -0.0140792 -0.680673
          0.118225 -0.016529 -0.643321 0.193335 -0.0140792 -0.680673
          0.183164 -0.0170671 -0.589371 0.187113 -0.0166802 -0.683439
          0.187113 -0.0166802 -0.683439 0.26683 -0.0138364 -0.624716
          0.269356 -0.0163645 -0.701896 0.193335 -0.0140792 -0.680673
          0.187113 -0.0166802 -0.683439 0.193335 -0.0140792 -0.680673
          0.269356 -0.0163645 -0.701896 0.274181 -0.0149544 -0.750283
          0.185367 -0.0164986 -0.811141 0.269356 -0.0163645 -0.701896
          0.187113 -0.0166802 -0.683439 0.15297 -0.0190904 -0.707837
          0.185367 -0.0164986 -0.811141 0.187113 -0.0166802 -0.683439
          0.187662 -0.015708 -0.769458 0.15297 -0.0190904 -0.707837
          0.185367 -0.0164986 -0.811141 0.269356 -0.0163645 -0.701896
          0.187662 -0.015708 -0.769458 0.187113 -0.0166802 -0.683439
          0.368133 0.0290652 -0.963905 0.304318 0.0314598 -1.01045
          0.315893 0.0269252 -1.03184 0.296311 0.00918623 -1.04173
          0.368133 0.0290652 -0.963905 0.377788 0.0443525 -0.963537
          0.315893 0.0269252 -1.03184 0.304318 0.0314598 -1.01045
          0.328671 0.0418834 -0.942546 0.377788 0.0443525 -0.963537
          0.368133 0.0290652 -0.963905 0.304318 0.0314598 -1.01045
          0.296311 0.00918623 -1.04173 0.304318 0.0314598 -1.01045
          0.315893 0.0269252 -1.03184 0.247711 0.0274887 -1.06388
          0.296311 0.00918623 -1.04173 0.304318 0.0314598 -1.01045
          0.247711 0.0274887 -1.06388 0.229005 0.0188687 -1.0652
          0.296311 0.00918623 -1.04173 0.277479 0.0228469 -1.01923
          0.304318 0.0314598 -1.01045 0.229005 0.0188687 -1.0652
          0.168965 -0.00515665 -1.0663 0.148011 -0.0139621 -0.990689
          0.121469 -0.0144557 -1.02135 0.112132 -0.0186334 -1.01051
          0.168965 -0.00515665 -1.0663 0.148011 -0.0139621 -0.990689
          0.145625 -0.00790975 -1.06445 0.121469 -0.0144557 -1.02135
          0.145625 -0.00790975 -1.06445 0.121469 -0.0144557 -1.02135
          0.129918 -0.0092143 -1.0239 0.118174 -0.0101753 -1.07335
          0.121469 -0.0144557 -1.02135 0.148011 -0.0139621 -0.990689
          0.123149 -0.0160708 -0.964579 0.112132 -0.0186334 -1.01051
          0.112132 -0.0186334 -1.01051 0.0662192 -0.0264858 -0.977787
          0.123149 -0.0160708 -0.964579 0.121469 -0.0144557 -1.02135
          0.237981 0.148473 0.653257 0.368946 0.164907 0.841573
          0.329965 0.158701 0.681063 0.314863 0.163832 0.842115
          0.475537 0.165971 0.715955 0.329965 0.158701 0.681063
          0.368946 0.164907 0.841573 0.314863 0.163832 0.842115
          0.475537 0.165971 0.715955 0.314863 0.163832 0.842115
          0.368946 0.164907 0.841573 0.542691 0.172558 0.701274
          0.475537 0.165971 0.715955 0.329965 0.158701 0.681063
          0.314863 0.163832 0.842115 0.542691 0.172558 0.701274
          0.542691 0.172558 0.701274 0.329965 0.158701 0.681063
          0.314863 0.163832 0.842115 0.4665 0.174973 0.832093
          0.542691 0.172558 0.701274 0.314863 0.163832 0.842115
          0.368946 0.164907 0.841573 0.4665 0.174973 0.832093
          0.329965 0.158701 0.681063 0.4665 0.174973 0.832093
          0.349722 0.170056 0.845586 0.314863 0.163832 0.842115
          0.329965 0.158701 0.681063 0.314863 0.163832 0.842115
          0.349722 0.170056 0.845586 0.20704 0.159521 0.859824
          0.264919 -0.0113372 -0.599053 0.258238 -0.0118763 -0.540991
          0.255812 -0.00763762 -0.52839 0.158713 -0.0124128 -0.593162
          0.264919 -0.0113372 -0.599053 0.158713 -0.0124128 -0.593162
          0.255812 -0.00763762 -0.52839 0.158259 -0.00736322 -0.539283
          0.264919 -0.0113372 -0.599053 0.158259 -0.00736322 -0.539283
          0.270067 -0.0114217 -0.652342 0.158713 -0.0124128 -0.593162
          0.193335 -0.0140792 -0.680673 0.264919 -0.0113372 -0.599053
          0.270067 -0.0114217 -0.652342 0.158713 -0.0124128 -0.593162
          0.193335 -0.0140792 -0.680673 0.158713 -0.0124128 -0.593162
          0.270067 -0.0114217 -0.652342 0.16105 -0.0100386 -0.662766
          0.158713 -0.0124128 -0.593162 0.158259 -0.00736322 -0.539283
          0.270067 -0.0114217 -0.652342 0.16105 -0.0100386 -0.662766
          0.158713 -0.0124128 -0.593162 0.140684 -0.013983 -0.516463
          0.255812 -0.00763762 -0.52839 0.158259 -0.00736322 -0.539283
          0.158713 -0.0124128 -0.593162 0.258238 -0.0118763 -0.540991
          0.255812 -0.00763762 -0.52839 0.140684 -0.013983 -0.516463
          0.317615 0.133859 0.0941603 0.339176 0.123145 -0.0956363
          0.445539 0.138683 0.0844741 0.326886 0.131137 0.105877
          0.501687 0.207959 1.94509 0.463114 0.205583 2.00861
          0.44968 0.200513 2.01221 0.452807 0.202837 1.95211
          0.603631 0.223803 1.88582 0.461908 0.207616 1.89904
          0.508874 0.214006 1.95539 0.523184 0.21308 1.90131
          0.198264 0.124889 0.070095 0.339176 0.123145 -0.0956363
          0.317615 0.133859 0.0941603 0.326886 0.131137 0.105877
          0.119924 0.137646 0.352982 -0.0342884 0.120438 0.180975
          0.112681 0.128374 0.196126 -0.0391606 0.125046 0.285413
          0.112681 0.128374 0.196126 0.119924 0.137646 0.352982
          -0.0391606 0.125046 0.285413 0.113661 0.130721 0.288513
          0.603631 0.223803 1.88582 0.59459 0.220233 1.95943
          0.523184 0.21308 1.90131 0.508874 0.214006 1.95539
          0.119924 0.137646 0.352982 0.195943 0.145332 0.453197
          -0.0418792 0.129004 0.391246 0.113661 0.130721 0.288513
          -0.0391606 0.125046 0.285413 0.119924 0.137646 0.352982
          -0.0418792 0.129004 0.391246 0.113661 0.130721 0.288513
          0.119924 0.137646 0.352982 0.211578 0.144846 0.361071
          0.339227 0.15615 0.491304 0.279769 0.140479 0.25432
          -0.0365595 -0.00573392 -0.0808166 -0.0117854 -0.00191015 -0.0371014
          -0.0320968 -0.00669586 -0.096908 0.0140221 -0.0136444 -0.0704409
          -0.0320968 -0.00669586 -0.096908 0.0140221 -0.0136444 -0.0704409
          0.00486405 -0.0137133 -0.10608 -0.0365595 -0.00573392 -0.0808166
          -0.0547892 0.00314345 -0.0505998 -0.0816843 -0.000652163 -0.0945631
          -0.0365595 -0.00573392 -0.0808166 -0.0320968 -0.00669586 -0.096908
          -0.0816843 -0.000652163 -0.0945631 -0.0365595 -0.00573392 -0.0808166
          -0.0320968 -0.00669586 -0.096908 -0.0482987 -0.0104118 -0.135516
          0.205167 -0.0060995 -1.09322 0.19541 -0.00381637 -1.08441
          0.237216 -0.0138459 -1.0667 0.224739 -0.0140598 -1.03468
          0.0127683 -0.0225709 -0.775399 -0.103051 -0.02635 -0.700307
          -0.0331069 -0.0207408 -0.7108 -0.0840805 -0.0231921 -0.77883
          0.330553 0.141912 0.420265 0.460286 0.156139 0.54136
          0.538118 0.159808 0.49707 0.333142 0.149548 0.503453
          0.258244 0.101278 -0.423532 0.148226 0.0946563 -0.382148
          0.11677 0.082158 -0.49828 0.130689 0.0951538 -0.354446
          0.187251 -0.0208078 -0.643288 0.178216 -0.0244722 -0.612851
          0.18615 -0.0263881 -0.527732 0.139282 -0.0208527 -0.568469
          0.16486 -0.0132007 -0.873521 0.209323 -0.0136238 -0.907578
          0.268345 -0.0141714 -0.849032 0.203472 -0.0139074 -0.880859
          0.209323 -0.0136238 -0.907578 0.203472 -0.0139074 -0.880859
          0.16486 -0.0132007 -0.873521 0.185038 -0.0112891 -0.966454
          0.61602 0.105454 -0.239155 0.530506 0.0929514 -0.325622
          0.409685 0.106138 -0.277549 0.591099 0.0927801 -0.384602
          0.16486 -0.0132007 -0.873521 0.105915 -0.00932992 -0.868497
          0.188761 -0.0117274 -0.865373 0.209323 -0.0136238 -0.907578
          0.261824 -0.0130019 -0.916534 0.203472 -0.0139074 -0.880859
          0.209323 -0.0136238 -0.907578 0.185038 -0.0112891 -0.966454
          0.209323 -0.0136238 -0.907578 0.261824 -0.0130019 -0.916534
          0.268345 -0.0141714 -0.849032 0.203472 -0.0139074 -0.880859
          0.261824 -0.0130019 -0.916534 0.270875 -0.0148438 -0.866727
          0.209323 -0.0136238 -0.907578 0.268345 -0.0141714 -0.849032
          0.209323 -0.0136238 -0.907578 0.261416 -0.0148291 -0.852965
          0.267997 -0.0182575 -0.926114 0.188761 -0.0117274 -0.865373
          0.438328 0.0812215 -0.897867 0.44975 0.100469 -0.891684
          0.421482 0.0973892 -0.84509 0.477897 0.0912087 -0.814626
          0.432326 0.0870368 -0.603389 0.432167 0.0766004 -0.589968
          0.564627 0.0850216 -0.517364 0.585277 0.0965456 -0.446988
          0.603846 0.108722 -0.404598 0.59157 0.110913 -0.485872
          0.575595 0.0982457 -0.520837 0.432143 0.100045 -0.469631
          0.575595 0.0982457 -0.520837 0.432143 0.100045 -0.469631
          0.585277 0.0965456 -0.446988 0.603846 0.108722 -0.404598
          0.572815 0.164404 0.469028 0.698744 0.164157 0.363125
          0.710123 0.168797 0.351904 0.712817 0.175067 0.48361
          0.712817 0.175067 0.48361 0.517372 0.152084 0.282314
          0.710123 0.168797 0.351904 0.572815 0.164404 0.469028
          0.572815 0.164404 0.469028 0.698744 0.164157 0.363125
          0.712817 0.175067 0.48361 0.709794 0.178071 0.568122
          0.564627 0.0850216 -0.517364 0.471473 0.100582 -0.394055
          0.591099 0.0927801 -0.384602 0.585277 0.0965456 -0.446988
          0.585277 0.0965456 -0.446988 0.432167 0.0766004 -0.589968
          0.564627 0.0850216 -0.517364 0.471473 0.100582 -0.394055
          0.432326 0.0870368 -0.603389 0.432167 0.0766004 -0.589968
          0.585277 0.0965456 -0.446988 0.471473 0.100582 -0.394055
          0.432326 0.0870368 -0.603389 0.471473 0.100582 -0.394055
          0.585277 0.0965456 -0.446988 0.432143 0.100045 -0.469631
          0.432326 0.0870368 -0.603389 0.368363 0.0880234 -0.492427
          0.471473 0.100582 -0.394055 0.432143 0.100045 -0.469631
          0.432326 0.0870368 -0.603389 0.432167 0.0766004 -0.589968
          0.471473 0.100582 -0.394055 0.368363 0.0880234 -0.492427
          0.471473 0.100582 -0.394055 0.432167 0.0766004 -0.589968
          0.564627 0.0850216 -0.517364 0.368363 0.0880234 -0.492427
          0.368363 0.0880234 -0.492427 0.277729 0.0975518 -0.410816
          0.471473 0.100582 -0.394055 0.432143 0.100045 -0.469631
          0.492783 0.111952 -0.323366 0.471473 0.100582 -0.394055
          0.277729 0.0975518 -0.410816 0.432143 0.100045 -0.469631
          0.432143 0.100045 -0.469631 0.492783 0.111952 -0.323366
          0.471473 0.100582 -0.394055 0.603846 0.108722 -0.404598
          0.432143 0.100045 -0.469631 0.471473 0.100582 -0.394055
          0.585277 0.0965456 -0.446988 0.603846 0.108722 -0.404598
          0.585277 0.0965456 -0.446988 0.471473 0.100582 -0.394055
          0.611773 0.105919 -0.341636 0.603846 0.108722 -0.404598
          0.585277 0.0965456 -0.446988 0.471473 0.100582 -0.394055
          0.591099 0.0927801 -0.384602 0.611773 0.105919 -0.341636
          0.61602 0.105454 -0.239155 0.471473 0.100582 -0.394055
          0.611773 0.105919 -0.341636 0.591099 0.0927801 -0.384602
          0.61602 0.105454 -0.239155 0.409685 0.106138 -0.277549
          0.471473 0.100582 -0.394055 0.591099 0.0927801 -0.384602
          0.61602 0.105454 -0.239155 0.409685 0.106138 -0.277549
          0.611773 0.105919 -0.341636 0.471473 0.100582 -0.394055
          0.409685 0.106138 -0.277549 0.502812 0.120214 -0.176552
          0.611773 0.105919 -0.341636 0.471473 0.100582 -0.394055
          0.471473 0.100582 -0.394055 0.502812 0.120214 -0.176552
          0.611773 0.105919 -0.341636 0.629611 0.117661 -0.264494
          0.471473 0.100582 -0.394055 0.629611 0.117661 -0.264494
          0.611773 0.105919 -0.341636 0.603846 0.108722 -0.404598
          0.492783 0.111952 -0.323366 0.629611 0.117661 -0.264494
          0.471473 0.100582 -0.394055 0.603846 0.108722 -0.404598
          0.492783 0.111952 -0.323366 0.502812 0.120214 -0.176552
          0.471473 0.100582 -0.394055 0.629611 0.117661 -0.264494
          0.156523 -0.0152272 -0.89299 0.26285 -0.0130069 -0.876853
          0.203472 -0.0139074 -0.880859 0.205372 -0.0163374 -0.830822
          0.16914 -0.0179375 -0.857877 0.221732 -0.0110052 -0.922852
          0.182197 -0.0121593 -0.958737 0.205372 -0.0163374 -0.830822
          0.117074 -0.0194202 -0.800314 0.15297 -0.0190904 -0.707837
          0.205372 -0.0163374 -0.830822 0.185367 -0.0164986 -0.811141
          0.16914 -0.0179375 -0.857877 0.117074 -0.0194202 -0.800314
          0.183531 -0.02037 -0.75319 0.205372 -0.0163374 -0.830822
          0.16914 -0.0179375 -0.857877 0.183531 -0.02037 -0.75319
          0.233867 -0.0167969 -0.797427 0.205372 -0.0163374 -0.830822
          0.16914 -0.0179375 -0.857877 0.205372 -0.0163374 -0.830822
          0.156523 -0.0152272 -0.89299 0.117074 -0.0194202 -0.800314
          0.553202 0.194862 1.1531 0.641142 0.207467 1.26476
          0.697242 0.21442 1.29245 0.552352 0.201884 1.33583
          0.506516 0.19332 1.21679 0.641142 0.207467 1.26476
          0.553202 0.194862 1.1531 0.552352 0.201884 1.33583
          0.473613 0.191655 1.24082 0.506516 0.19332 1.21679
          0.553202 0.194862 1.1531 0.552352 0.201884 1.33583
          0.205372 -0.0163374 -0.830822 0.185367 -0.0164986 -0.811141
          0.156523 -0.0152272 -0.89299 0.117074 -0.0194202 -0.800314
          0.388683 0.182205 1.28846 0.506516 0.19332 1.21679
          0.473613 0.191655 1.24082 0.552352 0.201884 1.33583
          0.388683 0.182205 1.28846 0.506516 0.19332 1.21679
          0.552352 0.201884 1.33583 0.491 0.196 1.34734
          0.506516 0.19332 1.21679 0.641142 0.207467 1.26476
          0.552352 0.201884 1.33583 0.491 0.196 1.34734
          0.552352 0.201884 1.33583 0.581837 0.210988 1.42249
          0.503551 0.201335 1.4564 0.465399 0.19799 1.51567
          0.0855231 0.00918058 -1.04601 0.11213 0.00272844 -1.0007
          0.136202 0.00593033 -1.04905 0.120011 0.0152541 -1.07142
          0.0855231 0.00918058 -1.04601 0.136202 0.00593033 -1.04905
          0.151547 0.002157 -1.08222 0.120011 0.0152541 -1.07142
          0.0957739 -0.000896939 -1.02438 0.136202 0.00593033 -1.04905
          0.151547 0.002157 -1.08222 0.0855231 0.00918058 -1.04601
          0.0957739 -0.000896939 -1.02438 0.0579845 0.00399531 -0.987319
          0.136202 0.00593033 -1.04905 0.0855231 0.00918058 -1.04601
          0.0346219 0.00470713 -1.02314 0.0579845 0.00399531 -0.987319
          0.0957739 -0.000896939 -1.02438 0.0855231 0.00918058 -1.04601
          0.0579845 0.00399531 -0.987319 0.11213 0.00272844 -1.0007
          0.136202 0.00593033 -1.04905 0.0855231 0.00918058 -1.04601
          0.0579845 0.00399531 -0.987319 0.0508581 0.018267 -1.0146
          0.11213 0.00272844 -1.0007 0.0855231 0.00918058 -1.04601
          0.162981 0.0702291 -0.700182 0.130594 0.0587253 -0.800895
          0.181637 0.0729893 -0.691136 0.124865 0.0743217 -0.614662
          0.124865 0.0743217 -0.614662 0.162981 0.0702291 -0.700182
          0.244295 0.0843376 -0.648259 0.181637 0.0729893 -0.691136
          0.124865 0.0743217 -0.614662 0.272319 0.0902591 -0.581238
          0.181637 0.0729893 -0.691136 0.244295 0.0843376 -0.648259
          -0.0365529 -0.0262545 -0.615241 -0.111952 -0.0240078 -0.643506
          -0.0443746 -0.0202338 -0.606738 0.0166565 -0.0213178 -0.651747
          0.160769 -0.0155552 -0.394325 0.156717 -0.00972851 -0.433933
          0.238356 -0.0109887 -0.42744 0.251263 -0.0139785 -0.497885
          0.157544 0.0198756 -1.12909 0.169372 0.0112354 -1.1349
          0.1666 0.0195752 -1.13536 0.154846 0.0182198 -1.12627
          0.157544 0.0198756 -1.12909 0.17471 0.0103553 -1.13275
          0.169372 0.0112354 -1.1349 0.170804 0.0193801 -1.12604
          0.146472 0.0258741 -1.12314 0.144416 0.0282204 -1.12747
          0.135998 0.0290872 -1.1078 0.157544 0.0198756 -1.12909
          0.146472 0.0258741 -1.12314 0.157544 0.0198756 -1.12909
          0.135998 0.0290872 -1.1078 0.154597 0.0268177 -1.11213
          0.157544 0.0198756 -1.12909 0.146472 0.0258741 -1.12314
          0.164869 0.0206331 -1.12188 0.154597 0.0268177 -1.11213
          -0.100392 -0.00592964 -0.151989 -0.11324 -0.0126841 -0.205618
          -0.0482987 -0.0104118 -0.135516 -0.0501823 -0.013834 -0.19697
          0.15796 0.017913 -1.13832 0.144416 0.0282204 -1.12747
          0.146472 0.0258741 -1.12314 0.157544 0.0198756 -1.12909
          0.00765813 -0.00792034 -0.0270135 0.00613925 -0.00568058 -0.0229973
          0 0 0 0.0277173 -0.0112998 -0.0430308
          0.00765813 -0.00792034 -0.0270135 0.00613925 -0.00568058 -0.0229973
          0 0 0 0 0 0
          0.15795 0.0127548 -1.12438 0.178948 0.0060033 -1.13028
          0.183178 0.00281344 -1.13408 0.181922 0.0120482 -1.13884
          0.516531 0.151569 0.353601 0.681499 0.15071 0.240111
          0.656898 0.14967 0.306036 0.54103 0.141297 0.259453
          0.54103 0.141297 0.259453 0.681499 0.15071 0.240111
          0.656898 0.14967 0.306036 0.564528 0.133583 0.140069
          0.260676 0.172941 1.9455 0.237285 0.155215 1.89136
          0.21495 0.157538 1.917 0.269246 0.161112 1.88195
          0.147001 0.139934 1.64599 0.0458227 0.142413 1.4792
          0.206569 0.161767 1.63429 0.172868 0.153489 1.50407
          0.147001 0.139934 1.64599 0.206569 0.161767 1.63429
          0.26653 0.162067 1.64719 0.172868 0.153489 1.50407
          -0.0443746 -0.0202338 -0.606738 0.0359931 -0.0179081 -0.637707
          -0.0323988 -0.0141205 -0.630091 0.00229256 -0.0169905 -0.563079
          0.169372 0.0112354 -1.1349 0.179579 0.0122846 -1.12692
          0.176707 0.00807449 -1.12962 0.17279 0.00720272 -1.12721
          0.172868 0.153489 1.50407 0.158586 0.163992 1.36561
          0.252819 0.174978 1.51462 0.294303 0.168015 1.52233
          0.172868 0.153489 1.50407 0.158586 0.163992 1.36561
          0.0561909 0.158821 1.45466 0.252819 0.174978 1.51462
          0.188323 0.0883993 -0.510283 0.147113 0.0900758 -0.449962
          0.277729 0.0975518 -0.410816 0.108892 0.0931933 -0.375589
          0.180739 0.0425605 -1.00764 0.1823 0.048595 -0.960625
          0.133288 0.0434323 -0.997365 0.230153 0.0452618 -0.998765
          0.180739 0.0425605 -1.00764 0.133288 0.0434323 -0.997365
          0.157308 0.0350187 -1.04742 0.230153 0.0452618 -0.998765
          0.157308 0.0350187 -1.04742 0.133288 0.0434323 -0.997365
          0.196052 0.0376533 -1.03505 0.230153 0.0452618 -0.998765
          0.133288 0.0434323 -0.997365 0.157308 0.0350187 -1.04742
          0.196052 0.0376533 -1.03505 0.136467 0.0366424 -1.05661
          0.13712 0.0459501 -1.00016 0.133288 0.0434323 -0.997365
          0.196052 0.0376533 -1.03505 0.136467 0.0366424 -1.05661
          0.196052 0.0376533 -1.03505 0.133288 0.0434323 -0.997365
          0.13712 0.0459501 -1.00016 0.1823 0.048595 -0.960625
          0.133288 0.0434323 -0.997365 0.1823 0.048595 -0.960625
          0.196052 0.0376533 -1.03505 0.230153 0.0452618 -0.998765
          0.133288 0.0434323 -0.997365 0.123689 0.0542317 -0.925889
          0.13712 0.0459501 -1.00016 0.1823 0.048595 -0.960625
          0.133288 0.0434323 -0.997365 0.13282 0.0487597 -0.935717
          0.123689 0.0542317 -0.925889 0.1823 0.048595 -0.960625
          0.133288 0.0434323 -0.997365 0.13282 0.0487597 -0.935717
          0.0494826 0.052463 -0.910515 0.123689 0.0542317 -0.925889
          0.133288 0.0434323 -0.997365 0.079169 0.0414585 -0.973045
          0.0494826 0.052463 -0.910515 0.13282 0.0487597 -0.935717
          0.0660439 -0.0028024 -0.102152 0.0376237 0.00315363 -0.0667112
          0.0915026 0.0116161 -0.076386 0.0761817 0.015298 -0.0967612
          0.0376237 0.00315363 -0.0667112 0.0660439 -0.0028024 -0.102152
          0.0649561 0.00117694 -0.133957 0.0761817 0.015298 -0.0967612
          0.424977 0.152818 0.338667 0.530358 0.152472 0.215311
          0.578844 0.169726 0.498809 0.710123 0.168797 0.351904
          0.424977 0.152818 0.338667 0.530358 0.152472 0.215311
          0.615925 0.16858 0.39627 0.578844 0.169726 0.498809
          0.578844 0.169726 0.498809 0.49059 0.156432 0.291865
          0.615925 0.16858 0.39627 0.424977 0.152818 0.338667
          0.389827 0.156966 0.411117 0.49059 0.156432 0.291865
          0.578844 0.169726 0.498809 0.424977 0.152818 0.338667
          0.578844 0.169726 0.498809 0.339227 0.15615 0.491304
          0.389827 0.156966 0.411117 0.424977 0.152818 0.338667
          0.389827 0.156966 0.411117 0.542112 0.173101 0.58157
          0.339227 0.15615 0.491304 0.578844 0.169726 0.498809
          0.389827 0.156966 0.411117 0.578844 0.169726 0.498809
          0.615925 0.16858 0.39627 0.542112 0.173101 0.58157
          0.389827 0.156966 0.411117 0.49059 0.156432 0.291865
          0.615925 0.16858 0.39627 0.578844 0.169726 0.498809
          0.339227 0.15615 0.491304 0.407349 0.167289 0.652838
          0.578844 0.169726 0.498809 0.542112 0.173101 0.58157
          0.578844 0.169726 0.498809 0.542112 0.173101 0.58157
          0.407349 0.167289 0.652838 0.576506 0.177642 0.668802
          0.578844 0.169726 0.498809 0.530358 0.152472 0.215311
          0.615925 0.16858 0.39627 0.710123 0.168797 0.351904
          0.578844 0.169726 0.498809 0.710123 0.168797 0.351904
          0.615925 0.16858 0.39627 0.721043 0.181619 0.578553
          0.238887 0.0380659 -1.09393 0.20182 0.0253005 -1.11961
          0.215453 0.0337856 -1.12044 0.228412 0.0286129 -1.10666
          0.238887 0.0380659 -1.09393 0.240259 0.0430863 -1.11282
          0.215453 0.0337856 -1.12044 0.235505 0.0465084 -1.10819
          0.240259 0.0430863 -1.11282 0.228727 0.046858 -1.13087
          0.204545 0.0286583 -1.12534 0.215453 0.0337856 -1.12044
          0.314863 0.163832 0.842115 0.112514 0.149711 0.813037
          0.329965 0.158701 0.681063 0.128366 0.144338 0.653264
          0.314863 0.163832 0.842115 0.20704 0.159521 0.859824
          0.329965 0.158701 0.681063 0.112514 0.149711 0.813037
          0.112514 0.149711 0.813037 0.20704 0.159521 0.859824
          0.329965 0.158701 0.681063 0.128366 0.144338 0.653264
          0.20704 0.159521 0.859824 0.112514 0.149711 0.813037
          0.141115 0.14885 0.667341 0.128366 0.144338 0.653264
          0.20704 0.159521 0.859824 0.12317 0.154811 0.798318
          0.141115 0.14885 0.667341 0.112514 0.149711 0.813037
          0.20704 0.159521 0.859824 0.12317 0.154811 0.798318
          0.112514 0.149711 0.813037 -0.0285253 0.143236 0.763847
          0.112514 0.149711 0.813037 0.12317 0.154811 0.798318
          0.141115 0.14885 0.667341 -0.0285253 0.143236 0.763847
          -0.0285253 0.143236 0.763847 0.141115 0.14885 0.667341
          0.112514 0.149711 0.813037 -0.0414189 0.136588 0.693819
          0.112514 0.149711 0.813037 -0.0414189 0.136588 0.693819
          0.141115 0.14885 0.667341 0.128366 0.144338 0.653264
          0.212652 0.196452 1.56397 0.217421 0.188552 1.6753
          0.133766 0.196158 1.68813 0.0960629 0.183963 1.57344
          0.212652 0.196452 1.56397 0.217421 0.188552 1.6753
          0.273528 0.207587 1.68961 0.133766 0.196158 1.68813
          0.294959 0.204801 1.7903 0.133766 0.196158 1.68813
          0.273528 0.207587 1.68961 0.217421 0.188552 1.6753
          0.294959 0.204801 1.7903 0.166313 0.182704 1.76022
          0.133766 0.196158 1.68813 0.217421 0.188552 1.6753
          0.123339 0.00193013 -0.276106 0.187575 0.00581802 -0.251084
          0.105195 -0.00802552 -0.266652 0.141866 -0.00647079 -0.337935
          0.123339 0.00193013 -0.276106 0.187575 0.00581802 -0.251084
          0.141866 -0.00647079 -0.337935 0.215795 0.00348826 -0.339919
          0.141866 -0.00647079 -0.337935 0.187575 0.00581802 -0.251084
          0.216657 -0.00509489 -0.339147 0.215795 0.00348826 -0.339919
          0.141866 -0.00647079 -0.337935 0.215795 0.00348826 -0.339919
          0.216657 -0.00509489 -0.339147 0.235265 -0.00558497 -0.411059
          0.509965 0.214157 2.04142 0.390222 0.200457 2.03097
          0.463114 0.205583 2.00861 0.461807 0.207187 1.95549
          0.509965 0.214157 2.04142 0.461807 0.207187 1.95549
          0.463114 0.205583 2.00861 0.59459 0.220233 1.95943
          0.141866 -0.00647079 -0.337935 0.134253 -0.0150344 -0.313891
          0.225279 -0.013258 -0.37308 0.216657 -0.00509489 -0.339147
          0.216657 -0.00509489 -0.339147 0.141866 -0.00647079 -0.337935
          0.134253 -0.0150344 -0.313891 0.201181 -0.00575203 -0.283796
          0.141866 -0.00647079 -0.337935 0.187575 0.00581802 -0.251084
          0.201181 -0.00575203 -0.283796 0.216657 -0.00509489 -0.339147
          0.105195 -0.00802552 -0.266652 0.187575 0.00581802 -0.251084
          0.201181 -0.00575203 -0.283796 0.141866 -0.00647079 -0.337935
          0.141866 -0.00647079 -0.337935 0.105195 -0.00802552 -0.266652
          0.134253 -0.0150344 -0.313891 0.201181 -0.00575203 -0.283796
          0.230411 0.202424 1.92573 0.234576 0.164884 1.9288
          0.272421 0.182674 1.91203 0.234576 0.164884 1.9288
          0.234576 0.164884 1.9288 0.230411 0.202424 1.92573
          0.272421 0.182674 1.91203 0.230411 0.202424 1.92573
          0.234576 0.164884 1.9288 0.230411 0.202424 1.92573
          0.282637 0.191383 1.93899 0.272421 0.182674 1.91203
          0.272421 0.182674 1.91203 0.282072 0.186107 1.95795
          0.282637 0.191383 1.93899 0.234576 0.164884 1.9288
          0.230411 0.202424 1.92573 0.282637 0.191383 1.93899
          0.272421 0.182674 1.91203 0.280536 0.198948 1.94003
          0.230411 0.202424 1.92573 0.280536 0.198948 1.94003
          0.272421 0.182674 1.91203 0.230411 0.202424 1.92573
          0.272421 0.182674 1.91203 0.280536 0.198948 1.94003
          0.315947 0.196592 1.90816 0.230411 0.202424 1.92573
          0.272421 0.182674 1.91203 0.282637 0.191383 1.93899
          0.315947 0.196592 1.90816 0.280536 0.198948 1.94003
          0.272421 0.182674 1.91203 0.283203 0.18814 1.84313
          0.387594 0.201059 1.81382 0.395929 0.200623 1.90057
          0.272421 0.182674 1.91203 0.283203 0.18814 1.84313
          0.395929 0.200623 1.90057 0.313847 0.186532 1.91649
          0.327201 0.179018 1.03886 0.224316 0.165267 0.860861
          0.121709 0.163601 0.920525 0.299283 0.172557 0.858087
          0.121709 0.163601 0.920525 0.16481 0.162741 0.781435
          0.299283 0.172557 0.858087 0.224316 0.165267 0.860861
          0.121709 0.163601 0.920525 0.171797 0.154438 0.655168
          0.16481 0.162741 0.781435 0.224316 0.165267 0.860861
          -0.0126079 0.152453 0.828881 0.171797 0.154438 0.655168
          0.16481 0.162741 0.781435 0.121709 0.163601 0.920525
          0.138201 0.169455 0.956597 0.16481 0.162741 0.781435
          0.299283 0.172557 0.858087 0.121709 0.163601 0.920525
          0.121709 0.163601 0.920525 0.138201 0.169455 0.956597
          0.285644 0.179109 1.01471 0.299283 0.172557 0.858087
          0.138201 0.169455 0.956597 0.285644 0.179109 1.01471
          0.163265 0.169482 1.05637 0.121709 0.163601 0.920525
          0.138201 0.169455 0.956597 0.163265 0.169482 1.05637
          0.166401 0.179047 1.13145 0.121709 0.163601 0.920525
          0.167692 0.00789246 -1.13227 0.19375 -0.00246694 -1.13874
          0.18229 0.00818924 -1.14588 0.183178 0.00281344 -1.13408
          -0.0523907 0.129622 0.506003 0.0917604 0.139724 0.490675
          0.189242 0.142522 0.483109 -0.0497639 0.127401 0.409391
          0.0887269 0.13043 0.360895 -0.0497639 0.127401 0.409391
          0.189242 0.142522 0.483109 0.113661 0.130721 0.288513
          0.657557 0.130487 -0.0379752 0.673207 0.140736 0.00567184
          0.502812 0.120214 -0.176552 0.500981 0.133764 0.025035
          0.563634 0.119736 -0.0221902 0.484097 0.122155 -0.0630469
          0.658278 0.133014 0.0473313 0.640593 0.118159 -0.0977819
          0.521873 0.106124 -0.181104 0.640593 0.118159 -0.0977819
          0.484097 0.122155 -0.0630469 0.563634 0.119736 -0.0221902
          0.521873 0.106124 -0.181104 0.640593 0.118159 -0.0977819
          0.61602 0.105454 -0.239155 0.637193 0.117486 -0.179374
          0.521873 0.106124 -0.181104 0.637193 0.117486 -0.179374
          0.484097 0.122155 -0.0630469 0.640593 0.118159 -0.0977819
          0.640593 0.118159 -0.0977819 0.484097 0.122155 -0.0630469
          0.657557 0.130487 -0.0379752 0.637193 0.117486 -0.179374
          0.640593 0.118159 -0.0977819 0.484097 0.122155 -0.0630469
          0.658278 0.133014 0.0473313 0.657557 0.130487 -0.0379752
          0.0484699 -0.0108675 -0.030091 0.0277173 -0.0112998 -0.0430308
          0.0802511 -0.012505 -0.0646586 0.0356243 -0.0169741 -0.0342029
          0.109537 -0.0163913 -0.0963933 0.0607489 -0.00918772 -0.0791758
          0.0802511 -0.012505 -0.0646586 0.103863 -0.00388894 -0.0944656
          0.125349 -0.031823 -0.104373 0.0675574 -0.0172296 -0.103565
          0.111257 -0.0260218 -0.0822399 0.153858 -0.0236808 -0.156252
          -0.0126816 -0.00885974 -0.0401906 -0.0240264 -0.0123724 -0.0492764
          -0.0205164 -0.0113926 -0.024542 -0.00286052 -0.00389357 -0.0426216
          0.0920557 -0.0255886 -0.845827 0.117074 -0.0194202 -0.800314
          0.0708915 -0.0190248 -0.830437 0.0289583 -0.0292126 -0.794661
          -0.0538186 -0.0201853 -0.381395 -0.0161619 -0.0175454 -0.372721
          -0.0382095 -0.0203499 -0.467039 -0.0454728 -0.0174241 -0.455721
          -0.130573 -0.0210149 -0.461085 -0.0538186 -0.0201853 -0.381395
          -0.0382095 -0.0203499 -0.467039 -0.0454728 -0.0174241 -0.455721
          -0.130573 -0.0210149 -0.461085 -0.0161619 -0.0175454 -0.372721
          -0.0538186 -0.0201853 -0.381395 -0.0454728 -0.0174241 -0.455721
          -0.0538186 -0.0201853 -0.381395 -0.132434 -0.021604 -0.332616
          -0.128186 -0.0211097 -0.310567 -0.0161619 -0.0175454 -0.372721
          -0.0284562 0.14066 0.608061 -0.0340695 0.132309 0.416224
          0.121136 0.145829 0.514661 0.0917604 0.139724 0.490675
          0.0682129 -0.00638178 -1.0176 0.055218 -0.0096646 -0.961593
          0.00286609 -0.009542 -0.984145 0.00182079 -0.0183532 -0.985129
          0.158522 0.00273212 -1.11049 0.152229 0.0117325 -1.11972
          0.171138 0.0116209 -1.12877 0.172442 0.00860304 -1.13067
          0.158522 0.00273212 -1.11049 0.152229 0.0117325 -1.11972
          0.172442 0.00860304 -1.13067 0.16328 0.00682162 -1.12711
          0.172442 0.00860304 -1.13067 0.152229 0.0117325 -1.11972
          0.180506 0.0179277 -1.13799 0.16328 0.00682162 -1.12711
          0.172442 0.00860304 -1.13067 0.16328 0.00682162 -1.12711
          0.180506 0.0179277 -1.13799 0.180128 0.0144698 -1.13421
          0.172442 0.00860304 -1.13067 0.180506 0.0179277 -1.13799
          0.181922 0.0120482 -1.13884 0.180128 0.0144698 -1.13421
          0.175656 0.012652 -1.13595 0.172442 0.00860304 -1.13067
          0.181922 0.0120482 -1.13884 0.180128 0.0144698 -1.13421
          0.175656 0.012652 -1.13595 0.16328 0.00682162 -1.12711
          0.172442 0.00860304 -1.13067 0.180128 0.0144698 -1.13421
          0.172442 0.00860304 -1.13067 0.180506 0.0179277 -1.13799
          0.188423 0.00272913 -1.13564 0.181922 0.0120482 -1.13884
          0.301773 0.162762 1.76111 0.299638 0.182033 1.71781
          0.209269 0.143736 1.78898 0.269246 0.161112 1.88195
          0.373718 0.18894 1.83094 0.269246 0.161112 1.88195
          0.299638 0.182033 1.71781 0.301773 0.162762 1.76111
          0.371953 0.18296 1.69668 0.395388 0.191512 1.71781
          0.26653 0.162067 1.64719 0.301773 0.162762 1.76111
          0.416411 0.116529 -0.262841 0.646271 0.129887 -0.217498
          0.520384 0.12941 -0.212325 0.527923 0.13303 -0.0882344
          0.646271 0.129887 -0.217498 0.416411 0.116529 -0.262841
          0.520384 0.12941 -0.212325 0.492783 0.111952 -0.323366
          0.646271 0.129887 -0.217498 0.520384 0.12941 -0.212325
          0.486593 0.117221 -0.379886 0.492783 0.111952 -0.323366
          0.646271 0.129887 -0.217498 0.520384 0.12941 -0.212325
          0.64488 0.133423 -0.290885 0.486593 0.117221 -0.379886
          0.520384 0.12941 -0.212325 0.64488 0.133423 -0.290885
          0.666764 0.142636 -0.158079 0.646271 0.129887 -0.217498
          0.520384 0.12941 -0.212325 0.646271 0.129887 -0.217498
          0.666764 0.142636 -0.158079 0.527923 0.13303 -0.0882344
          0.293607 0.171942 1.3809 0.236193 0.163352 1.23858
          0.158586 0.163992 1.36561 0.347512 0.182185 1.38557
          0.520384 0.12941 -0.212325 0.600665 0.140251 -0.22772
          0.666764 0.142636 -0.158079 0.64488 0.133423 -0.290885
          0.600665 0.140251 -0.22772 0.486593 0.117221 -0.379886
          0.64488 0.133423 -0.290885 0.520384 0.12941 -0.212325
          0.486593 0.117221 -0.379886 0.600665 0.140251 -0.22772
          0.457237 0.119913 -0.42142 0.520384 0.12941 -0.212325
          0.486593 0.117221 -0.379886 0.520384 0.12941 -0.212325
          0.457237 0.119913 -0.42142 0.371903 0.120611 -0.274683
          0.371903 0.120611 -0.274683 0.486593 0.117221 -0.379886
          0.520384 0.12941 -0.212325 0.416411 0.116529 -0.262841
          0.520384 0.12941 -0.212325 0.416411 0.116529 -0.262841
          0.486593 0.117221 -0.379886 0.492783 0.111952 -0.323366
          0.520384 0.12941 -0.212325 0.600665 0.140251 -0.22772
          0.457237 0.119913 -0.42142 0.371903 0.120611 -0.274683
          0.371903 0.120611 -0.274683 0.600665 0.140251 -0.22772
          0.48131 0.134091 -0.161167 0.520384 0.12941 -0.212325
          0.3056 0.0562813 -0.888644 0.283765 0.0410843 -0.917892
          0.328671 0.0418834 -0.942546 0.363754 0.0521145 -0.84867
          0.363754 0.0521145 -0.84867 0.283765 0.0410843 -0.917892
          0.268148 0.05214 -0.841647 0.233984 0.0560029 -0.869098
          0.358861 0.0430357 -0.850377 0.317734 0.059831 -0.79408
          0.344425 0.0532901 -0.764546 0.363754 0.0521145 -0.84867
          0.358861 0.0430357 -0.850377 0.363754 0.0521145 -0.84867
          0.268148 0.05214 -0.841647 0.317734 0.059831 -0.79408
          0.461807 0.207187 1.95549 0.463114 0.205583 2.00861
          0.501687 0.207959 1.94509 0.39061 0.201088 1.94817
          0.109161 0.0700203 -0.752531 0.10116 0.0650096 -0.847493
          0.0247339 0.0644325 -0.803147 0.158016 0.0603311 -0.849714
          0.181922 0.0120482 -1.13884 0.180506 0.0179277 -1.13799
          0.191011 0.0101408 -1.14815 0.193758 0.0212416 -1.1506
          0.180506 0.0179277 -1.13799 0.171138 0.0116209 -1.12877
          0.191011 0.0101408 -1.14815 0.193758 0.0212416 -1.1506
          0.180506 0.0179277 -1.13799 0.171138 0.0116209 -1.12877
          0.193758 0.0212416 -1.1506 0.184175 0.0291497 -1.1415
          0.204545 0.0349354 -1.14484 0.184175 0.0291497 -1.1415
          0.180506 0.0179277 -1.13799 0.193758 0.0212416 -1.1506
          0.193758 0.0212416 -1.1506 0.171138 0.0116209 -1.12877
          0.191011 0.0101408 -1.14815 0.184175 0.0291497 -1.1415
          0.387594 0.201059 1.81382 0.299638 0.182033 1.71781
          0.283203 0.18814 1.84313 0.320545 0.196448 1.74209
          0.387594 0.201059 1.81382 0.283203 0.18814 1.84313
          0.294959 0.204801 1.7903 0.320545 0.196448 1.74209
          0.320545 0.196448 1.74209 0.283203 0.18814 1.84313
          0.294959 0.204801 1.7903 0.217421 0.188552 1.6753
          0.320545 0.196448 1.74209 0.299638 0.182033 1.71781
          0.283203 0.18814 1.84313 0.217421 0.188552 1.6753
          0.35344 0.191337 1.57455 0.299638 0.182033 1.71781
          0.320545 0.196448 1.74209 0.217421 0.188552 1.6753
          0.35344 0.191337 1.57455 0.320545 0.196448 1.74209
          0.314828 0.197156 1.62844 0.217421 0.188552 1.6753
          0.173365 0.0162593 -1.12608 0.182059 0.0298849 -1.13052
          0.204545 0.0286583 -1.12534 0.206879 0.0273064 -1.10803
          0.176476 0.0148389 -1.10969 0.182059 0.0298849 -1.13052
          0.173365 0.0162593 -1.12608 0.206879 0.0273064 -1.10803
          0.176476 0.0148389 -1.10969 0.182059 0.0298849 -1.13052
          0.206879 0.0273064 -1.10803 0.208938 0.0367803 -1.11163
          0.206879 0.0273064 -1.10803 0.182059 0.0298849 -1.13052
          0.204545 0.0286583 -1.12534 0.208938 0.0367803 -1.11163
          0.206879 0.0273064 -1.10803 0.208938 0.0367803 -1.11163
          0.204545 0.0286583 -1.12534 0.240259 0.0430863 -1.11282
          0.257413 0.0399649 -1.08953 0.208938 0.0367803 -1.11163
          0.206879 0.0273064 -1.10803 0.240259 0.0430863 -1.11282
          0.0919467 -0.0135297 -0.954481 0.055218 -0.0096646 -0.961593
          0.0880873 -0.014668 -1.01073 0.0389992 -0.0231358 -0.956961
          0.396695 0.0851948 -0.993426 0.347585 0.0741987 -1.04277
          0.392657 0.0753856 -0.971224 0.335694 0.0749483 -1.03428
          0.347585 0.0741987 -1.04277 0.294977 0.0648741 -1.08627
          0.27592 0.0587676 -1.08134 0.335694 0.0749483 -1.03428
          0.347585 0.0741987 -1.04277 0.27592 0.0587676 -1.08134
          0.280415 0.0522078 -1.06675 0.335694 0.0749483 -1.03428
          0.347585 0.0741987 -1.04277 0.280415 0.0522078 -1.06675
          0.286476 0.052365 -1.03123 0.335694 0.0749483 -1.03428
          0.335694 0.0749483 -1.03428 0.347585 0.0741987 -1.04277
          0.392657 0.0753856 -0.971224 0.286476 0.052365 -1.03123
          0.516531 0.151569 0.353601 0.538118 0.159808 0.49707
          0.477178 0.161787 0.54982 0.374349 0.146448 0.377404
          0.333142 0.149548 0.503453 0.460286 0.156139 0.54136
          0.538118 0.159808 0.49707 0.477178 0.161787 0.54982
          0.330553 0.141912 0.420265 0.460286 0.156139 0.54136
          0.505427 0.147666 0.375367 0.538118 0.159808 0.49707
          0.169372 0.0112354 -1.1349 0.176707 0.00807449 -1.12962
          0.167554 0.01164 -1.12899 0.175656 0.012652 -1.13595
          0.169372 0.0112354 -1.1349 0.179579 0.0122846 -1.12692
          0.167554 0.01164 -1.12899 0.176707 0.00807449 -1.12962
          0.526642 0.217164 1.86394 0.373718 0.18894 1.83094
          0.461908 0.207616 1.89904 0.499489 0.20972 1.78754
          0.461908 0.207616 1.89904 0.516936 0.212012 1.83282
          0.526642 0.217164 1.86394 0.499489 0.20972 1.78754
          0.461908 0.207616 1.89904 0.516936 0.212012 1.83282
          0.603631 0.223803 1.88582 0.526642 0.217164 1.86394
          0.0222848 -0.00558348 -0.0278639 0 0 0
          0.0356243 -0.0169741 -0.0342029 0.0484699 -0.0108675 -0.030091
          0 0 0 0 0 0
          0.0356243 -0.0169741 -0.0342029 0.0484699 -0.0108675 -0.030091
          0 0 0 0.0531873 -0.00509933 -0.00647402
          0.0356243 -0.0169741 -0.0342029 0.0484699 -0.0108675 -0.030091
          0.0356243 -0.0169741 -0.0342029 0.0531873 -0.00509933 -0.00647402
          0.0816611 -0.0211183 -0.0484198 0.0484699 -0.0108675 -0.030091
          0.230366 -0.0190663 -0.394513 0.169053 -0.0237773 -0.375043
          0.21664 -0.0255281 -0.33122 0.212099 -0.0193911 -0.323621
          0.374349 0.146448 0.377404 0.477178 0.161787 0.54982
          0.516531 0.151569 0.353601 0.572815 0.164404 0.469028
          0.374349 0.146448 0.377404 0.189242 0.142522 0.483109
          0.318274 0.14137 0.291124 0.257122 0.135619 0.303109
          0.153858 -0.0236808 -0.156252 0.193086 -0.0253065 -0.24717
          0.12311 -0.0240496 -0.19082 0.166261 -0.0163788 -0.191247
          0.0934466 -0.0105912 -0.154028 0.153858 -0.0236808 -0.156252
          0.166261 -0.0163788 -0.191247 0.13966 -0.00867676 -0.146496
          0.0917604 0.139724 0.490675 -0.0418792 0.129004 0.391246
          0.113661 0.130721 0.288513 -0.0497639 0.127401 0.409391
          0.376157 0.134811 0.252378 0.330553 0.141912 0.420265
          0.505427 0.147666 0.375367 0.395931 0.139444 0.273135
          0.395931 0.139444 0.273135 0.269518 0.124347 0.146292
          0.376157 0.134811 0.252378 0.257122 0.135619 0.303109
          0.376157 0.134811 0.252378 0.395931 0.139444 0.273135
          0.54103 0.141297 0.259453 0.520946 0.131935 0.0779313
          0.44205 0.135678 0.148091 0.395931 0.139444 0.273135
          0.516531 0.151569 0.353601 0.374349 0.146448 0.377404
          0.0222848 -0.00558348 -0.0278639 0.0450981 0.00208091 -0.0389618
          0 0 0 0.0752352 -0.00582282 -0.0580352
          0.0222848 -0.00558348 -0.0278639 0 0 0
          0 0 0 0.0450981 0.00208091 -0.0389618
          0.0450981 0.00208091 -0.0389618 0 0 0
          0 0 0 0.0752352 -0.00582282 -0.0580352
          0.552352 0.201884 1.33583 0.553202 0.194862 1.1531
          0.584036 0.203196 1.31556 0.697242 0.21442 1.29245
          0.473613 0.191655 1.24082 0.553202 0.194862 1.1531
          0.584036 0.203196 1.31556 0.552352 0.201884 1.33583
          0.473613 0.191655 1.24082 0.553202 0.194862 1.1531
          0.706821 0.206865 1.16605 0.584036 0.203196 1.31556
          0.584036 0.203196 1.31556 0.553202 0.194862 1.1531
          0.706821 0.206865 1.16605 0.697242 0.21442 1.29245
          0.205372 -0.0163374 -0.830822 0.26285 -0.0130069 -0.876853
          0.203472 -0.0139074 -0.880859 0.185367 -0.0164986 -0.811141
          0.205372 -0.0163374 -0.830822 0.221732 -0.0110052 -0.922852
          0.182197 -0.0121593 -0.958737 0.26285 -0.0130069 -0.876853
          0.205372 -0.0163374 -0.830822 0.233867 -0.0167969 -0.797427
          0.221732 -0.0110052 -0.922852 0.26285 -0.0130069 -0.876853
          0.26285 -0.0130069 -0.876853 0.233867 -0.0167969 -0.797427
          0.267952 -0.0171241 -0.761579 0.205372 -0.0163374 -0.830822
          0.26285 -0.0130069 -0.876853 0.205372 -0.0163374 -0.830822
          0.267952 -0.0171241 -0.761579 0.269312 -0.0158084 -0.790747
          0.205372 -0.0163374 -0.830822 0.183531 -0.02037 -0.75319
          0.233867 -0.0167969 -0.797427 0.267952 -0.0171241 -0.761579
          0.205372 -0.0163374 -0.830822 0.15297 -0.0190904 -0.707837
          0.183531 -0.02037 -0.75319 0.267952 -0.0171241 -0.761579
          0.0844691 0.105919 -0.143068 0.128655 0.112603 -0.0840872
          0.237825 0.113705 -0.173142 0.195909 0.124021 0.0195096
          0.358861 0.0430357 -0.850377 0.344425 0.0532901 -0.764546
          0.478524 0.0469546 -0.74553 0.402724 0.0628676 -0.720252
          0.478524 0.0469546 -0.74553 0.344425 0.0532901 -0.764546
          0.525444 0.0638031 -0.598024 0.402724 0.0628676 -0.720252
          0.402724 0.0628676 -0.720252 0.344425 0.0532901 -0.764546
          0.525444 0.0638031 -0.598024 0.376632 0.0687973 -0.609731
          0.376632 0.0687973 -0.609731 0.268257 0.0661042 -0.699179
          0.402724 0.0628676 -0.720252 0.344425 0.0532901 -0.764546
          0.376632 0.0687973 -0.609731 0.268257 0.0661042 -0.699179
          0.351173 0.074105 -0.680571 0.402724 0.0628676 -0.720252
          0.351173 0.074105 -0.680571 0.402724 0.0628676 -0.720252
          0.268257 0.0661042 -0.699179 0.317734 0.059831 -0.79408
          0.402724 0.0628676 -0.720252 0.344425 0.0532901 -0.764546
          0.268257 0.0661042 -0.699179 0.317734 0.059831 -0.79408
          0.265826 0.195631 2.08832 0.268413 0.19547 2.02507
          0.208235 0.204512 2.0408 0.280936 0.193837 2.04554
          0.265826 0.195631 2.08832 0.289096 0.190872 2.09747
          0.208235 0.204512 2.0408 0.268413 0.19547 2.02507
          0.218435 0.192714 2.09406 0.268413 0.19547 2.02507
          0.208235 0.204512 2.0408 0.289096 0.190872 2.09747
          0.218435 0.192714 2.09406 0.218066 0.195464 2.02504
          0.268413 0.19547 2.02507 0.289096 0.190872 2.09747
          0.218435 0.192714 2.09406 0.218066 0.195464 2.02504
          0.19858 0.209082 1.9791 0.268413 0.19547 2.02507
          0.218435 0.192714 2.09406 0.19858 0.209082 1.9791
          0.208235 0.204512 2.0408 0.268413 0.19547 2.02507
          0.19858 0.209082 1.9791 0.218066 0.195464 2.02504
          0.301902 0.190563 2.02495 0.268413 0.19547 2.02507
          0.317265 0.193703 1.98205 0.19858 0.209082 1.9791
          0.301902 0.190563 2.02495 0.268413 0.19547 2.02507
          0.268413 0.19547 2.02507 0.218066 0.195464 2.02504
          0.301902 0.190563 2.02495 0.289096 0.190872 2.09747
          0.194202 -0.00451249 -1.06016 0.173041 -0.00280863 -1.09202
          0.216435 -0.000885015 -1.08431 0.22557 -0.000403006 -1.0551
          0.238917 -0.00579035 -1.0335 0.194202 -0.00451249 -1.06016
          0.216435 -0.000885015 -1.08431 0.22557 -0.000403006 -1.0551
          0.216435 -0.000885015 -1.08431 0.238917 -0.00579035 -1.0335
          0.232606 -0.00658906 -1.06714 0.194202 -0.00451249 -1.06016
          0.194202 -0.00451249 -1.06016 0.168965 -0.00515665 -1.0663
          0.173041 -0.00280863 -1.09202 0.22557 -0.000403006 -1.0551
          0.367694 0.056094 -0.989246 0.392657 0.0753856 -0.971224
          0.286476 0.052365 -1.03123 0.337729 0.0622297 -0.971894
          0.315893 0.0269252 -1.03184 0.247711 0.0274887 -1.06388
          0.249546 0.0280093 -1.08662 0.278414 0.0118281 -1.0665
          0.315893 0.0269252 -1.03184 0.249546 0.0280093 -1.08662
          0.298409 0.0337659 -1.05963 0.278414 0.0118281 -1.0665
          0.315893 0.0269252 -1.03184 0.247711 0.0274887 -1.06388
          0.298409 0.0337659 -1.05963 0.249546 0.0280093 -1.08662
          0.267714 0.0382249 -1.05959 0.249546 0.0280093 -1.08662
          0.298409 0.0337659 -1.05963 0.247711 0.0274887 -1.06388
          0.267714 0.0382249 -1.05959 0.207377 0.0208321 -1.10963
          0.249546 0.0280093 -1.08662 0.247711 0.0274887 -1.06388
          0.249546 0.0280093 -1.08662 0.207377 0.0208321 -1.10963
          0.267714 0.0382249 -1.05959 0.196263 0.0293345 -1.09673
          0.249546 0.0280093 -1.08662 0.207377 0.0208321 -1.10963
          0.23176 0.0157621 -1.09497 0.247711 0.0274887 -1.06388
          0.23176 0.0157621 -1.09497 0.197806 0.00805325 -1.12213
          0.207377 0.0208321 -1.10963 0.249546 0.0280093 -1.08662
          0.278414 0.0118281 -1.0665 0.298409 0.0337659 -1.05963
          0.245953 0.0105992 -1.09164 0.249546 0.0280093 -1.08662
          0.249546 0.0280093 -1.08662 0.298409 0.0337659 -1.05963
          0.245953 0.0105992 -1.09164 0.25696 0.0301693 -1.08253
          0.320388 0.0571591 -1.04914 0.29089 0.05429 -1.08344
          0.290625 0.0440846 -1.07206 0.280415 0.0522078 -1.06675
          0.385207 0.197499 1.95846 0.383928 0.195509 1.93412
          0.319383 0.194355 1.9882 0.387815 0.202424 1.98846
          0.383928 0.195509 1.93412 0.282072 0.186107 1.95795
          0.319383 0.194355 1.9882 0.387815 0.202424 1.98846
          0.383928 0.195509 1.93412 0.313847 0.186532 1.91649
          0.282072 0.186107 1.95795 0.387815 0.202424 1.98846
          0.4665 0.174973 0.832093 0.564165 0.19024 1.0193
          0.364277 0.178104 1.03208 0.451127 0.184652 1.08346
          0.539956 0.186254 0.988245 0.564165 0.19024 1.0193
          0.4665 0.174973 0.832093 0.451127 0.184652 1.08346
          0.477178 0.161787 0.54982 0.538118 0.159808 0.49707
          0.516531 0.151569 0.353601 0.572815 0.164404 0.469028
          0.180068 0.00297451 -1.1089 0.171214 0.0112742 -1.12197
          0.203198 -0.00291793 -1.12128 0.188423 0.00272913 -1.13564
          0.177787 0.00281491 -1.11165 0.180068 0.00297451 -1.1089
          0.203198 -0.00291793 -1.12128 0.188423 0.00272913 -1.13564
          0.177787 0.00281491 -1.11165 0.180068 0.00297451 -1.1089
          0.188423 0.00272913 -1.13564 0.171138 0.0116209 -1.12877
          0.177787 0.00281491 -1.11165 0.171214 0.0112742 -1.12197
          0.180068 0.00297451 -1.1089 0.171138 0.0116209 -1.12877
          0.180068 0.00297451 -1.1089 0.171214 0.0112742 -1.12197
          0.188423 0.00272913 -1.13564 0.171138 0.0116209 -1.12877
          0.0886722 0.0972271 -0.326607 0.147113 0.0900758 -0.449962
          0.108892 0.0931933 -0.375589 0.17425 0.103817 -0.236551
          0.276125 0.0947165 -0.379639 0.17425 0.103817 -0.236551
          0.147113 0.0900758 -0.449962 0.0886722 0.0972271 -0.326607
          0.276125 0.0947165 -0.379639 0.0886722 0.0972271 -0.326607
          0.147113 0.0900758 -0.449962 0.129141 0.0946554 -0.378284
          0.17425 0.103817 -0.236551 0.0886722 0.0972271 -0.326607
          -0.0568878 0.101842 -0.151099 0.0804092 0.101522 -0.223941
          0.0886722 0.0972271 -0.326607 -0.0568878 0.101842 -0.151099
          0.105133 0.110602 -0.0678035 0.17425 0.103817 -0.236551
          -0.061984 0.099625 -0.212676 -0.0568878 0.101842 -0.151099
          0.105133 0.110602 -0.0678035 0.0886722 0.0972271 -0.326607
          0.0886722 0.0972271 -0.326607 -0.0453011 0.0930471 -0.305608
          -0.061984 0.099625 -0.212676 -0.0568878 0.101842 -0.151099
          0.0886722 0.0972271 -0.326607 -0.0453011 0.0930471 -0.305608
          -0.0568878 0.101842 -0.151099 0.0804092 0.101522 -0.223941
          0.0886722 0.0972271 -0.326607 -0.0453011 0.0930471 -0.305608
          -0.0517243 0.0947152 -0.329892 -0.061984 0.099625 -0.212676
          0.290634 0.0679208 -1.00623 0.24497 0.0543441 -1.03067
          0.245796 0.0542283 -1.01114 0.226725 0.0569851 -0.976381
          0.00486405 -0.0137133 -0.10608 -0.0115162 -0.00567168 -0.051575
          0.0100932 -0.00802936 -0.0535907 -0.0354252 -0.0123842 -0.100673
          0.00486405 -0.0137133 -0.10608 0.0100932 -0.00802936 -0.0535907
          0.0155697 -0.00945334 -0.0979218 -0.0354252 -0.0123842 -0.100673
          -0.0185965 0.146966 0.68783 0.114131 0.153668 0.647563
          0.16481 0.162741 0.781435 0.171797 0.154438 0.655168
          0.11677 0.082158 -0.49828 0.0330385 0.0694828 -0.548444
          0.160511 0.0789107 -0.595206 0.124865 0.0743217 -0.614662
          0.18615 -0.0263881 -0.527732 0.152232 -0.0233181 -0.476973
          0.251856 -0.0261606 -0.495461 0.259363 -0.0222661 -0.561488
          0.0100932 -0.00802936 -0.0535907 0.00613925 -0.00568058 -0.0229973
          -0.0126816 -0.00885974 -0.0401906 -0.0148586 -0.00274295 -0.0245388
          0.173799 0.0876068 -0.503416 0.11677 0.082158 -0.49828
          0.160511 0.0789107 -0.595206 0.124865 0.0743217 -0.614662
          0.0675574 -0.0172296 -0.103565 0.0155697 -0.00945334 -0.0979218
          0.0100932 -0.00802936 -0.0535907 0.0607489 -0.00918772 -0.0791758
          0.0675574 -0.0172296 -0.103565 0.0100932 -0.00802936 -0.0535907
          0.0277173 -0.0112998 -0.0430308 0.0607489 -0.00918772 -0.0791758
          0.0607489 -0.00918772 -0.0791758 0.0277173 -0.0112998 -0.0430308
          0.0244272 -0.00123409 -0.0380729 0.0100932 -0.00802936 -0.0535907
          -0.0321081 0.0923879 -0.258256 -0.0208577 0.0900582 -0.264982
          0.0377004 0.0814389 -0.41916 -0.00969368 0.0757089 -0.473971
          -0.0321081 0.0923879 -0.258256 0.0377004 0.0814389 -0.41916
          0.130689 0.0951538 -0.354446 -0.00969368 0.0757089 -0.473971
          0.148226 0.0946563 -0.382148 0.0377004 0.0814389 -0.41916
          0.11677 0.082158 -0.49828 0.130689 0.0951538 -0.354446
          0.08759 -0.0181695 -0.700148 0.118225 -0.016529 -0.643321
          0.0359931 -0.0179081 -0.637707 0.0740804 -0.0196889 -0.590591
          0.0470043 -0.0228191 -0.395565 -0.00588535 -0.0269348 -0.514974
          0.0665477 -0.0233217 -0.48275 0.0536057 -0.025715 -0.403315
          0.0166565 -0.0213178 -0.651747 0.08759 -0.0181695 -0.700148
          0.0359931 -0.0179081 -0.637707 0.0740804 -0.0196889 -0.590591
          0.0771466 -0.0128792 -0.667253 0.0185148 -0.0145913 -0.704614
          0.0359931 -0.0179081 -0.637707 -0.0323988 -0.0141205 -0.630091
          0.260676 0.172941 1.9455 0.269246 0.161112 1.88195
          0.313847 0.186532 1.91649 0.30287 0.172367 1.91948
          0.260676 0.172941 1.9455 0.282072 0.186107 1.95795
          0.30287 0.172367 1.91948 0.313847 0.186532 1.91649
          0.260676 0.172941 1.9455 0.282072 0.186107 1.95795
          0.319383 0.194355 1.9882 0.30287 0.172367 1.91948
          0.30287 0.172367 1.91948 0.282072 0.186107 1.95795
          0.319383 0.194355 1.9882 0.383928 0.195509 1.93412
          0.385207 0.197499 1.95846 0.30287 0.172367 1.91948
          0.319383 0.194355 1.9882 0.383928 0.195509 1.93412
          0.385207 0.197499 1.95846 0.30287 0.172367 1.91948
          0.383928 0.195509 1.93412 0.37796 0.1901 1.89347
          0.383928 0.195509 1.93412 0.37796 0.1901 1.89347
          0.30287 0.172367 1.91948 0.373718 0.18894 1.83094
          0.383928 0.195509 1.93412 0.30287 0.172367 1.91948
          0.313847 0.186532 1.91649 0.373718 0.18894 1.83094
          0.30287 0.172367 1.91948 0.282072 0.186107 1.95795
          0.383928 0.195509 1.93412 0.313847 0.186532 1.91649
          0.30287 0.172367 1.91948 0.313847 0.186532 1.91649
          0.373718 0.18894 1.83094 0.269246 0.161112 1.88195
          0.30287 0.172367 1.91948 0.269246 0.161112 1.88195
          0.373718 0.18894 1.83094 0.303986 0.162513 1.85599
          0.37796 0.1901 1.89347 0.30287 0.172367 1.91948
          0.373718 0.18894 1.83094 0.303986 0.162513 1.85599
          0.520946 0.131935 0.0779313 0.307201 0.123835 0.0687832
          0.376157 0.134811 0.252378 0.44205 0.135678 0.148091
          0.520946 0.131935 0.0779313 0.307201 0.123835 0.0687832
          0.44205 0.135678 0.148091 0.484097 0.122155 -0.0630469
          0.563634 0.119736 -0.0221902 0.484097 0.122155 -0.0630469
          0.520946 0.131935 0.0779313 0.658278 0.133014 0.0473313
          0.657557 0.130487 -0.0379752 0.484097 0.122155 -0.0630469
          0.520946 0.131935 0.0779313 0.672307 0.142273 0.106764
          0.520946 0.131935 0.0779313 0.44205 0.135678 0.148091
          0.500981 0.133764 0.025035 0.484097 0.122155 -0.0630469
          0.0279292 -0.0130824 -0.150911 0.0934466 -0.0105912 -0.154028
          0.0774893 -0.0166292 -0.179655 0.0540416 -0.00937549 -0.175074
          0.0279292 -0.0130824 -0.150911 0.0155697 -0.00945334 -0.0979218
          0.0675574 -0.0172296 -0.103565 0.0934466 -0.0105912 -0.154028
          0.0155697 -0.00945334 -0.0979218 0.0934466 -0.0105912 -0.154028
          0.0279292 -0.0130824 -0.150911 0.0540416 -0.00937549 -0.175074
          0.0771466 -0.0128792 -0.667253 0.0359931 -0.0179081 -0.637707
          0.00229256 -0.0169905 -0.563079 -0.0323988 -0.0141205 -0.630091
          0.576437 0.21161 1.62788 0.533951 0.211685 1.71521
          0.41749 0.201144 1.6896 0.460626 0.203436 1.6395
          0.576437 0.21161 1.62788 0.666629 0.22252 1.59758
          0.643071 0.218332 1.70571 0.533951 0.211685 1.71521
          0.669866 0.212344 1.60442 0.666629 0.22252 1.59758
          0.643071 0.218332 1.70571 0.576437 0.21161 1.62788
          0.576437 0.21161 1.62788 0.669866 0.212344 1.60442
          0.645948 0.213288 1.70657 0.643071 0.218332 1.70571
          0.17471 0.0103553 -1.13275 0.157185 -0.00844997 -1.13379
          0.179546 -0.00518367 -1.12862 0.160877 0.00282591 -1.14115
          0.17471 0.0103553 -1.13275 0.179546 -0.00518367 -1.12862
          0.180665 0.00439507 -1.12932 0.160877 0.00282591 -1.14115
          -0.0323988 -0.0141205 -0.630091 -0.0730244 -0.00840171 -0.641354
          -0.0606808 -0.0122557 -0.560799 0.0251875 -0.00748686 -0.660161
          -0.0323988 -0.0141205 -0.630091 -0.0606808 -0.0122557 -0.560799
          0.00815519 -0.0112139 -0.565742 0.0251875 -0.00748686 -0.660161
          -0.0730244 -0.00840171 -0.641354 -0.125328 -0.0153589 -0.543652
          -0.0323988 -0.0141205 -0.630091 -0.0606808 -0.0122557 -0.560799
          0.0922398 -0.00387143 -0.958975 0.138454 -0.0082111 -0.93618
          0.143934 -0.00495345 -1.0015 0.11213 0.00272844 -1.0007
          0.162798 0.0130179 -1.13538 0.157544 0.0198756 -1.12909
          0.164869 0.0206331 -1.12188 0.170804 0.0193801 -1.12604
          0.0922398 -0.00387143 -0.958975 0.110876 -0.00244741 -0.920145
          0.138454 -0.0082111 -0.93618 0.11213 0.00272844 -1.0007
          -0.0327675 0.087618 -0.432786 0.147113 0.0900758 -0.449962
          0.108892 0.0931933 -0.375589 0.0886722 0.0972271 -0.326607
          -0.0453011 0.0930471 -0.305608 -0.0327675 0.087618 -0.432786
          0.108892 0.0931933 -0.375589 0.0886722 0.0972271 -0.326607
          0.0886722 0.0972271 -0.326607 -0.0517243 0.0947152 -0.329892
          -0.0453011 0.0930471 -0.305608 -0.0327675 0.087618 -0.432786
          0.672307 0.142273 0.106764 0.554677 0.147962 0.233816
          0.681499 0.15071 0.240111 0.685457 0.150589 0.168031
          0.167692 0.00789246 -1.13227 0.183178 0.00281344 -1.13408
          0.18229 0.00818924 -1.14588 0.181922 0.0120482 -1.13884
          0.44205 0.135678 0.148091 0.516531 0.151569 0.353601
          0.681499 0.15071 0.240111 0.554677 0.147962 0.233816
          0.374349 0.146448 0.377404 0.516531 0.151569 0.353601
          0.44205 0.135678 0.148091 0.554677 0.147962 0.233816
          0.374349 0.146448 0.377404 0.516531 0.151569 0.353601
          0.554677 0.147962 0.233816 0.517372 0.152084 0.282314
          0.517372 0.152084 0.282314 0.572815 0.164404 0.469028
          0.516531 0.151569 0.353601 0.554677 0.147962 0.233816
          0.517372 0.152084 0.282314 0.572815 0.164404 0.469028
          0.554677 0.147962 0.233816 0.698744 0.164157 0.363125
          0.554677 0.147962 0.233816 0.572815 0.164404 0.469028
          0.516531 0.151569 0.353601 0.698744 0.164157 0.363125
          0.516531 0.151569 0.353601 0.698744 0.164157 0.363125
          0.681499 0.15071 0.240111 0.554677 0.147962 0.233816
          0.554677 0.147962 0.233816 0.698744 0.164157 0.363125
          0.681499 0.15071 0.240111 0.685457 0.150589 0.168031
          0.524651 0.210655 2.04711 0.50375 0.208821 2.11494
          0.587098 0.215487 2.08402 0.522161 0.209032 2.11053
          0.509731 0.207944 2.04718 0.524651 0.210655 2.04711
          0.587098 0.215487 2.08402 0.522161 0.209032 2.11053
          0.509731 0.207944 2.04718 0.50375 0.208821 2.11494
          0.524651 0.210655 2.04711 0.522161 0.209032 2.11053
          0.509731 0.207944 2.04718 0.50375 0.208821 2.11494
          0.446707 0.199139 2.07562 0.524651 0.210655 2.04711
          0.0829014 -0.0282544 -0.0540615 0.0644315 -0.0164299 -0.0698736
          0.0816611 -0.0211183 -0.0484198 0.111257 -0.0260218 -0.0822399
          0.524651 0.210655 2.04711 0.388864 0.195535 2.04031
          0.446707 0.199139 2.07562 0.463114 0.205583 2.00861
          0.50375 0.208821 2.11494 0.388864 0.195535 2.04031
          0.524651 0.210655 2.04711 0.463114 0.205583 2.00861
          0.463114 0.205583 2.00861 0.480039 0.211585 2.11979
          0.524651 0.210655 2.04711 0.50375 0.208821 2.11494
          0.463114 0.205583 2.00861 0.480039 0.211585 2.11979
          0.509965 0.214157 2.04142 0.524651 0.210655 2.04711
          0.524651 0.210655 2.04711 0.480039 0.211585 2.11979
          0.509965 0.214157 2.04142 0.50375 0.208821 2.11494
          0.50375 0.208821 2.11494 0.388864 0.195535 2.04031
          0.446707 0.199139 2.07562 0.524651 0.210655 2.04711
          0.276521 0.195515 1.38913 0.245913 0.189513 1.4291
          0.17973 0.197213 1.44533 0.153728 0.181466 1.28935
          0.276521 0.195515 1.38913 0.153728 0.181466 1.28935
          0.17973 0.197213 1.44533 0.117193 0.187873 1.29336
          0.117193 0.187873 1.29336 0.308892 0.185216 1.1614
          0.276521 0.195515 1.38913 0.153728 0.181466 1.28935
          0.394078 0.205558 2.05199 0.38125 0.210746 2.12329
          0.404221 0.212756 2.07781 0.441118 0.216517 2.13214
          0.404221 0.212756 2.07781 0.38125 0.210746 2.12329
          0.432863 0.218651 2.13995 0.441118 0.216517 2.13214
          0.209562 0.0518334 -0.953749 0.278739 0.0589262 -0.949907
          0.238684 0.0574548 -0.90005 0.230153 0.0452618 -0.998765
          0.209562 0.0518334 -0.953749 0.230153 0.0452618 -0.998765
          0.238684 0.0574548 -0.90005 0.1823 0.048595 -0.960625
          0.209562 0.0518334 -0.953749 0.238684 0.0574548 -0.90005
          0.13282 0.0487597 -0.935717 0.1823 0.048595 -0.960625
          0.209562 0.0518334 -0.953749 0.13282 0.0487597 -0.935717
          0.133288 0.0434323 -0.997365 0.1823 0.048595 -0.960625
          0.180739 0.0425605 -1.00764 0.209562 0.0518334 -0.953749
          0.133288 0.0434323 -0.997365 0.1823 0.048595 -0.960625
          0.180739 0.0425605 -1.00764 0.230153 0.0452618 -0.998765
          0.209562 0.0518334 -0.953749 0.1823 0.048595 -0.960625
          0.180739 0.0425605 -1.00764 0.13282 0.0487597 -0.935717
          0.133288 0.0434323 -0.997365 0.209562 0.0518334 -0.953749
          0.147113 0.0900758 -0.449962 0.276125 0.0947165 -0.379639
          0.299053 0.0864083 -0.553598 0.188323 0.0883993 -0.510283
          0.147113 0.0900758 -0.449962 0.276125 0.0947165 -0.379639
          0.188323 0.0883993 -0.510283 0.277729 0.0975518 -0.410816
          0.188323 0.0883993 -0.510283 0.276125 0.0947165 -0.379639
          0.299053 0.0864083 -0.553598 0.277729 0.0975518 -0.410816
          0.160769 -0.0155552 -0.394325 0.134253 -0.0150344 -0.313891
          0.225279 -0.013258 -0.37308 0.141866 -0.00647079 -0.337935
          0.104284 -0.0136701 -0.371997 0.134253 -0.0150344 -0.313891
          0.160769 -0.0155552 -0.394325 0.141866 -0.00647079 -0.337935
          -0.0171008 -0.0138017 -0.174494 -0.11621 -0.0158091 -0.225044
          -0.0525861 -0.0158793 -0.211183 -0.0501823 -0.013834 -0.19697
          -0.0171008 -0.0138017 -0.174494 -0.0501823 -0.013834 -0.19697
          -0.0525861 -0.0158793 -0.211183 -0.0327653 -0.0170453 -0.262145
          0.17471 0.0103553 -1.13275 0.170804 0.0193801 -1.12604
          0.162798 0.0130179 -1.13538 0.186348 0.0218384 -1.10846
          0.162798 0.0130179 -1.13538 0.17471 0.0103553 -1.13275
          0.157544 0.0198756 -1.12909 0.170804 0.0193801 -1.12604
          0.180665 0.00439507 -1.12932 0.17471 0.0103553 -1.13275
          0.162798 0.0130179 -1.13538 0.186348 0.0218384 -1.10846
          0.162798 0.0130179 -1.13538 0.170804 0.0193801 -1.12604
          0.164869 0.0206331 -1.12188 0.186348 0.0218384 -1.10846
          0.180665 0.00439507 -1.12932 0.162798 0.0130179 -1.13538
          0.164869 0.0206331 -1.12188 0.186348 0.0218384 -1.10846
          0.180665 0.00439507 -1.12932 0.160877 0.00282591 -1.14115
          0.162798 0.0130179 -1.13538 0.17471 0.0103553 -1.13275
          0.126494 -0.0116239 -0.962722 0.138454 -0.0082111 -0.93618
          0.16486 -0.0132007 -0.873521 0.185038 -0.0112891 -0.966454
          0.185038 -0.0112891 -0.966454 0.138454 -0.0082111 -0.93618
          0.16486 -0.0132007 -0.873521 0.209323 -0.0136238 -0.907578
          0.138454 -0.0082111 -0.93618 0.105915 -0.00932992 -0.868497
          0.16486 -0.0132007 -0.873521 0.209323 -0.0136238 -0.907578
          0.126494 -0.0116239 -0.962722 0.0922398 -0.00387143 -0.958975
          0.0547873 -0.00956248 -0.875966 0.138454 -0.0082111 -0.93618
          0.138454 -0.0082111 -0.93618 0.110876 -0.00244741 -0.920145
          0.18506 -0.0112596 -0.943555 0.11213 0.00272844 -1.0007
          0.143934 -0.00495345 -1.0015 0.138454 -0.0082111 -0.93618
          0.18506 -0.0112596 -0.943555 0.11213 0.00272844 -1.0007
          0.138454 -0.0082111 -0.93618 0.110876 -0.00244741 -0.920145
          0.188761 -0.0117274 -0.865373 0.18506 -0.0112596 -0.943555
          0.471473 0.100582 -0.394055 0.530506 0.0929514 -0.325622
          0.591099 0.0927801 -0.384602 0.409685 0.106138 -0.277549
          0.471473 0.100582 -0.394055 0.411463 0.0864855 -0.395732
          0.530506 0.0929514 -0.325622 0.409685 0.106138 -0.277549
          0.139017 0.0506496 -0.867817 0.183089 0.0573615 -0.895068
          0.156925 0.0462572 -0.961802 0.207633 0.0598625 -0.876171
          0.156925 0.0462572 -0.961802 0.0560741 0.0443732 -0.867566
          0.183089 0.0573615 -0.895068 0.139017 0.0506496 -0.867817
          0.139017 0.0506496 -0.867817 0.130594 0.0587253 -0.800895
          0.167424 0.0633308 -0.79789 0.0768571 0.0522908 -0.774606
          0.424412 0.120747 0.0174048 0.307201 0.123835 0.0687832
          0.520946 0.131935 0.0779313 0.484097 0.122155 -0.0630469
          0.293607 0.171942 1.3809 0.347512 0.182185 1.38557
          0.158586 0.163992 1.36561 0.294303 0.168015 1.52233
          0.527923 0.13303 -0.0882344 0.684195 0.149966 -0.00656958
          0.560566 0.146458 0.0640076 0.673207 0.140736 0.00567184
          0.500981 0.133764 0.025035 0.527923 0.13303 -0.0882344
          0.560566 0.146458 0.0640076 0.673207 0.140736 0.00567184
          0.500981 0.133764 0.025035 0.560566 0.146458 0.0640076
          0.694104 0.155148 0.164546 0.673207 0.140736 0.00567184
          0.560566 0.146458 0.0640076 0.684195 0.149966 -0.00656958
          0.694104 0.155148 0.164546 0.673207 0.140736 0.00567184
          0.560566 0.146458 0.0640076 0.684195 0.149966 -0.00656958
          0.634897 0.160619 0.195354 0.694104 0.155148 0.164546
          0.530358 0.152472 0.215311 0.560566 0.146458 0.0640076
          0.634897 0.160619 0.195354 0.694104 0.155148 0.164546
          0.560566 0.146458 0.0640076 0.445539 0.138683 0.0844741
          0.530358 0.152472 0.215311 0.394227 0.144542 0.157778
          -0.128186 -0.0211097 -0.310567 -0.132434 -0.021604 -0.332616
          -0.127282 -0.0215735 -0.279389 -0.0513797 -0.0175883 -0.319843
          0.480373 0.0621636 -0.760049 0.402724 0.0628676 -0.720252
          0.516255 0.0666313 -0.664582 0.510427 0.0776933 -0.702508
          0.480373 0.0621636 -0.760049 0.402724 0.0628676 -0.720252
          0.510427 0.0776933 -0.702508 0.372622 0.0709968 -0.788346
          0.480373 0.0621636 -0.760049 0.372622 0.0709968 -0.788346
          0.510427 0.0776933 -0.702508 0.492079 0.0833424 -0.762226
          -0.127282 -0.0215735 -0.279389 -0.132434 -0.021604 -0.332616
          -0.126512 -0.0230097 -0.257693 -0.0513797 -0.0175883 -0.319843
          -0.127282 -0.0215735 -0.279389 -0.0513797 -0.0175883 -0.319843
          -0.126512 -0.0230097 -0.257693 -0.0284574 -0.0153834 -0.248114
          0.206809 -0.0107099 -1.02112 0.245603 -0.0133778 -1.02696
          0.237216 -0.0138459 -1.0667 0.224739 -0.0140598 -1.03468
          0.19541 -0.00381637 -1.08441 0.206809 -0.0107099 -1.02112
          0.237216 -0.0138459 -1.0667 0.224739 -0.0140598 -1.03468
          0.206809 -0.0107099 -1.02112 0.19541 -0.00381637 -1.08441
          0.205167 -0.0060995 -1.09322 0.224739 -0.0140598 -1.03468
          0.172972 3.67282e-05 -1.0698 0.206809 -0.0107099 -1.02112
          0.205167 -0.0060995 -1.09322 0.224739 -0.0140598 -1.03468
          0.172972 3.67282e-05 -1.0698 0.206809 -0.0107099 -1.02112
          0.224739 -0.0140598 -1.03468 0.190034 -0.00811258 -1.01657
          0.172972 3.67282e-05 -1.0698 0.17137 -0.00547832 -1.04012
          0.206809 -0.0107099 -1.02112 0.190034 -0.00811258 -1.01657
          0.172972 3.67282e-05 -1.0698 0.17137 -0.00547832 -1.04012
          0.19541 -0.00381637 -1.08441 0.206809 -0.0107099 -1.02112
          0.172972 3.67282e-05 -1.0698 0.19541 -0.00381637 -1.08441
          0.205167 -0.0060995 -1.09322 0.206809 -0.0107099 -1.02112
          0.17137 -0.00547832 -1.04012 0.245603 -0.0133778 -1.02696
          0.19541 -0.00381637 -1.08441 0.206809 -0.0107099 -1.02112
          0.19541 -0.00381637 -1.08441 0.245603 -0.0133778 -1.02696
          0.237216 -0.0138459 -1.0667 0.206809 -0.0107099 -1.02112
          0.224739 -0.0140598 -1.03468 0.206809 -0.0107099 -1.02112
          0.251392 -0.0149688 -0.992494 0.190034 -0.00811258 -1.01657
          0.190034 -0.00811258 -1.01657 0.206809 -0.0107099 -1.02112
          0.251392 -0.0149688 -0.992494 0.18506 -0.0112596 -0.943555
          0.190034 -0.00811258 -1.01657 0.185038 -0.0112891 -0.966454
          0.206809 -0.0107099 -1.02112 0.18506 -0.0112596 -0.943555
          0.206809 -0.0107099 -1.02112 0.185038 -0.0112891 -0.966454
          0.190034 -0.00811258 -1.01657 0.143934 -0.00495345 -1.0015
          0.206809 -0.0107099 -1.02112 0.185038 -0.0112891 -0.966454
          0.251392 -0.0149688 -0.992494 0.18506 -0.0112596 -0.943555
          0.206809 -0.0107099 -1.02112 0.263276 -0.0148749 -0.93916
          0.251392 -0.0149688 -0.992494 0.185038 -0.0112891 -0.966454
          0.206809 -0.0107099 -1.02112 0.263276 -0.0148749 -0.93916
          0.185038 -0.0112891 -0.966454 0.254776 -0.0120806 -0.974703
          0.206809 -0.0107099 -1.02112 0.185038 -0.0112891 -0.966454
          0.194464 -0.00870049 -1.02577 0.254776 -0.0120806 -0.974703
          -0.0840805 -0.0231921 -0.77883 0.00945855 -0.0154396 -0.791267
          -0.0897965 -0.0172937 -0.75591 -0.0331069 -0.0207408 -0.7108
          -0.0331069 -0.0207408 -0.7108 -0.103051 -0.02635 -0.700307
          -0.0897965 -0.0172937 -0.75591 -0.0840805 -0.0231921 -0.77883
          0.117851 0.0788018 -0.593398 0.136757 0.0683191 -0.748962
          0.18863 0.0787469 -0.62348 0.0878293 0.0822467 -0.551896
          0.18863 0.0787469 -0.62348 0.188323 0.0883993 -0.510283
          0.117851 0.0788018 -0.593398 0.0878293 0.0822467 -0.551896
          0.18863 0.0787469 -0.62348 0.147113 0.0900758 -0.449962
          0.188323 0.0883993 -0.510283 0.0878293 0.0822467 -0.551896
          0.18863 0.0787469 -0.62348 0.147113 0.0900758 -0.449962
          0.0878293 0.0822467 -0.551896 0.101692 0.0805584 -0.621601
          0.101692 0.0805584 -0.621601 0.136757 0.0683191 -0.748962
          0.0878293 0.0822467 -0.551896 0.18863 0.0787469 -0.62348
          0.101692 0.0805584 -0.621601 0.136757 0.0683191 -0.748962
          0.00251873 0.0698236 -0.678307 0.0878293 0.0822467 -0.551896
          -0.0158408 0.0788361 -0.594233 0.101692 0.0805584 -0.621601
          0.00251873 0.0698236 -0.678307 0.0878293 0.0822467 -0.551896
          -0.0158408 0.0788361 -0.594233 -0.0164584 0.0776046 -0.547456
          0.0878293 0.0822467 -0.551896 0.00251873 0.0698236 -0.678307
          0.0878293 0.0822467 -0.551896 -0.0158408 0.0788361 -0.594233
          0.101692 0.0805584 -0.621601 -0.0296118 0.0834849 -0.573164
          0.188323 0.0883993 -0.510283 0.147113 0.0900758 -0.449962
          0.108892 0.0931933 -0.375589 0.0878293 0.0822467 -0.551896
          0.117851 0.0788018 -0.593398 0.188323 0.0883993 -0.510283
          0.108892 0.0931933 -0.375589 0.0878293 0.0822467 -0.551896
          -0.11621 -0.0158091 -0.225044 -0.0501823 -0.013834 -0.19697
          -0.0171008 -0.0138017 -0.174494 -0.108082 -0.0140942 -0.171628
          -0.11621 -0.0158091 -0.225044 -0.11324 -0.0126841 -0.205618
          -0.0501823 -0.013834 -0.19697 -0.108082 -0.0140942 -0.171628
          -0.108082 -0.0140942 -0.171628 -0.11324 -0.0126841 -0.205618
          -0.0501823 -0.013834 -0.19697 -0.0482987 -0.0104118 -0.135516
          -0.108082 -0.0140942 -0.171628 -0.0501823 -0.013834 -0.19697
          -0.0171008 -0.0138017 -0.174494 -0.0482987 -0.0104118 -0.135516
          -0.0501823 -0.013834 -0.19697 -0.0482987 -0.0104118 -0.135516
          0.0358098 -0.0173367 -0.15829 -0.0171008 -0.0138017 -0.174494
          -0.0501823 -0.013834 -0.19697 0.0358098 -0.0173367 -0.15829
          0.0374318 -0.0190485 -0.230557 -0.0171008 -0.0138017 -0.174494
          -0.0501823 -0.013834 -0.19697 -0.11621 -0.0158091 -0.225044
          -0.0525861 -0.0158793 -0.211183 -0.0327653 -0.0170453 -0.262145
          -0.0327653 -0.0170453 -0.262145 -0.0295207 -0.0156766 -0.182455
          0.0390515 -0.02144 -0.216222 -0.0501823 -0.013834 -0.19697
          -0.0876838 -0.00939058 -0.201846 -0.11324 -0.0126841 -0.205618
          -0.0501823 -0.013834 -0.19697 -0.1189 -0.0141354 -0.266283
          -0.0501823 -0.013834 -0.19697 -0.0876838 -0.00939058 -0.201846
          -0.1189 -0.0141354 -0.266283 -0.0681067 -0.0183736 -0.314081
          -0.0501823 -0.013834 -0.19697 -0.0876838 -0.00939058 -0.201846
          -0.0681067 -0.0183736 -0.314081 -0.00765868 -0.0207847 -0.286805
          0.15721 -0.0181165 -0.470608 0.244901 -0.0225574 -0.460818
          0.230366 -0.0190663 -0.394513 0.169053 -0.0237773 -0.375043
          0.15721 -0.0181165 -0.470608 0.230366 -0.0190663 -0.394513
          0.110453 -0.0208346 -0.375156 0.169053 -0.0237773 -0.375043
          0.15721 -0.0181165 -0.470608 0.169053 -0.0237773 -0.375043
          0.110453 -0.0208346 -0.375156 0.152232 -0.0233181 -0.476973
          0.15721 -0.0181165 -0.470608 0.244901 -0.0225574 -0.460818
          0.169053 -0.0237773 -0.375043 0.152232 -0.0233181 -0.476973
          0.169053 -0.0237773 -0.375043 0.170921 -0.0275196 -0.439577
          0.238033 -0.0270216 -0.40716 0.172218 -0.0297435 -0.346252
          0.169053 -0.0237773 -0.375043 0.170921 -0.0275196 -0.439577
          0.172218 -0.0297435 -0.346252 0.113767 -0.0266257 -0.372606
          0.172218 -0.0297435 -0.346252 0.169053 -0.0237773 -0.375043
          0.113767 -0.0266257 -0.372606 0.105429 -0.0278619 -0.280035
          0.172218 -0.0297435 -0.346252 0.116656 -0.0213041 -0.272863
          0.169053 -0.0237773 -0.375043 0.105429 -0.0278619 -0.280035
          0.172218 -0.0297435 -0.346252 0.21664 -0.0255281 -0.33122
          0.169053 -0.0237773 -0.375043 0.116656 -0.0213041 -0.272863
          0.169053 -0.0237773 -0.375043 0.116656 -0.0213041 -0.272863
          0.21664 -0.0255281 -0.33122 0.212099 -0.0193911 -0.323621
          0.169053 -0.0237773 -0.375043 0.212099 -0.0193911 -0.323621
          0.134253 -0.0150344 -0.313891 0.116656 -0.0213041 -0.272863
          0.169053 -0.0237773 -0.375043 0.0486358 -0.0214736 -0.314918
          0.105429 -0.0278619 -0.280035 0.116656 -0.0213041 -0.272863
          0.113767 -0.0266257 -0.372606 0.0486358 -0.0214736 -0.314918
          0.105429 -0.0278619 -0.280035 0.169053 -0.0237773 -0.375043
          0.0642946 -0.0122501 -0.806808 0.00753187 -0.00795808 -0.801634
          0.105915 -0.00932992 -0.868497 0.0547873 -0.00956248 -0.875966
          0.0642946 -0.0122501 -0.806808 0.0418954 -0.00556855 -0.770226
          0.105915 -0.00932992 -0.868497 0.00753187 -0.00795808 -0.801634
          -0.0171008 -0.0138017 -0.174494 0.00486405 -0.0137133 -0.10608
          0.0358098 -0.0173367 -0.15829 0.0279292 -0.0130824 -0.150911
          -0.0277683 -0.0134212 -0.149544 0.0279292 -0.0130824 -0.150911
          0.0155697 -0.00945334 -0.0979218 -0.0354252 -0.0123842 -0.100673
          0.640978 0.234054 1.73243 0.499489 0.20972 1.78754
          0.620367 0.233462 1.82271 0.632325 0.224004 1.75653
          0.655136 0.228487 1.65267 0.499489 0.20972 1.78754
          0.640978 0.234054 1.73243 0.632325 0.224004 1.75653
          0.655136 0.228487 1.65267 0.551926 0.218189 1.69449
          0.640978 0.234054 1.73243 0.499489 0.20972 1.78754
          0.675159 0.226764 1.51115 0.551926 0.218189 1.69449
          0.640978 0.234054 1.73243 0.655136 0.228487 1.65267
          0.00486405 -0.0137133 -0.10608 0.0675574 -0.0172296 -0.103565
          0.0358098 -0.0173367 -0.15829 0.0279292 -0.0130824 -0.150911
          0.00486405 -0.0137133 -0.10608 0.0675574 -0.0172296 -0.103565
          0.0279292 -0.0130824 -0.150911 0.0155697 -0.00945334 -0.0979218
          0.0279292 -0.0130824 -0.150911 0.00486405 -0.0137133 -0.10608
          0.0155697 -0.00945334 -0.0979218 -0.0354252 -0.0123842 -0.100673
          0.197806 0.00805325 -1.12213 0.195749 -0.00968941 -1.11628
          0.208434 0.00138132 -1.11463 0.179546 -0.00518367 -1.12862
          0.197806 0.00805325 -1.12213 0.208434 0.00138132 -1.11463
          0.180665 0.00439507 -1.12932 0.179546 -0.00518367 -1.12862
          -0.0513797 -0.0175883 -0.319843 -0.0209055 -0.0143869 -0.281814
          0.0327665 -0.0135779 -0.313497 0.0107608 -0.0144463 -0.385426
          -0.0161619 -0.0175454 -0.372721 -0.0513797 -0.0175883 -0.319843
          0.0327665 -0.0135779 -0.313497 0.0107608 -0.0144463 -0.385426
          0.0327665 -0.0135779 -0.313497 0.104284 -0.0136701 -0.371997
          -0.0161619 -0.0175454 -0.372721 0.0107608 -0.0144463 -0.385426
          -0.0513797 -0.0175883 -0.319843 -0.0209055 -0.0143869 -0.281814
          0.0107608 -0.0144463 -0.385426 -0.0299594 -0.014765 -0.366911
          0.0107608 -0.0144463 -0.385426 -0.0209055 -0.0143869 -0.281814
          0.0636064 -0.00891908 -0.389929 -0.0299594 -0.014765 -0.366911
          0.0107608 -0.0144463 -0.385426 -0.0299594 -0.014765 -0.366911
          0.0636064 -0.00891908 -0.389929 0.057422 -0.00958656 -0.504466
          0.0107608 -0.0144463 -0.385426 -0.0299594 -0.014765 -0.366911
          0.057422 -0.00958656 -0.504466 -0.0432089 -0.0131838 -0.487029
          0.48131 0.134091 -0.161167 0.666764 0.142636 -0.158079
          0.465816 0.133938 -0.0723265 0.520384 0.12941 -0.212325
          -0.0449147 -0.0230668 -0.390274 -0.052492 -0.0226985 -0.433246
          -0.00718751 -0.0210012 -0.361431 0.00554623 -0.0230099 -0.354419
          0.472775 0.161158 0.475347 0.345308 0.152407 0.481869
          0.339227 0.15615 0.491304 0.325688 0.148226 0.386022
          0.345308 0.152407 0.481869 0.195943 0.145332 0.453197
          0.339227 0.15615 0.491304 0.325688 0.148226 0.386022
          0.339227 0.15615 0.491304 0.195943 0.145332 0.453197
          0.279769 0.140479 0.25432 0.325688 0.148226 0.386022
          0.603631 0.223803 1.88582 0.461908 0.207616 1.89904
          0.523184 0.21308 1.90131 0.516936 0.212012 1.83282
          0.523184 0.21308 1.90131 0.461908 0.207616 1.89904
          0.395929 0.200623 1.90057 0.516936 0.212012 1.83282
          0.325688 0.148226 0.386022 0.318274 0.14137 0.291124
          0.195943 0.145332 0.453197 0.113661 0.130721 0.288513
          0.0155697 -0.00945334 -0.0979218 0.0112358 -0.00689671 -0.058432
          -0.0382728 -0.0119119 -0.0861697 -0.0354252 -0.0123842 -0.100673
          0.0155697 -0.00945334 -0.0979218 -0.0367899 -0.00800258 -0.0599512
          0.0112358 -0.00689671 -0.058432 -0.0354252 -0.0123842 -0.100673
          -0.0367899 -0.00800258 -0.0599512 0.0112358 -0.00689671 -0.058432
          0.0100932 -0.00802936 -0.0535907 0.0155697 -0.00945334 -0.0979218
          -0.0367899 -0.00800258 -0.0599512 -0.0126816 -0.00885974 -0.0401906
          0.0100932 -0.00802936 -0.0535907 0.0112358 -0.00689671 -0.058432
          0.0112358 -0.00689671 -0.058432 -0.0126816 -0.00885974 -0.0401906
          -0.0382728 -0.0119119 -0.0861697 -0.0367899 -0.00800258 -0.0599512
          0.0112358 -0.00689671 -0.058432 -0.0367899 -0.00800258 -0.0599512
          -0.0382728 -0.0119119 -0.0861697 -0.0354252 -0.0123842 -0.100673
          -0.0126816 -0.00885974 -0.0401906 0.0100932 -0.00802936 -0.0535907
          0.0112358 -0.00689671 -0.058432 0.00613925 -0.00568058 -0.0229973
          0.0019014 -0.00258287 -0.0143042 0.00613925 -0.00568058 -0.0229973
          -0.0126816 -0.00885974 -0.0401906 0.0112358 -0.00689671 -0.058432
          0.0019014 -0.00258287 -0.0143042 0.00613925 -0.00568058 -0.0229973
          0.0112358 -0.00689671 -0.058432 0.0244272 -0.00123409 -0.0380729
          0.0112358 -0.00689671 -0.058432 0.0019014 -0.00258287 -0.0143042
          0.0244272 -0.00123409 -0.0380729 0.0376237 0.00315363 -0.0667112
          0.0112358 -0.00689671 -0.058432 0.0100932 -0.00802936 -0.0535907
          0.0244272 -0.00123409 -0.0380729 0.00613925 -0.00568058 -0.0229973
          0.0607489 -0.00918772 -0.0791758 0.0100932 -0.00802936 -0.0535907
          0.0244272 -0.00123409 -0.0380729 0.0112358 -0.00689671 -0.058432
          0.0607489 -0.00918772 -0.0791758 0.0100932 -0.00802936 -0.0535907
          0.0112358 -0.00689671 -0.058432 0.0155697 -0.00945334 -0.0979218
          0.130689 0.0951538 -0.354446 -0.0208577 0.0900582 -0.264982
          0.212402 0.107651 -0.258514 0.148226 0.0946563 -0.382148
          0.130689 0.0951538 -0.354446 -0.0208577 0.0900582 -0.264982
          0.148226 0.0946563 -0.382148 0.0377004 0.0814389 -0.41916
          -0.0208577 0.0900582 -0.264982 0.0844691 0.105919 -0.143068
          0.212402 0.107651 -0.258514 0.148226 0.0946563 -0.382148
          0.148226 0.0946563 -0.382148 0.286155 0.107829 -0.323724
          0.258244 0.101278 -0.423532 0.212402 0.107651 -0.258514
          0.139282 -0.0208527 -0.568469 0.112536 -0.0265035 -0.552338
          0.178216 -0.0244722 -0.612851 0.18615 -0.0263881 -0.527732
          0.139282 -0.0208527 -0.568469 0.112536 -0.0265035 -0.552338
          0.18615 -0.0263881 -0.527732 0.152232 -0.0233181 -0.476973
          0.112536 -0.0265035 -0.552338 0.170921 -0.0275196 -0.439577
          0.18615 -0.0263881 -0.527732 0.152232 -0.0233181 -0.476973
          0.152232 -0.0233181 -0.476973 0.170921 -0.0275196 -0.439577
          0.18615 -0.0263881 -0.527732 0.251856 -0.0261606 -0.495461
          0.270998 0.0410123 -0.998166 0.24366 0.0311635 -1.03462
          0.247711 0.0274887 -1.06388 0.304318 0.0314598 -1.01045
          0.270998 0.0410123 -0.998166 0.24366 0.0311635 -1.03462
          0.196052 0.0376533 -1.03505 0.247711 0.0274887 -1.06388
          0.270998 0.0410123 -0.998166 0.196052 0.0376533 -1.03505
          0.24366 0.0311635 -1.03462 0.239659 0.0461789 -0.951595
          0.24366 0.0311635 -1.03462 0.196052 0.0376533 -1.03505
          0.208244 0.0317288 -1.03781 0.239659 0.0461789 -0.951595
          0.24366 0.0311635 -1.03462 0.208244 0.0317288 -1.03781
          0.196052 0.0376533 -1.03505 0.208914 0.0286063 -1.0707
          0.24366 0.0311635 -1.03462 0.208914 0.0286063 -1.0707
          0.196052 0.0376533 -1.03505 0.247711 0.0274887 -1.06388
          0.304318 0.0314598 -1.01045 0.24366 0.0311635 -1.03462
          0.277479 0.0228469 -1.01923 0.253697 0.0323901 -0.985347
          0.145625 -0.00790975 -1.06445 0.112132 -0.0186334 -1.01051
          0.121469 -0.0144557 -1.02135 0.111914 -0.0174845 -1.05123
          0.0577682 -0.0281423 -1.02948 0.112132 -0.0186334 -1.01051
          0.111914 -0.0174845 -1.05123 0.121469 -0.0144557 -1.02135
          0.0700022 -0.0189528 -1.04155 0.0577682 -0.0281423 -1.02948
          0.111914 -0.0174845 -1.05123 0.121469 -0.0144557 -1.02135
          0.118174 -0.0101753 -1.07335 0.0700022 -0.0189528 -1.04155
          0.111914 -0.0174845 -1.05123 0.121469 -0.0144557 -1.02135
          0.118174 -0.0101753 -1.07335 0.0700022 -0.0189528 -1.04155
          0.121469 -0.0144557 -1.02135 0.0880873 -0.014668 -1.01073
          0.121469 -0.0144557 -1.02135 0.0880873 -0.014668 -1.01073
          0.129918 -0.0092143 -1.0239 0.118174 -0.0101753 -1.07335
          0.0880873 -0.014668 -1.01073 0.129918 -0.0092143 -1.0239
          0.123149 -0.0160708 -0.964579 0.121469 -0.0144557 -1.02135
          0.121469 -0.0144557 -1.02135 0.0389992 -0.0231358 -0.956961
          0.123149 -0.0160708 -0.964579 0.0880873 -0.014668 -1.01073
          0.0662192 -0.0264858 -0.977787 0.0389992 -0.0231358 -0.956961
          0.121469 -0.0144557 -1.02135 0.0880873 -0.014668 -1.01073
          0.0577682 -0.0281423 -1.02948 0.0662192 -0.0264858 -0.977787
          0.121469 -0.0144557 -1.02135 0.0880873 -0.014668 -1.01073
          0.0700022 -0.0189528 -1.04155 0.0577682 -0.0281423 -1.02948
          0.121469 -0.0144557 -1.02135 0.0880873 -0.014668 -1.01073
          0.0577682 -0.0281423 -1.02948 0.0662192 -0.0264858 -0.977787
          0.112132 -0.0186334 -1.01051 0.121469 -0.0144557 -1.02135
          0.0662192 -0.0264858 -0.977787 0.0389992 -0.0231358 -0.956961
          0.123149 -0.0160708 -0.964579 0.121469 -0.0144557 -1.02135
          0.171797 0.154438 0.655168 0.121136 0.145829 0.514661
          0.0917604 0.139724 0.490675 -0.0284562 0.14066 0.608061
          0.171797 0.154438 0.655168 0.195943 0.145332 0.453197
          0.0917604 0.139724 0.490675 0.121136 0.145829 0.514661
          0.121136 0.145829 0.514661 0.171797 0.154438 0.655168
          0.195943 0.145332 0.453197 0.339227 0.15615 0.491304
          0.121136 0.145829 0.514661 0.211578 0.144846 0.361071
          0.339227 0.15615 0.491304 0.195943 0.145332 0.453197
          0.121136 0.145829 0.514661 0.119924 0.137646 0.352982
          0.211578 0.144846 0.361071 0.195943 0.145332 0.453197
          -0.0340695 0.132309 0.416224 0.119924 0.137646 0.352982
          0.121136 0.145829 0.514661 0.195943 0.145332 0.453197
          0.121136 0.145829 0.514661 -0.0340695 0.132309 0.416224
          0.195943 0.145332 0.453197 0.0917604 0.139724 0.490675
          0.121136 0.145829 0.514661 0.0687574 0.142446 0.463576
          0.211578 0.144846 0.361071 0.119924 0.137646 0.352982
          0.114131 0.153668 0.647563 0.0687574 0.142446 0.463576
          0.208709 0.154096 0.550593 0.121136 0.145829 0.514661
          0.499489 0.20972 1.78754 0.551926 0.218189 1.69449
          0.549512 0.222453 1.80015 0.458955 0.20145 1.7537
          -0.0382095 -0.0203499 -0.467039 -0.130573 -0.0210149 -0.461085
          -0.128471 -0.0186226 -0.507901 -0.122298 -0.0197349 -0.569304
          -0.0382095 -0.0203499 -0.467039 -0.130573 -0.0210149 -0.461085
          -0.0454728 -0.0174241 -0.455721 -0.128471 -0.0186226 -0.507901
          -0.130573 -0.0210149 -0.461085 -0.132317 -0.0205373 -0.410748
          -0.0454728 -0.0174241 -0.455721 -0.128471 -0.0186226 -0.507901
          -0.132317 -0.0205373 -0.410748 -0.133267 -0.0188305 -0.415527
          -0.0454728 -0.0174241 -0.455721 -0.128471 -0.0186226 -0.507901
          -0.0454728 -0.0174241 -0.455721 -0.133267 -0.0188305 -0.415527
          -0.0432089 -0.0131838 -0.487029 -0.128471 -0.0186226 -0.507901
          -0.0323988 -0.0141205 -0.630091 -0.128471 -0.0186226 -0.507901
          -0.122298 -0.0197349 -0.569304 0.00229256 -0.0169905 -0.563079
          -0.0606808 -0.0122557 -0.560799 -0.128471 -0.0186226 -0.507901
          -0.0323988 -0.0141205 -0.630091 0.00229256 -0.0169905 -0.563079
          -0.0606808 -0.0122557 -0.560799 -0.125328 -0.0153589 -0.543652
          -0.0323988 -0.0141205 -0.630091 -0.128471 -0.0186226 -0.507901
          -0.0323988 -0.0141205 -0.630091 -0.125328 -0.0153589 -0.543652
          -0.122298 -0.0197349 -0.569304 -0.128471 -0.0186226 -0.507901
          0.253788 0.0760074 -0.685864 0.18863 0.0787469 -0.62348
          0.299053 0.0864083 -0.553598 0.230729 0.0840752 -0.586159
          0.253788 0.0760074 -0.685864 0.18863 0.0787469 -0.62348
          0.230729 0.0840752 -0.586159 0.117851 0.0788018 -0.593398
          0.181637 0.0729893 -0.691136 0.117851 0.0788018 -0.593398
          0.253788 0.0760074 -0.685864 0.230729 0.0840752 -0.586159
          0.181637 0.0729893 -0.691136 0.30705 0.0854688 -0.699613
          0.230729 0.0840752 -0.586159 0.253788 0.0760074 -0.685864
          0.230729 0.0840752 -0.586159 0.18863 0.0787469 -0.62348
          0.188323 0.0883993 -0.510283 0.117851 0.0788018 -0.593398
          0.230729 0.0840752 -0.586159 0.18863 0.0787469 -0.62348
          0.299053 0.0864083 -0.553598 0.188323 0.0883993 -0.510283
          0.230729 0.0840752 -0.586159 0.188323 0.0883993 -0.510283
          0.299053 0.0864083 -0.553598 0.277729 0.0975518 -0.410816
          0.15721 -0.0181165 -0.470608 0.140684 -0.013983 -0.516463
          0.104284 -0.0136701 -0.371997 0.160769 -0.0155552 -0.394325
          0.160769 -0.0155552 -0.394325 0.0509295 -0.0182737 -0.380621
          0.104284 -0.0136701 -0.371997 0.15721 -0.0181165 -0.470608
          0.160769 -0.0155552 -0.394325 0.134253 -0.0150344 -0.313891
          0.104284 -0.0136701 -0.371997 0.0509295 -0.0182737 -0.380621
          0.430173 0.0406597 -0.862268 0.363754 0.0521145 -0.84867
          0.480373 0.0621636 -0.760049 0.44217 0.0557325 -0.843822
          0.430173 0.0406597 -0.862268 0.44217 0.0557325 -0.843822
          0.328671 0.0418834 -0.942546 0.363754 0.0521145 -0.84867
          0.430173 0.0406597 -0.862268 0.328671 0.0418834 -0.942546
          0.348094 0.0296688 -0.936452 0.363754 0.0521145 -0.84867
          0.430173 0.0406597 -0.862268 0.363754 0.0521145 -0.84867
          0.348094 0.0296688 -0.936452 0.358861 0.0430357 -0.850377
          0.363754 0.0521145 -0.84867 0.283765 0.0410843 -0.917892
          0.348094 0.0296688 -0.936452 0.358861 0.0430357 -0.850377
          0.358861 0.0430357 -0.850377 0.283765 0.0410843 -0.917892
          0.268148 0.05214 -0.841647 0.363754 0.0521145 -0.84867
          0.328671 0.0418834 -0.942546 0.283765 0.0410843 -0.917892
          0.348094 0.0296688 -0.936452 0.363754 0.0521145 -0.84867
          0.44217 0.0557325 -0.843822 0.428379 0.0567763 -0.892945
          0.328671 0.0418834 -0.942546 0.363754 0.0521145 -0.84867
          0.44217 0.0557325 -0.843822 0.372622 0.0709968 -0.788346
          0.363754 0.0521145 -0.84867 0.480373 0.0621636 -0.760049
          0.372622 0.0709968 -0.788346 0.402724 0.0628676 -0.720252
          0.363754 0.0521145 -0.84867 0.480373 0.0621636 -0.760049
          0.372622 0.0709968 -0.788346 0.402724 0.0628676 -0.720252
          0.317734 0.059831 -0.79408 0.363754 0.0521145 -0.84867
          0.363754 0.0521145 -0.84867 0.317734 0.059831 -0.79408
          0.344425 0.0532901 -0.764546 0.402724 0.0628676 -0.720252
          0.363754 0.0521145 -0.84867 0.402724 0.0628676 -0.720252
          0.478524 0.0469546 -0.74553 0.480373 0.0621636 -0.760049
          0.24453 0.0708505 -0.80429 0.258765 0.0665526 -0.86543
          0.336885 0.0784927 -0.737575 0.257074 0.0669415 -0.796305
          0.24453 0.0708505 -0.80429 0.343916 0.0755584 -0.839382
          0.336885 0.0784927 -0.737575 0.258765 0.0665526 -0.86543
          0.258765 0.0665526 -0.86543 0.343916 0.0755584 -0.839382
          0.336885 0.0784927 -0.737575 0.257074 0.0669415 -0.796305
          0.112681 0.128374 0.196126 0.206908 0.133411 0.224806
          0.119924 0.137646 0.352982 0.113661 0.130721 0.288513
          0.206908 0.133411 0.224806 0.113661 0.130721 0.288513
          0.112681 0.128374 0.196126 0.0824626 0.120069 0.102868
          0.206908 0.133411 0.224806 0.0824626 0.120069 0.102868
          0.177901 0.122751 0.105101 0.113661 0.130721 0.288513
          0.280415 0.0522078 -1.06675 0.240259 0.0430863 -1.11282
          0.290625 0.0440846 -1.07206 0.238887 0.0380659 -1.09393
          0.280415 0.0522078 -1.06675 0.238887 0.0380659 -1.09393
          0.290625 0.0440846 -1.07206 0.267714 0.0382249 -1.05959
          0.198264 0.124889 0.070095 0.317615 0.133859 0.0941603
          0.279769 0.140479 0.25432 0.206908 0.133411 0.224806
          0.522544 0.209758 1.82278 0.516936 0.212012 1.83282
          0.605988 0.219487 1.8842 0.523184 0.21308 1.90131
          0.598111 0.217808 1.93833 0.605988 0.219487 1.8842
          0.523184 0.21308 1.90131 0.501687 0.207959 1.94509
          0.598111 0.217808 1.93833 0.523184 0.21308 1.90131
          0.59459 0.220233 1.95943 0.501687 0.207959 1.94509
          0.598111 0.217808 1.93833 0.605988 0.219487 1.8842
          0.59459 0.220233 1.95943 0.523184 0.21308 1.90131
          0.461807 0.207187 1.95549 0.59459 0.220233 1.95943
          0.523184 0.21308 1.90131 0.501687 0.207959 1.94509
          0.508874 0.214006 1.95539 0.59459 0.220233 1.95943
          0.523184 0.21308 1.90131 0.461807 0.207187 1.95549
          0.530358 0.152472 0.215311 0.387406 0.143248 0.223329
          0.517372 0.152084 0.282314 0.424977 0.152818 0.338667
          0.530358 0.152472 0.215311 0.445539 0.138683 0.0844741
          0.517372 0.152084 0.282314 0.387406 0.143248 0.223329
          0.387406 0.143248 0.223329 0.326886 0.131137 0.105877
          0.445539 0.138683 0.0844741 0.517372 0.152084 0.282314
          0.424977 0.152818 0.338667 0.517372 0.152084 0.282314
          0.325688 0.148226 0.386022 0.387406 0.143248 0.223329
          0.424977 0.152818 0.338667 0.325688 0.148226 0.386022
          0.279769 0.140479 0.25432 0.387406 0.143248 0.223329
          0.206908 0.133411 0.224806 0.326886 0.131137 0.105877
          0.387406 0.143248 0.223329 0.318274 0.14137 0.291124
          0.25696 0.0301693 -1.08253 0.249546 0.0280093 -1.08662
          0.298409 0.0337659 -1.05963 0.290625 0.0440846 -1.07206
          0.25696 0.0301693 -1.08253 0.249546 0.0280093 -1.08662
          0.290625 0.0440846 -1.07206 0.228412 0.0286129 -1.10666
          0.238887 0.0380659 -1.09393 0.249546 0.0280093 -1.08662
          0.228412 0.0286129 -1.10666 0.290625 0.0440846 -1.07206
          0.290625 0.0440846 -1.07206 0.240259 0.0430863 -1.11282
          0.228412 0.0286129 -1.10666 0.238887 0.0380659 -1.09393
          0.238887 0.0380659 -1.09393 0.249546 0.0280093 -1.08662
          0.290625 0.0440846 -1.07206 0.267714 0.0382249 -1.05959
          0.39061 0.201088 1.94817 0.373512 0.195207 2.01143
          0.388864 0.195535 2.04031 0.44968 0.200513 2.01221
          0.39061 0.201088 1.94817 0.44968 0.200513 2.01221
          0.388864 0.195535 2.04031 0.463114 0.205583 2.00861
          0.39061 0.201088 1.94817 0.44968 0.200513 2.01221
          0.463114 0.205583 2.00861 0.452807 0.202837 1.95211
          0.39061 0.201088 1.94817 0.373512 0.195207 2.01143
          0.44968 0.200513 2.01221 0.452807 0.202837 1.95211
          0.0644315 -0.0164299 -0.0698736 0.0675574 -0.0172296 -0.103565
          0.0277173 -0.0112998 -0.0430308 0.0607489 -0.00918772 -0.0791758
          0.0644315 -0.0164299 -0.0698736 0.0277173 -0.0112998 -0.0430308
          0.0802511 -0.012505 -0.0646586 0.0607489 -0.00918772 -0.0791758
          0.109537 -0.0163913 -0.0963933 0.0644315 -0.0164299 -0.0698736
          0.0802511 -0.012505 -0.0646586 0.0607489 -0.00918772 -0.0791758
          0.109537 -0.0163913 -0.0963933 0.0675574 -0.0172296 -0.103565
          0.0644315 -0.0164299 -0.0698736 0.0607489 -0.00918772 -0.0791758
          0.0644315 -0.0164299 -0.0698736 0.0356243 -0.0169741 -0.0342029
          0.0277173 -0.0112998 -0.0430308 0.028315 -0.0144495 -0.0665337
          0.0644315 -0.0164299 -0.0698736 0.0441782 -0.0214942 -0.0490048
          0.0356243 -0.0169741 -0.0342029 0.028315 -0.0144495 -0.0665337
          0.117074 -0.0194202 -0.800314 0.0708915 -0.0190248 -0.830437
          0.0127683 -0.0225709 -0.775399 0.0452458 -0.0243838 -0.718463
          -0.0205164 -0.0113926 -0.024542 -0.00286052 -0.00389357 -0.0426216
          -0.00257965 -0.00261425 -0.0122043 0.0019014 -0.00258287 -0.0143042
          0.0130412 -0.00728572 -0.143159 -0.00690965 -0.00854844 -0.0800788
          0.00316235 -0.00774175 -0.084285 0.0108447 -0.00392801 -0.129841
          0.0130412 -0.00728572 -0.143159 -0.0423323 -0.0154299 -0.123609
          0.00316235 -0.00774175 -0.084285 -0.00690965 -0.00854844 -0.0800788
          0.00316235 -0.00774175 -0.084285 -0.0382728 -0.0119119 -0.0861697
          -0.00690965 -0.00854844 -0.0800788 -0.0423323 -0.0154299 -0.123609
          0.00316235 -0.00774175 -0.084285 -0.0382728 -0.0119119 -0.0861697
          -0.0240264 -0.0123724 -0.0492764 -0.00690965 -0.00854844 -0.0800788
          -0.00690965 -0.00854844 -0.0800788 -0.0382728 -0.0119119 -0.0861697
          -0.0240264 -0.0123724 -0.0492764 -0.0423323 -0.0154299 -0.123609
          0.0555938 -0.0190831 -0.895268 0.0708915 -0.0190248 -0.830437
          0.0127683 -0.0225709 -0.775399 -0.000164951 -0.0258844 -0.847736
          0.0555938 -0.0190831 -0.895268 0.00945855 -0.0154396 -0.791267
          0.0127683 -0.0225709 -0.775399 0.0708915 -0.0190248 -0.830437
          0.0555938 -0.0190831 -0.895268 0.10775 -0.0136116 -0.885602
          0.00945855 -0.0154396 -0.791267 0.0708915 -0.0190248 -0.830437
          0.0555938 -0.0190831 -0.895268 0.10091 -0.0208321 -0.887682
          0.10775 -0.0136116 -0.885602 0.0708915 -0.0190248 -0.830437
          0.10091 -0.0208321 -0.887682 0.156523 -0.0152272 -0.89299
          0.10775 -0.0136116 -0.885602 0.0708915 -0.0190248 -0.830437
          0.10775 -0.0136116 -0.885602 0.156523 -0.0152272 -0.89299
          0.096068 -0.0160099 -0.794129 0.0708915 -0.0190248 -0.830437
          0.0708915 -0.0190248 -0.830437 0.10775 -0.0136116 -0.885602
          0.00945855 -0.0154396 -0.791267 0.096068 -0.0160099 -0.794129
          0.0708915 -0.0190248 -0.830437 0.00945855 -0.0154396 -0.791267
          0.0127683 -0.0225709 -0.775399 0.096068 -0.0160099 -0.794129
          0.0708915 -0.0190248 -0.830437 0.096068 -0.0160099 -0.794129
          0.0127683 -0.0225709 -0.775399 0.08759 -0.0181695 -0.700148
          0.0452458 -0.0243838 -0.718463 0.0708915 -0.0190248 -0.830437
          0.0127683 -0.0225709 -0.775399 0.08759 -0.0181695 -0.700148
          -0.0443746 -0.0202338 -0.606738 0.00633645 -0.0199511 -0.543667
          0.00229256 -0.0169905 -0.563079 -0.0382095 -0.0203499 -0.467039
          0.00633645 -0.0199511 -0.543667 -0.0382095 -0.0203499 -0.467039
          0.0470197 -0.0148555 -0.460253 0.00229256 -0.0169905 -0.563079
          -0.0443746 -0.0202338 -0.606738 0.0166565 -0.0213178 -0.651747
          0.0359931 -0.0179081 -0.637707 0.00633645 -0.0199511 -0.543667
          0.0470043 -0.0228191 -0.395565 0.0665477 -0.0233217 -0.48275
          0.0509295 -0.0182737 -0.380621 0.110453 -0.0208346 -0.375156
          0.0108537 -0.0216076 -0.447808 0.0665477 -0.0233217 -0.48275
          0.0509295 -0.0182737 -0.380621 0.0470043 -0.0228191 -0.395565
          -0.00718751 -0.0210012 -0.361431 0.0108537 -0.0216076 -0.447808
          0.0509295 -0.0182737 -0.380621 0.0470043 -0.0228191 -0.395565
          -0.052492 -0.0226985 -0.433246 0.0108537 -0.0216076 -0.447808
          -0.00718751 -0.0210012 -0.361431 0.0470043 -0.0228191 -0.395565
          -0.052492 -0.0226985 -0.433246 0.0665477 -0.0233217 -0.48275
          0.0108537 -0.0216076 -0.447808 0.0470043 -0.0228191 -0.395565
          -0.052492 -0.0226985 -0.433246 -0.00588535 -0.0269348 -0.514974
          0.0665477 -0.0233217 -0.48275 0.0470043 -0.0228191 -0.395565
          0.0470043 -0.0228191 -0.395565 0.0486358 -0.0214736 -0.314918
          0.113767 -0.0266257 -0.372606 0.110453 -0.0208346 -0.375156
          0.0470043 -0.0228191 -0.395565 0.110453 -0.0208346 -0.375156
          0.113767 -0.0266257 -0.372606 0.152232 -0.0233181 -0.476973
          0.0470043 -0.0228191 -0.395565 0.113767 -0.0266257 -0.372606
          0.0536057 -0.025715 -0.403315 0.152232 -0.0233181 -0.476973
          0.0536057 -0.025715 -0.403315 0.0470043 -0.0228191 -0.395565
          0.0549394 -0.024593 -0.318496 0.113767 -0.0266257 -0.372606
          0.0536057 -0.025715 -0.403315 0.00554623 -0.0230099 -0.354419
          0.0549394 -0.024593 -0.318496 0.0470043 -0.0228191 -0.395565
          0.0470043 -0.0228191 -0.395565 0.00554623 -0.0230099 -0.354419
          0.0549394 -0.024593 -0.318496 0.0486358 -0.0214736 -0.314918
          0.0470043 -0.0228191 -0.395565 0.0486358 -0.0214736 -0.314918
          0.0549394 -0.024593 -0.318496 0.113767 -0.0266257 -0.372606
          0.520384 0.12941 -0.212325 0.666764 0.142636 -0.158079
          0.465816 0.133938 -0.0723265 0.527923 0.13303 -0.0882344
          0.520384 0.12941 -0.212325 0.416411 0.116529 -0.262841
          0.527923 0.13303 -0.0882344 0.465816 0.133938 -0.0723265
          0.465816 0.133938 -0.0723265 0.416411 0.116529 -0.262841
          0.527923 0.13303 -0.0882344 0.339176 0.123145 -0.0956363
          0.465816 0.133938 -0.0723265 0.317615 0.133859 0.0941603
          0.520411 0.143817 -0.00516023 0.31981 0.134046 0.0434342
          0.658278 0.133014 0.0473313 0.520946 0.131935 0.0779313
          0.564528 0.133583 0.140069 0.681499 0.15071 0.240111
          0.658278 0.133014 0.0473313 0.672307 0.142273 0.106764
          0.520946 0.131935 0.0779313 0.681499 0.15071 0.240111
          0.672307 0.142273 0.106764 0.520946 0.131935 0.0779313
          0.681499 0.15071 0.240111 0.554677 0.147962 0.233816
          0.672307 0.142273 0.106764 0.44205 0.135678 0.148091
          0.520946 0.131935 0.0779313 0.554677 0.147962 0.233816
          0.672307 0.142273 0.106764 0.44205 0.135678 0.148091
          0.500981 0.133764 0.025035 0.520946 0.131935 0.0779313
          0.520946 0.131935 0.0779313 0.44205 0.135678 0.148091
          0.681499 0.15071 0.240111 0.554677 0.147962 0.233816
          0.44205 0.135678 0.148091 0.681499 0.15071 0.240111
          0.516531 0.151569 0.353601 0.520946 0.131935 0.0779313
          0.44205 0.135678 0.148091 0.520946 0.131935 0.0779313
          0.516531 0.151569 0.353601 0.54103 0.141297 0.259453
          0.520946 0.131935 0.0779313 0.681499 0.15071 0.240111
          0.516531 0.151569 0.353601 0.54103 0.141297 0.259453
          0.520946 0.131935 0.0779313 0.681499 0.15071 0.240111
          0.54103 0.141297 0.259453 0.564528 0.133583 0.140069
          0.477379 0.178653 0.833553 0.364277 0.178104 1.03208
          0.509302 0.18922 1.04712 0.422856 0.180565 0.934743
          0.422856 0.180565 0.934743 0.364277 0.178104 1.03208
          0.509302 0.18922 1.04712 0.327201 0.179018 1.03886
          0.422856 0.180565 0.934743 0.441927 0.190179 1.14735
          0.327201 0.179018 1.03886 0.509302 0.18922 1.04712
          0.422856 0.180565 0.934743 0.441927 0.190179 1.14735
          0.285644 0.179109 1.01471 0.327201 0.179018 1.03886
          0.422856 0.180565 0.934743 0.327201 0.179018 1.03886
          0.285644 0.179109 1.01471 0.299283 0.172557 0.858087
          0.420039 0.179584 0.88187 0.422856 0.180565 0.934743
          0.285644 0.179109 1.01471 0.299283 0.172557 0.858087
          0.420039 0.179584 0.88187 0.346798 0.170757 0.800478
          0.422856 0.180565 0.934743 0.299283 0.172557 0.858087
          0.422856 0.180565 0.934743 0.346798 0.170757 0.800478
          0.420039 0.179584 0.88187 0.526269 0.182344 0.807915
          0.422856 0.180565 0.934743 0.346798 0.170757 0.800478
          0.327201 0.179018 1.03886 0.299283 0.172557 0.858087
          0.346798 0.170757 0.800478 0.422856 0.180565 0.934743
          0.327201 0.179018 1.03886 0.224316 0.165267 0.860861
          0.346798 0.170757 0.800478 0.349722 0.170056 0.845586
          0.422856 0.180565 0.934743 0.224316 0.165267 0.860861
          0.422856 0.180565 0.934743 0.349722 0.170056 0.845586
          0.327201 0.179018 1.03886 0.224316 0.165267 0.860861
          0.422856 0.180565 0.934743 0.364277 0.178104 1.03208
          0.327201 0.179018 1.03886 0.349722 0.170056 0.845586
          0.217546 0.0982124 -0.384524 0.188323 0.0883993 -0.510283
          0.277729 0.0975518 -0.410816 0.108892 0.0931933 -0.375589
          0.533951 0.211685 1.71521 0.516936 0.212012 1.83282
          0.632325 0.224004 1.75653 0.619954 0.221042 1.81518
          0.533951 0.211685 1.71521 0.619954 0.221042 1.81518
          0.632325 0.224004 1.75653 0.643071 0.218332 1.70571
          0.533951 0.211685 1.71521 0.516936 0.212012 1.83282
          0.619954 0.221042 1.81518 0.643071 0.218332 1.70571
          0.126494 -0.0116239 -0.962722 0.055218 -0.0096646 -0.961593
          0.129918 -0.0092143 -1.0239 0.0919467 -0.0135297 -0.954481
          0.055218 -0.0096646 -0.961593 0.10775 -0.0136116 -0.885602
          0.0919467 -0.0135297 -0.954481 0.126494 -0.0116239 -0.962722
          0.055218 -0.0096646 -0.961593 0.0547873 -0.00956248 -0.875966
          0.0919467 -0.0135297 -0.954481 0.10775 -0.0136116 -0.885602
          0.055218 -0.0096646 -0.961593 0.0547873 -0.00956248 -0.875966
          0.0102294 -0.0145549 -0.890416 0.0919467 -0.0135297 -0.954481
          0.055218 -0.0096646 -0.961593 0.0102294 -0.0145549 -0.890416
          0.0555938 -0.0190831 -0.895268 0.0919467 -0.0135297 -0.954481
          0.0919467 -0.0135297 -0.954481 0.0102294 -0.0145549 -0.890416
          0.0555938 -0.0190831 -0.895268 0.10775 -0.0136116 -0.885602
          0.0919467 -0.0135297 -0.954481 0.10775 -0.0136116 -0.885602
          0.0555938 -0.0190831 -0.895268 0.10091 -0.0208321 -0.887682
          0.123149 -0.0160708 -0.964579 0.0919467 -0.0135297 -0.954481
          0.0555938 -0.0190831 -0.895268 0.10091 -0.0208321 -0.887682
          0.123149 -0.0160708 -0.964579 0.10775 -0.0136116 -0.885602
          0.0919467 -0.0135297 -0.954481 0.10091 -0.0208321 -0.887682
          0.123149 -0.0160708 -0.964579 0.0919467 -0.0135297 -0.954481
          0.10775 -0.0136116 -0.885602 0.156523 -0.0152272 -0.89299
          0.123149 -0.0160708 -0.964579 0.126494 -0.0116239 -0.962722
          0.0919467 -0.0135297 -0.954481 0.156523 -0.0152272 -0.89299
          0.0919467 -0.0135297 -0.954481 0.126494 -0.0116239 -0.962722
          0.10775 -0.0136116 -0.885602 0.156523 -0.0152272 -0.89299
          0.0919467 -0.0135297 -0.954481 0.0547873 -0.00956248 -0.875966
          0.0102294 -0.0145549 -0.890416 0.10775 -0.0136116 -0.885602
          0.335164 0.204974 2.06627 0.305763 0.193747 2.10138
          0.338076 0.210966 2.13269 0.38125 0.210746 2.12329
          0.335164 0.204974 2.06627 0.338076 0.210966 2.13269
          0.404221 0.212756 2.07781 0.38125 0.210746 2.12329
          0.404221 0.212756 2.07781 0.335164 0.204974 2.06627
          0.38125 0.210746 2.12329 0.394078 0.205558 2.05199
          0.335164 0.204974 2.06627 0.305763 0.193747 2.10138
          0.38125 0.210746 2.12329 0.343228 0.197767 2.10279
          0.335164 0.204974 2.06627 0.267912 0.193391 2.06131
          0.305763 0.193747 2.10138 0.193506 0.157546 1.98437
          0.169153 0.0211548 -1.10787 0.173956 0.0310747 -1.07793
          0.171435 0.0306672 -1.08531 0.187816 0.025274 -1.11521
          0.169153 0.0211548 -1.10787 0.171435 0.0306672 -1.08531
          0.160153 0.0242505 -1.10792 0.187816 0.025274 -1.11521
          0.138486 0.0182829 -1.10666 0.169153 0.0211548 -1.10787
          0.171435 0.0306672 -1.08531 0.160153 0.0242505 -1.10792
          0.138486 0.0182829 -1.10666 0.171435 0.0306672 -1.08531
          0.120681 0.0270317 -1.07656 0.160153 0.0242505 -1.10792
          0.138486 0.0182829 -1.10666 0.169153 0.0211548 -1.10787
          0.120681 0.0270317 -1.07656 0.171435 0.0306672 -1.08531
          0.169153 0.0211548 -1.10787 0.129881 0.0190457 -1.08765
          0.120681 0.0270317 -1.07656 0.171435 0.0306672 -1.08531
          0.120681 0.0270317 -1.07656 0.117393 0.0308707 -1.07992
          0.160153 0.0242505 -1.10792 0.171435 0.0306672 -1.08531
          0.120681 0.0270317 -1.07656 0.157308 0.0350187 -1.04742
          0.117393 0.0308707 -1.07992 0.171435 0.0306672 -1.08531
          0.171435 0.0306672 -1.08531 0.160153 0.0242505 -1.10792
          0.187816 0.025274 -1.11521 0.196263 0.0293345 -1.09673
          0.150219 0.0219777 -1.11042 0.123387 0.0269296 -1.10146
          0.125307 0.0114024 -1.09595 0.118354 0.00659017 -1.09692
          0.118354 0.00659017 -1.09692 0.145661 0.00531314 -1.11313
          0.125307 0.0114024 -1.09595 0.150219 0.0219777 -1.11042
          0.253552 -0.0181023 -0.513482 0.139282 -0.0208527 -0.568469
          0.259363 -0.0222661 -0.561488 0.152232 -0.0233181 -0.476973
          0.15721 -0.0181165 -0.470608 0.152232 -0.0233181 -0.476973
          0.253552 -0.0181023 -0.513482 0.244901 -0.0225574 -0.460818
          0.188625 0.0125997 -1.1077 0.176476 0.0148389 -1.10969
          0.173365 0.0162593 -1.12608 0.195952 0.0179985 -1.12406
          0.195952 0.0179985 -1.12406 0.176476 0.0148389 -1.10969
          0.206879 0.0273064 -1.10803 0.188625 0.0125997 -1.1077
          0.139827 -0.00620229 -1.11706 0.159927 0.00494235 -1.10631
          0.145661 0.00531314 -1.11313 0.166462 0.00518771 -1.12544
          0.173365 0.0162593 -1.12608 0.166462 0.00518771 -1.12544
          0.145661 0.00531314 -1.11313 0.159927 0.00494235 -1.10631
          0.173365 0.0162593 -1.12608 0.159927 0.00494235 -1.10631
          0.145661 0.00531314 -1.11313 0.176476 0.0148389 -1.10969
          0.159927 0.00494235 -1.10631 0.176476 0.0148389 -1.10969
          0.173365 0.0162593 -1.12608 0.188625 0.0125997 -1.1077
          0.166462 0.00518771 -1.12544 0.159927 0.00494235 -1.10631
          0.173365 0.0162593 -1.12608 0.188625 0.0125997 -1.1077
          0.145661 0.00531314 -1.11313 0.159927 0.00494235 -1.10631
          0.125307 0.0114024 -1.09595 0.176476 0.0148389 -1.10969
          0.145661 0.00531314 -1.11313 0.130043 -0.00557288 -1.10149
          0.125307 0.0114024 -1.09595 0.159927 0.00494235 -1.10631
          0.253552 -0.0181023 -0.513482 0.15721 -0.0181165 -0.470608
          0.160769 -0.0155552 -0.394325 0.251263 -0.0139785 -0.497885
          0.253552 -0.0181023 -0.513482 0.160769 -0.0155552 -0.394325
          0.238356 -0.0109887 -0.42744 0.251263 -0.0139785 -0.497885
          0.230366 -0.0190663 -0.394513 0.160769 -0.0155552 -0.394325
          0.238356 -0.0109887 -0.42744 0.253552 -0.0181023 -0.513482
          0.230366 -0.0190663 -0.394513 0.15721 -0.0181165 -0.470608
          0.160769 -0.0155552 -0.394325 0.253552 -0.0181023 -0.513482
          -0.0331069 -0.0207408 -0.7108 -0.0443746 -0.0202338 -0.606738
          -0.109993 -0.0199922 -0.657779 -0.111952 -0.0240078 -0.643506
          0.0607489 -0.00918772 -0.0791758 0.0222848 -0.00558348 -0.0278639
          0.0514415 -0.00199443 -0.0580778 0.0244272 -0.00123409 -0.0380729
          0.0607489 -0.00918772 -0.0791758 0.0514415 -0.00199443 -0.0580778
          0.0660439 -0.0028024 -0.102152 0.0244272 -0.00123409 -0.0380729
          0.0244272 -0.00123409 -0.0380729 0.0376237 0.00315363 -0.0667112
          0.0514415 -0.00199443 -0.0580778 0.0660439 -0.0028024 -0.102152
          0.0376237 0.00315363 -0.0667112 0.0244272 -0.00123409 -0.0380729
          0.0514415 -0.00199443 -0.0580778 0.0174988 0.00881202 -0.0123778
          0.0376237 0.00315363 -0.0667112 0.0514415 -0.00199443 -0.0580778
          0.0915026 0.0116161 -0.076386 0.0174988 0.00881202 -0.0123778
          0.0514415 -0.00199443 -0.0580778 0.0376237 0.00315363 -0.0667112
          0.0915026 0.0116161 -0.076386 0.0660439 -0.0028024 -0.102152
          0.0514415 -0.00199443 -0.0580778 0.0752352 -0.00582282 -0.0580352
          0.0222848 -0.00558348 -0.0278639 0.0607489 -0.00918772 -0.0791758
          0.307201 0.123835 0.0687832 0.269518 0.124347 0.146292
          0.395931 0.139444 0.273135 0.257122 0.135619 0.303109
          0.307201 0.123835 0.0687832 0.269518 0.124347 0.146292
          0.376157 0.134811 0.252378 0.395931 0.139444 0.273135
          0.257122 0.135619 0.303109 0.330553 0.141912 0.420265
          0.395931 0.139444 0.273135 0.333142 0.149548 0.503453
          0.257122 0.135619 0.303109 0.395931 0.139444 0.273135
          0.374349 0.146448 0.377404 0.333142 0.149548 0.503453
          0.395931 0.139444 0.273135 0.257122 0.135619 0.303109
          0.374349 0.146448 0.377404 0.318274 0.14137 0.291124
          0.374349 0.146448 0.377404 0.395931 0.139444 0.273135
          0.516531 0.151569 0.353601 0.333142 0.149548 0.503453
          0.395931 0.139444 0.273135 0.333142 0.149548 0.503453
          0.538118 0.159808 0.49707 0.516531 0.151569 0.353601
          0.395931 0.139444 0.273135 0.538118 0.159808 0.49707
          0.505427 0.147666 0.375367 0.516531 0.151569 0.353601
          0.395931 0.139444 0.273135 0.516531 0.151569 0.353601
          0.505427 0.147666 0.375367 0.54103 0.141297 0.259453
          0.395931 0.139444 0.273135 0.44205 0.135678 0.148091
          0.516531 0.151569 0.353601 0.54103 0.141297 0.259453
          0.395931 0.139444 0.273135 0.44205 0.135678 0.148091
          0.54103 0.141297 0.259453 0.520946 0.131935 0.0779313
          0.330553 0.141912 0.420265 0.538118 0.159808 0.49707
          0.505427 0.147666 0.375367 0.395931 0.139444 0.273135
          0.330553 0.141912 0.420265 0.333142 0.149548 0.503453
          0.538118 0.159808 0.49707 0.395931 0.139444 0.273135
          0.184506 0.00171474 -1.10889 0.176707 0.00807449 -1.12962
          0.183085 0.00551842 -1.13081 0.197736 0.00453341 -1.11451
          0.176707 0.00807449 -1.12962 0.195515 0.00872119 -1.11504
          0.197736 0.00453341 -1.11451 0.184506 0.00171474 -1.10889
          0.117877 -0.0213928 -0.722719 0.187251 -0.0208078 -0.643288
          0.183531 -0.02037 -0.75319 0.15297 -0.0190904 -0.707837
          0.117877 -0.0213928 -0.722719 0.15297 -0.0190904 -0.707837
          0.183531 -0.02037 -0.75319 0.205372 -0.0163374 -0.830822
          0.117877 -0.0213928 -0.722719 0.0853681 -0.0229088 -0.641772
          0.187251 -0.0208078 -0.643288 0.15297 -0.0190904 -0.707837
          0.117877 -0.0213928 -0.722719 0.0252257 -0.0287216 -0.667561
          0.0853681 -0.0229088 -0.641772 0.0452458 -0.0243838 -0.718463
        </DataArray>
      </PointData>
      <CellData Scalars="vonMisesStress_forMV_lambda140000_mu50000" Vectors="ScalarGradient" Tensors="Strain">
        <DataArray type="Float64" Name="Material Id" format="ascii" RangeMin="0" RangeMax="0">
          0 0 0 0 0 0
          0 0 0 0 0 0
          0 0 0 0 0 0
          0 0 0 0 0 0
          0 0 0 0 0 0
          0 0 0 0 0 0
          0 0 0 0 0 0
          0 0 0 0 0 0
          0 0 0 0 0 0
          0 0 0 0 0 0
          0 0 0 0 0 0
          0 0 0 0 0 0
          0 0 0 0 0 0
          0 0 0 0 0 0
          0 0 0 0 0 0
          0 0 0 0 0 0
          0 0 0 0 0 0
          0 0 0 0 0 0
          0 0 0 0 0 0
          0 0 0 0 0 0
          0 0 0 0 0 0
          0 0 0 0 0 0
          0 0 0 0 0 0
          0 0 0 0 0 0
          0 0 0 0 0 0
          0 0 0 0 0 0
          0 0 0 0 0 0
          0 0 0 0 0 0
          0 0 0 0 0 0
          0 0 0 0 0 0
          0 0 0 0 0 0
          0 0 0 0 0 0
          0 0 0 0 0 0
          0 0 0 0 0 0
          0 0 0 0 0 0
          0 0 0 0 0 0
          0 0 0 0 0 0
          0 0 0 0 0 0
          0 0 0 0 0 0
          0 0 0 0 0 0
          0 0 0 0 0 0
          0 0 0 0 0 0
          0 0 0 0 0 0
          0 0 0 0 0 0
          0 0 0 0 0 0
          0 0 0 0 0 0
          0 0 0 0 0 0
          0 0 0 0 0 0
          0 0 0 0 0 0
          0 0 0 0 0 0
          0 0 0 0 0 0
          0 0 0 0 0 0
          0 0 0 0 0 0
          0 0 0 0 0 0
          0 0 0 0 0 0
          0 0 0 0 0 0
          0 0 0 0 0 0
          0 0 0 0 0 0
          0 0 0 0 0 0
          0 0 0 0 0 0
          0 0 0 0 0 0
          0 0 0 0 0 0
          0 0 0 0 0 0
          0 0 0 0 0 0
          0 0 0 0 0 0
          0 0 0 0 0 0
          0 0 0 0 0 0
          0 0 0 0 0 0
          0 0 0 0 0 0
          0 0 0 0 0 0
          0 0 0 0 0 0
          0 0 0 0 0 0
          0 0 0 0 0 0
          0 0 0 0 0 0
          0 0 0 0 0 0
          0 0 0 0 0 0
          0 0 0 0 0 0
          0 0 0 0 0 0
          0 0 0 0 0 0
          0 0 0 0 0 0
          0 0 0 0 0 0
          0 0 0 0 0 0
          0 0 0 0 0 0
          0 0 0 0 0 0
          0 0 0 0 0 0
          0 0 0 0 0 0
          0 0 0 0 0 0
          0 0 0 0 0 0
          0 0 0 0 0 0
          0 0 0 0 0 0
          0 0 0 0 0 0
          0 0 0 0 0 0
          0 0 0 0 0 0
          0 0 0 0 0 0
          0 0 0 0 0 0
          0 0 0 0 0 0
          0 0 0 0 0 0
          0 0 0 0 0 0
          0 0 0 0 0 0
          0 0 0 0 0 0
          0 0 0 0 0 0
          0 0 0 0 0 0
          0 0 0 0 0 0
          0 0 0 0 0 0
          0 0 0 0 0 0
          0 0 0 0 0 0
          0 0 0 0 0 0
          0 0 0 0 0 0
          0 0 0 0 0 0
          0 0 0 0 0 0
          0 0 0 0 0 0
          0 0 0 0 0 0
          0 0 0 0 0 0
          0 0 0 0 0 0
          0 0 0 0 0 0
          0 0 0 0 0 0
          0 0 0 0 0 0
          0 0 0 0 0 0
          0 0 0 0 0 0
          0 0 0 0 0 0
          0 0 0 0 0 0
          0 0 0 0 0 0
          0 0 0 0 0 0
          0 0 0 0 0 0
          0 0 0 0 0 0
          0 0 0 0 0 0
          0 0 0 0 0 0
          0 0 0 0 0 0
          0 0 0 0 0 0
          0 0 0 0 0 0
          0 0 0 0 0 0
          0 0 0 0 0 0
          0 0 0 0 0 0
          0 0 0 0 0 0
          0 0 0 0 0 0
          0 0 0 0 0 0
          0 0 0 0 0 0
          0 0 0 0 0 0
          0 0 0 0 0 0
          0 0 0 0 0 0
          0 0 0 0 0 0
          0 0 0 0 0 0
          0 0 0 0 0 0
          0 0 0 0 0 0
          0 0 0 0 0 0
          0 0 0 0 0 0
          0 0 0 0 0 0
          0 0 0 0 0 0
          0 0 0 0 0 0
          0 0 0 0 0 0
          0 0 0 0 0 0
          0 0 0 0 0 0
          0 0 0 0 0 0
          0 0 0 0 0 0
          0 0 0 0 0 0
          0 0 0 0 0 0
          0 0 0 0 0 0
          0 0 0 0 0 0
          0 0 0 0 0 0
          0 0 0 0 0 0
          0 0 0 0 0 0
          0 0 0 0 0 0
          0 0 0 0 0 0
          0 0 0 0 0 0
          0 0 0 0 0 0
          0 0 0 0 0 0
          0 0 0 0 0 0
          0 0 0 0 0 0
          0 0 0 0 0 0
          0 0 0 0 0 0
          0 0 0 0 0 0
          0 0 0 0 0 0
          0 0 0 0 0 0
          0 0 0 0 0 0
          0 0 0 0 0 0
          0 0 0 0 0 0
          0 0 0 0 0 0
          0 0 0 0 0 0
          0 0 0 0 0 0
          0 0 0 0 0 0
          0 0 0 0 0 0
          0 0 0 0 0 0
          0 0 0 0 0 0
          0 0 0 0 0 0
          0 0 0 0 0 0
          0 0 0 0 0 0
          0 0 0 0 0 0
          0 0 0 0 0 0
          0 0 0 0 0 0
          0 0 0 0 0 0
          0 0 0 0 0 0
          0 0 0 0 0 0
          0 0 0 0 0 0
          0 0 0 0 0 0
          0 0 0 0 0 0
          0 0 0 0 0 0
          0 0 0 0 0 0
          0 0 0 0 0 0
          0 0 0 0 0 0
          0 0 0 0 0 0
          0 0 0 0 0 0
          0 0 0 0 0 0
          0 0 0 0 0 0
          0 0 0 0 0 0
          0 0 0 0 0 0
          0 0 0 0 0 0
          0 0 0 0 0 0
          0 0 0 0 0 0
          0 0 0 0 0 0
          0 0 0 0 0 0
          0 0 0 0 0 0
          0 0 0 0 0 0
          0 0 0 0 0 0
          0 0 0 0 0 0
          0 0 0 0 0 0
          0 0 0 0 0 0
          0 0 0 0 0 0
          0 0 0 0 0 0
          0 0 0 0 0 0
          0 0 0 0 0 0
          0 0 0 0 0 0
          0 0 0 0 0 0
          0 0 0 0 0 0
          0 0 0 0 0 0
          0 0 0 0 0 0
          0 0 0 0 0 0
          0 0 0 0 0 0
          0 0 0 0 0 0
          0 0 0 0 0 0
          0 0 0 0 0 0
          0 0 0 0 0 0
          0 0 0 0 0 0
          0 0 0 0 0 0
          0 0 0 0 0 0
          0 0 0 0 0 0
          0 0 0 0 0 0
          0 0 0 0 0 0
          0 0 0 0 0 0
          0 0 0 0 0 0
          0 0 0 0 0 0
          0 0 0 0 0 0
          0 0 0 0 0 0
          0 0 0 0 0 0
          0 0 0 0 0 0
          0 0 0 0 0 0
          0 0 0 0 0 0
          0 0 0 0 0 0
          0 0 0 0 0 0
          0 0 0 0 0 0
          0 0 0 0 0 0
          0 0 0 0 0 0
          0 0 0 0 0 0
          0 0 0 0 0 0
          0 0 0 0 0 0
          0 0 0 0 0 0
          0 0 0 0 0 0
          0 0 0 0 0 0
          0 0 0 0 0 0
          0 0 0 0 0 0
          0 0 0 0 0 0
          0 0 0 0 0 0
          0 0 0 0 0 0
          0 0 0 0 0 0
          0 0 0 0 0 0
          0 0 0 0 0 0
          0 0 0 0 0 0
          0 0 0 0 0 0
          0 0 0 0 0 0
          0 0 0 0 0 0
          0 0 0 0 0 0
          0 0 0 0 0 0
          0 0 0 0 0 0
          0 0 0 0 0 0
          0 0 0 0 0 0
          0 0 0 0 0 0
          0 0 0 0 0 0
          0 0 0 0 0 0
          0 0 0 0 0 0
          0 0 0 0 0 0
          0 0 0 0 0 0
          0 0 0 0 0 0
          0 0 0 0 0 0
          0 0 0 0 0 0
          0 0 0 0 0 0
          0 0 0 0 0 0
          0 0 0 0 0 0
          0 0 0 0 0 0
          0 0 0 0 0 0
          0 0 0 0 0 0
          0 0 0 0 0 0
          0 0 0 0 0 0
          0 0 0 0 0 0
          0 0 0 0 0 0
          0 0 0 0 0 0
          0 0 0 0 0 0
          0 0 0 0 0 0
          0 0 0 0 0 0
          0 0 0 0 0 0
          0 0 0 0 0 0
          0 0 0 0 0 0
          0 0 0 0 0 0
          0 0 0 0 0 0
          0 0 0 0 0 0
          0 0 0 0 0 0
          0 0 0 0 0 0
          0 0 0 0 0 0
          0 0 0 0 0 0
          0 0 0 0 0 0
          0 0 0 0 0 0
          0 0 0 0 0 0
          0 0 0 0 0 0
          0 0 0 0 0 0
          0 0 0 0 0 0
          0 0 0 0 0 0
          0 0 0 0 0 0
          0 0 0 0 0 0
          0 0 0 0 0 0
          0 0 0 0 0 0
          0 0 0 0 0 0
          0 0 0 0 0 0
          0 0 0 0 0 0
          0 0 0 0 0 0
          0 0 0 0 0 0
          0 0 0 0 0 0
          0 0 0 0 0 0
          0 0 0 0 0 0
          0 0 0 0 0 0
          0 0 0 0 0 0
          0 0 0 0 0 0
          0 0 0 0 0 0
          0 0 0 0 0 0
          0 0 0 0 0 0
          0 0 0 0 0 0
          0 0 0 0 0 0
          0 0 0 0 0 0
          0 0 0 0 0 0
          0 0 0 0 0 0
          0 0 0 0 0 0
          0 0 0 0 0 0
          0 0 0 0 0 0
          0 0 0 0 0 0
          0 0 0 0 0 0
          0 0 0 0 0 0
          0 0 0 0 0 0
          0 0 0 0 0 0
          0 0 0 0 0 0
          0 0 0 0 0 0
          0 0 0 0 0 0
          0 0 0 0 0 0
          0 0 0 0 0 0
          0 0 0 0 0 0
          0 0 0 0 0 0
          0 0 0 0 0 0
          0 0 0 0 0 0
          0 0 0 0 0 0
          0 0 0 0 0 0
          0 0 0 0 0 0
          0 0 0 0 0 0
          0 0 0 0 0 0
          0 0 0 0 0 0
          0 0 0 0 0 0
          0 0 0 0 0 0
          0 0 0 0 0 0
          0 0 0 0 0 0
          0 0 0 0 0 0
          0 0 0 0 0 0
          0 0 0 0 0 0
          0 0 0 0 0 0
          0 0 0 0 0 0
          0 0 0 0 0 0
          0 0 0 0 0 0
          0 0 0 0 0 0
          0 0 0 0 0 0
          0 0 0 0 0 0
          0 0 0 0 0 0
          0 0 0 0 0 0
          0 0 0 0 0 0
          0 0 0 0 0 0
          0 0 0 0 0 0
          0 0 0 0 0 0
          0 0 0 0 0 0
          0 0 0 0 0 0
          0 0 0 0 0 0
          0 0 0 0 0 0
          0 0 0 0 0 0
          0 0 0 0 0 0
          0 0 0 0 0 0
          0 0 0 0 0 0
          0 0 0 0 0 0
          0 0 0 0 0 0
          0 0 0 0 0 0
          0 0 0 0 0 0
          0 0 0 0 0 0
          0 0 0 0 0 0
          0 0 0 0 0 0
          0 0 0 0 0 0
          0 0 0 0 0 0
          0 0 0 0 0 0
          0 0 0 0 0 0
          0 0 0 0 0 0
          0 0 0 0 0 0
          0 0 0 0 0 0
          0 0 0 0 0 0
          0 0 0 0 0 0
          0 0 0 0 0 0
          0 0 0 0 0 0
          0 0 0 0 0 0
          0 0 0 0 0 0
          0 0 0 0 0 0
          0 0 0 0 0 0
          0 0 0 0 0 0
          0 0 0 0 0 0
          0 0 0 0 0 0
          0 0 0 0 0 0
          0 0 0 0 0 0
          0 0 0 0 0 0
          0 0 0 0 0 0
          0 0 0 0 0 0
          0 0 0 0 0 0
          0 0 0 0 0 0
          0 0 0 0 0 0
          0 0 0 0 0 0
          0 0 0 0 0 0
          0 0 0 0 0 0
          0 0 0 0 0 0
          0 0 0 0 0 0
          0 0 0 0 0 0
          0 0 0 0 0 0
          0 0 0 0 0 0
          0 0 0 0 0 0
          0 0 0 0 0 0
          0 0 0 0 0 0
          0 0 0 0 0 0
          0 0 0 0 0 0
          0 0 0 0 0 0
          0 0 0 0 0 0
          0 0 0 0 0 0
          0 0 0 0 0 0
          0 0 0 0 0 0
          0 0 0 0 0 0
          0 0 0 0 0 0
          0 0 0 0 0 0
          0 0 0 0 0 0
          0 0 0 0 0 0
          0 0 0 0 0 0
          0 0 0 0 0 0
          0 0 0 0 0 0
          0 0 0 0 0 0
          0 0 0 0 0 0
          0 0 0 0 0 0
          0 0 0 0 0 0
          0 0 0 0 0 0
          0 0 0 0 0 0
          0 0 0 0 0 0
          0 0 0 0 0 0
          0 0 0 0 0 0
          0 0 0 0 0 0
          0 0 0 0 0 0
          0 0 0 0 0 0
          0 0 0 0 0 0
          0 0 0 0 0 0
          0 0 0 0 0 0
          0 0 0 0 0 0
          0 0 0 0 0 0
          0 0 0 0 0 0
          0 0 0 0 0 0
          0 0 0 0 0 0
          0 0 0 0 0 0
          0 0 0 0 0 0
          0 0 0 0 0 0
          0 0 0 0 0 0
          0 0 0 0 0 0
          0 0 0 0 0 0
          0 0 0 0 0 0
          0 0 0 0 0 0
          0 0 0 0 0 0
          0 0 0 0 0 0
          0 0 0 0 0 0
          0 0 0 0 0 0
          0 0 0 0 0 0
          0 0 0 0 0 0
          0 0 0 0 0 0
          0 0 0 0 0 0
          0 0 0 0 0 0
          0 0 0 0 0 0
          0 0 0 0 0 0
          0 0 0 0 0 0
          0 0 0 0 0 0
          0 0 0 0 0 0
          0 0 0 0 0 0
          0 0 0 0 0 0
          0 0 0 0 0 0
          0 0 0 0 0 0
          0 0 0 0 0 0
          0 0 0 0 0 0
          0 0 0 0 0 0
          0 0 0 0 0 0
          0 0 0 0 0 0
          0 0 0 0 0 0
          0 0 0 0 0 0
          0 0 0 0 0 0
          0 0 0 0 0 0
          0 0 0 0 0 0
          0 0 0 0 0 0
          0 0 0 0 0 0
          0 0 0 0 0 0
          0 0 0 0 0 0
          0 0 0 0 0 0
          0 0 0 0 0 0
          0 0 0 0 0 0
          0 0 0 0 0 0
          0 0 0 0 0 0
          0 0 0 0 0 0
          0 0 0 0 0 0
          0 0 0 0 0 0
          0 0 0 0 0 0
          0 0 0 0 0 0
          0 0 0 0 0 0
          0 0 0 0 0 0
          0 0 0 0 0 0
          0 0 0 0 0 0
          0 0 0 0 0 0
          0 0 0 0 0 0
          0 0 0 0 0 0
          0 0 0 0 0 0
          0 0 0 0 0 0
          0 0 0 0 0 0
          0 0 0 0 0 0
          0 0 0 0 0 0
          0 0 0 0 0 0
          0 0 0 0 0 0
          0 0 0 0 0 0
          0 0 0 0 0 0
          0 0 0 0 0 0
          0 0 0 0 0 0
          0 0 0 0 0 0
          0 0 0 0 0 0
          0 0 0 0 0 0
          0 0 0 0 0 0
          0 0 0 0 0 0
          0 0 0 0 0 0
          0 0 0 0 0 0
          0 0 0 0 0 0
          0 0 0 0 0 0
          0 0 0 0 0 0
          0 0 0 0 0 0
          0 0 0 0 0 0
          0 0 0 0 0 0
          0 0 0 0 0 0
          0 0 0 0 0 0
          0 0 0 0 0 0
          0 0 0 0 0 0
          0 0 0 0 0 0
          0 0 0 0 0 0
          0 0 0 0 0 0
          0 0 0 0 0 0
          0 0 0 0 0 0
          0 0 0 0 0 0
          0 0 0 0 0 0
          0 0 0 0 0 0
          0 0 0 0 0 0
          0 0 0 0 0 0
          0 0 0 0 0 0
          0 0 0 0 0 0
          0 0 0 0 0 0
          0 0 0 0 0 0
          0 0 0 0 0 0
          0 0 0 0 0 0
          0 0 0 0 0 0
          0 0 0 0 0 0
          0 0 0 0 0 0
          0 0 0 0 0 0
          0 0 0 0 0 0
          0 0 0 0 0 0
          0 0 0 0 0 0
          0 0 0 0 0 0
          0 0 0 0 0 0
          0 0 0 0 0 0
          0 0 0 0 0 0
          0 0 0 0 0 0
          0 0 0 0 0 0
          0 0 0 0 0 0
          0 0 0 0 0 0
          0 0 0 0 0 0
          0 0 0 0 0 0
          0 0 0 0 0 0
          0 0 0 0 0 0
          0 0 0 0 0 0
          0 0 0 0 0 0
          0 0 0 0 0 0
          0 0 0 0 0 0
          0 0 0 0 0 0
          0 0 0 0 0 0
          0 0 0 0 0 0
          0 0 0 0 0 0
          0 0 0 0 0 0
          0 0 0 0 0 0
          0 0 0 0 0 0
          0 0 0 0 0 0
          0 0 0 0 0 0
          0 0 0 0 0 0
          0 0 0 0 0 0
          0 0 0 0 0 0
          0 0 0 0 0 0
          0 0 0 0 0 0
          0 0 0 0 0 0
          0 0 0 0 0 0
          0 0 0 0 0 0
          0 0 0 0 0 0
          0 0 0 0 0 0
          0 0 0 0 0 0
          0 0 0 0 0 0
          0 0 0 0 0 0
          0 0 0 0 0 0
          0 0 0 0 0 0
          0 0 0 0 0 0
          0 0 0 0 0 0
          0 0 0 0 0 0
          0 0 0 0 0 0
          0 0 0 0 0 0
          0 0 0 0 0 0
          0 0 0 0 0 0
          0 0 0 0 0 0
          0 0 0 0 0 0
          0 0 0 0 0 0
          0 0 0 0 0 0
          0 0 0 0 0 0
          0 0 0 0 0 0
          0 0 0 0 0 0
          0 0 0 0 0 0
          0 0 0 0 0 0
          0 0 0 0 0 0
          0 0 0 0 0 0
          0 0 0 0 0 0
          0 0 0 0 0 0
          0 0 0 0 0 0
          0 0 0 0 0 0
          0 0 0 0 0 0
          0 0 0 0 0 0
          0 0 0 0 0 0
          0 0 0 0 0 0
          0 0 0 0 0 0
          0 0 0 0 0 0
          0 0 0 0 0 0
          0 0 0 0 0 0
          0 0 0 0 0 0
          0 0 0 0 0 0
          0 0 0 0 0 0
          0 0 0 0 0 0
          0 0 0 0 0 0
          0 0 0 0 0 0
          0 0 0 0 0 0
          0 0 0 0 0 0
          0 0 0 0 0 0
          0 0 0 0 0 0
          0 0 0 0 0 0
          0 0 0 0 0 0
          0 0 0 0 0 0
          0 0 0 0 0 0
          0 0 0 0 0 0
          0 0 0 0 0 0
          0 0 0 0 0 0
          0 0 0 0 0 0
          0 0 0 0 0 0
          0 0 0 0 0 0
          0 0 0 0 0 0
          0 0 0 0 0 0
          0 0 0 0 0 0
          0 0 0 0 0 0
          0 0 0 0 0 0
          0 0 0 0 0 0
          0 0 0 0 0 0
          0 0 0 0 0 0
          0 0 0 0 0 0
          0 0 0 0 0 0
          0 0 0 0 0 0
          0 0 0 0 0 0
          0 0 0 0 0 0
          0 0 0 0 0 0
          0 0 0 0 0 0
          0 0 0 0 0 0
          0 0 0 0 0 0
          0 0 0 0 0 0
          0 0 0 0 0 0
          0 0 0 0 0 0
          0 0 0 0 0 0
          0 0 0 0 0 0
          0 0 0 0 0 0
          0 0 0 0 0 0
          0 0 0 0 0 0
          0 0 0 0 0 0
          0 0 0 0 0 0
          0 0 0 0 0 0
          0 0 0 0 0 0
          0 0 0 0 0 0
          0 0 0 0 0 0
          0 0 0 0 0 0
          0 0 0 0 0 0
          0 0 0 0 0 0
          0 0 0 0 0 0
          0 0 0 0 0 0
          0 0 0 0 0 0
          0 0 0 0 0 0
          0 0 0 0 0 0
          0 0 0 0 0 0
          0 0 0 0 0 0
          0 0 0 0 0 0
          0 0 0 0 0 0
          0 0 0 0 0 0
          0 0 0 0 0 0
          0 0 0 0 0 0
          0 0 0 0 0 0
          0 0 0 0 0 0
          0 0 0 0 0 0
          0 0 0 0 0 0
          0 0 0 0 0 0
          0 0 0 0 0 0
          0 0 0 0 0 0
          0 0 0 0 0 0
          0 0 0 0 0 0
          0 0 0 0 0 0
          0 0 0 0 0 0
          0 0 0 0 0 0
          0 0 0 0 0 0
          0 0 0 0 0 0
          0 0 0 0 0 0
          0 0 0 0 0 0
          0 0 0 0 0 0
          0 0 0 0 0 0
          0 0 0 0 0 0
          0 0 0 0 0 0
          0 0 0 0 0 0
          0 0 0 0 0 0
          0 0 0 0 0 0
          0 0 0 0 0 0
          0 0 0 0 0 0
          0 0 0 0 0 0
          0 0 0 0 0 0
          0 0 0 0 0 0
          0 0 0 0 0 0
          0 0 0 0 0 0
          0 0 0 0 0 0
          0 0 0 0 0 0
          0 0 0 0 0 0
          0 0 0 0 0 0
          0 0 0 0 0 0
          0 0 0 0 0 0
          0 0 0 0 0 0
          0 0 0 0 0 0
          0 0 0 0 0 0
          0 0 0 0 0 0
          0 0 0 0 0 0
          0 0 0 0 0 0
          0 0 0 0 0 0
          0 0 0 0 0 0
          0 0 0 0 0 0
          0 0 0 0 0 0
          0 0 0 0 0 0
          0 0 0 0 0 0
          0 0 0 0 0 0
          0 0 0 0 0 0
          0 0 0 0 0 0
          0 0 0 0 0 0
          0 0 0 0 0 0
          0 0 0 0 0 0
          0 0 0 0 0 0
          0 0 0 0 0 0
          0 0 0 0 0 0
          0 0 0 0 0 0
          0 0 0 0 0 0
          0 0 0 0 0 0
          0 0 0 0 0 0
          0 0 0 0 0 0
          0 0 0 0 0 0
          0 0 0 0 0 0
          0 0 0 0 0 0
          0 0 0 0 0 0
          0 0 0 0 0 0
          0 0 0 0 0 0
          0 0 0 0 0 0
          0 0 0 0 0 0
          0 0 0 0 0 0
          0 0 0 0 0 0
          0 0 0 0 0 0
          0 0 0 0 0 0
          0 0 0 0 0 0
          0 0 0 0 0 0
          0 0 0 0 0 0
          0 0 0 0 0 0
          0 0 0 0 0 0
          0 0 0 0 0 0
          0 0 0 0 0 0
          0 0 0 0 0 0
          0 0 0 0 0 0
          0 0 0 0 0 0
          0 0 0 0 0 0
          0 0 0 0 0 0
          0 0 0 0 0 0
          0 0 0 0 0 0
          0 0 0 0 0 0
          0 0 0 0 0 0
          0 0 0 0 0 0
          0 0 0 0 0 0
          0 0 0 0 0 0
          0 0 0 0 0 0
          0 0 0 0 0 0
          0 0 0 0 0 0
          0 0 0 0 0 0
          0 0 0 0 0 0
          0 0 0 0 0 0
          0 0 0 0 0 0
          0 0 0 0 0 0
          0 0 0 0 0 0
          0 0 0 0 0 0
          0 0 0 0 0 0
          0 0 0 0 0 0
          0 0 0 0 0 0
          0 0 0 0 0 0
          0 0 0 0 0 0
          0 0 0 0 0 0
          0 0 0 0 0 0
          0 0 0 0 0 0
          0 0 0 0 0 0
          0 0 0 0 0 0
          0 0 0 0 0 0
          0 0 0 0 0 0
          0 0 0 0 0 0
          0 0 0 0 0 0
          0 0 0 0 0 0
          0 0 0 0 0 0
          0 0 0 0 0 0
          0 0 0 0 0 0
          0 0 0 0 0 0
          0 0 0 0 0 0
          0 0 0 0 0 0
          0 0 0 0 0 0
          0 0 0 0 0 0
          0 0 0 0 0 0
          0 0 0 0 0 0
          0 0 0 0 0 0
          0 0 0 0 0 0
          0 0 0 0 0 0
          0 0 0 0 0 0
          0 0 0 0 0 0
          0 0 0 0 0 0
          0 0 0 0 0 0
          0 0 0 0 0 0
          0 0 0 0 0 0
          0 0 0 0 0 0
          0 0 0 0 0 0
          0 0 0 0 0 0
          0 0 0 0 0 0
          0 0 0 0 0 0
          0 0 0 0 0 0
          0 0 0 0 0 0
          0 0 0 0 0 0
          0 0 0 0 0 0
          0 0 0 0 0 0
          0 0 0 0 0 0
          0 0 0 0 0 0
          0 0 0 0 0 0
          0 0 0 0 0 0
          0 0 0 0 0 0
          0 0 0 0 0 0
          0 0 0 0 0 0
          0 0 0 0 0 0
          0 0 0 0 0 0
          0 0 0 0 0 0
          0 0 0 0 0 0
          0 0 0 0 0 0
          0 0 0 0 0 0
          0 0 0 0 0 0
          0 0 0 0 0 0
          0 0 0 0 0 0
          0 0 0 0 0 0
          0 0 0 0 0 0
          0 0 0 0 0 0
          0 0 0 0 0 0
          0 0 0 0 0 0
          0 0 0 0 0 0
          0 0 0 0 0 0
          0 0 0 0 0 0
          0 0 0 0 0 0
          0 0 0 0 0 0
          0 0 0 0 0 0
          0 0 0 0 0 0
          0 0 0 0 0 0
          0 0 0 0 0 0
          0 0 0 0 0 0
          0 0 0 0 0 0
          0 0 0 0 0 0
          0 0 0 0 0 0
          0 0 0 0 0 0
          0 0 0 0 0 0
          0 0 0 0 0 0
          0 0 0 0 0 0
          0 0 0 0 0 0
          0 0 0 0 0 0
          0 0 0 0 0 0
          0 0 0 0 0 0
          0 0 0 0 0 0
          0 0 0 0 0 0
          0 0 0 0 0 0
          0 0 0 0 0 0
          0 0 0 0 0 0
          0 0 0 0 0 0
          0 0 0 0 0 0
          0 0 0 0 0 0
          0 0 0 0 0 0
          0 0 0 0 0 0
          0 0 0 0 0 0
          0
        </DataArray>
        <DataArray type="Float64" Name="_remote_index_" format="ascii" RangeMin="-1" RangeMax="-1">
          -1 -1 -1 -1 -1 -1
          -1 -1 -1 -1 -1 -1
          -1 -1 -1 -1 -1 -1
          -1 -1 -1 -1 -1 -1
          -1 -1 -1 -1 -1 -1
          -1 -1 -1 -1 -1 -1
          -1 -1 -1 -1 -1 -1
          -1 -1 -1 -1 -1 -1
          -1 -1 -1 -1 -1 -1
          -1 -1 -1 -1 -1 -1
          -1 -1 -1 -1 -1 -1
          -1 -1 -1 -1 -1 -1
          -1 -1 -1 -1 -1 -1
          -1 -1 -1 -1 -1 -1
          -1 -1 -1 -1 -1 -1
          -1 -1 -1 -1 -1 -1
          -1 -1 -1 -1 -1 -1
          -1 -1 -1 -1 -1 -1
          -1 -1 -1 -1 -1 -1
          -1 -1 -1 -1 -1 -1
          -1 -1 -1 -1 -1 -1
          -1 -1 -1 -1 -1 -1
          -1 -1 -1 -1 -1 -1
          -1 -1 -1 -1 -1 -1
          -1 -1 -1 -1 -1 -1
          -1 -1 -1 -1 -1 -1
          -1 -1 -1 -1 -1 -1
          -1 -1 -1 -1 -1 -1
          -1 -1 -1 -1 -1 -1
          -1 -1 -1 -1 -1 -1
          -1 -1 -1 -1 -1 -1
          -1 -1 -1 -1 -1 -1
          -1 -1 -1 -1 -1 -1
          -1 -1 -1 -1 -1 -1
          -1 -1 -1 -1 -1 -1
          -1 -1 -1 -1 -1 -1
          -1 -1 -1 -1 -1 -1
          -1 -1 -1 -1 -1 -1
          -1 -1 -1 -1 -1 -1
          -1 -1 -1 -1 -1 -1
          -1 -1 -1 -1 -1 -1
          -1 -1 -1 -1 -1 -1
          -1 -1 -1 -1 -1 -1
          -1 -1 -1 -1 -1 -1
          -1 -1 -1 -1 -1 -1
          -1 -1 -1 -1 -1 -1
          -1 -1 -1 -1 -1 -1
          -1 -1 -1 -1 -1 -1
          -1 -1 -1 -1 -1 -1
          -1 -1 -1 -1 -1 -1
          -1 -1 -1 -1 -1 -1
          -1 -1 -1 -1 -1 -1
          -1 -1 -1 -1 -1 -1
          -1 -1 -1 -1 -1 -1
          -1 -1 -1 -1 -1 -1
          -1 -1 -1 -1 -1 -1
          -1 -1 -1 -1 -1 -1
          -1 -1 -1 -1 -1 -1
          -1 -1 -1 -1 -1 -1
          -1 -1 -1 -1 -1 -1
          -1 -1 -1 -1 -1 -1
          -1 -1 -1 -1 -1 -1
          -1 -1 -1 -1 -1 -1
          -1 -1 -1 -1 -1 -1
          -1 -1 -1 -1 -1 -1
          -1 -1 -1 -1 -1 -1
          -1 -1 -1 -1 -1 -1
          -1 -1 -1 -1 -1 -1
          -1 -1 -1 -1 -1 -1
          -1 -1 -1 -1 -1 -1
          -1 -1 -1 -1 -1 -1
          -1 -1 -1 -1 -1 -1
          -1 -1 -1 -1 -1 -1
          -1 -1 -1 -1 -1 -1
          -1 -1 -1 -1 -1 -1
          -1 -1 -1 -1 -1 -1
          -1 -1 -1 -1 -1 -1
          -1 -1 -1 -1 -1 -1
          -1 -1 -1 -1 -1 -1
          -1 -1 -1 -1 -1 -1
          -1 -1 -1 -1 -1 -1
          -1 -1 -1 -1 -1 -1
          -1 -1 -1 -1 -1 -1
          -1 -1 -1 -1 -1 -1
          -1 -1 -1 -1 -1 -1
          -1 -1 -1 -1 -1 -1
          -1 -1 -1 -1 -1 -1
          -1 -1 -1 -1 -1 -1
          -1 -1 -1 -1 -1 -1
          -1 -1 -1 -1 -1 -1
          -1 -1 -1 -1 -1 -1
          -1 -1 -1 -1 -1 -1
          -1 -1 -1 -1 -1 -1
          -1 -1 -1 -1 -1 -1
          -1 -1 -1 -1 -1 -1
          -1 -1 -1 -1 -1 -1
          -1 -1 -1 -1 -1 -1
          -1 -1 -1 -1 -1 -1
          -1 -1 -1 -1 -1 -1
          -1 -1 -1 -1 -1 -1
          -1 -1 -1 -1 -1 -1
          -1 -1 -1 -1 -1 -1
          -1 -1 -1 -1 -1 -1
          -1 -1 -1 -1 -1 -1
          -1 -1 -1 -1 -1 -1
          -1 -1 -1 -1 -1 -1
          -1 -1 -1 -1 -1 -1
          -1 -1 -1 -1 -1 -1
          -1 -1 -1 -1 -1 -1
          -1 -1 -1 -1 -1 -1
          -1 -1 -1 -1 -1 -1
          -1 -1 -1 -1 -1 -1
          -1 -1 -1 -1 -1 -1
          -1 -1 -1 -1 -1 -1
          -1 -1 -1 -1 -1 -1
          -1 -1 -1 -1 -1 -1
          -1 -1 -1 -1 -1 -1
          -1 -1 -1 -1 -1 -1
          -1 -1 -1 -1 -1 -1
          -1 -1 -1 -1 -1 -1
          -1 -1 -1 -1 -1 -1
          -1 -1 -1 -1 -1 -1
          -1 -1 -1 -1 -1 -1
          -1 -1 -1 -1 -1 -1
          -1 -1 -1 -1 -1 -1
          -1 -1 -1 -1 -1 -1
          -1 -1 -1 -1 -1 -1
          -1 -1 -1 -1 -1 -1
          -1 -1 -1 -1 -1 -1
          -1 -1 -1 -1 -1 -1
          -1 -1 -1 -1 -1 -1
          -1 -1 -1 -1 -1 -1
          -1 -1 -1 -1 -1 -1
          -1 -1 -1 -1 -1 -1
          -1 -1 -1 -1 -1 -1
          -1 -1 -1 -1 -1 -1
          -1 -1 -1 -1 -1 -1
          -1 -1 -1 -1 -1 -1
          -1 -1 -1 -1 -1 -1
          -1 -1 -1 -1 -1 -1
          -1 -1 -1 -1 -1 -1
          -1 -1 -1 -1 -1 -1
          -1 -1 -1 -1 -1 -1
          -1 -1 -1 -1 -1 -1
          -1 -1 -1 -1 -1 -1
          -1 -1 -1 -1 -1 -1
          -1 -1 -1 -1 -1 -1
          -1 -1 -1 -1 -1 -1
          -1 -1 -1 -1 -1 -1
          -1 -1 -1 -1 -1 -1
          -1 -1 -1 -1 -1 -1
          -1 -1 -1 -1 -1 -1
          -1 -1 -1 -1 -1 -1
          -1 -1 -1 -1 -1 -1
          -1 -1 -1 -1 -1 -1
          -1 -1 -1 -1 -1 -1
          -1 -1 -1 -1 -1 -1
          -1 -1 -1 -1 -1 -1
          -1 -1 -1 -1 -1 -1
          -1 -1 -1 -1 -1 -1
          -1 -1 -1 -1 -1 -1
          -1 -1 -1 -1 -1 -1
          -1 -1 -1 -1 -1 -1
          -1 -1 -1 -1 -1 -1
          -1 -1 -1 -1 -1 -1
          -1 -1 -1 -1 -1 -1
          -1 -1 -1 -1 -1 -1
          -1 -1 -1 -1 -1 -1
          -1 -1 -1 -1 -1 -1
          -1 -1 -1 -1 -1 -1
          -1 -1 -1 -1 -1 -1
          -1 -1 -1 -1 -1 -1
          -1 -1 -1 -1 -1 -1
          -1 -1 -1 -1 -1 -1
          -1 -1 -1 -1 -1 -1
          -1 -1 -1 -1 -1 -1
          -1 -1 -1 -1 -1 -1
          -1 -1 -1 -1 -1 -1
          -1 -1 -1 -1 -1 -1
          -1 -1 -1 -1 -1 -1
          -1 -1 -1 -1 -1 -1
          -1 -1 -1 -1 -1 -1
          -1 -1 -1 -1 -1 -1
          -1 -1 -1 -1 -1 -1
          -1 -1 -1 -1 -1 -1
          -1 -1 -1 -1 -1 -1
          -1 -1 -1 -1 -1 -1
          -1 -1 -1 -1 -1 -1
          -1 -1 -1 -1 -1 -1
          -1 -1 -1 -1 -1 -1
          -1 -1 -1 -1 -1 -1
          -1 -1 -1 -1 -1 -1
          -1 -1 -1 -1 -1 -1
          -1 -1 -1 -1 -1 -1
          -1 -1 -1 -1 -1 -1
          -1 -1 -1 -1 -1 -1
          -1 -1 -1 -1 -1 -1
          -1 -1 -1 -1 -1 -1
          -1 -1 -1 -1 -1 -1
          -1 -1 -1 -1 -1 -1
          -1 -1 -1 -1 -1 -1
          -1 -1 -1 -1 -1 -1
          -1 -1 -1 -1 -1 -1
          -1 -1 -1 -1 -1 -1
          -1 -1 -1 -1 -1 -1
          -1 -1 -1 -1 -1 -1
          -1 -1 -1 -1 -1 -1
          -1 -1 -1 -1 -1 -1
          -1 -1 -1 -1 -1 -1
          -1 -1 -1 -1 -1 -1
          -1 -1 -1 -1 -1 -1
          -1 -1 -1 -1 -1 -1
          -1 -1 -1 -1 -1 -1
          -1 -1 -1 -1 -1 -1
          -1 -1 -1 -1 -1 -1
          -1 -1 -1 -1 -1 -1
          -1 -1 -1 -1 -1 -1
          -1 -1 -1 -1 -1 -1
          -1 -1 -1 -1 -1 -1
          -1 -1 -1 -1 -1 -1
          -1 -1 -1 -1 -1 -1
          -1 -1 -1 -1 -1 -1
          -1 -1 -1 -1 -1 -1
          -1 -1 -1 -1 -1 -1
          -1 -1 -1 -1 -1 -1
          -1 -1 -1 -1 -1 -1
          -1 -1 -1 -1 -1 -1
          -1 -1 -1 -1 -1 -1
          -1 -1 -1 -1 -1 -1
          -1 -1 -1 -1 -1 -1
          -1 -1 -1 -1 -1 -1
          -1 -1 -1 -1 -1 -1
          -1 -1 -1 -1 -1 -1
          -1 -1 -1 -1 -1 -1
          -1 -1 -1 -1 -1 -1
          -1 -1 -1 -1 -1 -1
          -1 -1 -1 -1 -1 -1
          -1 -1 -1 -1 -1 -1
          -1 -1 -1 -1 -1 -1
          -1 -1 -1 -1 -1 -1
          -1 -1 -1 -1 -1 -1
          -1 -1 -1 -1 -1 -1
          -1 -1 -1 -1 -1 -1
          -1 -1 -1 -1 -1 -1
          -1 -1 -1 -1 -1 -1
          -1 -1 -1 -1 -1 -1
          -1 -1 -1 -1 -1 -1
          -1 -1 -1 -1 -1 -1
          -1 -1 -1 -1 -1 -1
          -1 -1 -1 -1 -1 -1
          -1 -1 -1 -1 -1 -1
          -1 -1 -1 -1 -1 -1
          -1 -1 -1 -1 -1 -1
          -1 -1 -1 -1 -1 -1
          -1 -1 -1 -1 -1 -1
          -1 -1 -1 -1 -1 -1
          -1 -1 -1 -1 -1 -1
          -1 -1 -1 -1 -1 -1
          -1 -1 -1 -1 -1 -1
          -1 -1 -1 -1 -1 -1
          -1 -1 -1 -1 -1 -1
          -1 -1 -1 -1 -1 -1
          -1 -1 -1 -1 -1 -1
          -1 -1 -1 -1 -1 -1
          -1 -1 -1 -1 -1 -1
          -1 -1 -1 -1 -1 -1
          -1 -1 -1 -1 -1 -1
          -1 -1 -1 -1 -1 -1
          -1 -1 -1 -1 -1 -1
          -1 -1 -1 -1 -1 -1
          -1 -1 -1 -1 -1 -1
          -1 -1 -1 -1 -1 -1
          -1 -1 -1 -1 -1 -1
          -1 -1 -1 -1 -1 -1
          -1 -1 -1 -1 -1 -1
          -1 -1 -1 -1 -1 -1
          -1 -1 -1 -1 -1 -1
          -1 -1 -1 -1 -1 -1
          -1 -1 -1 -1 -1 -1
          -1 -1 -1 -1 -1 -1
          -1 -1 -1 -1 -1 -1
          -1 -1 -1 -1 -1 -1
          -1 -1 -1 -1 -1 -1
          -1 -1 -1 -1 -1 -1
          -1 -1 -1 -1 -1 -1
          -1 -1 -1 -1 -1 -1
          -1 -1 -1 -1 -1 -1
          -1 -1 -1 -1 -1 -1
          -1 -1 -1 -1 -1 -1
          -1 -1 -1 -1 -1 -1
          -1 -1 -1 -1 -1 -1
          -1 -1 -1 -1 -1 -1
          -1 -1 -1 -1 -1 -1
          -1 -1 -1 -1 -1 -1
          -1 -1 -1 -1 -1 -1
          -1 -1 -1 -1 -1 -1
          -1 -1 -1 -1 -1 -1
          -1 -1 -1 -1 -1 -1
          -1 -1 -1 -1 -1 -1
          -1 -1 -1 -1 -1 -1
          -1 -1 -1 -1 -1 -1
          -1 -1 -1 -1 -1 -1
          -1 -1 -1 -1 -1 -1
          -1 -1 -1 -1 -1 -1
          -1 -1 -1 -1 -1 -1
          -1 -1 -1 -1 -1 -1
          -1 -1 -1 -1 -1 -1
          -1 -1 -1 -1 -1 -1
          -1 -1 -1 -1 -1 -1
          -1 -1 -1 -1 -1 -1
          -1 -1 -1 -1 -1 -1
          -1 -1 -1 -1 -1 -1
          -1 -1 -1 -1 -1 -1
          -1 -1 -1 -1 -1 -1
          -1 -1 -1 -1 -1 -1
          -1 -1 -1 -1 -1 -1
          -1 -1 -1 -1 -1 -1
          -1 -1 -1 -1 -1 -1
          -1 -1 -1 -1 -1 -1
          -1 -1 -1 -1 -1 -1
          -1 -1 -1 -1 -1 -1
          -1 -1 -1 -1 -1 -1
          -1 -1 -1 -1 -1 -1
          -1 -1 -1 -1 -1 -1
          -1 -1 -1 -1 -1 -1
          -1 -1 -1 -1 -1 -1
          -1 -1 -1 -1 -1 -1
          -1 -1 -1 -1 -1 -1
          -1 -1 -1 -1 -1 -1
          -1 -1 -1 -1 -1 -1
          -1 -1 -1 -1 -1 -1
          -1 -1 -1 -1 -1 -1
          -1 -1 -1 -1 -1 -1
          -1 -1 -1 -1 -1 -1
          -1 -1 -1 -1 -1 -1
          -1 -1 -1 -1 -1 -1
          -1 -1 -1 -1 -1 -1
          -1 -1 -1 -1 -1 -1
          -1 -1 -1 -1 -1 -1
          -1 -1 -1 -1 -1 -1
          -1 -1 -1 -1 -1 -1
          -1 -1 -1 -1 -1 -1
          -1 -1 -1 -1 -1 -1
          -1 -1 -1 -1 -1 -1
          -1 -1 -1 -1 -1 -1
          -1 -1 -1 -1 -1 -1
          -1 -1 -1 -1 -1 -1
          -1 -1 -1 -1 -1 -1
          -1 -1 -1 -1 -1 -1
          -1 -1 -1 -1 -1 -1
          -1 -1 -1 -1 -1 -1
          -1 -1 -1 -1 -1 -1
          -1 -1 -1 -1 -1 -1
          -1 -1 -1 -1 -1 -1
          -1 -1 -1 -1 -1 -1
          -1 -1 -1 -1 -1 -1
          -1 -1 -1 -1 -1 -1
          -1 -1 -1 -1 -1 -1
          -1 -1 -1 -1 -1 -1
          -1 -1 -1 -1 -1 -1
          -1 -1 -1 -1 -1 -1
          -1 -1 -1 -1 -1 -1
          -1 -1 -1 -1 -1 -1
          -1 -1 -1 -1 -1 -1
          -1 -1 -1 -1 -1 -1
          -1 -1 -1 -1 -1 -1
          -1 -1 -1 -1 -1 -1
          -1 -1 -1 -1 -1 -1
          -1 -1 -1 -1 -1 -1
          -1 -1 -1 -1 -1 -1
          -1 -1 -1 -1 -1 -1
          -1 -1 -1 -1 -1 -1
          -1 -1 -1 -1 -1 -1
          -1 -1 -1 -1 -1 -1
          -1 -1 -1 -1 -1 -1
          -1 -1 -1 -1 -1 -1
          -1 -1 -1 -1 -1 -1
          -1 -1 -1 -1 -1 -1
          -1 -1 -1 -1 -1 -1
          -1 -1 -1 -1 -1 -1
          -1 -1 -1 -1 -1 -1
          -1 -1 -1 -1 -1 -1
          -1 -1 -1 -1 -1 -1
          -1 -1 -1 -1 -1 -1
          -1 -1 -1 -1 -1 -1
          -1 -1 -1 -1 -1 -1
          -1 -1 -1 -1 -1 -1
          -1 -1 -1 -1 -1 -1
          -1 -1 -1 -1 -1 -1
          -1 -1 -1 -1 -1 -1
          -1 -1 -1 -1 -1 -1
          -1 -1 -1 -1 -1 -1
          -1 -1 -1 -1 -1 -1
          -1 -1 -1 -1 -1 -1
          -1 -1 -1 -1 -1 -1
          -1 -1 -1 -1 -1 -1
          -1 -1 -1 -1 -1 -1
          -1 -1 -1 -1 -1 -1
          -1 -1 -1 -1 -1 -1
          -1 -1 -1 -1 -1 -1
          -1 -1 -1 -1 -1 -1
          -1 -1 -1 -1 -1 -1
          -1 -1 -1 -1 -1 -1
          -1 -1 -1 -1 -1 -1
          -1 -1 -1 -1 -1 -1
          -1 -1 -1 -1 -1 -1
          -1 -1 -1 -1 -1 -1
          -1 -1 -1 -1 -1 -1
          -1 -1 -1 -1 -1 -1
          -1 -1 -1 -1 -1 -1
          -1 -1 -1 -1 -1 -1
          -1 -1 -1 -1 -1 -1
          -1 -1 -1 -1 -1 -1
          -1 -1 -1 -1 -1 -1
          -1 -1 -1 -1 -1 -1
          -1 -1 -1 -1 -1 -1
          -1 -1 -1 -1 -1 -1
          -1 -1 -1 -1 -1 -1
          -1 -1 -1 -1 -1 -1
          -1 -1 -1 -1 -1 -1
          -1 -1 -1 -1 -1 -1
          -1 -1 -1 -1 -1 -1
          -1 -1 -1 -1 -1 -1
          -1 -1 -1 -1 -1 -1
          -1 -1 -1 -1 -1 -1
          -1 -1 -1 -1 -1 -1
          -1 -1 -1 -1 -1 -1
          -1 -1 -1 -1 -1 -1
          -1 -1 -1 -1 -1 -1
          -1 -1 -1 -1 -1 -1
          -1 -1 -1 -1 -1 -1
          -1 -1 -1 -1 -1 -1
          -1 -1 -1 -1 -1 -1
          -1 -1 -1 -1 -1 -1
          -1 -1 -1 -1 -1 -1
          -1 -1 -1 -1 -1 -1
          -1 -1 -1 -1 -1 -1
          -1 -1 -1 -1 -1 -1
          -1 -1 -1 -1 -1 -1
          -1 -1 -1 -1 -1 -1
          -1 -1 -1 -1 -1 -1
          -1 -1 -1 -1 -1 -1
          -1 -1 -1 -1 -1 -1
          -1 -1 -1 -1 -1 -1
          -1 -1 -1 -1 -1 -1
          -1 -1 -1 -1 -1 -1
          -1 -1 -1 -1 -1 -1
          -1 -1 -1 -1 -1 -1
          -1 -1 -1 -1 -1 -1
          -1 -1 -1 -1 -1 -1
          -1 -1 -1 -1 -1 -1
          -1 -1 -1 -1 -1 -1
          -1 -1 -1 -1 -1 -1
          -1 -1 -1 -1 -1 -1
          -1 -1 -1 -1 -1 -1
          -1 -1 -1 -1 -1 -1
          -1 -1 -1 -1 -1 -1
          -1 -1 -1 -1 -1 -1
          -1 -1 -1 -1 -1 -1
          -1 -1 -1 -1 -1 -1
          -1 -1 -1 -1 -1 -1
          -1 -1 -1 -1 -1 -1
          -1 -1 -1 -1 -1 -1
          -1 -1 -1 -1 -1 -1
          -1 -1 -1 -1 -1 -1
          -1 -1 -1 -1 -1 -1
          -1 -1 -1 -1 -1 -1
          -1 -1 -1 -1 -1 -1
          -1 -1 -1 -1 -1 -1
          -1 -1 -1 -1 -1 -1
          -1 -1 -1 -1 -1 -1
          -1 -1 -1 -1 -1 -1
          -1 -1 -1 -1 -1 -1
          -1 -1 -1 -1 -1 -1
          -1 -1 -1 -1 -1 -1
          -1 -1 -1 -1 -1 -1
          -1 -1 -1 -1 -1 -1
          -1 -1 -1 -1 -1 -1
          -1 -1 -1 -1 -1 -1
          -1 -1 -1 -1 -1 -1
          -1 -1 -1 -1 -1 -1
          -1 -1 -1 -1 -1 -1
          -1 -1 -1 -1 -1 -1
          -1 -1 -1 -1 -1 -1
          -1 -1 -1 -1 -1 -1
          -1 -1 -1 -1 -1 -1
          -1 -1 -1 -1 -1 -1
          -1 -1 -1 -1 -1 -1
          -1 -1 -1 -1 -1 -1
          -1 -1 -1 -1 -1 -1
          -1 -1 -1 -1 -1 -1
          -1 -1 -1 -1 -1 -1
          -1 -1 -1 -1 -1 -1
          -1 -1 -1 -1 -1 -1
          -1 -1 -1 -1 -1 -1
          -1 -1 -1 -1 -1 -1
          -1 -1 -1 -1 -1 -1
          -1 -1 -1 -1 -1 -1
          -1 -1 -1 -1 -1 -1
          -1 -1 -1 -1 -1 -1
          -1 -1 -1 -1 -1 -1
          -1 -1 -1 -1 -1 -1
          -1 -1 -1 -1 -1 -1
          -1 -1 -1 -1 -1 -1
          -1 -1 -1 -1 -1 -1
          -1 -1 -1 -1 -1 -1
          -1 -1 -1 -1 -1 -1
          -1 -1 -1 -1 -1 -1
          -1 -1 -1 -1 -1 -1
          -1 -1 -1 -1 -1 -1
          -1 -1 -1 -1 -1 -1
          -1 -1 -1 -1 -1 -1
          -1 -1 -1 -1 -1 -1
          -1 -1 -1 -1 -1 -1
          -1 -1 -1 -1 -1 -1
          -1 -1 -1 -1 -1 -1
          -1 -1 -1 -1 -1 -1
          -1 -1 -1 -1 -1 -1
          -1 -1 -1 -1 -1 -1
          -1 -1 -1 -1 -1 -1
          -1 -1 -1 -1 -1 -1
          -1 -1 -1 -1 -1 -1
          -1 -1 -1 -1 -1 -1
          -1 -1 -1 -1 -1 -1
          -1 -1 -1 -1 -1 -1
          -1 -1 -1 -1 -1 -1
          -1 -1 -1 -1 -1 -1
          -1 -1 -1 -1 -1 -1
          -1 -1 -1 -1 -1 -1
          -1 -1 -1 -1 -1 -1
          -1 -1 -1 -1 -1 -1
          -1 -1 -1 -1 -1 -1
          -1 -1 -1 -1 -1 -1
          -1 -1 -1 -1 -1 -1
          -1 -1 -1 -1 -1 -1
          -1 -1 -1 -1 -1 -1
          -1 -1 -1 -1 -1 -1
          -1 -1 -1 -1 -1 -1
          -1 -1 -1 -1 -1 -1
          -1 -1 -1 -1 -1 -1
          -1 -1 -1 -1 -1 -1
          -1 -1 -1 -1 -1 -1
          -1 -1 -1 -1 -1 -1
          -1 -1 -1 -1 -1 -1
          -1 -1 -1 -1 -1 -1
          -1 -1 -1 -1 -1 -1
          -1 -1 -1 -1 -1 -1
          -1 -1 -1 -1 -1 -1
          -1 -1 -1 -1 -1 -1
          -1 -1 -1 -1 -1 -1
          -1 -1 -1 -1 -1 -1
          -1 -1 -1 -1 -1 -1
          -1 -1 -1 -1 -1 -1
          -1 -1 -1 -1 -1 -1
          -1 -1 -1 -1 -1 -1
          -1 -1 -1 -1 -1 -1
          -1 -1 -1 -1 -1 -1
          -1 -1 -1 -1 -1 -1
          -1 -1 -1 -1 -1 -1
          -1 -1 -1 -1 -1 -1
          -1 -1 -1 -1 -1 -1
          -1 -1 -1 -1 -1 -1
          -1 -1 -1 -1 -1 -1
          -1 -1 -1 -1 -1 -1
          -1 -1 -1 -1 -1 -1
          -1 -1 -1 -1 -1 -1
          -1 -1 -1 -1 -1 -1
          -1 -1 -1 -1 -1 -1
          -1 -1 -1 -1 -1 -1
          -1 -1 -1 -1 -1 -1
          -1 -1 -1 -1 -1 -1
          -1 -1 -1 -1 -1 -1
          -1 -1 -1 -1 -1 -1
          -1 -1 -1 -1 -1 -1
          -1 -1 -1 -1 -1 -1
          -1 -1 -1 -1 -1 -1
          -1 -1 -1 -1 -1 -1
          -1 -1 -1 -1 -1 -1
          -1 -1 -1 -1 -1 -1
          -1 -1 -1 -1 -1 -1
          -1 -1 -1 -1 -1 -1
          -1 -1 -1 -1 -1 -1
          -1 -1 -1 -1 -1 -1
          -1 -1 -1 -1 -1 -1
          -1 -1 -1 -1 -1 -1
          -1 -1 -1 -1 -1 -1
          -1 -1 -1 -1 -1 -1
          -1 -1 -1 -1 -1 -1
          -1 -1 -1 -1 -1 -1
          -1 -1 -1 -1 -1 -1
          -1 -1 -1 -1 -1 -1
          -1 -1 -1 -1 -1 -1
          -1 -1 -1 -1 -1 -1
          -1 -1 -1 -1 -1 -1
          -1 -1 -1 -1 -1 -1
          -1 -1 -1 -1 -1 -1
          -1 -1 -1 -1 -1 -1
          -1 -1 -1 -1 -1 -1
          -1 -1 -1 -1 -1 -1
          -1 -1 -1 -1 -1 -1
          -1 -1 -1 -1 -1 -1
          -1 -1 -1 -1 -1 -1
          -1 -1 -1 -1 -1 -1
          -1 -1 -1 -1 -1 -1
          -1 -1 -1 -1 -1 -1
          -1 -1 -1 -1 -1 -1
          -1 -1 -1 -1 -1 -1
          -1 -1 -1 -1 -1 -1
          -1 -1 -1 -1 -1 -1
          -1 -1 -1 -1 -1 -1
          -1 -1 -1 -1 -1 -1
          -1 -1 -1 -1 -1 -1
          -1 -1 -1 -1 -1 -1
          -1 -1 -1 -1 -1 -1
          -1 -1 -1 -1 -1 -1
          -1 -1 -1 -1 -1 -1
          -1 -1 -1 -1 -1 -1
          -1 -1 -1 -1 -1 -1
          -1 -1 -1 -1 -1 -1
          -1 -1 -1 -1 -1 -1
          -1 -1 -1 -1 -1 -1
          -1 -1 -1 -1 -1 -1
          -1 -1 -1 -1 -1 -1
          -1 -1 -1 -1 -1 -1
          -1 -1 -1 -1 -1 -1
          -1 -1 -1 -1 -1 -1
          -1 -1 -1 -1 -1 -1
          -1 -1 -1 -1 -1 -1
          -1 -1 -1 -1 -1 -1
          -1 -1 -1 -1 -1 -1
          -1 -1 -1 -1 -1 -1
          -1 -1 -1 -1 -1 -1
          -1 -1 -1 -1 -1 -1
          -1 -1 -1 -1 -1 -1
          -1 -1 -1 -1 -1 -1
          -1 -1 -1 -1 -1 -1
          -1 -1 -1 -1 -1 -1
          -1 -1 -1 -1 -1 -1
          -1 -1 -1 -1 -1 -1
          -1 -1 -1 -1 -1 -1
          -1 -1 -1 -1 -1 -1
          -1 -1 -1 -1 -1 -1
          -1 -1 -1 -1 -1 -1
          -1 -1 -1 -1 -1 -1
          -1 -1 -1 -1 -1 -1
          -1 -1 -1 -1 -1 -1
          -1 -1 -1 -1 -1 -1
          -1 -1 -1 -1 -1 -1
          -1 -1 -1 -1 -1 -1
          -1 -1 -1 -1 -1 -1
          -1 -1 -1 -1 -1 -1
          -1 -1 -1 -1 -1 -1
          -1 -1 -1 -1 -1 -1
          -1 -1 -1 -1 -1 -1
          -1 -1 -1 -1 -1 -1
          -1 -1 -1 -1 -1 -1
          -1 -1 -1 -1 -1 -1
          -1 -1 -1 -1 -1 -1
          -1 -1 -1 -1 -1 -1
          -1 -1 -1 -1 -1 -1
          -1 -1 -1 -1 -1 -1
          -1 -1 -1 -1 -1 -1
          -1 -1 -1 -1 -1 -1
          -1 -1 -1 -1 -1 -1
          -1 -1 -1 -1 -1 -1
          -1 -1 -1 -1 -1 -1
          -1 -1 -1 -1 -1 -1
          -1 -1 -1 -1 -1 -1
          -1 -1 -1 -1 -1 -1
          -1 -1 -1 -1 -1 -1
          -1 -1 -1 -1 -1 -1
          -1 -1 -1 -1 -1 -1
          -1 -1 -1 -1 -1 -1
          -1 -1 -1 -1 -1 -1
          -1 -1 -1 -1 -1 -1
          -1 -1 -1 -1 -1 -1
          -1 -1 -1 -1 -1 -1
          -1 -1 -1 -1 -1 -1
          -1 -1 -1 -1 -1 -1
          -1 -1 -1 -1 -1 -1
          -1 -1 -1 -1 -1 -1
          -1 -1 -1 -1 -1 -1
          -1 -1 -1 -1 -1 -1
          -1 -1 -1 -1 -1 -1
          -1 -1 -1 -1 -1 -1
          -1 -1 -1 -1 -1 -1
          -1 -1 -1 -1 -1 -1
          -1 -1 -1 -1 -1 -1
          -1 -1 -1 -1 -1 -1
          -1 -1 -1 -1 -1 -1
          -1 -1 -1 -1 -1 -1
          -1 -1 -1 -1 -1 -1
          -1 -1 -1 -1 -1 -1
          -1 -1 -1 -1 -1 -1
          -1 -1 -1 -1 -1 -1
          -1 -1 -1 -1 -1 -1
          -1 -1 -1 -1 -1 -1
          -1 -1 -1 -1 -1 -1
          -1 -1 -1 -1 -1 -1
          -1 -1 -1 -1 -1 -1
          -1 -1 -1 -1 -1 -1
          -1 -1 -1 -1 -1 -1
          -1 -1 -1 -1 -1 -1
          -1 -1 -1 -1 -1 -1
          -1 -1 -1 -1 -1 -1
          -1 -1 -1 -1 -1 -1
          -1 -1 -1 -1 -1 -1
          -1 -1 -1 -1 -1 -1
          -1 -1 -1 -1 -1 -1
          -1 -1 -1 -1 -1 -1
          -1 -1 -1 -1 -1 -1
          -1 -1 -1 -1 -1 -1
          -1 -1 -1 -1 -1 -1
          -1 -1 -1 -1 -1 -1
          -1 -1 -1 -1 -1 -1
          -1 -1 -1 -1 -1 -1
          -1 -1 -1 -1 -1 -1
          -1 -1 -1 -1 -1 -1
          -1 -1 -1 -1 -1 -1
          -1 -1 -1 -1 -1 -1
          -1 -1 -1 -1 -1 -1
          -1 -1 -1 -1 -1 -1
          -1 -1 -1 -1 -1 -1
          -1 -1 -1 -1 -1 -1
          -1 -1 -1 -1 -1 -1
          -1 -1 -1 -1 -1 -1
          -1 -1 -1 -1 -1 -1
          -1 -1 -1 -1 -1 -1
          -1 -1 -1 -1 -1 -1
          -1 -1 -1 -1 -1 -1
          -1 -1 -1 -1 -1 -1
          -1 -1 -1 -1 -1 -1
          -1 -1 -1 -1 -1 -1
          -1 -1 -1 -1 -1 -1
          -1 -1 -1 -1 -1 -1
          -1 -1 -1 -1 -1 -1
          -1 -1 -1 -1 -1 -1
          -1 -1 -1 -1 -1 -1
          -1 -1 -1 -1 -1 -1
          -1 -1 -1 -1 -1 -1
          -1 -1 -1 -1 -1 -1
          -1 -1 -1 -1 -1 -1
          -1 -1 -1 -1 -1 -1
          -1 -1 -1 -1 -1 -1
          -1 -1 -1 -1 -1 -1
          -1 -1 -1 -1 -1 -1
          -1 -1 -1 -1 -1 -1
          -1 -1 -1 -1 -1 -1
          -1 -1 -1 -1 -1 -1
          -1 -1 -1 -1 -1 -1
          -1 -1 -1 -1 -1 -1
          -1 -1 -1 -1 -1 -1
          -1 -1 -1 -1 -1 -1
          -1 -1 -1 -1 -1 -1
          -1 -1 -1 -1 -1 -1
          -1 -1 -1 -1 -1 -1
          -1 -1 -1 -1 -1 -1
          -1 -1 -1 -1 -1 -1
          -1 -1 -1 -1 -1 -1
          -1 -1 -1 -1 -1 -1
          -1 -1 -1 -1 -1 -1
          -1 -1 -1 -1 -1 -1
          -1 -1 -1 -1 -1 -1
          -1 -1 -1 -1 -1 -1
          -1 -1 -1 -1 -1 -1
          -1 -1 -1 -1 -1 -1
          -1 -1 -1 -1 -1 -1
          -1 -1 -1 -1 -1 -1
          -1 -1 -1 -1 -1 -1
          -1 -1 -1 -1 -1 -1
          -1 -1 -1 -1 -1 -1
          -1 -1 -1 -1 -1 -1
          -1 -1 -1 -1 -1 -1
          -1 -1 -1 -1 -1 -1
          -1 -1 -1 -1 -1 -1
          -1 -1 -1 -1 -1 -1
          -1 -1 -1 -1 -1 -1
          -1 -1 -1 -1 -1 -1
          -1 -1 -1 -1 -1 -1
          -1 -1 -1 -1 -1 -1
          -1 -1 -1 -1 -1 -1
          -1 -1 -1 -1 -1 -1
          -1 -1 -1 -1 -1 -1
          -1 -1 -1 -1 -1 -1
          -1 -1 -1 -1 -1 -1
          -1 -1 -1 -1 -1 -1
          -1 -1 -1 -1 -1 -1
          -1 -1 -1 -1 -1 -1
          -1 -1 -1 -1 -1 -1
          -1 -1 -1 -1 -1 -1
          -1 -1 -1 -1 -1 -1
          -1 -1 -1 -1 -1 -1
          -1 -1 -1 -1 -1 -1
          -1 -1 -1 -1 -1 -1
          -1 -1 -1 -1 -1 -1
          -1 -1 -1 -1 -1 -1
          -1 -1 -1 -1 -1 -1
          -1 -1 -1 -1 -1 -1
          -1 -1 -1 -1 -1 -1
          -1 -1 -1 -1 -1 -1
          -1 -1 -1 -1 -1 -1
          -1 -1 -1 -1 -1 -1
          -1 -1 -1 -1 -1 -1
          -1 -1 -1 -1 -1 -1
          -1 -1 -1 -1 -1 -1
          -1 -1 -1 -1 -1 -1
          -1 -1 -1 -1 -1 -1
          -1 -1 -1 -1 -1 -1
          -1 -1 -1 -1 -1 -1
          -1 -1 -1 -1 -1 -1
          -1 -1 -1 -1 -1 -1
          -1 -1 -1 -1 -1 -1
          -1 -1 -1 -1 -1 -1
          -1 -1 -1 -1 -1 -1
          -1 -1 -1 -1 -1 -1
          -1 -1 -1 -1 -1 -1
          -1 -1 -1 -1 -1 -1
          -1 -1 -1 -1 -1 -1
          -1 -1 -1 -1 -1 -1
          -1 -1 -1 -1 -1 -1
          -1 -1 -1 -1 -1 -1
          -1 -1 -1 -1 -1 -1
          -1 -1 -1 -1 -1 -1
          -1 -1 -1 -1 -1 -1
          -1 -1 -1 -1 -1 -1
          -1 -1 -1 -1 -1 -1
          -1 -1 -1 -1 -1 -1
          -1 -1 -1 -1 -1 -1
          -1 -1 -1 -1 -1 -1
          -1 -1 -1 -1 -1 -1
          -1 -1 -1 -1 -1 -1
          -1 -1 -1 -1 -1 -1
          -1 -1 -1 -1 -1 -1
          -1 -1 -1 -1 -1 -1
          -1 -1 -1 -1 -1 -1
          -1 -1 -1 -1 -1 -1
          -1 -1 -1 -1 -1 -1
          -1 -1 -1 -1 -1 -1
          -1 -1 -1 -1 -1 -1
          -1 -1 -1 -1 -1 -1
          -1 -1 -1 -1 -1 -1
          -1 -1 -1 -1 -1 -1
          -1 -1 -1 -1 -1 -1
          -1 -1 -1 -1 -1 -1
          -1 -1 -1 -1 -1 -1
          -1 -1 -1 -1 -1 -1
          -1 -1 -1 -1 -1 -1
          -1 -1 -1 -1 -1 -1
          -1 -1 -1 -1 -1 -1
          -1 -1 -1 -1 -1 -1
          -1 -1 -1 -1 -1 -1
          -1 -1 -1 -1 -1 -1
          -1 -1 -1 -1 -1 -1
          -1 -1 -1 -1 -1 -1
          -1 -1 -1 -1 -1 -1
          -1 -1 -1 -1 -1 -1
          -1 -1 -1 -1 -1 -1
          -1 -1 -1 -1 -1 -1
          -1 -1 -1 -1 -1 -1
          -1 -1 -1 -1 -1 -1
          -1 -1 -1 -1 -1 -1
          -1 -1 -1 -1 -1 -1
          -1 -1 -1 -1 -1 -1
          -1 -1 -1 -1 -1 -1
          -1 -1 -1 -1 -1 -1
          -1 -1 -1 -1 -1 -1
          -1 -1 -1 -1 -1 -1
          -1 -1 -1 -1 -1 -1
          -1 -1 -1 -1 -1 -1
          -1 -1 -1 -1 -1 -1
          -1 -1 -1 -1 -1 -1
          -1 -1 -1 -1 -1 -1
          -1 -1 -1 -1 -1 -1
          -1 -1 -1 -1 -1 -1
          -1 -1 -1 -1 -1 -1
          -1 -1 -1 -1 -1 -1
          -1 -1 -1 -1 -1 -1
          -1 -1 -1 -1 -1 -1
          -1 -1 -1 -1 -1 -1
          -1 -1 -1 -1 -1 -1
          -1 -1 -1 -1 -1 -1
          -1 -1 -1 -1 -1 -1
          -1 -1 -1 -1 -1 -1
          -1 -1 -1 -1 -1 -1
          -1 -1 -1 -1 -1 -1
          -1 -1 -1 -1 -1 -1
          -1 -1 -1 -1 -1 -1
          -1 -1 -1 -1 -1 -1
          -1 -1 -1 -1 -1 -1
          -1 -1 -1 -1 -1 -1
          -1 -1 -1 -1 -1 -1
          -1 -1 -1 -1 -1 -1
          -1 -1 -1 -1 -1 -1
          -1 -1 -1 -1 -1 -1
          -1 -1 -1 -1 -1 -1
          -1 -1 -1 -1 -1 -1
          -1 -1 -1 -1 -1 -1
          -1 -1 -1 -1 -1 -1
          -1 -1 -1 -1 -1 -1
          -1 -1 -1 -1 -1 -1
          -1 -1 -1 -1 -1 -1
          -1 -1 -1 -1 -1 -1
          -1 -1 -1 -1 -1 -1
          -1 -1 -1 -1 -1 -1
          -1 -1 -1 -1 -1 -1
          -1 -1 -1 -1 -1 -1
          -1 -1 -1 -1 -1 -1
          -1 -1 -1 -1 -1 -1
          -1 -1 -1 -1 -1 -1
          -1 -1 -1 -1 -1 -1
          -1 -1 -1 -1 -1 -1
          -1
        </DataArray>
        <DataArray type="Float64" Name="_sub_domain_" format="ascii" RangeMin="0" RangeMax="0">
          0 0 0 0 0 0
          0 0 0 0 0 0
          0 0 0 0 0 0
          0 0 0 0 0 0
          0 0 0 0 0 0
          0 0 0 0 0 0
          0 0 0 0 0 0
          0 0 0 0 0 0
          0 0 0 0 0 0
          0 0 0 0 0 0
          0 0 0 0 0 0
          0 0 0 0 0 0
          0 0 0 0 0 0
          0 0 0 0 0 0
          0 0 0 0 0 0
          0 0 0 0 0 0
          0 0 0 0 0 0
          0 0 0 0 0 0
          0 0 0 0 0 0
          0 0 0 0 0 0
          0 0 0 0 0 0
          0 0 0 0 0 0
          0 0 0 0 0 0
          0 0 0 0 0 0
          0 0 0 0 0 0
          0 0 0 0 0 0
          0 0 0 0 0 0
          0 0 0 0 0 0
          0 0 0 0 0 0
          0 0 0 0 0 0
          0 0 0 0 0 0
          0 0 0 0 0 0
          0 0 0 0 0 0
          0 0 0 0 0 0
          0 0 0 0 0 0
          0 0 0 0 0 0
          0 0 0 0 0 0
          0 0 0 0 0 0
          0 0 0 0 0 0
          0 0 0 0 0 0
          0 0 0 0 0 0
          0 0 0 0 0 0
          0 0 0 0 0 0
          0 0 0 0 0 0
          0 0 0 0 0 0
          0 0 0 0 0 0
          0 0 0 0 0 0
          0 0 0 0 0 0
          0 0 0 0 0 0
          0 0 0 0 0 0
          0 0 0 0 0 0
          0 0 0 0 0 0
          0 0 0 0 0 0
          0 0 0 0 0 0
          0 0 0 0 0 0
          0 0 0 0 0 0
          0 0 0 0 0 0
          0 0 0 0 0 0
          0 0 0 0 0 0
          0 0 0 0 0 0
          0 0 0 0 0 0
          0 0 0 0 0 0
          0 0 0 0 0 0
          0 0 0 0 0 0
          0 0 0 0 0 0
          0 0 0 0 0 0
          0 0 0 0 0 0
          0 0 0 0 0 0
          0 0 0 0 0 0
          0 0 0 0 0 0
          0 0 0 0 0 0
          0 0 0 0 0 0
          0 0 0 0 0 0
          0 0 0 0 0 0
          0 0 0 0 0 0
          0 0 0 0 0 0
          0 0 0 0 0 0
          0 0 0 0 0 0
          0 0 0 0 0 0
          0 0 0 0 0 0
          0 0 0 0 0 0
          0 0 0 0 0 0
          0 0 0 0 0 0
          0 0 0 0 0 0
          0 0 0 0 0 0
          0 0 0 0 0 0
          0 0 0 0 0 0
          0 0 0 0 0 0
          0 0 0 0 0 0
          0 0 0 0 0 0
          0 0 0 0 0 0
          0 0 0 0 0 0
          0 0 0 0 0 0
          0 0 0 0 0 0
          0 0 0 0 0 0
          0 0 0 0 0 0
          0 0 0 0 0 0
          0 0 0 0 0 0
          0 0 0 0 0 0
          0 0 0 0 0 0
          0 0 0 0 0 0
          0 0 0 0 0 0
          0 0 0 0 0 0
          0 0 0 0 0 0
          0 0 0 0 0 0
          0 0 0 0 0 0
          0 0 0 0 0 0
          0 0 0 0 0 0
          0 0 0 0 0 0
          0 0 0 0 0 0
          0 0 0 0 0 0
          0 0 0 0 0 0
          0 0 0 0 0 0
          0 0 0 0 0 0
          0 0 0 0 0 0
          0 0 0 0 0 0
          0 0 0 0 0 0
          0 0 0 0 0 0
          0 0 0 0 0 0
          0 0 0 0 0 0
          0 0 0 0 0 0
          0 0 0 0 0 0
          0 0 0 0 0 0
          0 0 0 0 0 0
          0 0 0 0 0 0
          0 0 0 0 0 0
          0 0 0 0 0 0
          0 0 0 0 0 0
          0 0 0 0 0 0
          0 0 0 0 0 0
          0 0 0 0 0 0
          0 0 0 0 0 0
          0 0 0 0 0 0
          0 0 0 0 0 0
          0 0 0 0 0 0
          0 0 0 0 0 0
          0 0 0 0 0 0
          0 0 0 0 0 0
          0 0 0 0 0 0
          0 0 0 0 0 0
          0 0 0 0 0 0
          0 0 0 0 0 0
          0 0 0 0 0 0
          0 0 0 0 0 0
          0 0 0 0 0 0
          0 0 0 0 0 0
          0 0 0 0 0 0
          0 0 0 0 0 0
          0 0 0 0 0 0
          0 0 0 0 0 0
          0 0 0 0 0 0
          0 0 0 0 0 0
          0 0 0 0 0 0
          0 0 0 0 0 0
          0 0 0 0 0 0
          0 0 0 0 0 0
          0 0 0 0 0 0
          0 0 0 0 0 0
          0 0 0 0 0 0
          0 0 0 0 0 0
          0 0 0 0 0 0
          0 0 0 0 0 0
          0 0 0 0 0 0
          0 0 0 0 0 0
          0 0 0 0 0 0
          0 0 0 0 0 0
          0 0 0 0 0 0
          0 0 0 0 0 0
          0 0 0 0 0 0
          0 0 0 0 0 0
          0 0 0 0 0 0
          0 0 0 0 0 0
          0 0 0 0 0 0
          0 0 0 0 0 0
          0 0 0 0 0 0
          0 0 0 0 0 0
          0 0 0 0 0 0
          0 0 0 0 0 0
          0 0 0 0 0 0
          0 0 0 0 0 0
          0 0 0 0 0 0
          0 0 0 0 0 0
          0 0 0 0 0 0
          0 0 0 0 0 0
          0 0 0 0 0 0
          0 0 0 0 0 0
          0 0 0 0 0 0
          0 0 0 0 0 0
          0 0 0 0 0 0
          0 0 0 0 0 0
          0 0 0 0 0 0
          0 0 0 0 0 0
          0 0 0 0 0 0
          0 0 0 0 0 0
          0 0 0 0 0 0
          0 0 0 0 0 0
          0 0 0 0 0 0
          0 0 0 0 0 0
          0 0 0 0 0 0
          0 0 0 0 0 0
          0 0 0 0 0 0
          0 0 0 0 0 0
          0 0 0 0 0 0
          0 0 0 0 0 0
          0 0 0 0 0 0
          0 0 0 0 0 0
          0 0 0 0 0 0
          0 0 0 0 0 0
          0 0 0 0 0 0
          0 0 0 0 0 0
          0 0 0 0 0 0
          0 0 0 0 0 0
          0 0 0 0 0 0
          0 0 0 0 0 0
          0 0 0 0 0 0
          0 0 0 0 0 0
          0 0 0 0 0 0
          0 0 0 0 0 0
          0 0 0 0 0 0
          0 0 0 0 0 0
          0 0 0 0 0 0
          0 0 0 0 0 0
          0 0 0 0 0 0
          0 0 0 0 0 0
          0 0 0 0 0 0
          0 0 0 0 0 0
          0 0 0 0 0 0
          0 0 0 0 0 0
          0 0 0 0 0 0
          0 0 0 0 0 0
          0 0 0 0 0 0
          0 0 0 0 0 0
          0 0 0 0 0 0
          0 0 0 0 0 0
          0 0 0 0 0 0
          0 0 0 0 0 0
          0 0 0 0 0 0
          0 0 0 0 0 0
          0 0 0 0 0 0
          0 0 0 0 0 0
          0 0 0 0 0 0
          0 0 0 0 0 0
          0 0 0 0 0 0
          0 0 0 0 0 0
          0 0 0 0 0 0
          0 0 0 0 0 0
          0 0 0 0 0 0
          0 0 0 0 0 0
          0 0 0 0 0 0
          0 0 0 0 0 0
          0 0 0 0 0 0
          0 0 0 0 0 0
          0 0 0 0 0 0
          0 0 0 0 0 0
          0 0 0 0 0 0
          0 0 0 0 0 0
          0 0 0 0 0 0
          0 0 0 0 0 0
          0 0 0 0 0 0
          0 0 0 0 0 0
          0 0 0 0 0 0
          0 0 0 0 0 0
          0 0 0 0 0 0
          0 0 0 0 0 0
          0 0 0 0 0 0
          0 0 0 0 0 0
          0 0 0 0 0 0
          0 0 0 0 0 0
          0 0 0 0 0 0
          0 0 0 0 0 0
          0 0 0 0 0 0
          0 0 0 0 0 0
          0 0 0 0 0 0
          0 0 0 0 0 0
          0 0 0 0 0 0
          0 0 0 0 0 0
          0 0 0 0 0 0
          0 0 0 0 0 0
          0 0 0 0 0 0
          0 0 0 0 0 0
          0 0 0 0 0 0
          0 0 0 0 0 0
          0 0 0 0 0 0
          0 0 0 0 0 0
          0 0 0 0 0 0
          0 0 0 0 0 0
          0 0 0 0 0 0
          0 0 0 0 0 0
          0 0 0 0 0 0
          0 0 0 0 0 0
          0 0 0 0 0 0
          0 0 0 0 0 0
          0 0 0 0 0 0
          0 0 0 0 0 0
          0 0 0 0 0 0
          0 0 0 0 0 0
          0 0 0 0 0 0
          0 0 0 0 0 0
          0 0 0 0 0 0
          0 0 0 0 0 0
          0 0 0 0 0 0
          0 0 0 0 0 0
          0 0 0 0 0 0
          0 0 0 0 0 0
          0 0 0 0 0 0
          0 0 0 0 0 0
          0 0 0 0 0 0
          0 0 0 0 0 0
          0 0 0 0 0 0
          0 0 0 0 0 0
          0 0 0 0 0 0
          0 0 0 0 0 0
          0 0 0 0 0 0
          0 0 0 0 0 0
          0 0 0 0 0 0
          0 0 0 0 0 0
          0 0 0 0 0 0
          0 0 0 0 0 0
          0 0 0 0 0 0
          0 0 0 0 0 0
          0 0 0 0 0 0
          0 0 0 0 0 0
          0 0 0 0 0 0
          0 0 0 0 0 0
          0 0 0 0 0 0
          0 0 0 0 0 0
          0 0 0 0 0 0
          0 0 0 0 0 0
          0 0 0 0 0 0
          0 0 0 0 0 0
          0 0 0 0 0 0
          0 0 0 0 0 0
          0 0 0 0 0 0
          0 0 0 0 0 0
          0 0 0 0 0 0
          0 0 0 0 0 0
          0 0 0 0 0 0
          0 0 0 0 0 0
          0 0 0 0 0 0
          0 0 0 0 0 0
          0 0 0 0 0 0
          0 0 0 0 0 0
          0 0 0 0 0 0
          0 0 0 0 0 0
          0 0 0 0 0 0
          0 0 0 0 0 0
          0 0 0 0 0 0
          0 0 0 0 0 0
          0 0 0 0 0 0
          0 0 0 0 0 0
          0 0 0 0 0 0
          0 0 0 0 0 0
          0 0 0 0 0 0
          0 0 0 0 0 0
          0 0 0 0 0 0
          0 0 0 0 0 0
          0 0 0 0 0 0
          0 0 0 0 0 0
          0 0 0 0 0 0
          0 0 0 0 0 0
          0 0 0 0 0 0
          0 0 0 0 0 0
          0 0 0 0 0 0
          0 0 0 0 0 0
          0 0 0 0 0 0
          0 0 0 0 0 0
          0 0 0 0 0 0
          0 0 0 0 0 0
          0 0 0 0 0 0
          0 0 0 0 0 0
          0 0 0 0 0 0
          0 0 0 0 0 0
          0 0 0 0 0 0
          0 0 0 0 0 0
          0 0 0 0 0 0
          0 0 0 0 0 0
          0 0 0 0 0 0
          0 0 0 0 0 0
          0 0 0 0 0 0
          0 0 0 0 0 0
          0 0 0 0 0 0
          0 0 0 0 0 0
          0 0 0 0 0 0
          0 0 0 0 0 0
          0 0 0 0 0 0
          0 0 0 0 0 0
          0 0 0 0 0 0
          0 0 0 0 0 0
          0 0 0 0 0 0
          0 0 0 0 0 0
          0 0 0 0 0 0
          0 0 0 0 0 0
          0 0 0 0 0 0
          0 0 0 0 0 0
          0 0 0 0 0 0
          0 0 0 0 0 0
          0 0 0 0 0 0
          0 0 0 0 0 0
          0 0 0 0 0 0
          0 0 0 0 0 0
          0 0 0 0 0 0
          0 0 0 0 0 0
          0 0 0 0 0 0
          0 0 0 0 0 0
          0 0 0 0 0 0
          0 0 0 0 0 0
          0 0 0 0 0 0
          0 0 0 0 0 0
          0 0 0 0 0 0
          0 0 0 0 0 0
          0 0 0 0 0 0
          0 0 0 0 0 0
          0 0 0 0 0 0
          0 0 0 0 0 0
          0 0 0 0 0 0
          0 0 0 0 0 0
          0 0 0 0 0 0
          0 0 0 0 0 0
          0 0 0 0 0 0
          0 0 0 0 0 0
          0 0 0 0 0 0
          0 0 0 0 0 0
          0 0 0 0 0 0
          0 0 0 0 0 0
          0 0 0 0 0 0
          0 0 0 0 0 0
          0 0 0 0 0 0
          0 0 0 0 0 0
          0 0 0 0 0 0
          0 0 0 0 0 0
          0 0 0 0 0 0
          0 0 0 0 0 0
          0 0 0 0 0 0
          0 0 0 0 0 0
          0 0 0 0 0 0
          0 0 0 0 0 0
          0 0 0 0 0 0
          0 0 0 0 0 0
          0 0 0 0 0 0
          0 0 0 0 0 0
          0 0 0 0 0 0
          0 0 0 0 0 0
          0 0 0 0 0 0
          0 0 0 0 0 0
          0 0 0 0 0 0
          0 0 0 0 0 0
          0 0 0 0 0 0
          0 0 0 0 0 0
          0 0 0 0 0 0
          0 0 0 0 0 0
          0 0 0 0 0 0
          0 0 0 0 0 0
          0 0 0 0 0 0
          0 0 0 0 0 0
          0 0 0 0 0 0
          0 0 0 0 0 0
          0 0 0 0 0 0
          0 0 0 0 0 0
          0 0 0 0 0 0
          0 0 0 0 0 0
          0 0 0 0 0 0
          0 0 0 0 0 0
          0 0 0 0 0 0
          0 0 0 0 0 0
          0 0 0 0 0 0
          0 0 0 0 0 0
          0 0 0 0 0 0
          0 0 0 0 0 0
          0 0 0 0 0 0
          0 0 0 0 0 0
          0 0 0 0 0 0
          0 0 0 0 0 0
          0 0 0 0 0 0
          0 0 0 0 0 0
          0 0 0 0 0 0
          0 0 0 0 0 0
          0 0 0 0 0 0
          0 0 0 0 0 0
          0 0 0 0 0 0
          0 0 0 0 0 0
          0 0 0 0 0 0
          0 0 0 0 0 0
          0 0 0 0 0 0
          0 0 0 0 0 0
          0 0 0 0 0 0
          0 0 0 0 0 0
          0 0 0 0 0 0
          0 0 0 0 0 0
          0 0 0 0 0 0
          0 0 0 0 0 0
          0 0 0 0 0 0
          0 0 0 0 0 0
          0 0 0 0 0 0
          0 0 0 0 0 0
          0 0 0 0 0 0
          0 0 0 0 0 0
          0 0 0 0 0 0
          0 0 0 0 0 0
          0 0 0 0 0 0
          0 0 0 0 0 0
          0 0 0 0 0 0
          0 0 0 0 0 0
          0 0 0 0 0 0
          0 0 0 0 0 0
          0 0 0 0 0 0
          0 0 0 0 0 0
          0 0 0 0 0 0
          0 0 0 0 0 0
          0 0 0 0 0 0
          0 0 0 0 0 0
          0 0 0 0 0 0
          0 0 0 0 0 0
          0 0 0 0 0 0
          0 0 0 0 0 0
          0 0 0 0 0 0
          0 0 0 0 0 0
          0 0 0 0 0 0
          0 0 0 0 0 0
          0 0 0 0 0 0
          0 0 0 0 0 0
          0 0 0 0 0 0
          0 0 0 0 0 0
          0 0 0 0 0 0
          0 0 0 0 0 0
          0 0 0 0 0 0
          0 0 0 0 0 0
          0 0 0 0 0 0
          0 0 0 0 0 0
          0 0 0 0 0 0
          0 0 0 0 0 0
          0 0 0 0 0 0
          0 0 0 0 0 0
          0 0 0 0 0 0
          0 0 0 0 0 0
          0 0 0 0 0 0
          0 0 0 0 0 0
          0 0 0 0 0 0
          0 0 0 0 0 0
          0 0 0 0 0 0
          0 0 0 0 0 0
          0 0 0 0 0 0
          0 0 0 0 0 0
          0 0 0 0 0 0
          0 0 0 0 0 0
          0 0 0 0 0 0
          0 0 0 0 0 0
          0 0 0 0 0 0
          0 0 0 0 0 0
          0 0 0 0 0 0
          0 0 0 0 0 0
          0 0 0 0 0 0
          0 0 0 0 0 0
          0 0 0 0 0 0
          0 0 0 0 0 0
          0 0 0 0 0 0
          0 0 0 0 0 0
          0 0 0 0 0 0
          0 0 0 0 0 0
          0 0 0 0 0 0
          0 0 0 0 0 0
          0 0 0 0 0 0
          0 0 0 0 0 0
          0 0 0 0 0 0
          0 0 0 0 0 0
          0 0 0 0 0 0
          0 0 0 0 0 0
          0 0 0 0 0 0
          0 0 0 0 0 0
          0 0 0 0 0 0
          0 0 0 0 0 0
          0 0 0 0 0 0
          0 0 0 0 0 0
          0 0 0 0 0 0
          0 0 0 0 0 0
          0 0 0 0 0 0
          0 0 0 0 0 0
          0 0 0 0 0 0
          0 0 0 0 0 0
          0 0 0 0 0 0
          0 0 0 0 0 0
          0 0 0 0 0 0
          0 0 0 0 0 0
          0 0 0 0 0 0
          0 0 0 0 0 0
          0 0 0 0 0 0
          0 0 0 0 0 0
          0 0 0 0 0 0
          0 0 0 0 0 0
          0 0 0 0 0 0
          0 0 0 0 0 0
          0 0 0 0 0 0
          0 0 0 0 0 0
          0 0 0 0 0 0
          0 0 0 0 0 0
          0 0 0 0 0 0
          0 0 0 0 0 0
          0 0 0 0 0 0
          0 0 0 0 0 0
          0 0 0 0 0 0
          0 0 0 0 0 0
          0 0 0 0 0 0
          0 0 0 0 0 0
          0 0 0 0 0 0
          0 0 0 0 0 0
          0 0 0 0 0 0
          0 0 0 0 0 0
          0 0 0 0 0 0
          0 0 0 0 0 0
          0 0 0 0 0 0
          0 0 0 0 0 0
          0 0 0 0 0 0
          0 0 0 0 0 0
          0 0 0 0 0 0
          0 0 0 0 0 0
          0 0 0 0 0 0
          0 0 0 0 0 0
          0 0 0 0 0 0
          0 0 0 0 0 0
          0 0 0 0 0 0
          0 0 0 0 0 0
          0 0 0 0 0 0
          0 0 0 0 0 0
          0 0 0 0 0 0
          0 0 0 0 0 0
          0 0 0 0 0 0
          0 0 0 0 0 0
          0 0 0 0 0 0
          0 0 0 0 0 0
          0 0 0 0 0 0
          0 0 0 0 0 0
          0 0 0 0 0 0
          0 0 0 0 0 0
          0 0 0 0 0 0
          0 0 0 0 0 0
          0 0 0 0 0 0
          0 0 0 0 0 0
          0 0 0 0 0 0
          0 0 0 0 0 0
          0 0 0 0 0 0
          0 0 0 0 0 0
          0 0 0 0 0 0
          0 0 0 0 0 0
          0 0 0 0 0 0
          0 0 0 0 0 0
          0 0 0 0 0 0
          0 0 0 0 0 0
          0 0 0 0 0 0
          0 0 0 0 0 0
          0 0 0 0 0 0
          0 0 0 0 0 0
          0 0 0 0 0 0
          0 0 0 0 0 0
          0 0 0 0 0 0
          0 0 0 0 0 0
          0 0 0 0 0 0
          0 0 0 0 0 0
          0 0 0 0 0 0
          0 0 0 0 0 0
          0 0 0 0 0 0
          0 0 0 0 0 0
          0 0 0 0 0 0
          0 0 0 0 0 0
          0 0 0 0 0 0
          0 0 0 0 0 0
          0 0 0 0 0 0
          0 0 0 0 0 0
          0 0 0 0 0 0
          0 0 0 0 0 0
          0 0 0 0 0 0
          0 0 0 0 0 0
          0 0 0 0 0 0
          0 0 0 0 0 0
          0 0 0 0 0 0
          0 0 0 0 0 0
          0 0 0 0 0 0
          0 0 0 0 0 0
          0 0 0 0 0 0
          0 0 0 0 0 0
          0 0 0 0 0 0
          0 0 0 0 0 0
          0 0 0 0 0 0
          0 0 0 0 0 0
          0 0 0 0 0 0
          0 0 0 0 0 0
          0 0 0 0 0 0
          0 0 0 0 0 0
          0 0 0 0 0 0
          0 0 0 0 0 0
          0 0 0 0 0 0
          0 0 0 0 0 0
          0 0 0 0 0 0
          0 0 0 0 0 0
          0 0 0 0 0 0
          0 0 0 0 0 0
          0 0 0 0 0 0
          0 0 0 0 0 0
          0 0 0 0 0 0
          0 0 0 0 0 0
          0 0 0 0 0 0
          0 0 0 0 0 0
          0 0 0 0 0 0
          0 0 0 0 0 0
          0 0 0 0 0 0
          0 0 0 0 0 0
          0 0 0 0 0 0
          0 0 0 0 0 0
          0 0 0 0 0 0
          0 0 0 0 0 0
          0 0 0 0 0 0
          0 0 0 0 0 0
          0 0 0 0 0 0
          0 0 0 0 0 0
          0 0 0 0 0 0
          0 0 0 0 0 0
          0 0 0 0 0 0
          0 0 0 0 0 0
          0 0 0 0 0 0
          0 0 0 0 0 0
          0 0 0 0 0 0
          0 0 0 0 0 0
          0 0 0 0 0 0
          0 0 0 0 0 0
          0 0 0 0 0 0
          0 0 0 0 0 0
          0 0 0 0 0 0
          0 0 0 0 0 0
          0 0 0 0 0 0
          0 0 0 0 0 0
          0 0 0 0 0 0
          0 0 0 0 0 0
          0 0 0 0 0 0
          0 0 0 0 0 0
          0 0 0 0 0 0
          0 0 0 0 0 0
          0 0 0 0 0 0
          0 0 0 0 0 0
          0 0 0 0 0 0
          0 0 0 0 0 0
          0 0 0 0 0 0
          0 0 0 0 0 0
          0 0 0 0 0 0
          0 0 0 0 0 0
          0 0 0 0 0 0
          0 0 0 0 0 0
          0 0 0 0 0 0
          0 0 0 0 0 0
          0 0 0 0 0 0
          0 0 0 0 0 0
          0 0 0 0 0 0
          0 0 0 0 0 0
          0 0 0 0 0 0
          0 0 0 0 0 0
          0 0 0 0 0 0
          0 0 0 0 0 0
          0 0 0 0 0 0
          0 0 0 0 0 0
          0 0 0 0 0 0
          0 0 0 0 0 0
          0 0 0 0 0 0
          0 0 0 0 0 0
          0 0 0 0 0 0
          0 0 0 0 0 0
          0 0 0 0 0 0
          0 0 0 0 0 0
          0 0 0 0 0 0
          0 0 0 0 0 0
          0 0 0 0 0 0
          0 0 0 0 0 0
          0 0 0 0 0 0
          0 0 0 0 0 0
          0 0 0 0 0 0
          0 0 0 0 0 0
          0 0 0 0 0 0
          0 0 0 0 0 0
          0 0 0 0 0 0
          0 0 0 0 0 0
          0 0 0 0 0 0
          0 0 0 0 0 0
          0 0 0 0 0 0
          0 0 0 0 0 0
          0 0 0 0 0 0
          0 0 0 0 0 0
          0 0 0 0 0 0
          0 0 0 0 0 0
          0 0 0 0 0 0
          0 0 0 0 0 0
          0 0 0 0 0 0
          0 0 0 0 0 0
          0 0 0 0 0 0
          0 0 0 0 0 0
          0 0 0 0 0 0
          0 0 0 0 0 0
          0 0 0 0 0 0
          0 0 0 0 0 0
          0 0 0 0 0 0
          0 0 0 0 0 0
          0 0 0 0 0 0
          0 0 0 0 0 0
          0 0 0 0 0 0
          0 0 0 0 0 0
          0 0 0 0 0 0
          0 0 0 0 0 0
          0 0 0 0 0 0
          0 0 0 0 0 0
          0 0 0 0 0 0
          0 0 0 0 0 0
          0 0 0 0 0 0
          0 0 0 0 0 0
          0 0 0 0 0 0
          0 0 0 0 0 0
          0 0 0 0 0 0
          0 0 0 0 0 0
          0 0 0 0 0 0
          0 0 0 0 0 0
          0 0 0 0 0 0
          0 0 0 0 0 0
          0 0 0 0 0 0
          0 0 0 0 0 0
          0 0 0 0 0 0
          0 0 0 0 0 0
          0 0 0 0 0 0
          0 0 0 0 0 0
          0 0 0 0 0 0
          0 0 0 0 0 0
          0 0 0 0 0 0
          0 0 0 0 0 0
          0 0 0 0 0 0
          0 0 0 0 0 0
          0 0 0 0 0 0
          0 0 0 0 0 0
          0 0 0 0 0 0
          0 0 0 0 0 0
          0 0 0 0 0 0
          0 0 0 0 0 0
          0 0 0 0 0 0
          0 0 0 0 0 0
          0 0 0 0 0 0
          0 0 0 0 0 0
          0 0 0 0 0 0
          0 0 0 0 0 0
          0 0 0 0 0 0
          0 0 0 0 0 0
          0 0 0 0 0 0
          0 0 0 0 0 0
          0 0 0 0 0 0
          0 0 0 0 0 0
          0 0 0 0 0 0
          0 0 0 0 0 0
          0 0 0 0 0 0
          0 0 0 0 0 0
          0 0 0 0 0 0
          0 0 0 0 0 0
          0 0 0 0 0 0
          0 0 0 0 0 0
          0 0 0 0 0 0
          0 0 0 0 0 0
          0 0 0 0 0 0
          0 0 0 0 0 0
          0 0 0 0 0 0
          0 0 0 0 0 0
          0 0 0 0 0 0
          0 0 0 0 0 0
          0 0 0 0 0 0
          0 0 0 0 0 0
          0 0 0 0 0 0
          0 0 0 0 0 0
          0 0 0 0 0 0
          0 0 0 0 0 0
          0 0 0 0 0 0
          0 0 0 0 0 0
          0 0 0 0 0 0
          0 0 0 0 0 0
          0 0 0 0 0 0
          0 0 0 0 0 0
          0 0 0 0 0 0
          0 0 0 0 0 0
          0 0 0 0 0 0
          0 0 0 0 0 0
          0 0 0 0 0 0
          0 0 0 0 0 0
          0 0 0 0 0 0
          0 0 0 0 0 0
          0 0 0 0 0 0
          0 0 0 0 0 0
          0 0 0 0 0 0
          0 0 0 0 0 0
          0 0 0 0 0 0
          0 0 0 0 0 0
          0 0 0 0 0 0
          0 0 0 0 0 0
          0 0 0 0 0 0
          0 0 0 0 0 0
          0 0 0 0 0 0
          0 0 0 0 0 0
          0 0 0 0 0 0
          0 0 0 0 0 0
          0 0 0 0 0 0
          0 0 0 0 0 0
          0 0 0 0 0 0
          0 0 0 0 0 0
          0 0 0 0 0 0
          0 0 0 0 0 0
          0 0 0 0 0 0
          0 0 0 0 0 0
          0 0 0 0 0 0
          0 0 0 0 0 0
          0 0 0 0 0 0
          0 0 0 0 0 0
          0 0 0 0 0 0
          0 0 0 0 0 0
          0 0 0 0 0 0
          0
        </DataArray>
        <DataArray type="Float64" Name="ScalarGradient" NumberOfComponents="3" format="ascii" RangeMin="0.013742995682" RangeMax="0.70501494817">
          0.48305011274 0.043157849409 0.35499484657 0.35095621937 0.01296133841 0.13731486955
          0.089899395695 0.030081038149 0.0082626086209 0.16766596493 0.032669281964 -0.038624176928
          0.49062019999 0.047650544517 0.34060232368 -0.29097868783 0.00644786221 0.057988859156
          0.47884887229 0.044894735157 0.34977289687 0.25067697398 0.075516184058 0.089710900974
          0.48132320542 0.03182290443 0.28011959888 -0.36714751579 -0.0063571113297 0.12578152355
          0.4313622109 0.013760554197 0.24237030598 -0.17150864649 0.010904374385 0.020160607405
          -0.22105195049 -0.025191032428 0.043803253803 0.30123752917 0.048511118895 0.16589468011
          0.49449416256 0.041930414837 0.33592896485 -0.28593100429 -0.014038948764 0.073913222035
          0.44546479118 -0.001350317581 0.25347342468 0.42482323055 0.057371646833 0.21480242339
          0.48629988986 0.055700802459 0.32100488592 0.28844290967 0.036542863939 0.10663067157
          0.48066801703 0.048677505207 0.35514508666 -0.33181556817 0.008342775653 0.090629916941
          0.29011026445 0.072397413139 0.045577414188 0.43199599368 0.035383147284 0.23214811274
          0.47969564537 0.018344065427 0.20725989539 0.48790267139 0.054340572885 0.31937192888
          -0.041292594725 -0.039176592708 0.021630477459 -0.3153665861 -0.00047632444518 0.064934103431
          0.017578714663 0.05405050713 -0.014728700952 -0.24736143669 -0.0010918072685 -0.025449477802
          0.47918123803 0.039170833589 0.30973421343 0.42394952413 0.049335365384 0.20742436795
          0.37444297152 0.025731626108 0.13861237425 0.090545594026 -0.020829905117 -0.051017623049
          -0.36992842159 0.0042895998304 0.12065236752 0.29244738264 0.050463700045 0.052660024971
          -0.1115102093 0.038184231345 -0.04174577088 0.38134931914 0.014818117035 0.16101204915
          0.32308631247 0.00847498988 0.10097174089 0.35163024588 0.02472790535 0.15969873162
          -0.30944699694 -0.016039561012 0.063136897931 0.26350600615 0.054786692975 0.043042062705
          0.48932982498 0.042579795313 0.35503204105 0.49069820674 0.053634308727 0.34207415194
          0.39347805082 0.0074299440054 0.19167918039 -0.35079612517 -0.0088883649758 0.10486429785
          -0.36103433698 -0.020144969827 0.10299496094 -0.20682953191 -0.022163081769 0.038217590661
          0.48055030838 0.045653659867 0.34709855853 -0.35576814826 0.0079659608171 0.10310661272
          -0.25106513787 -0.0096709147129 0.010289800785 0.25052691293 -0.008845187488 0.016021914882
          -0.28906725287 -0.0056490485358 0.098921667225 0.48920523106 0.040683167665 0.34080512267
          -0.34448048335 0.014524258344 0.14449446306 -0.30259743767 0.0055629358403 0.089187838545
          -0.092416532559 -9.8439464424e-05 -0.0063254726998 0.11592906229 0.0078332904747 0.00078928528276
          -0.3684176028 0.0036408987032 0.1212655843 0.27667788649 0.052559329374 0.085727564666
          -0.37063483383 0.019288234462 0.135163755 -0.25495899114 0.012924548031 0.056885092664
          -0.24942262392 -0.0015847854317 0.0042295498612 0.1051972533 0.030220055558 -0.029938970951
          0.41867609527 0.047002260568 0.24434221807 -0.35013489568 0.0053015778975 0.13354573897
          -0.36450663127 -0.0024517864193 0.12983122755 -0.34494410462 -0.012264355946 0.10565674585
          0.48613404244 0.048751796926 0.35621785054 0 0 -0.08115144973
          -0.20843415607 0.0099518728395 0.061925083501 -0.28349225473 -0.025540494666 0.090079748567
          -0.062664718943 -0.015147032966 -0.0041549071628 0.19059962215 -0.016777528507 0.0242832099
          0.48537274361 0.04147981842 0.35425840396 0.34318008202 0.014173118754 0.087362297416
          0.47231943071 0.0509793851 0.32894033681 0.30626564726 -0.34914059832 0.22855036059
          -0.15347229999 -0.030851121767 -0.01501299675 0.14258952554 0.0041105448499 0.042280516015
          0.48264803 0.045294904199 0.34881611905 0.48872423023 0.043394016793 0.35556191436
          0.27993677244 -0.011465262412 0.10021250866 0.35422564226 0.052664082721 0.13449046044
          -0.34189126737 0.00019842808996 0.087874198824 0.17248737742 0.059848378366 -0.027022756987
          0.17523759919 0.037372969524 0.0073348172197 0.48694397301 0.049394860786 0.35162627861
          -0.37348506469 -0.0020240710793 0.12229096254 -0.37081426358 -0.0073181217832 0.12439581694
          0.45926340711 0.030509168425 0.29076645212 0.4889369051 0.028570351774 0.31319562848
          0.48012113615 0.038722780334 0.33270383833 0.44439525305 0.05597239062 0.2573075191
          0.47803941722 0.032645372229 0.31827040256 0.30118364244 0.0035017941289 0.10080643294
          -0.050260884783 -0.019738807539 0.02409206586 0.48623753484 0.049653484347 0.3420808492
          -0.35608482479 -0.0038077978526 0.13545311672 -0.3278468989 -0.0080807654065 0.1034003679
          0.48540935244 0.043857531288 0.35931428386 0.42644291187 0.026529538653 0.20530464756
          0.021309515238 0.022015140817 0.026475531468 0.21824022894 0.051919077124 0.11118729309
          0.097742407819 -0.0073069736525 -0.044863870271 0.43482640388 0.041452714752 0.23230077913
          -0.20772818234 -0.045624529354 -0.011164323122 -0.24424719959 -0.024349957474 0.091816585615
          -0.3471387299 -0.01560272008 0.11085903047 0.12633403651 0.034780746896 -0.0056808527437
          0.49948849595 0.025411244564 0.34315379693 -0.28467097059 -0.014034119416 0.10128403865
          0.41513379971 0.056312988182 0.21797587764 0.48351781689 0.045376041897 0.35284740137
          -0.31065208968 -0.01698317559 0.068590931591 -0.31946320457 0.0050720399615 0.077782590441
          -0.02265602198 0.0080916426302 -0.020395220731 0.15938430285 -0.0086065623587 0.047490521979
          0.21513833091 0.048739473858 0.046025984448 0.20470711225 0.014372723639 0.064340775974
          0.48960040137 0.057542701449 0.30353838189 -0.37596169699 -0.0080954760359 0.1198641225
          0.31509049 -0.0084916734609 0.10922363734 0.19063881971 0.03138405309 -0.03195747466
          -0.36758784042 0.0032287197638 0.093088171712 0 0 0.077999252681
          0.4972652573 0.036251782839 0.34230206075 0.19150175793 -0.018340683018 0.01999602494
          -0.34435933999 0.0039668932517 0.10156658237 0.4751592502 0.048608179966 0.34207129578
          0.48806044519 0.055387913581 0.35728298696 -0.086797259592 -0.011286078021 -0.063369547368
          -0.10911013304 -0.021556626762 0.012099066286 -0.35764064165 0.0010533234364 0.13337190986
          0.0014638560244 0.018271985748 0.032070272277 -0.30492856937 0.017589246128 0.062185056001
          0.47371343566 0.078909629765 0.28491315445 -0.36881431569 -0.012105859178 0.12975493953
          -0.36788874051 -0.0081648297541 0.11041653789 0.48058028617 0.046114758245 0.34850911172
          0.48352485809 0.045456960979 0.35272061367 -0.37092639813 -0.010514035482 0.12278880678
          0.16073889735 -0.019865022712 0.045710144848 0.30734502748 0.043993742749 0.09325551746
          -0.24902705993 -0.0019958933549 0.016595674246 0.25993998109 0.054626294628 0.057364645574
          -0.31907667615 -0.025776782158 0.11784629273 0.48549321757 0.041579067985 0.3137579614
          -0.0088715034062 -0.0067072358893 -0.069526016978 0.23497501668 0.099982808516 0.093747740764
          0.3153212039 0.018641947276 0.15113526145 0.29971143955 -0.012570836188 0.10104593015
          -0.16712839319 -0.0069200425406 0.064165219638 -0.21148796586 -0.008511642219 0.091053681803
          0.28375884085 0.005154942579 0.075843185015 -0.31483422231 0.021446462385 0.085402882136
          0.43045279153 0.024605736446 0.22888783046 -0.3731662803 -0.0092902492859 0.11941231226
          0.48161984056 0.046063921899 0.33969629417 -0.3246183839 -0.016910855492 0.11927593599
          -0.23289795812 -0.0096786319003 0.092377866597 -0.11855127864 -0.0060148289323 -0.044598819459
          -0.33539153528 0.01308012372 0.087627963313 -0.35263967441 -0.00060776608961 0.098691191195
          0.47956919021 0.051627027811 0.35666411014 0.48365277367 0.047433396973 0.35026337852
          -0.17584667343 0.0066304333701 0.050914965206 0.47577928046 0.057371657097 0.30824092053
          0.1478752406 0.073835807083 -0.024316015105 0.46507084256 0.040093556765 0.28876585173
          -0.14417355392 0.0049912739053 0.024287118561 0.49097661737 0.040475419912 0.35995370363
          -0.1981730321 -0.017210100321 0.027953514469 0.48541811438 0.047656686946 0.32535170555
          0.2822976331 0.055120016788 0.10517844881 -0.36617915853 -0.016625898502 0.11380494058
          0.48128998811 0.046714631696 0.35215986792 0.48512736918 0.047817583575 0.34474035252
          0.30338408336 0.056102840465 0.026128331619 0.088881213064 0.051794962919 0.034319907869
          0.48573370244 0.050142932415 0.34209326492 0.48176424688 0.044211984536 0.35676163122
          0.11239494204 0.056035983717 0.02452194506 0.25951321355 -0.016845784829 0.132527587
          -0.10794953152 0.017694298215 -0.045584399448 -0.37301270606 -0.0065773915988 0.12824374548
          -0.29723087645 -0.011231780241 0.050148503164 0.39710029633 0.02687856524 0.18464377816
          0.47697291544 0.044441618472 0.34660311547 0.47787993173 0.033180659939 0.29427939961
          0.49116392828 0.040953699286 0.36584427921 0.16558615988 0.045582546187 -0.01877257884
          -0.18711020434 -0.010145395096 0.066177626504 0.22545379402 0.018573855534 0.065773348575
          0.20645878417 0.0049930904215 0.087593416963 0.34683774041 0.060889452202 0.054110121859
          0.16630830453 0.040442413823 0.026969938093 0.29288979403 0.10736689977 0.12626809502
          -0.3012555371 0.016595195755 0.071208646769 -0.36072680182 0.00013503773481 0.11696062305
          0.35509046775 0.0080583360592 0.10853149287 0.50321125115 0.024487439027 0.30739100759
          0.48283488717 0.033509466694 0.30969215216 0.1074826282 0.012081756378 -0.046331088455
          0.48193325766 0.045818905953 0.35030684678 0.40696330407 0.057119103896 0.23789013915
          -0.34477662153 -0.013232257421 0.13019758788 -0.36399151769 -0.0046019490369 0.13103370162
          0.32301379021 0.020107528156 0.06352629584 -0.10764926209 -0.011323054387 0.019546725371
          -0.34079471115 -0.00073816627286 0.11053958983 0.48210608589 0.040404689705 0.2945005673
          0.25945807533 -0.0039165147018 0.097416837981 -0.34587649897 -0.0005834616859 0.1068875157
          -0.078964021569 -0.016531871321 0.016905066375 0.31882663841 -0.0052001448441 0.19058641134
          -0.26861277819 -0.026535962675 0.02960295277 0.43899221979 0.036849328325 0.22672824704
          -0.3062535904 -0.01090147479 0.068386405002 -0.18774310513 -0.052074250607 -0.031137554957
          0.48156337679 0.047042475331 0.35295320701 -0.37323574692 -0.0047448449957 0.12348753402
          -0.16115168998 -0.0087289135077 0.034153058171 -0.30695921744 -0.017436930647 0.062171496502
          0.4927760834 0.032921082134 0.34023367228 -0.27724323685 0.017035838168 0.031644074972
          0.47873463484 0.045804431491 0.35398296241 0.27095891323 0.016298856928 0.095757474696
          -0.29865906062 -0.00073548080917 0.088523281127 0.43163042935 0.13539115826 0.16388791678
          -0.17460437717 0.00606198618 0.050869509904 -0.24370371053 0.02777123302 0.035523973429
          -0.18100078882 0.00081326553477 -0.016391608567 -0.33820455625 0.0030325054021 0.093418357619
          0.47672707152 0.046360122614 0.33611716616 -0.1418593266 -0.021865007737 0.043450461768
          0.49777227488 0.05256215744 0.33839437156 0.48000186944 0.047610966227 0.34740879899
          0.45855670239 0.046807486876 0.26847019963 -0.18642156887 -0.020612322119 0.080265933182
          0.3548811423 0.059344882756 0.21529976618 -0.3689340031 -0.0096061346242 0.13268694778
          -0.27559277091 -0.0076129041286 0.06169135251 -0.36590590744 -0.0053259043471 0.11298794486
          -0.34778032231 -0.01445253829 0.097486591354 0.48268350554 0.045196084685 0.34012209938
          0.48242254704 0.051394002403 0.35767625506 0.22115153601 0.03481427186 0.054453329019
          0.32916824858 0.025400106041 0.057114025876 0.46760816394 0.046381946276 0.32422278497
          0.49469274637 0.019746478645 0.34969354156 -0.34093745311 0.0059164480652 0.096926475765
          -0.16019257963 0.021352053798 -0.029346252648 0.472874141 0.040498278182 0.33115054822
          0.21168628791 0.011738537535 0.0029205684064 0.35864291754 0.039974747625 0.1933191091
          -0.2585552271 0.026929208403 0.03684287081 -0.17685906051 -0.015787642359 -0.021535430797
          -0.21618871024 -0.0058319167219 -0.025913250351 -0.35438749119 -0.0061850607534 0.11974837728
          0.38624988904 0.042730927703 0.23210718924 -0.28444393552 -0.008765739009 0.077005413793
          0.46651092716 0.014714063492 0.31888149529 -0.13387133331 -0.028671001644 -0.066526572392
          0.41444815685 0.016794753558 0.18989717546 0.31614959972 0.041034196062 0.094907057964
          0.49601637625 0.056617140295 0.29875771128 0.4820859137 0.038454983326 0.33387230579
          0.45058154244 0.03312152942 0.23714035565 0.48735246396 0.044436262009 0.36661153877
          0.37757443043 -0.011989596504 -0.092839461939 0.45984005534 0.025606228927 0.26974529462
          -0.030672195792 0.043113070773 0.021304124258 -0.12838447037 0 0
          0.29102397593 0.048683173898 0.10109832699 0.32870502843 0.039336772881 0.14678147724
          0.48115565463 0.045179918038 0.33451466892 0.4741974348 0.050634412847 0.29430476476
          -0.28095764424 0.017656958408 0.096329042697 -0.36848471771 0.0022442994724 0.13859122692
          -0.36849038937 -0.010892545844 0.11086128724 -0.2596101289 0.0097788562052 0.074411865449
          0.30367761786 0.051326042432 0.093388922995 0.38466624757 0.02866483711 0.21138349004
          0.27511579732 9.5169501387e-05 0.14168313036 0.49169295466 0.032200065697 0.36165522397
          -0.32193157173 -0.014825701999 0.11970829415 -0.36794692705 0.019082087035 0.12129324683
          0.35464361784 0.02222170406 0.13473674228 -0.099446455208 -0.032347583831 -0.080199786824
          -0.36066726512 -0.00080484188595 0.13325295926 0.40780970802 0.033911010173 0.2311965773
          0.44192152106 0.034480298281 0.27994466354 0.48142110628 0.031031970809 0.28326689617
          0.48160193006 0.04667437091 0.35351899341 -0.37240456669 -0.0093425750211 0.1196709778
          -0.099015003664 0.025254878013 -0.048895772721 -0.3328970315 0.010247932141 0.11619492334
          -0.34597728651 -0.015358422896 0.12097791749 0.47185582672 0.028521999733 0.29399017772
          0.28032766563 0.29967346082 0.19673122024 0.029497119988 0.016029505448 0.00020068034148
          -0.34992896196 -0.019652282282 0.10377675286 -0.16838516444 -0.01417287563 -0.032495357212
          0.49175057715 0.036681954884 0.34584791361 0.49069848908 0.040440225747 0.34628979314
          0.4813557749 0.046598558119 0.35464934079 0.472535665 0.03207224429 0.32019123353
          -0.15992123568 0.014180454523 -0.025720022665 0.43924737308 0.040909269004 0.25131105427
          0.40941376109 0.050793180083 0.23385170425 0.49338786868 0.03697151394 0.34654695307
          0.11980396879 -0.0085976643657 0.033358540042 0.47901874618 0.030576170573 0.27856443938
          0.48276284082 0.053591679398 0.32048456048 -0.16927053266 0.035095400777 -0.019395340623
          0.48793322202 0.060620376936 0.3216552124 0.28740138544 0.036008359586 0.11585338718
          -0.32906109378 -0.0035575266395 0.077975912744 0.25368512258 0.053911521991 0.057191634535
          0.28442555029 0.037999540536 0.14916489155 -0.35918463156 0.0037853203868 0.13997735234
          -0.31694988053 0.015153293699 0.09283401289 -0.25078524103 -0.0013857340453 0.010019318286
          0.39532621544 0.014840187034 0.1861907652 -0.26987317861 0.016433149659 0.03579548945
          0.030992616223 0.013591533786 0.010364277501 0.46811730836 0.066680288913 0.31914767669
          0.38183403252 0.036846616813 0.14381928126 -0.37682368604 -0.0080665488018 0.13603479384
          -0.055850815533 0.040836864041 -0.011483529412 -0.37024848347 0.004308075063 0.12250278169
          -0.31150902966 -0.015038245683 0.060966156292 0.28540591422 0.066554114699 0.1556270782
          -0.33619723019 -0.011672361955 0.08742551613 0.47829373175 0.046139730452 0.3435438808
          0.32565875518 0.052692680874 0.11140160393 -0.0033043611387 0.029656096925 0.022320439752
          0.48186453489 0.050647561638 0.33015221461 0.32692273255 0.041933208234 0.099906920284
          0.48022323664 0.046266461004 0.35612792117 0.17687140219 0.031006979484 0.017832558067
          -0.35575158365 0.0026800309401 0.11728167472 0.26301028924 0.0011841067034 0.09860252483
          -0.35861681559 -0.00046824900821 0.13275759077 0.49195054486 0.047889540847 0.35251892876
          -0.12838447037 0 0 0.29764798024 0.060581244277 0.1299593024
          0.2606166774 -0.032646202518 0.15915120244 -0.34807585375 -0.025307093958 0.13454937513
          -0.1521847382 -0.017184363598 0.0083251587769 -0.070116602392 -0.029217483131 -0.036578160752
          0.45418549583 0.012405968399 0.23794868425 -0.33170968262 0.018170760487 0.087520482644
          0.32357432049 0.0085006840308 0.15905651631 0.16637810533 0.011157832734 0.045689751544
          -0.18269820564 -0.0058546210657 0.059625203496 0.49467179643 0.039711833207 0.34066527551
          0.48185187141 0.047317894756 0.35154199934 0.47723454422 0.046926081362 0.35166939668
          0.4871010102 0.026573715636 0.30772057121 0.48988620461 0.052557064128 0.34033361709
          0.48612699872 0.043403304385 0.35118980845 -0.34681006734 0.0092018467187 0.11726052782
          0.48619844221 0.02499420464 0.31810306474 0.48639045965 0.042647137366 0.35302178293
          -0.1513960243 0.043455764418 -0.015236417277 -0.097269078433 -0.043658970104 -0.06136981734
          -0.32632659274 -0.021358951716 0.10584817588 0.21267487216 0.035532424833 0.067080785472
          0.30126737477 0.0016630443382 0.08453756781 0.48668432168 0.044629404364 0.31451315402
          -0.35292546476 -0.0084572573115 0.11868851697 0.48035439534 0.045546334387 0.3542675408
          -0.26235094162 -0.020173268491 0.06619326015 0.49018534035 0.055338494571 0.35066913047
          -0.14775968285 -0.017810655429 -0.0033391238524 -0.27274644212 -0.01439017035 0.095879530227
          -0.36831978762 -0.0089193600078 0.13646998359 0.46849530101 0.044998996311 0.31223931453
          0.48688381056 0.042806505072 0.33498246107 0.48365804754 0.044656813456 0.35578440011
          -0.089459987705 -0.03666069713 -0.0019640306348 0.40852653842 0.029703686639 0.1876349294
          -0.37210922252 -0.0030452502765 0.12492135097 -0.11119732641 0.033410339899 -0.03891472512
          0.43538177583 0.014278960842 0.20018606411 0.45757130658 0.039977457821 0.28025069796
          -0.22193353646 0.0052308594148 0.063061917019 0.48792924896 0.046232454343 0.35697799363
          0.30191453717 0.051030741945 0.1121540371 -0.1432014982 0.010984877015 0.01580539613
          0.47979610382 0.040010952955 0.33737763183 -0.051593561331 0.0052502886161 -0.048813481731
          -0.32049328105 -0.0089974826092 0.083676662689 -0.3381390587 0.0027781859053 0.093576520107
          0.35118032819 0.0058078090648 0.16956857219 -0.36431524416 -0.010571717352 0.13304037171
          -0.17544988033 -0.0077053741439 0.079649950029 -0.35110496239 -0.017115208087 0.11985365059
          0.28579627645 -0.0021797985955 0.063023259813 0.38205935439 0.05742091172 0.16227895439
          0.48702542041 0.043090989993 0.35838634075 0.40701381556 0.049330600328 0.21949747911
          0.24712756687 -0.013929271226 0.031191606579 0.43831676268 0.0047083832052 0.22966830338
          -0.0010602080822 0.029456034161 0.018512145507 -0.27155571782 0.014207230869 0.090301286802
          0.37088104999 -0.0055549694651 0.15346013388 -0.37448413194 -0.0093904506436 0.12118285628
          -0.36268595526 -0.0044004593984 0.11549744939 -0.32380411467 -0.020327073416 0.074612040436
          -0.26641810571 -0.015589966077 0.05415720963 -0.3710452864 -0.01055619512 0.12270610056
          0.25963804205 -0.016850930431 0.13259934458 0.46316564897 0.043887666385 0.30999594277
          -0.3219793659 -0.019118254546 0.086552862486 0.20919622169 0.020293809254 0.061718047139
          -0.16062355921 0.013826859438 -0.0069831577326 -0.36724517119 -0.018609867682 0.1201813379
          0.47220201123 0.054387772949 0.2986016264 0.40074852478 0.13226227184 0.17667632004
          0.16130070493 -0.01298766062 -0.033886400805 -0.23645764615 -0.023934008119 0.026899233228
          -0.14579114489 -0.02827028559 0.014644428222 0.49216477349 0.050775105002 0.36519425985
          0.12302360909 0.055911740191 -0.018720453725 -0.36448513092 -0.0074093962285 0.11685141463
          0.49655027346 0.040085617686 0.35732656907 -0.32605888176 -0.0099845993434 0.076930758322
          0.49162813957 0.042533677143 0.35489989584 0.29991682411 0.016412149296 0.10388023932
          0.46999600315 0.038331860153 0.30375168951 0.46492517708 0.0520309949 0.3108069495
          -0.34785169559 -0.0057850630103 0.08469765699 0.43146860409 0.044054500439 0.2365263453
          0.49379632746 0.051453810767 0.34033650734 -0.34006121215 -0.0094814409275 0.12872237785
          -0.37236358463 -0.0067914079961 0.12398275658 -0.14683868805 0.013021307104 0.026429228075
          -0.022210902907 0.0078238426756 -0.022206017165 0.3938651397 0.0041322264933 0.070132541745
          0.45304490666 0.023914019196 0.23873542979 0.24384331724 0.046388299829 0.019414253843
          -0.35858136483 -0.0049074677475 0.10655275728 0.40971137304 0.026412701057 0.16733703499
          -0.34976135363 -0.020028283748 0.11446440633 -0.16829900334 -0.046650455892 0.037727205619
          0.47604721309 0.043645370549 0.34833584943 0.38269382862 0.033082637796 0.19851705041
          0.50084326803 0.04482010592 0.32655252444 0.3062672057 0.058389007489 0.085266920181
          -0.24472637849 -0.0082458000726 0.029812619534 -0.30911206275 -0.0047007442611 0.091438191259
          -0.15721351686 -0.029598894224 -0.044545221596 0.48241793133 0.046053497582 0.34012632971
          -0.32164447714 -0.0097679815518 0.084683052127 -0.10946726186 -0.020598999223 -0.0002003608861
          -0.28267854359 -0.027766721979 0.02718286026 -0.1967518705 -0.018389096335 0.028138549446
          -0.29227447719 -0.011201118035 0.065645393576 0.29757626337 0.068614899189 0.05693043799
          0.1432719389 0.057913311041 0.041458522797 -0.13003842854 -0.0064153956392 -0.01869213767
          0.48043357223 0.051628998209 0.31772182041 -0.33575970502 0.0047009085476 0.12220451236
          -0.37096402934 -0.010692035555 0.13281735566 0.484278445 0.044002514645 0.31343126186
          -0.28686993268 -0.022842072463 0.0742415547 -0.31703555851 -0.023722447976 0.11635770101
          0.29789763158 0.0052787191358 0.043975991093 0.36681141181 0.030562850118 0.11156448661
          -0.35705511107 -0.0058256992518 0.11571596397 -0.16522400152 0.030035810231 0.0058726298091
          0.34357908204 0.076590693593 0.13532755312 0.48453616952 0.047357131486 0.35666523502
          0.47615768651 0.043595071631 0.34820807224 0.38465179163 -0.0080895688447 0.13273094275
          -0.35265069584 -0.0040351885172 0.099340323922 -0.045462283864 0.0033728045593 -0.0072456433696
          -0.35659108225 -0.0089187306521 0.11495896539 0.090045377313 0.043540954503 0.0052284568254
          -0.10309977573 0.029816118345 0.045989497036 0.31513433723 0.043044972751 0.11583020623
          0.078775395276 0.045337283006 -0.088034249659 -0.31442713657 -0.0018241420789 0.071385066772
          -0.17753974536 -0.00032907398199 0.06862387471 0.4710166497 0.052298557155 0.30073010229
          0.4941199562 0.032008137562 0.32765183647 0.47331951931 0.019991443468 0.2839519194
          0.47614262783 0.044888265013 0.33942451305 -0.10338220765 0 0
          0.21284579854 0.084966795802 0.14568522697 0.48328130639 0.043740609877 0.35272678237
          0.30775499682 0.067660510333 0.091373874089 0.39218692123 0.0088994383747 0.15457073746
          0.47847182272 0.045744904543 0.35096777929 0.1609676385 0.045109870099 -0.014154459594
          0.4825254712 0.045451341256 0.35100830328 -0.23966242963 0.0034661239673 0.03607127849
          -0.35727354492 -0.004303631915 0.13564344953 -0.34565640488 0.0019169881689 0.11840307216
          -0.29626609883 -0.013943121798 0.059921455553 0.49907762418 0.063123500945 0.3241050719
          0.48133497711 0.0508514599 0.3379717284 -0.34783044607 0.0063140726007 0.098289575806
          0.48809196106 0.04330616404 0.34877230864 0.25251984664 -0.012143085344 0.017616480438
          0.42625343671 0.0020053220608 0.22200546126 -0.26143431821 -0.018966508717 0.025755934772
          0.085753671174 0.024646139713 0.030395911148 0.48270262645 0.046778248595 0.35054568893
          -0.25736218266 -0.023147417676 0.024486194021 0.28201192802 0.033608656698 0.075875101157
          0.25567183372 0.013464268723 0.094863946896 0.49024868675 0.059058715955 0.31897085279
          -0.32943615237 -0.0066841253951 0.085021051912 -0.32172306703 -0.011833062649 0.08214069503
          0.49201724243 0.027033451002 0.35129996302 -0.35420525038 0.0051667487702 0.094984916438
          -0.27264778271 -0.022551370345 0.043458446216 0.47828249339 0.042423795372 0.3528535463
          0.32712733607 -0.013217416509 0.074240200172 0.45714706671 0.057595906731 0.30713146469
          0.25109448176 -0.0088737037071 0.028414902795 -0.21712949248 0.00758020634 0.043756489309
          -0.26591638924 -0.027322057058 0.050263923708 -0.23711096669 -0.0085155669186 0.023423314203
          -0.18142294642 -0.0095499499564 0.065734925693 0.48562143519 0.051591655538 0.35634852661
          0.48499069871 0.053661632629 0.3580936652 -0.33044548697 0.0071520348747 0.12382722265
          -0.30175514886 0.010835021861 0.066152436148 0.28326082971 0.019739591473 0.13190637198
          0.4384750389 0.050273943709 0.24072011389 -0.3284962587 0.011327940542 0.11603738203
          0.38444397249 0.019397259071 0.19567059453 -0.36152724182 0.001383494366 0.12911176045
          0.26478073032 0.060358788458 0.021946248987 0.46037102341 0.018955177915 0.25743473079
          0.48772260118 0.044148631348 0.36654853749 0.48875317814 0.046528562024 0.34226610861
          0.034706964346 0.052864371348 -0.10177560561 0.47967097023 0.045274561924 0.34338842739
          0.32114900465 0.15450118391 0.26467612026 0.27775122263 0.054627974774 0.10038396561
          -0.35298151949 -0.0068845473501 0.13464119024 -0.03851187918 0.019966434384 -0.0075530266234
          -0.28526321476 -0.003915162935 0.070373414063 -0.26696885201 -0.017258984068 0.014492265439
          0.4929870964 0.057575086885 0.31540623391 0.21657300579 -0.00019790407 0.029182176574
          -0.14940840728 0.023856156166 0.041538853931 -0.37180295377 -0.0058993036074 0.12338734905
          0.21737310979 0.0054750033681 -0.036870516894 -0.16061665422 0.023603045814 -0.016937358734
          0.48529911737 0.045714964302 0.35100791848 -0.23093800328 0.00030290184251 0.06978343354
          -0.092363613359 0.021277335233 -0.039216276047 0.11103860239 0.018783091061 0.019214612786
          0.37802160339 0.055440525614 0.16532621875 0.4294785233 0.049030818522 0.25130588528
          0.43772891058 0.051121615382 0.25290184302 0.069632656091 0.044076275012 -0.017789220688
          0.0037238104728 -0.0057351209071 -0.062724316549 -0.33562476754 -0.015025862044 0.087455341249
          0.3942985325 0.0038097902797 0.14661713859 0.1258387075 -0.040433264095 0.0096942988462
          -0.097575238425 -0.032536728859 -0.057430185687 0.22495838413 0.059621139002 0.045000233373
          0.43800235063 0.0089311075585 0.24452158844 -0.35590909206 -0.0050823591667 0.1355956863
          -0.10992674242 0.035776654113 -0.061864105743 0.29205679187 0.055969390742 0.06512281254
          0.46290521396 0.054495450721 0.28333483598 0.4780997887 0.044801014029 0.35281906126
          -0.32683068726 -0.0308283111 0.09889546659 0.21329128728 0.064755221935 0.081464788646
          0.23529200944 0.054711072177 0.12645231892 -0.37218006548 0.0032164743159 0.12338835266
          0.37396600621 0.033930210513 0.18210413465 -0.057684635472 -0.00037468873881 0.034106011655
          -0.027989758089 0.010380768952 0.0172478922 -0.35966354526 -0.0096492479408 0.097659386524
          -0.27537613434 0.012700791224 0.093042443188 0.46713495897 0.028147670674 0.30361160215
          -0.23616555879 0.0019461296317 0.030118793239 -0.22392604752 0.0013091758617 0.08956845923
          0.36936405864 0.059454214445 0.10807400376 0.29330682389 0.043382585008 0.10369236372
          0.2723747007 0.055230883248 0.029737840064 0.47756875254 0.04271497919 0.34786621959
          0.19736016587 0.014140778899 -0.032933377365 0.45907742408 0.019256428039 0.25168969366
          0.17613422091 0.031000599889 0.081703920196 0.27921592095 -0.025289803386 0.11361478884
          0.49514642365 0.026686959235 0.29908515245 0.08800382264 -0.021112855683 0.03844533072
          -0.092044585007 0.01633113413 -0.0017022987013 0.48682442867 0.04464850062 0.36416671298
          0.11766405541 0.037568768661 0.071660218251 0.49367548352 0.036234406224 0.3620219665
          0.094526264625 -0.0058138848735 0.03762296396 -0.28458119996 -0.01325081167 0.091362242399
          0.25987685573 0.14180499462 0.23110591154 0.4171674542 0.072050993874 0.22846328467
          0.35645872108 0.047527558354 0.19964549007 -0.25128523626 0.027461374619 0.015553969773
          -0.087393158979 0.0017393415145 0.055936079427 -0.11347116601 -0.0069826755704 0.020221705274
          -0.31901243308 0.0061549418071 0.077222905236 0.48655857373 0.050977225308 0.34073474416
          -0.25837850076 0.014253752153 0.032493621078 0.16711764992 -0.015415910862 0.032705215133
          0.30115026291 0.023593847145 0.10171967137 0.052452274434 -0.016868463492 -0.063831174428
          -0.30462556506 -0.012683622332 0.058093942013 0.13880483945 0.061222162954 -0.026550904223
          0.40360233539 0.027860368807 0.2324590167 0.090988624428 0.046454962186 -0.084820311373
          0.2880964655 -0.028031247115 0.057847121934 0.2508355568 0.0063019059999 0.023830475497
          -0.36806666369 -0.0015894023038 0.13619061805 -0.3680251747 -0.0011899206456 0.12247336198
          0.48953830204 0.039663749664 0.35801491144 -0.2375706053 0.0069243130647 0.038979413996
          -0.22442712936 0.002753252761 -0.0050558631228 0.1630360837 0.026208406627 0.025005437865
          0.49463671961 0.039736391669 0.3406970116 0.069427122137 0.043456047633 -0.016837584364
          0.46958379339 0.030933134572 0.32012056798 0.48042302506 0.063331385671 0.28490704874
          0.30227657681 -0.0049354423614 0.12770236668 0.44704459596 -0.002516400447 0.27988770085
          0.011867895236 0.0069847682882 -0.041010570639 0.21755510792 0.00027048424145 -0.029729065722
          0.48949876279 0.045084003257 0.33869933112 0.29962905508 -0.020084022042 0.14915492182
          -0.35380494888 -0.013438063279 0.11643611926 -0.37040907086 -0.0070095343203 0.11258120089
          0.48964326297 0.053998401019 0.31222294353 -0.34546593141 -0.0095596302183 0.13977688475
          0.45946430737 0.018021084108 0.23521449476 -0.3569540645 0.0054528255846 0.11804241695
          0.48524709992 0.037671779922 0.31819295452 -0.32514803722 0.01395101045 0.098035460686
          -0.35735957179 -0.0042385394036 0.13574682269 -0.36710324371 0.0067784862671 0.10681704821
          -0.15024392446 0.025942948466 -0.0097635895978 0.0099526329076 -0.033944315892 -0.065276590314
          0.47155724297 0.042805229713 0.28546865239 -0.36456245236 -0.0025207464742 0.13600783531
          -0.36732979324 -0.0032284572066 0.13505413718 0.47975616524 0.045045735399 0.34309922226
          0.36318786811 0.041651554397 0.14442031351 0.046626170955 0.030485298982 -0.088787630724
          0.45593701154 0.022015809016 0.28521990608 0.46616762021 0.031932298013 0.2962508212
          0.47887464482 0.043597630484 0.34964750312 0.48966066115 0.056233575144 0.33642253604
          0.29138358118 -0.018397346552 0.0032215663016 0.32515235899 0.044296688587 0.17068695273
          -0.37411163794 -0.001388748402 0.12212304675 0.47720654068 0.041861712038 0.35043343979
          0.30802506527 0.054740107483 0.17743628448 -0.31955753657 -0.025540513114 0.11547843133
          0.46286190166 0.059439636166 0.26466760574 0.4647631383 0.053609594396 0.29836528949
          0.47586343889 0.042760676934 0.34768391142 0.21488417277 0.034398872515 0.05895114539
          -0.37448973675 -0.010015771053 0.12092691301 -0.14289559707 0.020084277824 -0.052289676969
          0.051349052036 0.012628630625 -0.014218589347 0.4429652484 0.029692878784 0.23973098616
          -0.18208061662 -0.0050231528234 0.060572117124 0.43430659194 0.0073312119023 0.24467992355
          -0.35221643054 0.0047793998662 0.11208924643 0.29119867046 0.041095139631 0.10838330766
          -0.3270587681 0.017531397186 0.088384742664 0.26377728598 0.00014233276062 0.099732864536
          -0.11701419431 0.022934179723 -0.052730054793 -0.30968836478 -0.018654310659 0.071476641537
          0.29648252295 0.010374196558 0.13148764415 0.47948137439 0.045135714669 0.34689959608
          -0.20144963851 -0.024734151834 0.040683654604 0.44444177003 0.010529946896 0.23068180634
          0.47210357992 0.034188472327 0.31815140713 -0.36309360657 -0.007534346588 0.11941063625
          -0.13707547644 -0.014345294077 -0.01564289321 0.40652459953 0.040165588166 0.22280610085
          0.43306826891 0.025223777406 0.23740333045 0.40449211455 0.032414330488 0.18797673558
          0.43880161197 0.060120481581 0.28013704132 0.39135033635 0.027254297171 0.16003634637
          -0.358318421 -0.0098749117935 0.11402745787 0.28320434356 0.020534623462 0.12676633655
          0.4761918405 0.050775608586 0.33314241887 -0.050667611411 0.0084291932656 -0.050202037397
          0.4808890755 0.041785521598 0.34943489335 -0.19259637822 -0.0021850686318 0.067781626061
          -0.37686133658 -0.004997445338 0.13028945443 0.2753719544 0.055558468072 0.17676051004
          0.49952398098 0.025418449793 0.34314563259 0.49080871203 0.071126896336 0.30908133461
          0.48735665213 0.049121083547 0.32343140613 0.4823379752 0.047610395733 0.35869107287
          0.3621957171 -0.024103870122 0.14257013436 0.22362905164 0.010952112455 0.059277393531
          0.49459019067 0.039366721604 0.36292578003 -0.36384660124 -0.0014982274113 0.13682189604
          -0.36844846311 -0.0069569547955 0.14269975853 -0.36694927319 -0.00082716525348 0.13401149665
          0.32791156957 -0.001525125615 0.09792453218 -0.36462346973 -0.0029867255856 0.11604454979
          -0.23877644739 0.0085428136986 -0.010773822018 -0.16505345968 0.0073469797682 -0.042226574273
          -0.35523746717 -8.1363834877e-05 0.10498963018 -0.10089311868 0.026353272942 0.050158208857
          -0.36257134311 -0.0075153011803 0.13413920076 -0.13193611585 0.018445455932 -0.039081867035
          0.48250738606 0.047362709838 0.34887241025 0.39754370305 0.045901694867 0.22723589906
          0.34677696647 0.046953457811 0.19679112551 0.43972912089 0.037763449298 0.24232381832
          0.25958907633 0.23843141549 0.083495145593 -0.21703379345 -0.013021537117 0.088481271363
          -0.17576687718 0.025164597553 0.053605239259 0.47408697865 0.044805434688 0.33629417866
          0.066883840526 0.047245931228 -0.02156845157 -0.33051280108 -0.014099290905 0.086757429853
          0.4865144585 0.051299312919 0.35662331369 -0.28853335949 -0.0039694237299 0.083875524351
          -0.21483889542 0.00067256726815 0.046085433505 -0.3679734767 -0.0041116830118 0.13010904279
          0.48732738176 0.062306455715 0.35239957586 0.13891160023 0.047908913363 0.042073923122
          0.48566351406 0.0479797372 0.31808122337 0.29651403735 0.22959651539 0.080583287424
          0.46204869393 0.059818831828 0.26459754782 -0.28230673901 -0.018383829533 0.067513613253
          0.30825122509 0.059166224817 0.096835731807 0.42538690278 0.026736268017 0.1828507778
          -0.27959882896 -0.0075952430251 0.092600601979 -0.36666385244 -0.0049727184147 0.11311026879
          0.45830758067 0.03313160946 0.26539720467 0 0 -0.072709906389
          -0.37303791509 -0.0067842473044 0.1225931886 0.31617964064 0.045776608853 0.064811512883
          -0.098919812314 0.025639151608 -0.049257845798 0.48220093793 0.043138228959 0.35709361481
          -0.37530808533 -0.0089194722685 0.11942069452 -0.37463894267 -0.0064357643118 0.12106915245
          -0.33811040299 0.0028744223483 0.093669685316 -0.34757450005 -0.023483231609 0.086164413867
          -0.36156674579 -0.014087375131 0.12082384561 0.073331859841 -0.019626244291 -0.066916347642
          0.48483146784 0.031549244399 0.32062176939 -0.35701331403 -0.00082365182178 0.11113452102
          -0.36284559043 -0.010280258377 0.1121024567 0.039330581791 0.042714137007 0.0045296953644
          0.15442929337 -0.007307080485 0.043524826155 0.24555860907 0.064606754977 0.10373178587
          0.46187686005 0.051357856357 0.28686906276 0.12720405838 -0.0098325730409 -0.016241305381
          -0.3499016313 -0.004073350677 0.12882512012 -0.22357540996 0.0073634188876 0.063216517394
          -0.35849384342 0.0024607943333 0.10837804117 0.29236999922 0.046814314957 0.11028442414
          -0.33816983207 -0.0021580548651 0.090708667229 -0.12486191631 0.027562792191 -0.011336781127
          0.43431987338 0.048563333581 0.22399501106 0.086849487912 0.03128189129 0.030504428542
          -0.32546716211 -0.013416088817 0.11698741213 0.29797649313 0.060518166477 0.13008922301
          -0.34708242767 -0.013187560994 0.10741887642 0.25095971947 0.088849091993 0.077820111694
          0.26896195014 0.024940120059 0.0067443224503 0.22028380851 0.00065227063143 -0.032341787545
          0.47933626809 0.044601136184 0.35343783606 0.4816444685 0.040358604804 0.35665233838
          -0.34167697472 -0.012890298758 0.10254852594 0.48811647723 0.025205239813 0.31767480439
          0.43446657689 0.02346964699 0.21353679305 0.48483984813 0.044248384746 0.34483024648
          -0.3674941117 -0.0019736656446 0.13637260862 0.27893064173 0.049114078138 0.084923753274
          -0.36623335267 0.0075012574472 0.11850252232 -0.33960063919 -0.0081339656104 0.10813005609
          0.0050191639815 0.061895883036 -0.073220990153 0.48666678408 0.048714558288 0.35085027681
          0.38482334618 0.043511866714 0.15057210974 -0.21554682894 -0.015265472808 -0.028865437738
          0.45351453444 0.034430400311 0.29173453099 -0.22004059166 -0.014009687071 0.034201700823
          0.28376451049 0.0316770381 0.079539781448 0.48066011919 0.047977427428 0.35381018008
          0.080428389242 0.022663735968 0.0045243077574 -0.2877089677 -0.010201256866 0.095515606031
          0.48146604289 0.041995277449 0.33271005726 -0.21256473434 -0.018264466992 0.047672954316
          -0.19730997315 0.011478200431 0.06099716609 0.49931738934 0.028842825087 0.32540416788
          0.29795363102 0.023348061847 0.12528917112 0.46921364328 0.030237651822 0.32060298922
          -0.3575424148 -0.01920214325 0.10708590736 -0.0016932363345 0.0084598103553 -0.091331248718
          -0.26636797972 -0.018073856479 0.052198786063 -0.18028973723 -0.021374680006 0.02852400605
          -0.31811212455 -0.0061925010728 0.090400591145 -0.21020986974 0.021074689534 0.051771375393
          0.48814275745 0.045098534496 0.35853308097 0.48971617594 0.048963010456 0.3513086542
          0.28592321576 0.029729376484 0.10544380544 0.4484811429 0.086755434896 0.18297822328
          0.14600691554 0.049006179056 0.049146225711 -0.35556190979 -0.00083599226872 0.1048927073
          0.48535862593 0.047786411831 0.35175237983 -0.089134167164 -0.024089308036 0.02083073103
          -0.22832658748 -0.029632845529 0.061470598947 0.2672480015 0.025989907362 0.096001718779
          0.26305468578 -0.024175418841 0.10513001869 0.2854412708 -0.0045379069708 0.06626236622
          0.46998772452 0.050961858836 0.31702478649 -0.36882257011 -0.0062374849733 0.13739817698
          0.32269965291 0.0067063731458 0.087880883577 -0.37390929079 -0.0059121230927 0.12346031788
          0.38473403357 0.050689551359 0.22187441452 -0.10774198378 0.03155802651 -0.027074037234
          0.21658868408 0.036082545159 0.058805980474 0.49718465469 0.036125069472 0.34226069137
          -0.37412769493 -0.0013252559405 0.12186026067 -0.2995628507 -0.029836936072 0.063859694123
          0.47657209389 0.045131532161 0.3427076273 -0.054726312544 0.021395140353 0.048715424732
          -0.277509285 0.0027487712728 0.036606845454 0.090523753339 0.048797027262 -0.082834783965
          -0.27714959392 -0.018666731531 0.044671575417 0.45588472743 0.039997439443 0.26894971083
          0.47811015872 0.028372621412 0.31942058906 0.36253461379 0.00089639244027 0.15528144583
          0.48465220684 0.031223114198 0.34038470732 -0.26314921276 -0.00034941583 0.011439384985
          -0.35696138517 -0.019307922641 0.11747270081 0.33272736104 0.046957100173 0.12697714883
          -0.31227298679 0.0087957790402 0.052577476533 0.48582445127 0.048860418289 0.35644450049
          0.48233451862 0.047628910861 0.35869543917 -0.2199744598 0.006695989492 0.02339980389
          0.31892706677 0.04382029742 0.15641304415 0.48267711179 0.041102363085 0.34387545892
          0.2721055226 0.047010632153 0.027087176167 -0.36789721402 -0.0029504377183 0.13486067803
          0.47689477628 0.040408129815 0.33304179215 0.29949309471 0.045635062235 0.10322159318
          -0.3706480996 -0.0066933951919 0.12464189806 0.48793509097 0.042211261568 0.36446419914
          -0.18758730962 0.034207662412 -0.010055142356 0.47326649337 0.022376313073 0.30963127459
          0.44980719295 0.021840827143 0.23905821866 0.4802150126 0.049349549204 0.35399661387
          0.49166245206 0.040301598595 0.35971629697 -0.30275876572 -0.037205626676 0.082630768409
          -0.28191443717 -0.019774131399 0.059104576113 0.25122380723 0.044438950301 0.13105964081
          0.28717726267 0.11027983144 0.11522450847 0.19100414935 -0.0034789847779 0.032585492985
          0.078961224454 0.029001939654 0.030012122657 0.27783492664 0.058711741927 0.1464481588
          0.49081125902 0.04456524251 0.36220851905 0.48480645795 0.03312696768 0.32099951439
          0.15175172164 -0.01858398702 -0.034862633444 0.030065968494 -0.018966008708 0.010310772412
          0.41387697931 0.051686754512 0.17546333732 0.33495991717 0.049831454857 0.075549444298
          -0.2668464547 -0.03522887604 0.048567602314 0.39347831358 0.0074301209894 0.19167897434
          0.40845374724 0.02564162969 0.16767544201 -0.36426704932 -0.00288801563 0.11692745101
          -0.21668048417 -0.023452129031 0.084982986276 0.48496523006 0.045681429533 0.35546430357
          -0.20460862547 0.0021699873649 0.065540679839 0.44746595733 0.062454121927 0.24930039606
          0.48659061939 0.050288896411 0.34028463959 0.099261967203 0.0012086951484 -0.032604170385
          0.38866756684 0.04438779189 0.15042122539 -0.34046968014 -0.0064897929636 0.081145497333
          0.2458646426 0.048338305592 0.016214960855 0.1912759186 0.19961280939 -0.10176929657
          0.47956058982 0.042954777436 0.34761200816 0.48888562685 0.040461251571 0.34915457022
          0.46325002653 0.055883892973 0.28247467722 0.49358856833 0.038330374681 0.36201445957
          0.48638876466 0.049192572757 0.34213113757 0.48124299984 0.047881033882 0.35683143149
          0.48438226705 0.039012323409 0.35472773896 -0.32896873769 -0.032672126669 0.09224418946
          0.48252953173 0.04629550973 0.33598188502 -0.36661368931 -0.00060302991501 0.13419229014
          -0.27331458434 0.026242235023 0.026717554706 -0.23362636475 0.013084954791 0.003029945778
          -0.24012230173 0.0115868928 0.011913463469 0.16473631407 0.039255922479 0.028749562877
          0.011828173426 0.0070604341405 -0.041014064509 0.48131075162 0.046887763192 0.35283718071
          0.13788871075 0.058151396592 -0.021119194851 -0.15969962751 0.037976078357 -0.01345941961
          -0.36528586581 -0.016932788315 0.11331575513 0.23673304363 0.056182777277 0.030091359964
          -0.35694381924 -0.012301992287 0.11550411884 0.34044458571 0.011631891443 0.098707102183
          -0.15641725231 0.0018331694347 -0.047221582923 0.26058285821 0.087868576162 0.20429003116
          -0.34970213909 -0.025535207351 0.11090388198 -0.25677233044 -0.0036913551745 0.036205792133
          0.26961269879 0.21561481956 0.24519293947 0.47459215963 0.06016932224 0.31184715598
          0.29829263258 0.068051907732 0.13866111452 0.48336094865 0.041461305638 0.35114731243
          0.48710636807 0.032447504546 0.34726289217 0.47839925307 0.046816527886 0.35478954806
          0.49192291385 0.042939843013 0.34788823251 0.05516546504 0.04670155335 -0.079001322003
          0.47589269025 0.046080522281 0.34593486993 -0.35100123462 -0.0038079952643 0.108681982
          -0.30702186661 -0.026445723141 0.060080404212 0.29935299771 -0.033626416423 0.077089206335
          0.34109715737 0.049348575343 0.21153053878 0.24859682953 0.038857159413 0.13085193019
          -0.3649323963 -0.0052599129835 0.11869403212 -0.36238725902 -0.0073834607144 0.11809377054
          0.47612835439 0.045402181511 0.33962290702 0.49296998285 0.031771992517 0.32838245763
          -0.01456824056 -0.0035157044492 -0.017055116847 0.42655839901 0.099351095991 0.2805699168
          0.43472899837 0.03968837114 0.24148367105 0.41706222011 0.068296990508 0.2279147511
          0.3422173865 0.0021383105874 0.079900822943 0.49694035432 0.048812573196 0.34053202533
          0.20159979147 0.040478235853 -0.016064047454 0.19396985481 -0.016844431882 0.035466609415
          0.47941900632 0.042021765369 0.31167544352 0.48767541054 0.059391472178 0.31023483973
          -0.3009402867 -0.022584800907 0.070954305038 0.45169681603 0.031922552559 0.2558149751
          0.36287436164 0.042688079926 0.14438903759 -0.21141866221 0.0018850169855 0.0077516470079
          0.49366110078 0.034016656921 0.36243976562 0.49498780902 0.049783184475 0.35970631237
          -0.25055555361 -0.014347003658 0.010777437025 -0.34480903587 -0.012234325961 0.10717386037
          0.44738632074 0.039167402182 0.26624641289 0.37224262134 0.097920348722 0.12791748779
          0.43544092525 0.050557244747 0.27252083326 0.47227791198 0.047749175696 0.32997772833
          -0.12596788394 -0.0038003492163 -0.05128926993 0.30308331765 0.049230910707 0.10948314511
          -0.36228708195 -0.0078301717854 0.13417981854 0.28049594179 0.0046037325936 0.14132394375
          0.31336296647 0.057211293507 0.16932588165 -0.22050765134 -0.016623125863 0.059434108903
          0.32435256007 0.014192869899 0.077830690509 0.43867853142 0.056828401522 0.26012194507
          -0.35211298159 0.013891848124 0.11406156124 0.27133843184 0.054006612555 0.027524039499
          0.48687382255 0.053390623173 0.34693662065 0.4906908399 0.051017917576 0.34190943997
          0.48582922836 0.044763248558 0.34250723351 0.4824706959 0.052302947743 0.34398390824
          0.48318577838 0.046616922258 0.34087155466 -0.36191209557 -0.015864215407 0.13818004416
          0.21534597752 0.051181176902 0.04311863961 -0.2329086864 -0.033380615096 0.015387034261
          0.48712601356 0.045743423574 0.36517864053 -0.154124012 0.041253942308 0.016151162723
          0.16530206327 -0.046775262132 0.020334330594 0.39341076716 0.0058549656203 0.15564511549
          -0.21828280289 -0.01239820155 0.05780265371 0.39095824577 0.044448834369 0.20004542202
          0.48164367358 0.043723175683 0.35714838011 -0.29858193493 0.018064695704 0.076593125147
          -0.24846345688 -0.0259773834 0.090223077825 0.49424663428 0.050057429942 0.32091846594
          0.48531174822 0.060696780969 0.3311301882 0.49342005897 0.04233891145 0.34386787784
          0.42124154265 0.015682257385 0.24608220826 -0.25808854639 -0.020900604433 0.053599169885
          -0.16852769692 0.026219401968 -0.024469660423 0.48181813878 0.043166691388 0.35078636137
          0.48254002342 0.043894613951 0.35076417749 0.48260793398 0.043743341624 0.35062248343
          -0.33915269372 -0.0018690000569 0.096104861571 0.47587922526 0.044266828495 0.33247754382
          -0.36044157644 -0.0054409556334 0.12373122138 0.48179230169 0.04329121968 0.35088281935
          -0.36729993464 -0.0078446571534 0.11065544232 0.45193460152 0.019373561998 0.29098425863
          0.46339553841 0.054119064602 0.25926789682 0.36318185235 0.052433847336 0.19896703346
          -0.37261287615 -0.0098259356294 0.12600728628 0.48183931217 0.039306242915 0.33248144513
          -0.3697895634 0.0029350646167 0.10532357658 -0.1696950979 0.0084416787381 0.071180311869
          0.47780699161 0.068922566493 0.28766665191 0.45381218798 0.057822458785 0.25885415442
          0.040598927019 -0 0 -0.1554036054 0.01411515854 0.006215953513
          -0.2929653762 -0.013601927388 0.04764332666 -0.21343033447 -0.0030370986458 0.071797653935
          0.35940825298 0.089349514414 0.15723508484 -0.039850996182 0.046756034435 -0.0287167331
          -0.36002169622 0.00057317579612 0.13745171245 0.22652628976 0.0473173715 0.11352595964
          0.44959255221 0.034598868108 0.26792902681 0.312108924 0.048385076836 0.078555959327
          0.48989174509 0.036298155542 0.33890784682 -0.21065759274 -0.0053271413465 0.028144464334
          -0.27509763434 0.0073432358119 0.025923292959 0.48768756218 0.043752613948 0.34024019354
          0.35578931404 0.0038070002132 0.11135309522 0.15987415701 0.059288718337 -0.010289681379
          0.47757968848 0.045525580463 0.35571084241 -0.31442548255 -0.0014285482521 0.057568567927
          0.48210594096 0.04419404981 0.35159055905 -0.17060865068 0.0079735438673 0.015298981581
          0.48847267523 0.027605097337 0.28300854821 0.48759756589 0.039289830288 0.34627444984
          -0.094852898348 0.017662162889 0.025654607663 0.49483283318 0.055752161729 0.35956045217
          -0.34533314288 0.0062299883739 0.10022911611 0.46451844837 0.02358494712 0.28246371301
          -0.19834460671 -0.039406847068 0.041889708177 -0.24357421647 0.020245812543 0.022630265681
          0.16327392258 0.054003478973 -0.030806852984 0.28521216696 0.06650504833 0.14700551974
          -0.36367584824 0.0037152011623 0.1075668935 0.32506562758 0.019704718436 0.14486868225
          -0.36509794045 -0.0073057020013 0.11414250512 0.22212949028 0.019459363446 0.073579691606
          0.18172600659 0.057717031204 -0.010506240742 0.48115960208 0.052390234632 0.32502408885
          -0.27451161356 -0.0068704701152 0.059024624294 -0.31140761375 -0.014913073953 0.06153823906
          -0.29725445714 -0.010246492346 0.047438117706 -0.34550711067 -0.014675152619 0.12081867939
          0.30060157224 -0.0083591391412 0.10751330271 -0.24383322156 -0.013412784664 0.090303581005
          0.42681485692 0.0012190789721 0.22005427779 -0.1570934867 -0.0042166198372 0.079852059434
          0.48764699757 0.044964207332 0.35810492003 0.28553460468 0.031999100626 0.074663534509
          0.18850361259 0.035878931869 0.037684352148 0.48497508784 0.044327741104 0.33771874834
          0.36094801563 -0.010541406735 0.12207212344 0.43309891441 0.076081495377 0.23489188992
          0.48825200307 0.028931660433 0.34650467585 0.47489755107 0.046893521484 0.34364211862
          0.46919219656 0.028642426133 0.31405394369 -0.36427631636 -0.008023076397 0.12886346772
          -0.36676447768 -0.00062048869439 0.13442002241 -0.26442120443 0.0053634361035 0.06972865618
          -0.35766476134 0.0022909519522 0.11097459028 0.4824518591 0.051556191965 0.32318700056
          0.31144911866 0.048026942345 0.16578699843 0.28631760386 0.019186874223 0.12525064059
          0.46317171106 0.049489564504 0.28666272153 0.4884943214 0.042759370516 0.35715951463
          0.43333665319 0.043945505157 0.26353230388 0.30260027477 0.051311936649 0.11165176328
          -0.36852991617 -0.0063840043974 0.13271523575 0.44757731928 0.015463335391 0.23235873056
          0.41261028695 0.051529641414 0.22007715357 0.47742175412 0.04300376104 0.34887550208
          0.27867444746 0.075744292197 0.051012412446 0.49157970381 0.036743637514 0.33711740359
          -0.179716812 -0.0054346828471 0.075818788036 0.4762502158 0.044929199307 0.33950325462
          0.49423656472 0.042553469096 0.34799464297 0.32593939484 -0.0025670837702 0.08918400585
          -0.33053686277 -0.012628020084 0.078580564402 0.48511532486 0.01959496182 0.31685015484
          -0.20032279641 -0.013111761454 0.032273190958 -0.24714129024 -0.024706846934 0.057649372137
          -0.25463136304 0.011451362053 0.033982726692 0.4942688417 0.038740933524 0.34121948496
          0.32901173137 0.073408099052 0.15182630296 -0.24393986082 0.028016143617 0.035349323751
          -0.375742055 -0.0016667052206 0.11928865509 0.4926501078 0.05685223387 0.31711309136
          0.48510891794 0.044773635703 0.35880953058 0.24419572074 -0.086681611985 0.16146012551
          0.10852525965 -0.024669943695 -0.044964382921 0.32483020434 0.0056932033994 0.10826041785
          -0.22219053608 -0.020385108024 0.026726464867 -0.34248567304 -0.0063274770141 0.10201260148
          0.24816887923 -0.23211794287 0.15775964679 0.34371962461 -0.0058543742601 0.16406182406
          0.40799900268 0.24459367617 0.11172098025 0.17996646895 0.058934948693 -0.0060539304463
          -0.36210765161 -0.0041189387196 0.13534935191 -0.11756525365 0.036086724083 0.032688041114
          -0.26156777738 0.016644135382 0.03122722287 -0.22217568687 0.0054800118368 0.062863502999
          0.43817679958 0.079801852446 0.2627784514 -0.21053081022 0.031411311578 0.068040814257
          0.39245570132 0.0043803731049 0.15579698265 0.38785708256 0.025311206391 0.16116222549
          0.3771458645 0.0093992630274 0.12730199471 0.47758106233 0.045399756905 0.34481652177
          -0.27490429878 -0.0061428399612 0.06067273121 -0.30037643864 -0.0094965041838 0.063238929214
          0.45520033993 0.03828738808 0.26509883333 0.30544554857 0.055816468782 0.095031842231
          -0.30891472717 0.0054049847618 0.063435376832 0.024133804767 0.01889635805 0.029141064317
          0.48192739422 0.046590551668 0.35267360571 0.015042686282 0.0074671618294 -0.061485760527
          0.11833402711 0.05234337537 0.028244344403 -0.19315679389 -0.0034683708975 0.010414148258
          0.46909246005 0.030557546588 0.32027414071 0.49071247526 0.047975436079 0.36038717584
          0.48445762753 0.046282902363 0.35129029621 0.39253695595 0.0090595765431 0.15461288787
          0.47677850752 0.047844855979 0.34555613966 -0.19735037811 -0.024972046447 0.044471033525
          0.49653300082 0.036318174769 0.36364990431 -0.22128441019 0.0031631069193 -0.0026434438842
          0.43065646697 0.04782389116 0.22237253879 -0.2552928643 0.010641739893 0.053819966767
          -0.37730652299 -0.0061620821633 0.12496077574 0.48197967988 0.046336543205 0.35275537505
          0.22064928811 0.18139734319 0.10532254347 -0.36433035126 -0.0028393591193 0.11618181961
          0.49084892399 0.018698441046 0.31180782241 -0.3336144415 -0.012251754967 0.12047899482
          -0.20627198162 0.01690841325 0.026363317253 0.26023158774 0.031888218165 0.095619129712
          -0.16070955985 -0.059707692869 -0.01153388725 0.44761668463 0.071731864833 0.27527394867
          -0.3475494436 0.0040726287148 0.13609721026 0.48812458456 0.045664825072 0.33588669121
          0.47810227039 0.048118108033 0.35475516692 0.036564196683 -0.0069887870614 0.021224016323
          0.45873725071 0.049250148865 0.28446508963 0.48190777223 0.040885861981 0.35737227544
          -0.15980392961 0.025740918286 0.034982869023 0.27873081415 0.042080225471 0.069163187984
          -0.3729415811 -0.0034189002597 0.1353585177 0.49231219022 0.040221546165 0.36020065797
          0.48454018553 0.040470987346 0.33336536203 -0.3288776683 -0.0039404247842 0.089774777833
          0.33132740733 0.054029463709 0.16299560968 0.35997343265 0.01715154369 0.14996299032
          0.22602811312 0.019479221121 0.040206160557 0.31404449292 0.047578327689 0.060630589716
          0.48201839276 0.044168635063 0.35598935225 0.40798773781 0.010213023938 0.2183415788
          -0.34953832869 -0.012583671891 0.10546408072 -0.34960949557 -0.0046861208704 0.10641977717
          -0.24715174768 0.013089583617 0.073878072346 0.47050265293 0.051456528404 0.31698879271
          -0.35952081839 -0.004455881297 0.11158268878 0.31595184558 0.039429927734 0.092941639584
          0.42935628963 0.026071381328 0.24328660192 0.38377965977 -0.0078142439664 0.074146257551
          -0.13868658016 0.009810165683 0.025118978026 0.34041412886 0.052188736357 0.093124122088
          0.094414833354 0.0029086391908 0.030782517549 -0.36972271174 -0.0074802183012 0.13077709057
          0.47197546415 0.041655754427 0.33786541739 0.484726987 0.042919578586 0.35041233781
          -0.33904792795 -0.0046712688551 0.099038790407 0.16716849665 -0.015374014075 0.032560536519
          -0.33043574733 -0.01092205096 0.092121619219 0.48145414111 0.042965810873 0.35709128894
          0.090061788611 0.028399563228 0.034506890539 -0.32536846004 -0.011711715808 0.084088220495
          0.23978608296 0.032743641172 0.1196324722 -0.31904583696 -0.012944022316 0.10403318966
          0.38697116203 0.016730833448 0.22809554965 0.27090335747 0.0074614713799 0.087951655565
          -0.34592527253 0.0022846193007 0.10154323411 -0.32703326128 -0.00072743404052 0.10583442626
          0.48120913145 0.037855437086 0.34241208822 0.48769236029 0.020554452905 0.34811166948
          0.49006017993 0.038190971472 0.34085316386 -0.37813582153 0.0019907533071 0.12488191461
          -0.22660190889 0.014996393129 0.042476967976 0.17036246712 0.035724243961 -0.015357793614
          0.19012926513 0.055774914141 0.044605212399 0.28898400852 0.025962572449 0.10041210124
          -0.34810739443 0.010479570333 0.096012939524 -0.19516288967 0.027085641122 -0.0074184851502
          0.4873738748 0.044317469898 0.33734860021 -0.18339571492 0.0069740456792 -0.019503460368
          0.17108767965 0.016257527189 -0.042460812692 0.47636054282 0.03394486919 0.32523439216
          -0.30650626157 -0.011948009157 0.069970767164 0.29469663296 0.03901297588 0.15366682749
          -0.3256170748 0.015229135242 0.092205773894 0.41569693264 0.055147222928 0.22011080002
          0.29376465849 0.050287410263 0.05419655602 0.28559586007 0.051172124365 0.13692663519
          0.38644882002 -0.15455320787 0.12034617833 0.096419719281 -0.011088616421 0.048483409499
          -0.35885397436 -0.0030514535846 0.13779312642 -0.13601951204 0.0058881311969 -0.030487691885
          -0.062717909494 0.0027096035704 -0.069501949731 0.15263645212 -0.00032621603382 -0.051069107452
          0.17637803586 -0.010424136362 0.046378753211 0.48969096823 0.049860768813 0.32417845978
          0.47862661875 0.032162945736 0.31389394235 0.39480033388 0.054770542225 0.15169637633
          0.49585222848 0.034509870028 0.33907661832 0.23324858119 0.077799214883 0.25103908317
          0.19382382255 0.040752357411 -0.02053993378 0.31144839163 0.033524304139 0.10994212858
          0.48873361078 0.049402175078 0.34053027513 0.49004724749 0.048764245463 0.35163774122
          0.47828736593 0.042943972274 0.31792495054 0.21877470849 0.047301105927 0.031579894024
          0.20413520028 0.05463505403 0.068708864818 -0.36924651372 -0.0061555651012 0.12392095703
          0.48138333515 0.046971317123 0.35281580567 -0.16416956237 -0.020532515836 -0.053756453532
          0.49203601539 0.034718095907 0.34408505839 -0.37076688697 -0.0069635618882 0.12470926659
          0.48975036356 0.030795503416 0.30011210777 0.48876677207 0.041425425988 0.34148033952
          0.43315162154 0.085697351301 0.25717183458 0.44288491747 0.053159438624 0.22050904499
          0.49053399006 0.033762981103 0.30244944937 0.18575355404 0.035453598129 0.043131966309
          0.31128048716 0.022168087937 0.092577581369 0.47617084806 0.040421824526 0.34743810029
          0.25162905885 0.003081358252 0.090624252229 0.44551273617 0.031209137658 0.24826341829
          0.4834548781 0.044193630605 0.35258925436 0.37709605809 0.033074196825 0.14901191494
          0.4781856528 0.045919024955 0.34179093149 0.49928869914 0.034795666221 0.347453333
          0.40576736582 0.020929963054 0.21520714851 0.47127484648 0.031316969714 0.2840189079
          -0.10758816251 0.022100599867 -0.0080541016378 0.48934941366 0.051681696954 0.34099396443
          0.44142872105 0.020761118321 0.25210925773 0.32338448601 0.058992090135 0.088507183588
          0.48283301988 0.043267030221 0.32035089078 0.0080786097777 -0.00054757111224 -0.045598244735
          0.48185152002 0.039794539785 0.35168809119 -0.35244223752 -0.0070421484058 0.1352266181
          -0.14857673557 0.023621817263 0.026289733504 -0.35527296009 -0.0010766468415 0.12047007342
          0.47887793163 0.048192195191 0.35551205696 -0.20213065912 -0.024887448416 0.06760887783
          -0.36964663155 -0.0031669394733 0.13013934625 -0.34262674387 -0.01168366626 0.080577638257
          0.48168503295 0.052808793349 0.32994677198 0.26593907626 0.03863624194 0.17664128606
          -0.3763870958 -0.0013096172208 0.11910602066 0.099124397482 -0.031059407593 -0.040876678323
          0.074462788413 -0.018188820952 -0.068268314621 0.098785031152 -0.028656290113 -0.017355399159
          -0.31062808751 -0.014018448166 0.08453895126 -0.32314903005 -0.017583385327 0.079343529949
          -0.31219131464 -0.016452617375 0.070413862957 -0.20083817771 -0.013839322174 0.005533851344
          0.48793098591 0.052190297757 0.33790436997 0.44892311284 0.026041413255 0.19975415407
          0.331422951 0.0093312840898 0.028079844495 0.36673760378 0.027677525904 0.10978763224
          -0.31405025691 -0.015939392608 0.068058356693 0.47292376863 0.045645944038 0.3306429791
          -0.055003037318 -0.030295825692 0.02907909232 -0.16751173659 -0.010305219645 0.028592644445
          0.44293445605 0.078200444753 0.2564204408 -0.15681758746 0.0003691922505 -0.043344585895
          0.21375285105 -0.021393629731 0.079859798281 0.48228993126 0.046443497445 0.34934497657
          -0.33151118587 -0.01045554356 0.079065502901 -0.36314534637 -0.013730863904 0.13020754563
          0.49498006081 0.045438892408 0.35434545827 0.48877053449 0.046149693136 0.31434375425
          0.25158566257 0.088019019631 0.077794429848 -0.37439879629 -0.010356001249 0.1207918106
          -0.35039746965 -0.019170794018 0.10471429216 -0.35977022118 0.0067716878258 0.1187494687
          -0.25776789091 -0.0058293167528 0.039899594452 0.48467643238 0.048122329821 0.35218537345
          -0.22624762731 -0.0012767826892 0.048197633731 0.48490556689 0.045940347613 0.35624354654
          -0.35113494779 0.0089980940728 0.10732581739 -0.36898986059 -0.010663795604 0.12253396742
          0.015930113346 0.031791116136 0.023490595058 -0.02968606666 0.040153143401 0.019393284081
          0.45581327429 0.026618581362 0.27764202108 -0.37232116435 -0.0030868989115 0.12196051871
          0.48751212305 0.046864309351 0.3364901965 -0.31993306884 -0.0018944733824 0.080932768873
          0.47563782133 0.035956871476 0.20436829282 -0.37412020265 -0.0061746777564 0.12352478417
          -0.37080793128 0.00043317380302 0.13264712977 0.49137194297 0.052385427683 0.34357183657
          -0.29365567505 0.0073636072317 0.061006341187 0.11264547942 -0.0012773845754 -0.019737445029
          0.48114687156 0.021223511853 0.32053595515 0.48165468654 0.049994475548 0.3544245964
          -0.35928760766 -0.0019123750076 0.1169819822 -0.13258332718 0.039318615169 -0.014595033336
          0.24453518187 0.081146634279 0.044263816035 -0.18637344615 0.029163438307 -0.0073922585575
          0.49223672725 0.052531014636 0.35862934092 -0.31725354308 -0.017368567818 0.12292729524
          0.28873449906 0.042472426366 0.079901462424 0.46249057265 0.054443108772 0.28342098091
          0.42880410778 0.037610926212 0.22652373771 -0.31376397365 -0.0095687021494 0.091074381298
          -0.29274065239 0.005707726141 0.088967011649 -0.35302363496 -0.0094054949198 0.1063444219
          0.48340060832 0.053432082133 0.32013644865 0.49443931984 0.040500088799 0.31157306418
          0.32242387292 0.010139902005 0.083526715942 0.30802703708 0.062492418081 0.094044344263
          0.31108298303 0.056555496163 0.1752228409 0.42020936325 0.062962879632 0.23401948257
          0.29788973731 -0.0091835703826 0.10655624718 -0.37906556912 -0.0018206925756 0.12811918316
          0.34360024147 0.022450347949 0.11807147499 0.49675275289 0.038086115249 0.32466743424
          0.21945194497 0.037073799653 0.037107053608 0.46151862764 0.058683616578 0.26283579823
          -0.19743317805 -0.044271088485 -0.0021042422661 0.086807235874 0.048298775295 0.0092162205239
          0.35913204684 0.062179083969 0.11799110366 -0.18665494406 -0.015889220459 0.0607278018
          0.50024648423 0.04699964186 0.35634632203 -0.13981037322 -0.0092195040939 0.07150665126
          0.48814800917 0.054636523732 0.31963780195 -0.16814716095 -0.0075466848614 0.011023691898
          0.49160392496 0.039059555639 0.36026023042 0.47268720439 0.041077381894 0.3285588789
          0.28433955701 0.048917109303 0.092160124884 -0.092568821898 0.024468229507 0.018815546987
          0.43939375174 0.052276301675 0.24997472155 0.26543209743 0.063960550578 0.090957554324
          -0.34234698092 -0.014550552126 0.10269415513 0.25671726886 0.062963345384 0.10768021947
          0.15321674714 0.053768731215 0.041039556104 -0.10338220765 -1.3877787808e-17 -1.3877787808e-17
          -0.10766784016 0.017573227169 -0.023808828085 0.28855420977 0.013918382359 0.12305066251
          0.26018984621 0.0014560347694 0.015235067 0.49144445216 0.049889519005 0.36549098756
          -0.35970409442 -0.0049009193156 0.13626919003 -0.33153575357 0.0085820904354 0.12054634767
          -0.12423806433 0.013366690276 0.02113761554 -0.28235770868 -0.025188523143 0.050505681709
          0.48686516059 0.048625740494 0.34909974593 0.48419104538 0.044956353059 0.34595152438
          -0.21180935717 -0.013306813646 0.033986645106 0.48117806306 0.043533921989 0.33481128489
          0.48249877832 0.046330868044 0.35457689388 0.039471748115 -0.01858075771 0.032768183218
          0.4876941646 0.049677757424 0.33894266137 0.48606182077 0.029343001005 0.33534755902
          0.48957214765 0.05244831081 0.33624456314 0.43628624828 0.016972900781 0.2474123104
          0.46586686896 0.03336841596 0.30680231299 0.30958843508 -0.0086335941365 0.044756165584
          0.32553781544 -0.018077781588 0.13541029897 0.48703158254 0.043507923606 0.35853696505
          0.48657465492 0.048046849978 0.35282980035 -0.3608952018 -0.0033654198554 0.11034750177
          0.13373871569 0.0014824826382 0.019277863451 -0.057890886511 -0.03659743158 0.035384023066
          0.33057558648 0.0090917680752 0.15086486996 0.39424138817 0.03146327771 0.15171740327
          0.19778948873 0.17646186236 0.0540480449 0.28391084513 0.047659547933 0.092206241862
          -0.20515053206 0.011632365044 0.015294113194 -0.27444891786 -0.041929626527 0.061587260496
          0.15059610376 -0.019737292223 0.0022093433919 0.49254269396 0.038202669167 0.35977615443
          0.49397756894 0.06273169663 0.35075427506 0.44707231152 0.034288803058 0.24309398876
          0.19036974396 0.065440440856 0.014117375422 0.31485603223 0.044104619136 0.16549603757
          0.32135642203 0.031513280605 0.15332558925 0.38045500851 0.055905802907 0.16631031207
          0.22397096392 0.0094637307159 -0.001660121389 -0.052294378288 0.054051409402 0.037024499957
          0.22402265398 0.05898191114 0.090064707788 -0.37406142663 -0.0068644302345 0.11979575447
          0.47269307701 0.043542778518 0.31836682995 -0.3281147199 -0.0082987064943 0.079421808572
          -0.28486491597 0.023537319218 0.081620984536 0.4814763853 0.043409084496 0.35164979344
          -0.2198598071 -0.028911675614 0.044969256299 -0.18769432964 -0.02233031831 0.035255818699
          0.38268271215 0.033066100203 0.19861403633 -0.31070206186 -0.0036780508009 0.078845302795
          -0.37044926636 -0.0081655950207 0.11863590566 0.45719961421 0.058162686227 0.25407111512
          -0.24691684073 0.0011816163469 0.043292029233 0.19788745806 -0.021735519162 -0.0097160539686
          0.29965939383 0.0086625373992 0.1207213926 0.45303682269 0.059319237888 0.25740955654
          -0.26311523161 0.0023139655473 0.049979333973 -0.32138125205 -0.014514000817 0.11931080021
          0.48474944929 0.045944464991 0.35165794652 0.48995947057 0.051952953242 0.31271858259
          0.0500703461 0.0017027136029 -0.012406457635 0.48633231542 0.041800623758 0.34474253357
          -0.3657157078 0.0072551642694 0.11873075282 0.43754477937 0.030383875995 0.2266470496
          0.20600231529 0.052496936054 0.072569350674 0.48084025169 0.050062113004 0.3546423574
          -0.19093045281 0.020653465916 -0.01949147026 0.48271059449 0.045000940067 0.36145327025
          -0.33388350338 -0.02363311371 0.14222553374 0.48357312423 0.045170359694 0.3524168164
          0.021306520846 0.0033633625991 0.018246064034 -0.13353955253 0.024957991764 -0.044032434536
          0.47918568317 0.04510554648 0.35782878803 0.48222882192 0.04395099855 0.34719138073
          -0.17822851305 0.051826801718 -0.0067351830068 0.48211868396 0.042282151572 0.34279251185
          -0.025429902164 0.0072823910052 0.015990590536 -0.020722566264 0.020688673636 0.019162769322
          -0.11861466997 0.022395093702 0.018631420924 -0.002986091185 0.013143097285 0.010973235003
          0.48720882177 0.041655942685 0.35262420743 0.48384713441 0.045184851514 0.3522330092
          -0.25650759684 0.0020669588278 0.04648350965 0.42223684655 0.067942347441 0.21856745362
          0.22875247102 -0.043997896092 0.10915930754 0.48026873995 0.040416142432 0.34317387072
          0.42332329786 0.062355186983 0.24914916945 0.25331940877 -0.0020806507154 0.020646902038
          -0.18564332846 0.015705633174 0.021843110395 -0.19818483715 -0.018726055574 -0.0012885853181
          0.013044613659 0.01181785138 -0.063392324397 -0.10338220765 0 0
          0.3244431685 0.013993637859 0.09327785978 0.48328488161 0.043352577493 0.35912966161
          -0.32817151198 -0.0016290688681 0.11019684775 -0.30615706564 -0.011572245183 0.12190380236
          -0.11242879136 -0.039298283302 0.020583524651 -0.14740190801 0.013273693859 0.0057985620739
          0.16002384949 -0.013323711906 -0.034836486493 0.36513488346 0.037879807364 0.19164678411
          0.45701599773 0.045918127738 0.25679365784 -0.21145701573 -0.012166509311 0.05599434978
          0.46955944011 0.043070017154 0.26621653807 -0.10877998322 0.03028169277 0.004424994896
          0.48525117528 0.043245161093 0.34806003266 -0.31881266768 -0.018800760015 0.11431980553
          0.4188542331 0.058206708863 0.16846462319 0.47973948172 0.048207184988 0.34284128433
          0.46439561228 0.056051302032 0.27148695404 0.49156815834 0.039986682676 0.3496659389
          0.4311121856 0.03086714748 0.20522375147 0.44572033776 0.060964232538 0.24955860267
          -0.32770342903 0.012754509979 0.079738695785 0.4824995402 0.049146423099 0.32803677767
          -0.096932065267 0.0094485996387 0.0069885148537 0.48707041648 0.041200648595 0.36172728851
          0.16649908213 0.0047046544472 0.0050553142995 0.46795718415 0.038284624029 0.2167898022
          0.45498699781 0.052578547953 0.26762864987 0.41352694377 0.052270393298 0.21825763578
          0.26556880282 -0.0070151564814 0.077935830772 0.17095476169 0.047243312661 -0.01128867535
          -0.34238104718 -0.0060752900503 0.10610096829 -0.36838846947 -0.0067115027814 0.13279545027
          -0.28744741675 -0.017321863489 0.023577084656 -0.37837742963 0.00060740123836 0.12002373028
          0.40172144855 0.024277401415 0.23044234208 0.42952832884 0.025102066116 0.24416853726
          -0.3656542118 -0.0060444711958 0.13646975696 -0.041136511124 -0.019930242905 -0.074407106174
          -0.34855256609 0.0010864445308 0.11970859037 -0.025081460899 0 0
          -0.36840509922 -0.010400834394 0.12167058998 0.40507910299 0.059313269612 0.22708835414
          -0.33077121768 -0.0039358329057 0.11714100986 0.49042165869 0.049204115445 0.35159867783
          0.47651391626 0.037026134961 0.32094494212 0.48316379723 0.046711440522 0.34922709852
          0.27238921708 -0.036253331894 0.062586006283 0.47979523877 0.050386830764 0.35361178874
          -0.30173004208 -0.017104934824 0.062824153124 -0.35796332568 -0.012290379554 0.11630840544
          0.48630670422 0.047253485187 0.35464984313 0.4826682358 0.047035599037 0.34885917122
          -0.36982730274 -0.0086454106918 0.1244821627 0.48901074568 0.05002752369 0.33908133066
          0.30713550415 0.041735792069 0.11139988188 -0.31987370487 0.013146836238 0.10081528152
          0.48394719876 0.047810124375 0.35025781644 0.48707462142 0.037023462662 0.35350841231
          -0.017539169728 0.028547672359 -0.063696125619 -0.22227457052 0.0095384296924 0.077374313935
          -0.18639863714 0.021008603118 0.061240530166 0.18896838568 0.17841494941 0.056374847169
          -0.36492191313 -0.016289592845 0.11406770262 0.49560150837 0.045601227704 0.35478333627
          -0.32500664454 -0.0078929062574 0.087379293197 -0.35258167039 0.00058203266805 0.099784872075
          0.48442414778 0.043821271525 0.34966457102 -0.28028671499 0.0023298607554 0.094888717213
          -0.25582416482 0.0093480214273 0.032600170907 -0.18434263455 -0.0056090679505 -0.041895101936
          -0.31138220289 -0.0060855267986 0.088094568167 0.40537434279 0.023525583489 0.18503158793
          0.32541205298 0.054391973664 0.098407434638 0.49569010786 0.034831520256 0.36139787528
          0.4796134131 0.048309088535 0.34280928269 -0.2618662048 -0.0035983232138 0.071994230447
          0.48961175945 0.032001175318 0.3631812614 -0.22431931018 -0.019078944174 0.052610716056
          -0.3455971038 -0.0027594776249 0.10299104241 0.48603354162 0.037005230627 0.3474764156
          -0.35628081954 -0.00512839484 0.12988110861 0.19509111973 0.029243225393 -0.015514157137
          0.45425789528 0.038316595022 0.26876786736 0.44818126895 0.012801990067 0.26170964718
          -0.18270745265 0.032515815642 -0.011303349842 0.066456972173 0.047538805374 -0.020731477545
          0.21736462687 0.013169861383 0.11386870667 0.4078112574 0.027963150454 0.16822933117
          -0.10380611989 -0.024552684298 -0.051703377293 0.47776700437 0.060106486448 0.36030825685
          0.48802209036 0.058402941645 0.31957090678 0.34981570182 0.0049675366384 0.17138390563
          -0.022844074049 -0.026844308321 -0.0091032091309 -0.36376708547 -0.0037165289761 0.13057793377
          0.4011737193 0.053717287141 0.21865802631 0.42814451233 0.038789144728 0.22556499683
          0.38651275534 0.042739655616 0.15562035673 -0.20897287385 -0.045384963679 -0.011674245115
          0.38783184563 0.071010302507 0.18995218767 0.48527472242 0.048282884554 0.35056121001
          0.45962771506 0.018940089714 0.29781566383 0.48686303165 0.047040839742 0.35214282696
          -0.19430299857 -0.04674795036 -0.025374943344 -0.16767122219 0.0045107705224 -0.04928418945
          -0.30648430031 0.019388826139 0.067458447671 0.10898238219 0.030773371281 0.030806502443
          0.48668242301 0.048124914614 0.35753763181 0.4811065623 0.043340338774 0.35629355181
          0.48216249373 0.047976902697 0.33107419965 0.12195514356 0.0015583832123 -0.053981532011
          -0.35756633039 -0.0083745381276 0.13242757347 0.45114713387 0.023662916642 0.25890057846
          -0.35499784005 -0.025606438113 0.11035770719 0.47987097272 0.04527632333 0.35388803356
          -0.29585369365 -0.040630307026 0.049698821956 -0.159014878 0.039524281892 -0.013461067034
          0.48372231307 0.047030079864 0.35099470931 0.11261995291 0.056266764055 0.02986302997
          -0.29914472661 -0.030645912535 0.11452803596 0.17241558949 -0.0070731201809 -0.026709102046
          -0.054704478573 0.019868044721 -0.030232818184 0.4890239526 0.020822145989 0.35018505535
          -0.34261966916 -0.010282181336 0.11585983556 -0.24589088177 -0.016747051295 0.0847397146
          -0.22337179432 -0.014712165309 -0.012615484331 0.16859313163 -0.011051745298 0.052540851605
          -0.23377683629 -0.0080924792239 0.014639301945 -0.35699818283 0.0067005939469 0.11529614937
          0.48402444241 0.039678578006 0.33000724224 -0.3024494594 0.0025170791825 0.069793964638
          0.44380057477 0.048125854528 0.24921353659 0.30555428177 0.037648032226 0.10541715475
          -0.33697523528 -0.0015632797108 0.11218434427 -0.33601523171 -0.00064387565224 0.1122754493
          0.20090947466 0.074992931123 -0.042334266575 -0.24605049568 -0.036669419662 0.025518446405
          0.11837493332 -0.017731285554 0.073921594985 0.31879144553 0.016609728135 0.15162841771
          0.27235418846 -0.075131167975 0.041216733148 -0.37556327511 -0.002961120001 0.12281872892
          -0.088849241012 -0.024737054616 -0.070779003205 0.46969194549 0.025790551036 0.31563739247
          0.19136752293 0.0018579530638 0.040163824782 0.43212137728 0.036144193822 0.25585394204
          -0.03159578171 -0.033453356319 -0.052194067923 -0.30943287399 0.0051375383248 0.055650043141
          -0.24807577403 -0.01511985118 0.049090085757 0.44126465362 0.062372618829 0.24895945219
          0.40326359361 0.04506813634 0.217533557 0.31527466352 -0.008556033493 0.10912716787
          0.31101167448 0.033152868502 0.11030486002 0.49712858107 0.039773618369 0.33688778595
          -0.37390529245 -0.0059129127084 0.1234703958 -0.28304123569 -0.0083805725711 0.10026051732
          0.48137943888 0.043780948646 0.35718767742 0.25298219137 0.03212578357 0.02515920626
          -0.16501646179 0.0072140062941 -0.042128332126 0.3126661301 -0.0032537709993 0.15264804184
          0.36437231934 -0.0042090024709 0.11335901386 0.37165713499 -0.0048308892696 0.12630332476
          -0.20350009889 0.017034522593 0.025879714637 -0.26137670074 -0.00065084923037 0.045954004137
          0.46658028386 0.050442925463 0.26767327189 0.31182489874 0.0015983817463 0.1093246044
          0.48195963058 0.05262882692 0.32999122122 0.48521967222 0.050518836103 0.34292214084
          -0.37021095654 -0.0064791639328 0.12675549387 0.48143902626 0.045556717995 0.3510082684
          -0.34810509364 -0.014678298516 0.095452378558 0.35569050867 0.021981124435 0.13335309268
          0.32284761374 0.03965597264 0.13317883043 0.48077128466 0.04431564281 0.35579289352
          -0.36529082389 -0.0080385810526 0.11569268403 -0.15637554021 -0.0018220638139 0.029544445128
          0.49482894944 0.031105496153 0.34241867454 -0.27582878944 -0.010565949598 0.045481870605
          0.36756206906 0.11937336289 0.1194382323 0.14450824525 -0.19016442062 0.24965051491
          -0.34740342338 -0.015265585158 0.091062770095 0.48487686858 0.040824002034 0.34559745736
          -0.36184295821 0.00024505874574 0.11687358388 0.47860801192 0.044862048431 0.34244145226
          0.16435102227 0.017734936164 0.0044062626695 0.48701665562 0.03975442251 0.35484436184
          -0.28519796541 0.012517700542 0.041141657075 0.16500113194 0.057357437631 -0.010464007995
          0.4902908001 0.043858658001 0.35657952573 -0.11139131636 0.038077843667 -0.041633162211
          0.4459777184 0.065974692886 0.2600644698 -0.13738661237 0.034164227772 0.033280520032
          0.31167380286 -0.0075586615699 0.039606901855 -0.21337617773 -0.0036143964614 0.053171806405
          0.47923309372 0.043264454302 0.34573175287 0.49000367187 0.042842778338 0.35509846328
          0.033477012422 -0.023307517249 0.0074733026876 0.14489788173 -0.014917759076 -0.017683148884
          0.14502258115 -0.014875559838 -0.017933516541 0.22342166217 -0.0055107371166 0.1051714938
          -0.29701515549 -0.00095931644229 0.04743679145 -0.081854710481 0.012574867455 -0.0024038238667
          0.36432792529 -0.010891885077 0.11380447111 -0.36400920847 -0.0008336261518 0.13650330893
          0.47542949601 0.046858645599 0.34812867974 -0.33079194127 -0.014875636489 0.087957224277
          0.48606750795 0.041623113111 0.33427306268 0.26347831919 0.060257484918 0.075448364696
          0.48898247944 0.045531115311 0.3472047218 0.035750611763 0.044875239803 0.0059236621807
          -0.19414610367 -0.0086287175187 -0.028083269198 0.47836329086 0.025571631733 0.27331894747
          0.48909299362 0.051339730618 0.33873550783 0.46781553628 0.04647422854 0.26877612918
          -0.2153396045 -0.018632583679 0.034464844917 0.33157244198 0.032967911023 0.073944668612
          0.43802111947 0.0089476030317 0.24449499973 0.33754116746 0.069922258845 0.14548901453
          0.32009693224 0.046771696329 0.055994249687 0.3227063892 0.051366814127 0.05746425035
          0.42047551426 0.025177947896 0.24554429419 -0.084774042213 0.014136725491 -0.06583927689
          -0.12226410841 0.022911159314 -0.037889260973 0.32707110298 0.050393220443 0.10896185491
          0.47179749883 0.04183350483 0.31965811033 -0.34579923778 0.00036396660387 0.1026033832
          0.47911740997 0.043397992735 0.35190481588 0.48095984959 0.048025879142 0.32867975076
          0.49348997983 0.049523347057 0.35239350596 -0.37924803674 -0.0027047511524 0.12875461882
          0.49143210113 0.04753058184 0.35057627024 -0.32991508909 -0.0063174138912 0.079912380784
          0.32003064212 0.0025441524491 0.16688278002 -0.37243695786 -0.0071020269273 0.12032625061
          0.43411821537 0.053146129196 0.25233299594 -0.36051419897 -0.0027223827014 0.11885319541
          0.066497430048 0.04341438764 -0.02138750404 0.48213359215 0.04639992335 0.35146768797
          0.49136064419 0.042938253175 0.35141048603 0.49467272347 0.045832544117 0.35480533432
          0.49367133591 0.036474500428 0.36103302365 0.26555642787 -0.0030583513726 0.070785995332
          -0.32848199441 0.01182876348 0.089236098218 0.43952043463 0.049736705551 0.22969698932
          -0.35617365523 -0.0037142250605 0.13558324788 0.48870835432 0.051240870028 0.34154185491
          -0.32650633398 -0.010924723264 0.075940340557 0.49363890885 0.027637119743 0.35421439407
          0.3244212107 0.036655549805 0.16349311794 -0.052576239743 -0.014720454762 -0.020907745779
          0.017552289367 -0.023205849317 -0.068309225237 0.49675219639 0.044913203921 0.33268528379
          0.081966648391 0.21945783165 -0.099555531978 -0.25807086255 -0.027837704561 0.055939774078
          -0.20386690585 0.018482128698 0.023779001529 0.1040256122 0.042030299781 -0.01943084325
          0.4821128985 0.044380133244 0.35913579116 0.45363359357 0.039334155493 0.26860810142
          -0.33073484691 -0.015620373364 0.10668521031 -0.32781784231 0.010368891788 0.069290642568
          0.24718723288 0.036173148678 0.07741014939 0.48270335681 0.037498451687 0.34021296646
          -0.37334166179 -0.0099266496839 0.12089941334 0.48758279115 0.05166047993 0.35599117363
          0.46287135686 0.056979129544 0.27808391302 0.48671136478 0.040598592133 0.33931896494
          -0.27393322861 0.00018667220336 0.097544792487 -0.27257887442 0.034382816135 0.061216526828
          -0.19426260248 0.025320705848 -0.0077300050986 0.46335013509 0.013616143632 0.27001233095
          -0.20321581175 0.0066193262059 0.0068362939065 -0.2503098693 -0.014998367219 0.010135679031
          0.47796809513 0.046710522682 0.35225697762 0.4875783799 0.038184592422 0.35930194658
          -0.30054610127 -0.0035220334245 0.10498652893 0.23070230801 0.04190136313 0.12405075402
          0.33036610237 0.03949768956 0.17150048563 0.41128547483 0.045102012008 0.17155763323
          0.35893060945 0.075113887231 0.13917211408 -0.27082863389 -0.022326775006 0.055690382139
          0.47887660241 0.0500279936 0.34568844944 0.48272667193 0.045038151274 0.34011138242
          -0.36760767241 -0.003261015798 0.13482373511 0.48116695632 0.047526907938 0.35323788147
          -0.29262992874 0.0097512069748 0.089884203293 -0.27743236017 0.014581379363 0.044964129672
          -0.37372247404 -0.0042684340843 0.13653952006 -0.35701769302 -0.019365348646 0.11745963705
          -0.12755892598 0 0 0.1081000007 -0.01525043311 0.010328526007
          0.30607934383 0.053250909791 0.17571323504 -0.16767112114 0.043746263787 -0.01029566893
          -0.36422736832 -0.0039688746867 0.12208756598 -0.34134438543 -0.015138876562 0.093429493718
          0.4929009956 0.037910692325 0.35793709683 -0.17507089176 -0.014524451065 -0.012888171366
          0.38144417662 0.032079178879 0.22326755478 -0.35728636927 -0.0092917158513 0.13093465961
          0.48565274611 0.063874073009 0.33329982784 0.47818590962 0.046752239956 0.3540713377
          -0.30482608587 -0.010888388277 0.070088495892 0.48679249037 0.051992588877 0.35752502756
          0.19243227561 -0.017446130777 0.019429499468 0.49224796446 0.062146530094 0.32151646658
          0.49219417953 0.043605059145 0.34881169929 0.30535972317 0.049906340249 0.098501933588
          0.48680219614 0.042480089534 0.36175590556 0.11079901039 0.0082920720255 -0.042365383733
          0.45232586777 0.032732322155 0.23414138075 -0.37292578767 -0.0071445778945 0.12695107609
          0.44721721438 0.050148943848 0.2413939597 0.4114106632 0.029994644353 0.18187775375
          0.49090347801 0.04489239404 0.34655180749 0.49162160444 0.037345969799 0.36255785356
          0.49121470535 0.035919990914 0.36214553359 -0.043520489007 -0.0099918951815 0.002757446224
          0.25182915849 0.088388557228 0.075459591851 -0.36276693521 -0.0075299738417 0.093372011112
          -0.29100149084 -0.023277806144 0.059727436928 0.40893201249 0.068072539515 0.23115217271
          0.48149455669 0.048850683939 0.34561072331 0.4242810058 0.052743168161 0.18537469621
          0.30045788636 0.042565565704 0.10695593472 0.28417061539 0.082397056419 0.0779121537
          0.43985655624 0.050237706309 0.25058547139 0.27753249644 0.049885852817 0.17847906815
          0.2874378941 0.050750883294 0.11280717466 -0.33780762327 -0.0063755443075 0.089938578483
          0.44519854133 0.038025253965 0.23737606122 0.44919601217 0.018042939936 0.21839541949
          -0.1339078959 -0.012485864594 0.054478136196 0.33184635631 -0.0089683564874 0.073573152714
          -0.26418804143 0.0039198525795 0.085499951656 -0.30609148465 0.0013657710392 0.094296324413
          0.4121784164 0.026215212929 0.20652651708 -0.27562274194 -0.0044659166769 0.061010107671
          0.29296479075 0.0080343016415 0.12047863933 0.4507759144 0.061224124607 0.25644303531
          -0.35783077108 -0.011578204951 0.096064866352 0.48087463504 0.017885362485 0.31295831876
          0.48582337712 0.042511522994 0.35232476819 0.11471156082 0.0043985943266 0.005333948787
          0.25045904562 0.030023839389 0.015331902113 0.26307360798 0.041568500171 0.068857872137
          0.31731844579 0.071035892205 0.14072333741 0.41506761543 0.050662261459 0.17489083256
          -0.10460023076 -0.024022551263 -0.056378138215 0.4789758604 0.046653742896 0.35512332458
          -0.35401756128 -0.0079799583263 0.0956231546 -0.35936717855 -0.0017424147233 0.12830349919
          0.44924566092 0.036922318358 0.26787194001 -0.3635793652 0.011450788611 0.12523608089
          -0.23172402628 -0.028874308035 -0.013339469118 -0.21889002435 0.013698710297 0.078488792747
          0.48967079459 0.044911981536 0.35328925999 0.28955906651 -0.027475608086 0.054492864513
          0.28143771824 0.033550817746 0.076358398156 0.21326409017 0.006528255472 0.099313724405
          0.45609634587 0.037581949989 0.26465891228 -0.31945994622 0.011325662976 0.071334658641
          -0.37386608399 -0.004286111194 0.11375508387 0.44967028848 0.027148084945 0.28967820146
          -0.26054027027 -0.0022167855579 0.070262917508 0.31428002853 0.041625111195 0.10220626178
          0.47981623399 0.05344047514 0.3423437925 0.094718926564 0.00061129206344 0.032957720928
          0.28381937118 0.048672635599 0.093561193145 0.033344956786 0.0055795025091 0.010154539933
          -0.33809847015 0.0013937792584 0.093532829676 -0.12522482486 -0.0033371964755 -0.0035129118233
          -0.29467788947 -0.026997164687 0.072684260248 0.30054370919 0.051632015873 0.15975263598
          0.47166290269 0.046692371574 0.31985268359 0.47985030774 0.065301338906 0.32030817016
          -0.15336686676 0.015652714149 0.0094934927287 0.28518399888 -0.030490196469 0.12150466638
          -0.13227160925 -0.0094527233686 0.068404696733 -0.21285647487 0.021808346171 0.044759235094
          0.25515732088 0.010930320801 0.025757705887 -0.19449834102 -0.025043198895 0.044605342911
          -0.30481902455 0.00072769639903 0.049951997352 0.49654121939 0.033035045037 0.33795445842
          0.30106771475 -0.0040474110274 0.10014172009 -0.30456960853 -0.011733383679 0.070155165061
          -0.35686836721 -0.017594197461 0.12285475796 0.48469257505 0.032716626289 0.30707971208
          0.31622519266 0.0587238814 0.068366758296 0.41670913782 0.010069687221 0.21814788129
          0.47150947766 0.034082055362 0.30786878573 0.28481686269 0.058887236827 0.14633786176
          0.27867107472 0.052459610629 0.13881204582 -0.33057629 -0.0040653233409 0.11693818051
          0.47099758676 0.035132949701 0.30658083366 0.49384244045 0.03052260764 0.34262597348
          0.48980814486 0.028827208816 0.31279219898 0.16626419762 0.0025995974924 0.0087476816245
          0.32387357893 0.15439063736 0.14808400052 0.46864844723 0.032573935643 0.28489046312
          0.47889181367 0.038729668698 0.29504555731 0.48419224356 0.045498278787 0.35227858055
          0.4809279192 0.046770955331 0.3562552824 0.48335454662 0.044498825722 0.35116287842
          -0.36484936047 -0.008065105443 0.12070750591 -0.17280211771 -0.015240854885 0.027725746622
          -0.22006775286 -0.004964565945 0.044881073437 -0.33394272935 -0.023020037396 0.089046865654
          -0.36161209668 0.010178090999 0.12071141827 -0.36573387623 -0.0079593653684 0.1379411306
          0.44049583906 0.063358212298 0.1894981204 -0.376693017 -0.0048777516296 0.13019774323
          0.45768705791 0.05404963652 0.27491982342 0.32251157071 0.0064504475453 0.086188625635
          0.47538593651 0.031132141491 0.28625610867 -0.20828194915 -0.021984492664 0.052286821435
          0.49109622577 0.050566179029 0.34130356307 0.48153461906 0.052053214238 0.32263848494
          0.053423993421 -0.035883047761 -0.088583053611 -0.35796877694 -0.019537880664 0.10438377813
          0.18882797031 0.0012345272351 -0.01811157077 0.48530918819 0.046033371944 0.33702623483
          -0.35910685749 -0.013169450609 0.11102875825 -0.1433025626 0.016715938231 -0.045620699594
          0.27039126239 -0.012063971626 0.058507760037 0.48614080485 0.049315365808 0.32261398209
          0.26839255431 -0.077509804185 0.068432976236 -0.36753957247 -0.0012501274972 0.13292057976
          -0.30778565203 -0.021258429833 0.043800395107 0.47024734364 0.036563889974 0.29110792162
          0.29586534235 0.018385446317 0.13154085373 0.10314923703 0.027112974038 -0.072587109355
          0.31911772696 0.073685364433 0.11602210853 -0.32702178126 0.011525491021 0.094527325512
          0.48912198429 0.04162429657 0.3562225855 0.47658304538 0.022709406682 0.27823299467
          0.48137463442 0.040297221261 0.28792003834 0.33601943758 0.12929010004 0.12943567037
          -0.023944884615 0.0052790464241 -0.017843456167 0.21181699716 -0.013035335958 0.087374129408
          0.37438882131 0.057839290395 0.22770225054 0.48337957658 0.044051969019 0.3557337063
          -0.24428568221 0.034168242156 0.078635167363 0.49100982301 0.049761662089 0.36100991292
          0.022618501343 0.0090136914903 -0.034076947216 0.44667086459 0.085671244578 0.18404793024
          0.15401293337 0.017984178103 -0.018954552789 0.48252447859 0.045857503389 0.35409791198
          0.4852391958 0.031097713444 0.35165322188 -0.22059898195 -0.012335760843 0.03550583629
          0.48438288358 0.044178449286 0.35406094753 0.036887382728 0.018321825911 -0.067728851179
          0.46955877086 0.033365924209 0.28205342686 0.48314609337 0.044626285338 0.36102152801
          -0.10185062659 0.0089764200413 0.027710112615 0.19571919398 0.026775956209 0.062545515757
          0.47992886759 0.046387376343 0.34839948457 -0.14342449095 -0.024519760176 0.045503080517
          -0.1677047137 -0.0070458957191 0.031105267092 0.013573498002 -0.025098837538 -0.065475699385
          -0.28408272527 -0.012360926531 0.09530895629 -0.11553579736 -0.00075239608053 0.011101635167
          -0.32638220665 -0.015607459037 0.086351661288 0.48150864627 0.043879396885 0.35663437685
          -0.35109703924 0.0024129808948 0.11604887483 0.35582587958 0.056906542063 0.20118693827
          0.48446936778 0.034430456753 0.31239610083 0.27027526521 0.052184695619 0.02841336607
          0.41103140354 0.049052049667 0.23536063867 -0.35676212437 -0.0066645193001 0.1188206057
          -0.35455351029 -0.010981639124 0.11662753357 0.48611825614 0.044057051472 0.35481711899
          0.36272373434 0.053644092358 0.19849859337 -0.27655409381 -0.026820458113 0.08607185416
          0.48447604321 0.052880524614 0.31905653814 -0.31077105641 -0.02223773364 0.087328691936
          0.47439444411 0.039273979534 0.30986558707 0.4927017605 0.051384723402 0.3588213785
          0.48465515271 0.052659032544 0.32556953203 0.49326074899 0.038841728917 0.35943295134
          -0.19198067618 -0.025614069051 -0.010600656284 0.48951805338 0.039377089086 0.34985380631
          0.48343858728 0.045692369404 0.353090221 -0.34823064303 -0.00096346276863 0.10411414139
          -0.35644206922 0.0057985644094 0.13717808661 0.39883602278 0.015899434192 0.21091927124
          -0.36358535637 -0.0032557811182 0.11977470968 -0.2798930237 -0.012405407803 0.062991582835
          -0.310266411 0.008704013778 0.094545125845 0.26760547627 -0.058453056355 0.059905204083
          -0.37683997029 -0.0016989952294 0.11781472621 0.48330638499 0.043213103458 0.35487690443
          0.47900176171 0.052589219054 0.34417633758 -0.081312138857 0.0081292855373 -0.073880524671
          0.073183598 0.0019291036242 -0.0099952874615 0.16409376847 0.055676639253 -0.010593040593
          0.24315311224 0.083755771543 0.10204875652 0.12781092229 -0.0095490706315 -0.035485381867
          0.4681470496 0.037281222816 0.28192696131 -0.26209697885 -0.028187572606 0.087139138716
          0.25293396418 -0.00056200726477 0.017762579039 0.20364036781 -0.030503126049 0.05146152714
          -0.34880240327 0.0074690243407 0.1338524503 -0.35096028059 0.0057213456769 0.13356209986
          0.29324445001 -0.024280031318 0.00053430407979 -0.18896601099 0.03428884528 -0.012100979807
          -0.19520863228 0.0022454057562 -0.00091598712295 0.45180409823 0.071338539784 0.27892524841
          0.070139187018 0.012764915653 -0.034381047628 -0.36855366618 0.0041334110945 0.12112502309
          -0.16782047429 -0.0072438024754 0.032654060481 -0.34821234553 -0.002828667327 0.10269236039
          -0.33914748345 0.016304514773 0.11468769335 0.29237600845 -0.031218011157 0.092478998177
          0.2576474401 0.058406386007 0.032582431188 -0.36120764667 -0.0073397251025 0.13424395379
          0.28428827521 0.036998920567 0.053645522576 0.23908177318 0.050116958298 0.035482339498
          0.25764694622 0.058410698465 0.032593948892 0.24160666705 0.020752814985 0.049136544794
          0.44203853195 0.026743660446 0.23945161386 0.48214397379 0.044637329158 0.35169142888
          0.073230010997 0.010180030144 -0.03958439135 0.3751824728 0.061306882974 0.16044927019
          0.37147267009 0.062401779187 0.16392491612 0.3944315247 0.053865403732 0.15115676782
          -0.11954747169 -0.0066251562438 0.0078443037335 0.29203854378 0.093381326607 0.098638751005
          0.47057526735 0.05958653638 0.30413865407 0.3565081295 0.034120991508 0.13221932726
          -0.054668921836 0.018859563418 -0.031214409253 0.39916428017 0.055246686967 0.15002775131
          -0.33913283837 -0.0046099035557 0.086588391071 0.48260723596 0.046772890848 0.35893465039
          -0.16753942179 -0.0099418445755 0.027717036667 0.47633153951 0.045339680019 0.35561883826
          0.069524724469 0.043437866242 -0.017260775697 -0.17010678732 0.0075306951436 0.015858915594
          0.19703314116 0.054939886359 0.08955532324 -0.19798582328 0.030645170423 -0.012408879805
          0.14516974518 0.046925468751 0.042542525354 -0.37188253931 -0.0020080671725 0.1218684794
          0.49134518801 0.04533282622 0.35926224074 0.47871365839 0.050490049999 0.35612311544
          0.0062331445218 -0.0036645932205 -0.042751135497 0.48917871704 0.036935588268 0.32699363528
          -0.17390837294 0.019097028208 0.055028097607 -0.24544800802 -0.02118639 0.093821160229
          0.48155827283 0.048273485306 0.35685851236 -0.22706322343 0.024799368757 0.033554935715
          -0.16765465058 -0.082531904977 -0.023562572868 -0.35502363356 0.0040383811579 0.11449138467
          -0.30007958957 -0.0066607398446 0.071818319124 -0.1304018463 0.040525819563 0.0021102015295
          -0.36666340445 -0.009931567848 0.11820820547 0.3638424483 -0.070853214625 0.10495541209
          0.30726462747 0.001196737473 0.15389810473 0.31408975117 0.020518071456 0.11525906338
          0.48920901719 0.042253910006 0.3342418298 -0.34903876915 0.0032126283413 0.11269668839
          0.4832878678 0.053408756702 0.33627041803 0.49040586777 0.049854779621 0.33768800276
          0.48447796917 0.023332346809 0.31568322035 0.45817197709 0.02008848638 0.25878255448
          -0.18604243941 0.021965258553 0.062546942233 -0.34368499716 -0.014949981765 0.13043818469
          0.47706081925 0.034671971431 0.32575469987 0.44583236115 0.086676593457 0.18481809416
          0.47073559173 0.040022421469 0.30544252303 -0.26954464652 0.013155571258 0.08211412508
          -0.18765416543 0.016796486371 -0.037004078089 0.48288148799 0.04552780594 0.3513166067
          -0.17350879956 0.02258132914 0.069594499837 0.058882237203 0.021078299179 -0.028676551355
          0.43605922503 0.035118257983 0.24397659134 0.018831607982 -0.0075491472304 0.021148093866
          -0.36398388398 -0.0097925546111 0.13277127964 0.25317354061 0.024531218079 0.10230550719
          -0.28411818286 -0.010315167043 0.098499613243 -0.1976703948 -0.018794480811 0.0029043952078
          0.4810578287 0.052787178598 0.33910975871 0.3867882493 0.074215061273 0.16204621813
          0.47394008777 0.043146358044 0.34324566837 0.29435587043 0.036899968114 0.10161493887
          0.2835917945 0.056546989937 0.10392578903 0.48279040359 0.044950114862 0.35077324977
          -0.3677030338 -0.011515073476 0.13558522854 0.252700915 -0.0026213640433 0.018143401971
          0.39634555459 0.041130950766 0.20269819618 -0.33249688516 -0.0056177079987 0.090682288318
          0.21828073404 0.018094259612 0.10870712346 0.48713589902 0.042565296277 0.335773592
          0.47313429357 0.043204094181 0.32746161455 0.43287321714 0.024632053628 0.24458095807
          0.43403202367 0.0049986795119 0.21640636395 0.33058882505 0.024118071174 0.087279443154
          0.022528600595 0.0043600107865 0.018557678707 0.47753586716 0.046620016507 0.3518462984
          0.47175198454 0.045573035391 0.31145804389 0.48819549928 0.046276352983 0.31873234377
          0.48331844148 0.050315932471 0.31405950828 -0.37289581471 -0.015760977992 0.12733494383
          0.47008497218 0.036158265107 0.25705608379 0.46598730162 0.023300673018 0.28204387911
          -0.15473726049 0.0078531416992 -0.049532136273 -0.283684945 0.014103856412 0.097015216264
          -0.27244833633 0.0069315235092 0.035622761987 -0.3644385711 -0.010361964909 0.11781651985
          0.46042734956 0.046124199606 0.26646513627 0.27488347822 0.048269577998 0.12161442742
          0.48835226683 0.043125192652 0.34817208798 -0.37896443535 -0.0055759426811 0.1251343215
          0.49405048592 0.030256025986 0.34204217568 0.48365047539 0.045450630279 0.35265237979
          -0.35299385178 -0.0044046709221 0.1114981886 -0.21271698486 -0.024041677615 -0.0070201936307
          0.27903522695 0.049304118659 0.078044758812 0.46015210559 0.047689795038 0.26702847025
          -0.17803955239 0.0090647433099 0.09230470455 -0.18625440697 0.02150138355 -0.04269585604
          -0.37058776821 -0.0066442606908 0.12794472459 0.48314545316 0.04248025842 0.35679022373
          0.48543911451 0.063547634756 0.3166211393 -0.34964200472 0.00058604054367 0.11796941432
          -0.062099992613 -0.0091205908454 0.035875735388 -0.011092610304 0.020672511007 0.022415850205
          0.0099588488809 0.055451214566 -0.037111588271 0.027577419401 0.043794280338 -0.069879771583
          -0.039483329594 0.015507491876 -0.010877579777 -0.37267416936 -0.0067696770091 0.12246547914
          0.18571727148 0.04963109905 0.071751766028 0.16063718699 -0.013918918217 -0.035216509055
          0.3540942887 0.060950953812 0.21239088029 0.48842504721 0.039034802228 0.34644574073
          0.46629130594 0.03419233951 0.29078434837 -0.20591606821 0.017941416041 0.026249669171
          -0.28818329997 -0.010515878165 0.064433982309 0.45459464764 0.058836362665 0.2552226676
          -0.37327038694 -0.003607457195 0.12661956562 0.49436253446 0.038824844597 0.3623314086
          0.086681784923 -0.0066984700395 0.025137901001 0.49965374488 0.12641854176 0.24949837709
          0.48926117841 0.050157847173 0.35289910849 -0.27857237599 -0.0082515906545 0.092947309576
          0.49235144083 0.038932638743 0.35902779284 -0.052544649406 0.073528235076 -0.10736414832
          -0.30932015809 -0.0093152060526 0.070911742652 0.46962736683 0.043914027746 0.29495333142
          -0.048884426085 -0.036916120145 -0.065955493231 0.35516218905 0.044517642501 0.19561605877
          0.076215608341 0.016048162011 -0.038557216669 0.27125792023 0.053015392311 0.028128040762
          0.4827022229 0.045295270311 0.35099599654 0.47735005409 0.045201099814 0.35264758759
          -0.36616935504 -0.002526446901 0.13512547907 0.36041179876 0.047031383662 0.20037316228
          -0.34274025738 -0.0022458864558 0.094227995562 -0.12224907729 0.023396623477 -0.039007566273
          0.16467189662 0.031278013897 -0.038075286316 0.32169346746 0.0082484237716 0.084925102965
          -0.33730082389 0.017481347516 0.10490336021 -0.31138013972 -0.0061205591764 0.088027830926
          -0.353989896 -0.016679791412 0.10656258243 0.42963452213 -0.13446982598 0.20884110756
          0.44672504515 0.081599389986 0.30901572634 0.4035466706 0.0036261488966 0.22201083435
          0.091429336627 0.041577387729 0.0031110528351 0.47074680453 0.042707942444 0.31569590088
          -0.082700790748 0.0066943831287 0.028696241332 0.48578303706 0.041856938605 0.34487108354
          0.47394416263 0.03726138367 0.33764478606 0.47960321954 0.048275096833 0.34286039106
          0.4757049919 0.050358689365 0.32931398204 -0.21401600896 0.021765136706 -0.014555462108
          -0.18682832783 -0.029462419433 0.048285855774 0.4899452227 0.047399109253 0.34174265785
          0.48833273929 0.045241842334 0.35765803492 0.49431333985 0.056147660239 0.31909636586
          0.46798650047 0.02385719471 0.29218381254 0.033158095925 -0.0036598841978 -0.081571649937
          0.49210899202 0.037013944483 0.35889195074 0.46294564119 0.054881577258 0.27532836908
          -0.37726113274 -0.0016088580801 0.12184192621 -0.27750848955 -0.017804023586 0.092384372868
          -0.27042597758 -0.016339243478 0.048346747872 -0.37313883557 -0.0068090154452 0.1197600275
          0.17034093162 0.047344101296 -0.010242262254 0.46857565712 0.032876819378 0.28389271227
          -0.24431301339 0.011906724067 0.046667255044 -0.3544254082 -0.013258315634 0.11512063185
          -0.29997786424 0.0052597924009 0.073020863015 -0.31948804614 0.0073334501252 0.092490351827
          0.48423800458 0.048796622859 0.3321208255 -0.27477940305 -0.016160199042 0.047055989357
          -0.2158489558 -0.014463390898 0.069466893634 -0.26437188017 -0.014381606386 0.040943175688
          0.45268314536 0.065240939659 0.29043639357 -0.29439472654 -0.022179422636 0.06736219468
          0.48692219146 0.043704324978 0.3463513184 -0.36882132477 -0.0078063514122 0.12339206647
          0.45367438866 0.055292393005 0.29175206778 0.47239487908 0.041997945658 0.31525500438
          0.48523708903 0.040832385056 0.330416153 0.49233395951 0.037858934247 0.33955317971
          -0.2355719893 -0.0063837151149 0.089716822816 0.49290916676 0.056482694211 0.31686516028
          0.47948565268 0.041765464792 0.33769359071 0.40153319392 0.016803602566 0.17638405617
          -0.34956367585 0.0010827052667 0.099706729742 0.29435127503 0.10639517608 0.15514593263
          0.26008684375 0.032186165573 0.096072908507 -0.37516656338 -0.008212991756 0.11977545944
          -0.17784877455 -0.016441101992 -0.021833232216 -0.33759670884 0.0012936197151 0.10094938737
          -0.11225118471 -0.038625211299 0.01608246202 -0.08960270874 -0.016962624344 -0.018600583426
          -0.057610233058 -0.013768667583 -0.044744527294 0.39848006588 0.064519574206 0.23822745625
          -0.26766649921 -0.027168099758 0.049446534691 0.40271988632 0.057618305488 0.21523600538
          0.13439744056 -0.028569476647 -0.0522221146 0.29181893207 -0.031371227212 0.092108873035
          0.17687742251 -0.01827061007 -0.063137336138 0.25462756104 0.013021291529 0.11893497589
          0.42539155324 0.069048606843 0.23414258367 -0.35230679253 -0.0036286759187 0.13363437022
          -0.33355550377 0.014833647235 0.083906945817 0.32776858493 0.004575284515 0.14537138591
          -0.19630563594 0.0076449078383 -0.0035555563169 -0.36853366826 0.0055382602964 0.1065288539
          0.45196619436 0.014598284622 0.24143592957 0.084139903521 0.024672811668 -0.0045836889803
          -0.30903684222 -0.00020076190184 0.059144655091 0.19151293223 0.020909196153 -0.022220983237
          0.47346813005 0.049326925861 0.32453806001 0.32469552291 0.020355468126 0.12364077994
          0.47993664045 0.034563160717 0.3126378159 -0.17586826012 0 0
          0.31344638491 0.050076443506 0.108902313 0.25941435615 -0.0037116728968 0.097293064473
          -0.23980240054 0.0087387622203 0.017764038466 -0.16373108054 0.00023805474024 0.056722191285
          -0.36997017362 -0.0015221520606 0.12720053212 -0.37117546746 -0.0016407244119 0.13546662552
          0.42287000213 0.043312470577 0.22949285379 0.48800575254 0.041862724147 0.34243046686
          0.4386060663 0.028306570077 0.22882592982 0.28737991656 -0.02800557027 0.11958483109
          -0.34871467643 0.0051423319024 0.10847495396 0.47368191218 0.044782781897 0.27352062361
          0.49106679882 0.048087358039 0.35084812751 0.49611305541 0.030277125616 0.32845727965
          -0.046331260425 0.0030894478811 -0.0043880289122 -0.28962867686 0.0026644331428 0.053800971668
          0.39801390354 0.060937072677 0.19364304491 0.028399882738 -0.028581360045 0.021755883092
          -0.31876676329 0.0085326428413 0.11203880215 -0.19987254468 0.019506898696 0.05601358849
          0.48139394642 0.052212602114 0.2994730327 0.46235950574 0.037443672459 0.22477417604
          0.48726316955 0.038256808347 0.34308151608 -0.30272673622 -0.011369748905 0.063926731411
          0.48815659603 0.017529652014 0.2649556118 0.43034207779 0.046612183089 0.23859818118
          0.014214036988 0.0090938662013 -0.061711889201 0.47586989599 0.040852567348 0.34278364197
          0.29692668733 0.018181645049 0.1347792285 -0.37286741433 -0.0033168046946 0.13550847418
          0.33524298972 0.0034516384231 0.15678399597 0.45990352735 0.05876242305 0.29950756968
          0.47754963298 0.044650997762 0.35282153666 -0.015645028366 -0.036691739762 -0.024441422924
          0.48154428551 0.044094826254 0.351348755 0.48480688802 0.048206499639 0.34998625243
          -0.37383036831 -0.0058990553054 0.11917398872 0.16768705471 0.013730584839 0.0045105887791
          0.49047978035 0.037374378209 0.33221960486 -0.081651354786 0.031664603351 -0.056483170876
          0.48221984811 0.04602024794 0.34635617226 -0.26188002343 0.00056628237044 0.066829699662
          -0.1407552089 0.0076265179718 0.022523741134 -0.35245010536 -0.015386781199 0.10168398474
          0.48511754876 0.047561939495 0.34456626047 -0.37500953901 -0.0064926276764 0.12092374078
          -0.16023831555 -0.0028360181334 0.0015686371572 -0.3131534819 -0.003619656898 0.069656523769
          0.15555253143 0.024054775211 0.042910551105 0.48438193581 0.044718355023 0.35327676568
          -0.29856930542 0.016642003579 0.10119893119 0.48690048418 0.047533335637 0.35394659223
          0.48954290139 0.03160123641 0.35206059362 0.47643359287 0.046155943652 0.34429577395
          0.4811782626 0.048875347454 0.35792813612 -0.15853351727 -0.059751812086 -0.012160120757
          0.44540852158 0.03911814688 0.25078542305 -0.36223393353 -0.0092326528769 0.12463802189
          0.47933247541 0.042610501024 0.35500612268 -0.34604045586 0.00026392145616 0.10625544595
          0.48990849533 0.044341539454 0.34769000477 0.45411729935 0.05265611968 0.28961784533
          0.015010278067 0.01360057327 -0.044186254587 0.47989154319 0.044995410859 0.34316356
          0.10256017585 0.017238907349 -0.07727388916 0.48284577583 0.045656371557 0.35089225376
          0.19007253781 0.078972520498 0.029332239411 0.47281686618 0.043211465116 0.29579267404
          0.48464281191 0.044561624661 0.34090037667 -0.082537381661 -0.050422746598 0.041960230283
          -0.28867315617 -0.014053297523 0.056262354152 0.48907545878 0.038906061405 0.35931969383
          -0.3638078496 -0.010309471035 0.11898620486 0.49081505127 0.0381614127 0.35976722967
          -0.29555689087 -0.0089768380278 0.063918683051 0.48614359073 0.041906816642 0.32220132642
          0.49213479401 0.039348978509 0.36245500228 0.48414115992 0.044516630656 0.34993527707
          -0.088089020856 -0.027192070676 -0.072896771596 -0.37415873369 -0.0039855601232 0.12283900239
          0.32074490662 0.04102272408 0.19424494887 0.48131923313 0.049123655904 0.35068779403
          0.48164015109 0.043635930206 0.35713593018 0.31607096712 0.04653268352 0.15484471086
          0.48624044548 0.04444208494 0.36067885306 0.49439980787 0.020986517637 0.30338870077
          -0.10751006964 0.004143618418 0.022438895428 0.42739003858 0.041811546812 0.22915244832
          0.41384470218 0.071881009699 0.2323745992 -0.31209335698 -0.019448650393 0.063503486152
          0.47605875608 0.042692210125 0.33280770128 0.48340264189 0.050846155338 0.35538330386
          0.48430887296 0.010604909123 0.27853258155 0.48901865718 0.040490205721 0.34617385969
          0.31349319423 0.047441337732 0.082709034472 0.074713446212 -0.011926663361 0.013657694987
          0.48536052252 0.041362733983 0.34644013412 0.031026633567 -0.0042487648886 0.026897357958
          0.28499427206 0.0457509525 0.08127455551 0.4856057845 0.046930796938 0.33057756165
          -0.37423578914 -0.0079577542316 0.12246559809 0.48088386988 0.044584235556 0.28288777739
          0.4118814793 0.019624489851 0.20916042889 0.48491428936 0.031083310112 0.33715869639
          0.47721865957 0.04352041841 0.33925558512 -0.33539104872 0.0041228999717 0.064079409577
          -0.025520078191 0.03873890671 -0.062577451581 -0.099173108901 -0.023804986066 -0.070950811223
          -0.36961496616 -0.0065423035313 0.12693766671 -0.37243027147 -0.0083148155791 0.12162256855
          0.2513833756 0.031140476456 0.015433279232 -0.20298850354 -0.03001019764 0.085686806536
          -0.34423577054 -0.013292060175 0.10272373581 0.26163356124 -0.061648660763 0.116182166
          -0.26617849854 -0.028233735122 0.049250048527 0.48186834497 0.043556450969 0.35507843308
          -0.31382416377 -0.016506138647 0.11947217159 0.30948092534 0.025826572561 0.1051181526
          0.31617297115 0.080540867908 0.074744392886 -0.28468608707 0.015947222089 0.09981687357
          0.34909488093 0.010218243439 0.083076965988 -0.36112400725 -0.0090214351379 0.11587079896
          0.31715505802 0.078550163681 0.13681744746 -0.34869742906 -0.028012817353 0.051595774724
          0.47279015909 0.026953427761 0.30734507378 0.034770774559 -0.023973159169 0.0081211543926
          0.23179315134 0.050747995704 0.090653102808 0.059319698037 0.054102984105 -0.083831838997
          0.35833777509 0.051435790261 0.19861051296 -0.11676290264 0.037309976124 -0.083668900795
          0.49049888976 0.04173454702 0.34953678443 0.47704528463 0.044116885975 0.34649374562
          0.33177998327 0.012995889681 0.076623096818 0.0044632631465 -0.035426746905 0.023993731243
          -0.25703775129 0.020916435616 0.034520849346 0.4762794998 0.046412739156 0.28990855189
          0.11533587144 0.042550063586 -0.01759115641 0.44844293545 0.025159016911 0.25778214464
          0.39144650162 0.0050581223246 0.19067390676 0.32368739313 0.010429465333 0.086757925044
          -0.22366775207 0.04167524713 -0.0074408306619 0.47680252069 0.048963631744 0.34608099791
          0.24055078953 0.0022448700343 0.096978285076 0.4809943404 0.049118052615 0.34829631316
          -0.37311977634 -0.0070186343589 0.12250937433 0.30385877405 0.053420111608 0.15167483831
          0.41526785477 0.013835764111 0.19400586792 -0.31609137976 0.020746629865 0.072935512834
          0.48605947983 0.042719838056 0.36452686626 0.46560763778 0.037956898766 0.26506638184
          0.0085429100234 0.045827541174 -0.074536479359 -0.23205240814 -0.025850655217 -0.017128199063
          0.47991808335 0.044833759196 0.35502577493 0.4795929754 0.044701214155 0.3536356781
          0.27917515376 0.025688123087 0.11157370054 0.46242495023 0.012445067537 0.29570695241
          0.47664191115 0.040360420879 0.27306728466 0.48375225781 0.04295990128 0.35345879311
          -0.35720696377 0.0064268663516 0.098615759798 0.30497932358 0.047645646615 0.098618029149
          0.32372938761 0.0480854075 0.09901651731 0.48989054623 0.041708365397 0.31420821232
          0.43601474133 0.040861776084 0.27674057261 0.31589782445 0.015968709632 0.12114211033
          -0.13906233047 -0.0071757428469 0.071769666349 -0.26478632832 -0.020958988539 0.051900598925
          0.19370142167 -0.019474575591 0.022313313118 -0.11821483021 -0.014873316905 0.017131314332
          0.48630666914 0.048786765698 0.35854946145 0.48654790419 0.045657215155 0.35858772681
          -0.30099067099 0.015992593781 0.064361436368 0.24558892642 0.076459775862 0.070828012208
          -0.14223714698 -0.0048205236745 -0.016790729959 0.24943401117 0.072573522852 0.11992786475
          -0.37432264677 -0.010224778035 0.12076123022 0.46437743175 0.047914520265 0.28687660252
          0.28111720706 0.034143014001 0.076070764052 0.46300973839 0.050607508624 0.28623166346
          -0.17446743942 0.031380485798 0.045802748879 -0.34304881193 -0.022938811099 0.11694185812
          -0.37879481602 -0.0068147155425 0.12843693839 0.26082801314 -0.0093980423164 0.079992920985
          0.42846473803 0.05202122247 0.20884892297 0.20889984596 -0.0034341783846 0.044632587995
          0.41051694652 0.0094804324621 0.21414540054 -0.29967321156 0.0048946203054 0.072357284588
          0.48585124183 0.041939830273 0.36185592895 0.48907662139 0.042007006764 0.33894847729
          -0.31346042936 -0.007985011995 0.092616415466 0.29126542782 0.053959631773 0.050977970288
          0.45483375766 0.044264071448 0.26571367755 -0.26691103173 -0.036901349611 0.040393868052
          0.50013454071 0.026027427078 0.34184750839 -0.071735175461 0.0034371694045 0.034575037226
          0.28438302004 0.060065714987 0.086791299647 0.48310161608 0.0328642537 0.32119256692
          -0.034873358418 0.045310093794 -0.055566020235 0.25436435851 0.092445596318 0.090986764825
          -0.36981016402 -0.0086890597615 0.12452024103 -0.36049943494 -0.02014206451 0.12559347559
          -0.27920621967 -0.0084909278899 0.093104444381 -0.30803930985 -0.023542975143 0.060153357577
          -0.34866605599 -0.01657641401 0.10385608862 0.28124781344 0.020180069517 0.10519757617
          0.011676009192 0.031882881177 0.025954649585 -0.37650907606 -0.010370727031 0.12095836331
          -0.25251001902 0.017653138623 0.036889642694 0.46071647844 0.052511922052 0.2877818198
          -0.17566374624 -0.004304130609 -0.039683439994 0.29793336516 0.079844105019 0.15347562204
          -0.20714448509 -0.014236209269 -0.010794380909 0.15168490017 0.022354166074 0.040732639604
          -0.26580392294 -0.02206116973 0.065561944454 0.46773327035 0.015217826616 0.25279450168
          -0.27441541436 0.00043413591092 0.035560291373 -0.33776083788 -0.0072831651167 0.094030293714
          0.48384988922 0.042725182403 0.35409273955 -0.07919447857 -0.016497639597 0.015380294166
          0.48294350291 0.037983000833 0.32291156394 0.46585144018 0.06579222997 0.28940192578
          0.4767352505 0.044594941717 0.34464808104 -0.2832086815 0.008992155374 0.033196085833
          -0.32874637372 -0.004807859305 0.078593576293 0.2501842734 0.087486762305 0.075336412387
          0.48627657746 0.040422255397 0.34621896386 0.46393621873 0.046473189996 0.28449031842
          0.165411461 0.040667233381 0.027475454409 0.1552847836 0.058311760482 0.00052327202293
          0.2527532538 0.088727731333 0.11472952247 0.17247748038 0.038894100089 0.032204219372
          0.25129457014 0.089072112981 0.08015519827 0.48376096646 0.044051222145 0.35630073934
          0.27690889525 0.044665315444 0.10185895492 0.29756634427 0.063697307658 0.14626719808
          0.48671703146 0.044754142361 0.34999221308 -0.31903899208 -0.016253869284 0.070999262573
          -0.24696060055 -0.034545997753 0.020451639415 -0.32778979498 0.014256126837 0.072616481429
          0.050802081842 0.038815022781 -0.056100505681 0.47284831413 0.054396297121 0.28984577211
          -0.28224433887 -0.027642793493 0.088550789174 -0.28139139696 -0.025020308251 0.086825966619
          0.15563042239 -0.021919107774 0.066576407511 0.25094588835 0.012774078377 0.022070060958
          -0.34436081983 -0.014289642202 0.10722029315 -0.34154923297 0.011844341126 0.10456922822
          0.31528187401 0.039482563776 0.11412007862 0.31678905832 0.067873760287 0.16014251214
          0.47850610729 0.060212918235 0.28745302456 0.32866667728 0.026659146647 0.19122924766
          -0.2482877443 0.013511360092 -0.0040620671127 0.50362725985 0.07144874932 0.3159477045
          0.46591108276 0.078901176633 0.16566405946 0.10269660002 0.03677345467 0.00065447887973
          0.48175394644 0.050008896285 0.35011418677 0.21373636773 -0.00046711944376 0.0069169072222
          0.25774701149 -0.060688020945 0.11082528556 0.085221452723 0.024591581702 0.036608217997
          0.49616954036 0.046538162863 0.32828596746 0.47486559238 0.044163333982 0.34773317774
          0.12409445542 0.011107705972 -0.013775859659 0.39072699788 0.0072251126537 0.15214254464
          0.41127562071 0.035342245389 0.2203061982 0.44676011393 0.054422954128 0.24983208223
          0.39954995972 0.052357455898 0.22609834978 0.48562016819 0.04167656822 0.35356838356
          -0.36886332793 -0.0088864453046 0.12112173925 0.27351814326 0.075457366708 0.077136816694
          0.46487096899 0.053545351848 0.29731710572 -0.12244830371 3.469446952e-18 0
          0.48848621177 0.052093889682 0.34002938714 -0.37011739585 -0.011592366012 0.13317759906
          0.41652406328 0.028911274095 0.18533711232 -0.31798508643 -0.0029903709567 0.10991436479
          0.33543602038 0.060682823916 0.074378995473 -0.089773412571 -0.0021212385343 -0.056148308662
          0.30048599652 0.013962885459 0.072873606382 0.48469705838 0.043686793155 0.35121459492
          -0.15537141875 -0.027744981685 -0.043302351507 0.47820466795 0.046709580095 0.31472539522
          0.48675013908 0.048664300989 0.34899104981 0.26054463451 0.010167335172 0.018648170857
          0.030659651073 -0.015057618398 -0.070704215631 -0.21718365941 -0.028679726056 0.020427136746
          -0.18639269512 -0.0081940786099 0.076154198253 0.41389570627 0.048162840155 0.22805965102
          -0.2902696576 0.0076805818719 0.069552891344 0.48378272124 0.042984342688 0.34718784644
          0.47696549687 0.055186758986 0.3444954686 0.48023219747 0.046240713864 0.35613620206
          0.28450437363 0.030309577206 0.07694606356 -0.19644283646 0.012041315723 -0.0109686275
          -0.26631455911 -0.017986277591 0.052086092543 -0.34161733276 0.011875750339 0.10455789176
          0.48147585645 0.032410856643 0.30922915825 0.48638571722 0.044833674892 0.35423870333
          0.4316067282 0.05482917022 0.23267328717 0.14646713176 -0.231613315 0.1201614415
          0.40416187497 0.0658282764 0.25045127271 0.038270009476 0.040453462632 0.0076698039472
          0.48767813855 0.036418371504 0.32153716125 -0.35012131835 -0.011128411084 0.10340192265
          0.10843662518 0.018708201134 0.029509777375 0.15317075172 0.022019624908 0.043913680732
          -0.14593693418 0.0034173615474 0.060930438213 0.11117067423 0.056354228829 0.029467356497
          -0.060232528174 -0.0084981338635 -0.068731157321 -0.013907756023 -0.0028747709253 -0.025323998223
          -0.37249015529 -0.010129304107 0.12606279736 0.48576084684 0.050988337141 0.32099512555
          0.25555780496 0.037399963097 0.045619827304 -0.36754314441 -0.0058222609171 0.13310739193
          0.012481446275 -0.016336009244 -0.071178200443 0.011677383447 -0.029627536615 -0.063482509713
          0.23910864646 0.027603928675 0.07086872154 -0.34001159241 -0.01916188009 0.094276589362
          0.42157836065 0.024858930856 0.23216001542 -0.37021381214 -0.013349698127 0.12733818838
          -0.039597535791 -0.025952564345 0.012409569147 -0.16956013438 -0.01345988223 0.014164404491
          0.49098948706 0.038470727284 0.3601011401 -0.37293947365 -0.0067966884348 0.12210816515
          -0.36451052556 -0.0030224487259 0.11604109579 0.47641609682 0.03150376025 0.27381645359
          0.051276386814 0.015174791972 -0.096285380987 -0.33511523989 0.009516249859 0.11661643506
          0.30983152133 0.026102732376 0.071940340781 0.48436729869 0.052031162082 0.34691339357
          0.16606908186 0.039303964627 0.025900583299 -0.35770965322 -0.0097202403791 0.13504085956
          0.48694881795 0.04789537005 0.35367612784 0.48960472078 0.032778791297 0.34448942675
          -0.31891088881 0.0079042241557 0.11552499316 -0.32244676623 0.0028354076903 0.10667340414
          0.48504381625 0.048067084609 0.35262737116 -0.3135934349 0.0020175241796 0.068978800828
          0.49726638518 0.038727587797 0.3438966859 -0.085081744422 -0.049222888955 0.050719976051
          -0.05686546642 -0.020360372282 -0.04158876386 -0.11397799332 -0.0013673248328 -0.032121944126
          -0.33796225369 -0.0011089596195 0.089417672614 -0.024321744573 -0.028178233661 -0.021167660107
          0.48128753395 0.041423504835 0.34555442374 -0.14289091696 -0.0058992781747 0.069423578735
          0.31936805154 0.05277208843 0.1463305847 -0.068500514185 0.0080913445367 0.039643498153
          -0.37616086149 -0.0099820525572 0.13023617838 0.18984954488 0.0048914635895 0.034744726721
          0.47993335458 0.034632326196 0.32119353107 0.47891288084 0.043620039746 0.31781621846
          0.48683923065 0.049243726932 0.35251319401 -0.2747287627 -0.013687604373 0.020691877342
          -0.23236239556 -0.033923405314 0.015752656471 0.24551994001 0.15943353306 0.050439884082
          0.48622454971 0.050504697345 0.35773640774 -0.32280454034 0.010362918915 0.074631176958
          0.4027471268 0.048656548569 0.21750256848 -0.32363592075 0.014397870056 0.092332803717
          0.4048089492 0.023295387376 0.16874738706 0.44803838911 0.053744842879 0.26856726451
          0.4816764638 0.031203872752 0.32479289441 0.47494229894 0.030787654247 0.31904389008
          0.48228935522 0.024143037654 0.30914115229 -0.37157958691 -0.007056110881 0.12412585299
          0.42197242654 0.054986636115 0.2199197826 -0.35453255115 -0.0019026126385 0.1071240507
          0.21426041862 0.030028188201 0.068511037827 -0.33205495374 0.01745756866 0.12139318085
          -0.022060943554 0.0041409378243 -0.02551104473 -0.014878800347 0.026464090539 -0.034742267853
          -0.17813175311 -0.0043442649018 -0.046640870641 0.4901895734 0.046055998282 0.34423541305
          -0.21824805782 0.025060510717 0.017581918504 0.47613717129 0.034428455613 0.33823915801
          -0.13235301304 0.0063026313844 -0.0018769450624 -0.13357377412 0.040110988748 -0.022622675145
          0.092488872859 0.043056932445 0.0015588541301 0.31185816728 0.024849330309 0.091115493193
          0.15431036001 0.0087217202208 -0.024899251455 0.024355863137 -0.012816776801 0.026438870182
          -0.26524912076 -0.016003158967 0.040176572407 0.49218559256 0.037481753803 0.35759688452
          0.47907273967 0.044909042034 0.35286578015 -0.35802607467 0.009094563002 0.13070691165
          0.48603989116 0.044250117927 0.35180306879 0.40514248076 0.076645279072 0.17698585004
          0.48789059363 0.049840253141 0.35473590498 0.3643410836 0.027555982839 0.15348675162
          -0.230058008 -0.018111163343 -0.014157492084 0.35909901325 0.062198160311 0.11798312328
          -0.30415554481 -0.0024190147772 0.085576882616 -0.26450024689 -0.02776782189 0.017614706285
          -0.16964560786 0.020689384766 0.069314761155 -0.27909992543 -0.026527325749 0.039445465514
          0.30036544491 -0.012110596688 0.10111981143 0.47335881729 0.034026050202 0.2841451645
          0.31899334772 0.046728945288 0.20831706621 0.15498064801 0.024908830865 -0.008081210896
          0.34497926716 0.0084328840359 0.10384626058 -0.36043533997 0.0075088169032 0.11103977624
          0.48544765722 0.044447294415 0.32040865421 0.48447390752 0.045906486713 0.34907027794
          0.46975888135 0.03541259823 0.3046454173 0.31804794299 0.018080125937 0.12233055961
          0.1031633999 0.021420447174 -0.066072135512 -0.36078944509 -0.00091004253756 0.13324344438
          0.46609161276 0.064480517595 0.29901940619 0.48496920455 0.044813066423 0.35107563191
          0.0096086866759 -0.018104563086 0.0097327669583 0.0098549906788 -0.01851441546 0.012555491497
          0.082594761945 0.030345190244 0.033395706109 -0.36848551363 -0.0049714141072 0.13023535174
          -0.12244830371 0 0 -0.23635985106 0.0011390720066 -0.014255772672
          -0.11514813522 -0.0010892954053 0.011245578528 -0.2413394687 -0.018892151929 0.085613936462
          -0.1256466676 0.040779774505 0.0052458360342 0.40901525714 0.061911881033 0.17921259798
          -0.20823295053 0.0028276239897 -0.016732390237 0.42481269261 0.026099605863 0.23105542618
          -0.35507659856 -0.0070679631293 0.13571496821 -0.12680637634 0 0
          0.48139481505 0.043193629229 0.35360122735 0.49278433497 0.041608514664 0.34152934102
          0.35677735573 0.067570797286 0.11453692586 -0.30295754926 0.0023403767654 0.064880126688
          0.45194157734 0.034834013414 0.26530240085 0.32046598375 0.029574953566 0.1435204919
          0.30667870244 0.073847004195 0.1664959847 -0.32593046971 0.014199907235 0.090869380078
          0.16879756493 0.029990118629 -0.039403013494 0.31775226513 0.01062349894 0.089670762109
          -0.32555803828 0.014187332006 0.092048951838 0.49194356745 0.03511796538 0.3549872682
          0.14028110571 0.054661702611 0.03729026738 0.1419809333 0.051300172665 0.037991654544
          -0.36756738091 -0.008234684468 0.11110805446 -0.21552940857 -0.015579854692 0.039718380437
          0.48598227321 0.049546397635 0.3170091279 0.46221235521 0.058247468017 0.26187804119
          0.30872779498 0.074366744286 0.1382659166 -0.25161979036 -0.0020219538669 0.016415954337
          -0.37214852637 -0.0056319257273 0.1186572059 0.20965458904 -0.0089717994679 -0.0059211874966
          -0.11543262969 -0.015646532838 -0.021025205192 0.46689519422 0.017644544925 0.29558009569
          0.31849493349 0.063402894939 0.078959785195 0.48712318375 0.045852542682 0.35862715122
          -0.11478665936 -0.0090844838401 -0.028278229734 -0.11984986567 -0.019086656699 -0.021419841412
          0.14499173192 0.015856161003 0.047235169521 0.47596736224 0.055632855912 0.28811474599
          0.48526612683 0.042947680973 0.36590155276 0.48814381823 0.042564293917 0.33429451934
          0.30881457659 0.025726216883 0.11437084435 0.49111638393 0.038068894349 0.33088828775
          0.48627738944 0.042089257667 0.35620275644 -0.21500201438 0.0057801352647 0.023121039077
          0.4378450833 0.04219961248 0.23800222543 -0.24850465966 -0.0028626978457 0.058857406287
          -0.21017971801 -0.013707195355 0.0094125194253 0.49257508353 0.033019615964 0.34015672468
          -0.30000156373 0.006184118766 0.093772440117 0.23158124627 -0.043913648383 0.10237163827
          0.12152960598 0.010930592786 0.013396304169 0.4884681118 0.051534804627 0.33992849171
          -0.2787222482 -0.023513863046 0.087363934478 -0.37028906644 -0.010754818384 0.13353308412
          0.4778676963 0.045471314211 0.34947505389 -0.26777215328 0.015049696304 0.076616277555
          0.48519801535 0.050823564136 0.3012785043 0.4698644537 0.029576704565 0.31401300441
          0.46519897305 0.054671121892 0.29194817045 -0.17869265362 -0.027685103513 -0.003900619116
          -0.3511811502 0.0053708114458 0.13319601629 0.065094038477 0.014437607914 -0.067490509136
          0.40019430549 0.032065819489 0.15393596116 0.47060012447 0.045048873266 0.24904453504
          -0.027230290956 0.011662356559 0.016767738801 0.47420603474 0.032891751827 0.20661116445
          0.47796953489 0.064560969762 0.28510069445 0.4783079135 0.065620925108 0.28401702798
          0.47269078811 0.044115534605 0.31837018739 -0.37424325367 -0.005079990912 0.12312857677
          0.06490090706 0.037417725171 -0.025737610942 0.48096572688 0.045682523327 0.35271210182
          0.42007518147 0.026106572412 0.17985751364 -0.19019423876 -0.021604743526 0.035646366252
          0.28674172089 -0.027368951294 0.10940272855 -0.0055860279366 0.0055773617302 -0.011249855925
          0.47567688352 0.038306432838 0.34891900797 -0.077228405602 0.021787826061 0.048707628454
          -0.067431756413 0.0099231574462 0.038966426038 0.45496013559 0.059731857509 0.25589487109
          0.48912673652 0.043062426696 0.35894728847 -0.30900762372 -0.00043050090638 0.058281615352
          0.47522233229 0.072870588457 0.31576336463 0.37006437791 0.06306323618 0.14432070236
          0.46590220024 0.04140607412 0.28264220626 0.4763480166 0.040630488513 0.33326768057
          0.49131768592 -0.0024188163058 0.2326473257 -0.31576407388 0.00081789270905 0.068209363073
          -0.34688887169 -0.015020181294 0.1056540356 -0.34337108227 -0.013489245116 0.10567504934
          0.15219432922 0.052576491242 0.039636455566 0.41722704256 0.051951656412 0.16572609054
          0.46580950179 0.077302872081 0.16425326962 0.42063810785 -0.0025485837168 0.17241321933
          0.28963365831 0.0033857291379 0.034817346188 0.26504501105 0.017034590403 0.044409307577
          0.48120152926 0.042830498642 0.35636294119 0.4640973392 0.0021246220784 0.25501161434
          0.49774181839 0.036408507564 0.3421958712 0.49170901063 0.056833249114 0.32362791003
          0.34058232577 -0.00053141026446 0.1270150396 0.34209068866 0.00068268689536 0.12518395953
          0.47874651607 0.046165237183 0.31354837839 0.036670719991 0.041307865406 -0.0043977918253
          0.33685356633 -0.0049841347446 0.098185587148 0.3200837065 0.023474568764 0.096811463874
          0.47595459986 0.028609933781 0.29586798244 -0.33677958656 0.014984704872 0.11649502622
          -0.32391793457 -0.023328981799 0.11273376853 0.36256775579 0.024574815318 0.15587869794
          -0.35176769652 -0.014304092457 0.12095360402 0.092144911093 0.0026305960878 0.027909407407
          0.08376851824 0.0074846993686 0.020034919095 0.39019690185 0.048404471002 0.16685309742
          -0.18604461419 0.018486354671 -0.035712315924 -0.37061725859 -0.00031471724328 0.13736214601
          0.36427661229 0.042428051941 0.1047553197 0.3227882143 0.071957717158 0.069379235604
          -0.3731946032 -0.0028492806236 0.12527435741 0.47718509408 0.048286739765 0.32598774074
          0.48545367475 0.057044697565 0.34042461871 0.207348358 -0.0023781941984 0.046478168799
          0.38920161717 0.055100586453 0.21152964642 -0.37267717903 0.0048255425581 0.12180131614
          0.49960523152 0.048427491294 0.34673906677 0.46947814268 0.060475863737 0.27417743813
          -0.35592741172 -0.0095233425806 0.11125138701 0.4643921507 0.046689306776 0.28268550112
          -0.19848305226 -0.00089303051701 -0.020029994363 -0.23550669092 -0.014344606056 0.014532230513
          -0.26249270444 -0.020327042587 0.077530415222 0.47720607915 0.039451431938 0.34924744159
          -0.23776604891 -0.012229116115 0.015183064741 -0.24166044383 -0.012497691532 0.084080082452
          -0.37063276486 -0.004414663919 0.11576534368 -0.062458355729 -0.0098439522858 0.036221527111
          0.47700546734 0.041532607437 0.34269253787 -0.13140821762 -0.037338900265 0.00037740472102
          0.2841276349 0.11685881412 0.043478317286 0.39374641104 -0.0052843963575 0.15743090013
          0.47509371005 0.018714592983 0.31023010012 0.46182925711 0.0030265615396 0.25595186061
          0.4916410435 0.030830293563 0.31415798936 -0.18458206292 -0.024464013686 0.036434403576
          0.44663527104 0.027157476335 0.23405119168 -0.19317190818 -0.0067889084377 0.065040030663
          0.48867433811 0.062271325266 0.33478218091 -0.21560154215 0.0041326606184 -0.0048248881904
          -0.19081050547 0.013614768168 0.0044585070438 0.47248877138 0.030717486933 0.29413447327
          -0.36390135294 -0.002920435781 0.11690334956 -0.16232254495 0.00032769856967 0.02362664214
          -0.28937000831 -0.024251153506 0.054885081415 0.23867536142 0.028155299577 0.071141799668
          -0.30464899835 -0.012015871755 0.069980984408 -0.090727808845 -0.038291102573 -0.0053810222705
          0.32660080979 0.0051604626867 0.15326329151 0.29426690429 0.066315589 0.1435137913
          0.48054943994 0.045226163544 0.35416004458 -0.22825422652 -0.017598957342 0.034512586185
          0.42304386528 0.010340484857 0.21556888379 0.3482246887 -0.012085638723 0.072653325806
          0.46213118655 0.039741949098 0.30285954082 -0.040599206411 0.021629472561 -0.049048902963
          0.466655426 0.040221964145 0.29990836773 0.48165575516 0.043711335186 0.32156331455
          -0.36128504999 -0.017186582811 0.12123615751 -0.36879773253 -0.0095828749897 0.13283623633
          -0.32821242163 -0.012018229478 0.079483551819 0.037453396239 -0.0014237381926 0.0051036074775
          -0.34464914082 0.0023699266572 0.10350716869 0.084701659522 -0.012814175345 0.029633038931
          -0.30821070423 0.020734847059 0.067737966688 -0.31909686796 0.0053634410285 0.08407871638
          0.47765968442 0.022693625426 0.28367917338 0.49177294394 0.047607962244 0.35263173756
          0.26385776574 -0.10832301888 0.15169659109 -0.32336295251 -0.0063903167579 0.10741512664
          0.48257428093 0.045443770379 0.35096528435 0.47544865795 0.03998665965 0.34167868325
          -0.17603241805 -0.042727225504 -0.020485385349 -0.12849053302 -0.029995735469 -0.012769982179
          0.4772137881 0.039881966494 0.30686603651 0.48658455328 0.04834547451 0.3228214782
          -0.34010912153 -0.0069435983719 0.084185059556 0.22330806934 0.016602033869 0.04030712907
          0.44065015275 0.052346645552 0.22908021408 -0.30373690391 0.006192261901 0.065956013557
          0.4838564043 0.050536671818 0.35249201306 0.27102995087 0.042975719706 0.048641442679
          0.32252094736 0.20547757501 0.13188844828 -0.13138836793 0.026840333801 -0.0011015147475
          -0.10815182016 0.031812416148 -0.027374174763 -0.16049928809 0.01191956835 -0.017342140875
          0.45194028035 0.05461329189 0.29161929883 0.47555100419 0.038200078549 0.29894835628
          0.48750330116 0.041754971189 0.33938669217 0.48004211371 0.051395094902 0.3567235036
          -0.0040452217633 0.029101835776 0.021570177331 -0.33522214865 0.0061819563371 0.11160458087
          0.48256227462 0.04528203305 0.35115831133 -0.32809699076 0.0050993854171 0.079370753885
          -0.036433021414 0.046103064599 -0.00047669745235 0.47757875431 0.041611426177 0.34708313489
          0.25453285741 0.10972389445 0.03880567927 0.38050654164 -0.0016198283176 0.1693885913
          0.47688104819 0.041158868665 0.29766448639 0.38357693101 0.011629951085 0.15264395879
          0.31794810197 0.041286942217 0.10521896285 -0.29563662779 0.02322993663 0.080610486891
          0.014010449415 -0.025804905949 -0.040920686566 -0.16989336783 -0.053476391547 -0.051051292333
          -0.21575504422 -0.015408896111 -0.028858538765 -0.32189581463 -0.00072962444736 0.10442738545
          0.41601769027 0.044720786234 0.216187398 -0.37293993446 -0.0095802580059 0.11955076757
          0.49066419376 0.060141860349 0.33856677403 0.48621500882 0.045924118669 0.34651469103
          0.483243859 0.04516805805 0.34776887054 0.37869929147 -0.013553002275 0.14088201649
          0.48644086619 0.044452835278 0.33994683616 0.48671211453 0.043367635301 0.35923557152
          0.4883826625 0.043094763903 0.35873502146 0.487477594 0.043822658092 0.35805432761
          0.48477247818 0.045059901756 0.34918736073 0.49107199845 0.044801327743 0.35858141643
          -0.36797675975 -0.0063526860824 0.13754151021 0.077754334027 -0.013683559099 0.012201587786
          -0.093560730663 -0.027428229385 0.026349359961 0.27030305818 0.0560264772 0.12328423376
          -0.35830828415 -0.0059541406102 0.13275412769 0.24860481535 0.030495085658 0.090275159429
          0.44100752302 0.044483281419 0.22645938119 -0.32756023149 -0.013537444382 0.07550452139
          0.11149922755 0.024969180855 -0.038692170018 0.28702004465 -0.059971558857 0.021202143537
          -0.16891506283 0.0052978089142 0.013945533834 -0.36414117475 -0.0093116807647 0.13550436101
          0.31421801935 0.021483263901 0.098609298606 0.47153479285 0.025587046843 0.30733414438
          -0.2946519119 -0.027883542267 0.039200574859 0.48457484544 0.052228092632 0.30259380364
          0.4653885624 0.045069945177 0.28363109852 0.11147835533 0.056924037045 0.02841086007
          0.2696011712 -0.0016996156689 0.11589812347 0.470810379 0.054015734186 0.29013137176
          0.49520648489 0.034767425793 0.33074935229 0.4908431115 0.050412347778 0.33996979658
          0.12718475606 -0.0084570950183 -0.021745352132 0.4951494853 0.040607278194 0.34526187214
          0.075562018014 0.014789566802 -0.017472546254 0.45844165935 0.048949339698 0.27895499573
          0.14505215259 -0.014985378844 -0.017830259026 0.48198346294 0.044488552758 0.3517262337
          -0.10051482258 -0.029435895866 0.0050140382028 -0.1403557528 -0.017028326502 -0.021172630846
          -0.09560938777 -0.010353574519 -0.015480242026 -0.15206828599 -0.0081775381555 0.0043092639187
          0.47910252383 0.045634859683 0.35583708867 -0.1134645718 0.060552810441 -0.023301725275
          -0.34308650919 -0.010072140879 0.1005815238 -0.3624185087 -0.0079090482989 0.13160252611
          0.48298015453 0.049718065172 0.35381687239 -0.12838710081 -0.027807910595 0.011088391742
          0.45216818369 0.029542562158 0.28836420492 0.48047406551 0.046296923464 0.35609736296
          0.48788656243 0.041591931351 0.357799495 -0.074124307644 -0.034722222291 0.028894745755
          -0.1278479999 -0.04262118571 -0.0056940669469 -0.18174000386 -0.018433271353 0.01435193779
          -0.21451199612 0.0053697092066 -0.005505891098 -0.20667068483 0.081824748652 0.0052706043525
          0.48957992861 0.045045280071 0.3533125929 -0.18102648823 -0.0023705768317 -0.040824062478
          -0.086264347647 -0.12272803365 -0.0050792346052 0.47627105904 0.043297164337 0.31881153692
          0.46559935343 0.04085383989 0.30128705371 0.45543927817 0.046964973615 0.30015209535
          0.47505946783 0.043477283847 0.32780288347 0.2054150735 -0.0069139030402 0.049264846993
          0.24809100569 0.026839219691 0.0934662071 0.088373529484 0.044873908016 0.043415837732
          -0.14082867162 -0.0092684981217 -0.061511507902 -0.31336786436 0.011657139735 0.069870606512
          -0.31259447603 0.0078679479987 0.070832206511 0.15517180912 0.038835694471 -0.012066670223
          0.49546158929 0.041452732212 0.31759302921 -0.040037619415 0.021126106752 -0.049194717361
          -0.31909222119 0.0050333252261 0.080041044014 -0.31383214097 0.0060396201961 0.071195397985
          -0.1383617568 -0.0079290915308 0.071279338578 -0.21883215066 0.020208970665 0.081511581171
          0.48263358927 0.042737495029 0.35862206303 0.44523801407 0.086796491286 0.18469941381
          0.028415136293 0.012000143426 0.00027878629601 -0.37088577323 -0.011000989982 0.12404499401
          0.3903707201 0.021036058867 0.20724479419 -0.25543368763 -0.0050377564595 0.083585096314
          0.48055028398 0.045394358474 0.34723866238 0.45869727565 0.020994531896 0.2290277034
          0.47134688394 0.049688441222 0.3285307769 0.44300504253 0.026582823689 0.18806527377
          0.050572361917 -0.0050895908113 -0.0054336735767 -0.10806144498 0.026220854974 -0.033782859138
          -0.34440214136 -0.012833826533 0.10808700992 0.097240738143 -0.011792218997 0.033768858559
          -0.35005261793 -0.0085956177315 0.13408586473 -0.14698848669 -0.018797849162 -0.01439593529
          0.5026167904 0.036260849874 0.15914945056 0.15058666201 -0.019762104862 0.0021737989889
          0.44918632921 0.02848118275 0.28480185166 -0.35534357556 0.0072781231675 0.09748563144
          -0.19052610174 0.008811275617 0.020715162959 0.47372558817 0.043751704682 0.31210656313
          0.48874988468 0.041342934623 0.33616218588 0.48549849752 0.049720973144 0.35726044039
          -0.11923001072 -0.012646955973 -0.020829063148 0.11288878203 0.071020050165 0.11416958624
          0.30679572155 0.029079981914 0.21656760866 0.19159538651 0.044893308845 0.11642035736
          0.28453982582 0.036977143997 0.053193264312 0.24671013296 0.048870504252 0.022548679779
          0.48714945799 0.044279441516 0.36418868888 -0.23300848648 -0.0094368088714 0.092508530486
          0.4681357822 0.040433034788 0.30857619604 0.28121176287 0.0043460181353 0.089504248384
          0.14165745981 -0.015222830726 -0.042331963805 0.49114926335 0.036307857411 0.33687204404
          0.44521358075 0.036833120838 0.27553585672 -0.14240599581 0.01959984394 0.020642646287
          0.31149868505 0.017796308741 0.12212815913 0.48969836343 0.046791413948 0.34697861548
          -0.18749638296 0.0121341084 -0.02670715076 -0.36953461332 -0.0028706857215 0.12849365292
          -0.14235818965 0.02914579763 0.024990753545 -0.13806505791 0.011635587856 0.022332358292
          -0.36185121538 -0.0053052435938 0.1168037471 0.32511274261 0.020053582105 0.0964417917
          0.2760190398 0.061424539656 0.10909411992 0.32153618669 0.03535440197 0.10661768792
          0.29912025387 0.027606961884 0.10778201801 0.47949612374 0.046995967411 0.35498096867
          0.47959371599 0.046417852527 0.35396155401 -0.37345524697 0.0047173223039 0.12253463071
          0.45440009934 0.058699330716 0.25537125337 0.47949389962 0.043510802803 0.35081573942
          0.4785250864 0.047287704245 0.35087002506 0.2964512684 0.041709048388 0.13531947418
          0.47946449739 0.046423427425 0.35518728843 0.092838809218 0.0023528174231 0.037068617065
          -0.3284491037 0.0071959864359 0.11535105402 0.46990262285 0.046883514286 0.26895737829
          0.48904168943 0.043298697366 0.35878031934 0.43072219509 0.012648150888 0.24387291437
          0.4710857898 0.043730271697 0.31168897943 -0.09993801658 -0.0041296413167 -0.0022730771139
          0.28974609356 0.058642911259 0.065271899197 -0.28694228315 -0.022572229229 0.073871772064
          -0.27259749495 0.0090883456207 0.090675619986 -0.35240311874 0.0052449857554 0.10319311523
          0.31959533387 0.052617398185 0.082116527205 0.41379168151 0.22579050761 0.21152352313
          0.48803580961 0.028065941845 0.34652834049 0.47087534606 0.033490018677 0.28592048663
          0.46692123603 0.031343472547 0.26340721069 0.27380648688 0.051082945524 0.0249375221
          0.28156003589 0.046977054831 0.023392915766 0.48656852946 0.049143599663 0.35091971745
          0.31439016588 0.065630535887 0.083721368495 0.48442273733 0.043388071343 0.3426404947
          0.27312620677 0.048461523736 0.026860341751 0.30422529156 0.095190126051 0.17955952666
          0.44713240273 0.057015378492 0.2899270017 -0.32056746455 0.012764506449 0.094284549659
          -0.23427586383 0.0047470753121 0.021553279524 -0.15776656399 0.0051462715544 -0.036534082708
          0.48304539131 0.04536884967 0.36144808553 -0.35386647273 -0.01470083765 0.095758018943
          -0.16934922272 0.035157287015 -0.019397467359 0.41419690534 0.051416116489 0.17488342124
          -0.33179185504 -0.011829590615 0.084856439276 -0.33426604353 -0.0051707237804 0.11746394613
          0.18850554319 0.029447528519 -0.030706651457 0.1948859267 0.025910000101 0.062964632271
          -0.35133828285 0.00051045397847 0.10138025575 -0.3365085806 -0.0056066191976 0.090048842445
          -0.17501116404 0.029967339553 -0.012547680412 -0.35423946485 0.0079133129449 0.10356119313
          -0.35275131339 0.013398650209 0.11082747387 -0.31520450581 0.0010639370814 0.069804195329
          -0.30331700786 0.014964883234 0.062515777105 0.26514382551 0.00072907493325 0.098878715292
          0.4923047346 0.02469676835 0.35153000419 0.10399902935 0.022968080857 -0.067080297362
          0.036638849632 0.062961681131 -0.04939500594 -0.36563204296 -0.0086911083972 0.11183533328
          0.45708516108 0.035113482399 0.26803412597 0.37939884081 0.054351422438 0.16432185495
          0.22116200276 0.038779734183 0.037157434274 0.44960457063 0.063111620691 0.25909148738
          0.46418517236 0.01304614158 0.269943554 -0.34487437764 -0.011575223372 0.10450664215
          0.40758233422 0.02389484335 0.19865515583 0.39095319852 0.0052146038137 0.19101878862
          0.035652575829 0.042242992938 0.0084920492454 0.48021578626 0.04654814757 0.35588872506
          0.48305388821 0.04687361979 0.3508671267 0.33596563592 0.0046526464533 0.15523830851
          0.30477728319 0.0037033593168 0.11717691952 0.4288680721 0.017328215173 0.24318559497
          0.38680222118 0.019592108061 0.18753593399 0.48702408563 0.059741522312 0.33038517768
          0.35946005274 0.06918576056 0.11292067507 0.34753595469 0.039525512283 0.12170938679
          0.38655216416 0.079918712698 0.13757701907 0.48842717101 0.051079835253 0.36262698384
          -0.34610367909 0.0018378006287 0.1011327767 -0.20374882024 0.0034816613385 0.016064041734
          0.40076814382 0.016501789273 0.20981939775 0.43923742225 0.042177681051 0.21973239049
          0.4479561143 0.052655856216 0.24735680019 0.24557684383 0.076732628664 0.084629050654
          0.47209539629 0.055151143444 0.29867043848 0.42425957259 0.045216558916 0.21897940584
          0.32062675826 0.032673866543 0.090404638562 -0.30739687927 -0.0049589856323 0.094321387811
          0.10296668077 0.042545995439 -0.0054865914993 0.40457648457 0.013395863523 0.1624937774
          0.48498573374 0.025619770461 0.33948590258 0.082978445154 0.019993149695 0.0027126309935
          0.38696352594 0.017373391353 0.18516680914 0.4260269182 0.011406617512 0.21434684276
          -0.24061442585 -0.0071364689011 0.030547652908 0.3940319427 0.054779743238 0.15092552009
          0.48896540743 0.036698719338 0.34340126622 -0.23198032976 -0.014918918202 0.038890116683
          -0.19633508098 0.004130735353 -0.0089606009412 -0.1944873307 0.0054463355431 -0.0040719944963
          0.35444251272 -0.010188651606 0.11098200133 0.31388547663 0.040658558768 0.099415044837
          -0.34914568238 -0.014656705436 0.10346183094 0.20595296335 -0.014270913722 0.058356886933
          0.45963733654 0.021807424073 0.25536227459 0.28452924143 -0.026204327782 0.11260322003
          0.19992496635 0.010805220428 0.036361294932 0.38161836515 0.0517481112 0.1550230415
          0.3745676988 0.049370653924 0.16011525909 0.2042395478 0.0047013016991 0.077187240354
          -0.372566104 -0.0034542627182 0.12495911635 0.2628061935 0.024245870375 0.09241028083
          -0.29418731716 -0.010462275691 0.10001877377 0.322250879 0.0102345054 0.087179674444
          -0.36999335449 -0.0070462641614 0.1244180558 0.28127560706 -0.033471790965 0.063778667788
          0.29929955611 0.03763689283 0.12135502171 0.29432662167 0.031620096233 0.11335862894
          -0.36491256164 -0.0016399074484 0.11694101333 0.49575024998 0.055687157881 0.34140372817
          0.34964202892 0.00071482501623 0.18373406185 0.4896783694 0.056173677038 0.31577097479
          0.49165394707 0.039970855466 0.34961360251 -0.3168149327 -0.0061560672741 0.074360488629
          -0.38145027521 -0.0041945881301 0.12442959988 0.36356849854 0.059839101317 0.11220002152
          -0.37300439544 -0.010345252197 0.12584154065 0.48052801275 0.043936715651 0.34801016813
          0.2777132643 0.045135233864 0.076771031673 0.23152219758 -0.059155512323 0.09970769467
          0.23490256559 0.045088026148 0.042872191637 -0.34735113192 -0.011508654574 0.11087606205
          -0.33456983429 -0.01679041483 0.087461434354 -0.32798435825 -0.0022959820715 0.10978259743
          0.39275598429 0.0096690167002 0.15401078538 0.49071066502 0.042074171301 0.34453980814
          0.34742285071 0.0099247585376 0.10695538611 0.47557394291 0.043892072913 0.32247857179
          -0.37318103704 -0.0022719260923 0.12149018858 0.48743894832 0.042631131997 0.33050500833
          -0.32999814628 -0.01104178592 0.11757158242 0.47684127449 0.043473788494 0.34908808868
          -0.36458100774 -0.0054234684765 0.11759226467 0.33100902526 -0.0092333909728 0.074750449644
          -0.36112257254 0.0063179503139 0.11313068755 0.41527809969 0.059656170893 0.22813179432
          0.43477193209 0.062464149465 0.21716128849 -0.20909765013 -0.019007516152 -0.003941332154
          -0.27843261881 0.01846064283 0.073353723932 0.48557004953 0.043822435565 0.35825206977
          0.48649815676 0.046713187913 0.35777030283 0.48578343485 0.041317039952 0.36539269967
          -0.16313580127 0.0099425166128 -0.046439506069 -0.16126255895 -0.0045372929601 -0.034746194625
          -0.1571573212 0.0005752783064 -0.037427438502 0.27431462819 0.052867731094 0.13964518127
          0.488422112 0.0417983266 0.36581068504 0.48776808576 0.040700386293 0.365371903
          -0.12870386384 0.02623021982 -0.013183106699 0.47326633417 0.05136144427 0.31640503748
          0.47016661611 0.065821465928 0.31012449934 0.11563460916 0.0037998947536 0.0044677097844
          0.019246978071 0.057117702024 -0.022188619187 0.48393486563 0.044629747131 0.35953056269
          0.48651957028 0.042746604316 0.35904428581 -0.22351354755 0.0072396903092 0.063063890695
          -0.21211854092 0.020438770436 0.046776742906 -0.25790357781 -0.0032935624437 0.062053434383
          -0.21486779605 -0.022234092553 0.041817694709 0.096383580371 -0.025407756764 -0.05868301587
          0.47774979759 0.04675240738 0.35274362606 0.37847467781 0.063346711073 0.23594202446
          0.44978749572 0.08706516306 0.1830667719 0.34126444578 0.0044279817376 0.11820095193
          -0.25918628542 -0.015173874754 0.07916627494 0.49259423971 0.026402278921 0.31576291707
          0.5018293271 0.029910314202 0.3431461795 0.48661051339 0.04094654868 0.35525773939
          -0.2150509437 -0.031133732075 -0.0040943814381 -0.22684533077 0.017076548078 0.039907791376
          -0.22570736525 0.026323901902 0.030996180202 0.49065093978 0.036674761328 0.33948586806
          0.49690744833 0.039118580008 0.34417796444 0.48525972309 0.045574928307 0.35112381702
          0.48289556425 0.048777597694 0.35139726216 0.48148223768 0.039421298138 0.33331028165
          0.48608970599 0.045847056805 0.35065885242 -0.35278302243 0.0058001564414 0.096377096651
          0.16454729054 0.037692615695 0.026975955036 -0.12838447037 0 0
          0.49040041053 0.055940659339 0.34711921657 -0.32501604267 -0.0060154456609 0.10293297965
          -0.29994854558 -0.0020913096748 0.074564459108 -0.20506299668 -0.010687050232 0.026155300533
          0.47837552191 0.044412744072 0.35475439502 -0.32364523525 -0.0066454935886 0.083709749756
          -0.21137683968 -0.035350319641 0.011608310901 0.28407674778 0.048001287855 0.12519114478
          -0.35666528708 -0.0095557583332 0.13124817638 0.38869216006 0.02886535373 0.15234569495
          0.42036831246 0.068252550318 0.23134418286 0.39797319489 0.056142942635 0.21273426844
          0.48261133398 0.043634497849 0.35440067729 0.48087168891 0.051804564438 0.3248505459
          0.474548534 0.056717449383 0.29738236369 0.32311708209 0.015442604499 0.17235334389
          0.38786974997 0.016171709822 0.2141436731 0.31711056993 0.03630468683 0.16739504474
          0.37440784369 0.016282493224 0.21196724904 0.16298637173 0.054461760275 -0.031346166838
          0.39433791704 0.035437574687 0.21732609476 0.29705704098 0.0028211868871 0.09535151652
          0.37389522892 0.019023580409 0.21005098118 0.046624913674 -0.0059936176738 -0.022600684014
          0.28317680576 0.056524146436 0.10385068662 0.46440535226 0.064811344088 0.29949886646
          0.13567149771 0.00064248910087 0.0063674111998 0.49625115485 0.05227585969 0.31644983834
          -0.15764170178 -0.010547226147 0.042748064108 -0.2508106586 -0.016631698553 0.068407961451
          -0.1775896397 0.02820065553 -0.030690722264 -0.3431449064 -0.0082903370256 0.10217619447
          0.48699968739 0.046453795122 0.33957112328 0.48595946642 0.046214373909 0.33950682828
          -0.30455248142 -0.032792434349 0.062158666324 0.46628059422 0.040603197099 0.29977679219
          -0.2567438379 -0.0051581092745 0.039071142045 -0.36601862605 -0.0029261822041 0.13540845666
          0.48949317477 0.054778454321 0.34049302559 0.28536605294 0.07413811299 0.038020961903
          -0.039984104813 -0.015869732261 -0.000640051669 -0.047067989637 -0.039251349664 0.0010126984264
          -0.05857417016 0.015287656361 0.021713353148 0.46230505175 0.053742994134 0.2979906064
          0.4916431964 0.036259518753 0.36077736325 0.29604116332 0.04315301854 0.098841791024
          0.49281930512 0.038584867091 0.35923194913 0.47964675494 0.044341997515 0.35683193834
          0.49270846011 0.035565167702 0.36269255495 -0.24219814604 -0.019491177674 0.020099568765
          -0.23317875726 -0.034494434562 0.015215713664 0.49150135263 0.02850814402 0.32689168286
          -0.20539843035 0.015485778115 0.027763966231 -0.29216976504 0.032384622089 0.069266135342
          -0.14154671509 0.016781460483 0.0086605017209 0.29991643007 0.092482269268 0.078464453735
          -0.24015636504 0.021225805117 0.046212867259 0.48616177271 0.04063003974 0.33592745358
          0.40929264208 0.046986233679 0.23330924673 0.48114223547 0.047724468908 0.35598955193
          0.39206946306 0.018443800629 0.19709660441 -0.30627666937 0.011768991169 0.068708525898
          0.28984966855 0.06889704455 -0.0087893695275 0.25832467733 -0.01945183244 0.054882686434
          -0.088769649892 0.0026817965115 0.035778252974 -0.3229658396 0.01662273185 0.056452631632
          0.49894217404 0.1136520633 0.23943302327 -0.30561776642 0.012530625237 0.055793622589
          0.47535426565 0.046462071081 0.34335208163 0.47388361713 0.035246929241 0.30868119737
          0.42929956465 0.024220756613 0.24737397832 -0.19995731849 -0.00093095470589 0.020981783903
          -0.21659718412 0.015013267487 0.012369579585 0.42145414829 0.015021434803 0.24523268853
          0.47048129225 0.009397671653 0.26100564291 0.47501940357 0.033742061325 0.31045203073
          0.015477925121 -0.023925534845 -0.040050502765 -0.32460725912 -0.0048523433201 0.07385632895
          -0.30607884995 0.011697555659 0.068618635509 -0.30860109409 0.017590165985 0.06198779946
          -0.14233747291 0.01595934433 0.0088506436831 -0.28491315978 0.0080068159616 0.032681021984
          -0.33137219296 0.0052973054612 0.089801671826 0.48290475792 0.045743945877 0.351360106
          0.35060978161 0.032800975904 0.17761223479 -0.33345432706 -0.018428040923 0.083290600312
          0.48873095176 0.056118320288 0.34981110233 0.43090708917 0.058330701887 0.24538643491
          0.41883114283 0.048853825566 0.19042374962 0.40141476659 0.020663624532 0.19527061208
          0.41670203754 0.017944040222 0.17336696082 -0.35944770025 -9.1658566953e-05 0.13688509062
          -0.36656444267 -0.0036819522637 0.11151829719 -0.36988754319 -0.0016888267584 0.12717158185
          -0.17707592715 -0.014985582931 0.067772025352 -0.15639096571 -0.00082518032759 0.080505600498
          -0.37326685676 -0.0027463554969 0.12509259041 -0.35873360998 -0.0049844780601 0.1383515645
          -0.11037640097 0.028426949589 0.0015327454209 -0.11157146511 0 0
          -0.13480539397 0.037701837923 -0.01860632437 -0.13131482367 0.041014356887 -0.015492042351
          -0.10837945077 -0.0060647282595 0.0060115847747 0.18644093146 -0.025268860606 0.011693783391
          -0.016065679766 -0.028296518415 -0.013457866488 -0.30679376718 -0.015275377802 0.076616020646
          0.47401992226 0.045649451967 0.27296685299 0.48578344549 0.032739986978 0.30796292543
          0.49209767164 0.033133017828 0.30696654954 -0.30300799709 0.0064117010021 0.089269352331
          -0.3248799743 -0.003775497916 0.11502904836 0.47684403656 0.041478424517 0.34264935654
          0.48745459943 0.037694340023 0.34259598866 0.48662842342 0.044333806854 0.29310273753
          0.41467703607 0.043553487026 0.19525007429 0.44685968532 0.029028739139 0.21244705127
          -0.3637407493 -0.0067004018343 0.11392557086 0.31654380541 0.049734181022 0.1811153604
          0.48297575382 0.048311339453 0.34020427093 0.28381923688 0.047036193639 0.081433142976
          0.47503360066 0.03748498579 0.3403740176 0.47709501167 0.038262334306 0.34051221652
          -0.34240553941 -0.0059963695409 0.1056478257 -0.33419800647 -0.0052626659524 0.11746482528
          -0.33428036434 -0.0050167284449 0.11772257088 -0.25106685133 -0.015676102701 0.0098869700147
          -0.142682701 0.015366341577 -0.0048401913124 -0.14220737682 0.016869989878 0.0098716512256
          -0.2621916407 -0.020214311754 0.066312310888 0.44568680512 0.051206036816 0.23360628015
          -0.34440705626 -0.011826684693 0.10869711679 0.30564102454 -0.15508061153 0.068090054799
          -0.32288395782 -0.01212788831 0.091847315909 -0.32830013033 -0.0025557767042 0.079321945047
          0.37140212718 0.059873590489 0.16289529794 -0.34293074175 -0.010463057112 0.1143699138
          -0.33696949547 0.0034945780686 0.091918580334 0.48169185587 0.044094031895 0.35375622597
          0.48225012915 0.044703691087 0.35418214667 0.42274259058 0.038584935153 0.22930696008
          -0.36890718556 -0.0096795648288 0.13281968916 -0.34494285759 0.0006301626633 0.11947891567
          -0.049460839664 0.032145446472 -0.072655287266 -0.36443382814 -0.0097789137621 0.1187184014
          -0.19032899983 0.0072735754764 0.068415243943 0.029388558541 0.048558515616 -0.058331370222
          -0.36241076321 -0.0084541567363 0.1377338585 -0.36064317849 0.00057630562617 0.13504771902
          -0.36298076387 -0.01378951647 0.12680860844 0.48756090404 0.048989846721 0.35198778514
          -0.36373715352 -0.0142437605 0.12632424288 -0.36302017933 0.0064109851219 0.1400074622
          -0.35982352969 0.0060282881537 0.13389689696 0.472925368 0.055596949065 0.31492834162
          -0.24811099669 -0.026301456313 0.029200570734 0.034537840823 0.013210952589 0.011330827679
          0.47759766296 0.056010138919 0.30742134266 0.47043639799 0.054998444909 0.31750550278
          -0.25018070026 0.02626932218 0.030580467612 0.45918593582 0.08489140018 0.24437904176
          0.36551622604 0.027134866371 0.15359000648 0.44859417198 0.079353124223 0.2610150269
          0.41992138308 0.068009267591 0.23224014962 -0.33219820898 0.006040356058 0.071237538564
          0.48017860553 0.045057436303 0.35641207311 0.47962181697 0.052130285326 0.34383181591
          0.29798218982 0.0069081940573 0.11284111833 0.44675714437 0.087315661994 0.1462448937
          0.48255635213 0.02699224528 0.30928849047 -0.36477493531 -0.0026173038077 0.11628207364
          0.44883042941 0.036816068446 0.21822235532 0.41435990676 0.027758680483 0.24677928857
          0.43075397899 0.059471254918 0.18605980607 0.37671945947 0.066282906982 0.19468676501
          0.40893929518 0.051716852572 0.18714973251 0.41277299793 0.067088097968 0.17972806065
          0.4107357181 0.065184928022 0.18376862562 0.32943174786 3.2488347438e-06 0.087672142366
          -0.35095803667 -0.0038034507831 0.10876042802 0.42230635739 0.048520142824 0.20807672888
          0.46390010828 0.057162831855 0.28751275217 0.48704400195 0.044853469319 0.33785733984
          0.49065852301 0.050774978259 0.33977540962 0.35705780942 0.022740602773 0.16728637858
          0.49158153496 0.057268109741 0.34427212267 0.48795583767 0.053336676149 0.3422022729
          -0.3589446785 -0.0061136814776 0.13993054647 0.48204288441 0.045154543243 0.34530563376
          0.11230865442 0.051433897885 -0.010999404733 -0.18623036501 0.0080197343587 0.028010772106
          -0.32590823938 -0.0094000657375 0.074190389894 0.46968171449 0.082348963049 0.23117280076
          0.41403477579 0.065652157278 0.22796452583 0.44392796823 0.03541208798 0.23771825869
          0.38574791673 0.022482308188 0.10204855041 0.48017831417 0.047183369003 0.35391780718
          -0.27529859626 0.0012162970679 0.098525815252 0.45625335843 0.046287219389 0.28243534547
          0.45300055541 0.043219849761 0.23836120502 -0.28010820391 0.018555821401 0.092282735691
          0.028038975941 0.017431469424 0.0011414942741 0.016786103585 0.009047807853 -0.0086279461942
          0.41120536933 0.065634894602 0.22036729692 0.37296465243 0.02868629089 0.18662990118
          -0.34613248133 0.0011681456265 0.10287353787 -0.33856479338 -0.0050574120228 0.082405244847
          0.4873615577 0.048455852458 0.36035313573 0.48576638405 0.053506707673 0.35843537546
          -0.36996935337 -0.0059043426119 0.11830252739 -0.36856215458 -0.0083016600132 0.12513259976
          -0.35618895904 -0.008006295613 0.11426252154 -0.35819978248 -0.0035157778295 0.13145970534
          0.10696688976 0.018144748288 0.040607294314 0.29973720439 0.022184126744 0.12558964228
          0.45572713853 0.049449548126 0.26395903392 0.47945925069 0.044283651237 0.34660762898
          0.31689958589 0.019129272816 0.12290598929 0.48487740781 0.039121467566 0.33152389255
          0.31144411771 0.057339447281 0.069229684589 -0.36903330748 -0.006917749463 0.12393834161
          0.48198380972 0.05042074553 0.279835834 0.4761162972 0.049053951433 0.29379250112
          0.47628078971 0.068961540758 0.28775540693 -0.30856738182 0.003103847617 0.055289030599
          0.46049175913 0.055588854378 0.27350857326 0.46404103391 0.075509877203 0.24914867562
          0.45510233713 0.060220484387 0.2569475103 -0.31549580691 -0.021632765515 0.062215780467
          0.14569868124 0.0056532297032 -0.012590867002 0.12794618247 0.02057183872 0.01668322656
          0.48428525705 0.043426694126 0.3523822074 0.48426211057 0.045786531386 0.35212685951
          -0.27409723256 -0.010113787825 0.045757806996 0.34330083909 -0.0045039726341 0.16102275543
          0.48454429214 0.044210218905 0.35347617719 0.48099997765 0.043455085114 0.3520660981
          0.48193322745 0.044740355375 0.35142719277 0.4882441901 0.072906984571 0.32222401862
          0.47457679374 0.05533009239 0.32197524141 -0.11662590119 -0.0054805027852 0.03852825513
          -0.13896354196 -0.0067862600939 0.070509973562 0.31646369497 -0.0076146087948 0.080735452506
          0.49051446761 0.03779269186 0.34709277314 0.49006067005 0.033637961396 0.34309635399
          0.4961525225 0.040572924922 0.317070389 0.28222292532 0.048672838086 0.071166994116
          0.4777804192 0.037876123086 0.30516742905 -0.31864001201 -0.0066036658939 0.069985200457
          0.28378589093 0.023591537528 0.044726499084 0.47593012591 0.056485661369 0.31531293365
          0.37257579762 -0.01144144062 0.16825763913 -0.12453991445 0.0027230985819 0.00032568569637
          -0.27814339388 -0.013937819937 0.099437792875 0.49065512979 0.047674470171 0.351211312
          -0.37013905731 -0.0065641000202 0.12443554936 -0.36941697772 -0.0084797420966 0.12431091067
          0.46730472687 0.030812876241 0.32444965541 -0.36733689165 -0.0093130654482 0.13430380118
          0.44838002635 0.034373752813 0.23587479555 0.45562700842 0.051882082649 0.23611089939
          -0.36011904918 -0.014924971298 0.13445565333 -0.14099227303 0.032116722552 -0.021188689963
          -0.35056678284 0.0054815199848 0.12250099741 0.31830850399 0.01126511579 0.098449128126
          -0.203596318 0.013266658416 0.027094842715 -0.34597217559 0.0023478317617 0.13477923391
          0.28685014615 0.080244738283 0.064698078251 0.48701066301 0.039156885448 0.35697687211
          0.4800354512 0.043860576009 0.350668193 0.4899915076 0.03647712032 0.34918914553
          -0.29285099134 -0.0064459089643 0.051110112601 0.48850795031 0.032620777104 0.34113055481
          0.39217641022 0.0081477280275 0.19259244639 -0.28008062388 0.0018396384919 0.094863082543
          -0.35897740075 -0.0011197139308 0.11817196045 -0.17087561845 -0.082250999812 -0.025702028194
          0.31390099503 0.00091783447329 0.11132900358 0.48876330198 0.045145094106 0.34148429264
          0.24832917198 0.010622352077 0.021852592919 0.27206446198 -0.0047941818327 0.067523637811
          0.2715115774 -0.0055360786002 0.067855023818 0.29009037208 0.005612951316 0.072103017367
          0.378576858 0.036764960602 0.11263139453 0.34781538163 0.060525186782 0.15238821088
          0.4044533264 0.029398464662 0.1266562914 0.16608788438 0.039921341163 0.026723206722
          0.4787219237 0.048659954908 0.3548689977 0.06968679845 -0.0062188198959 -0.012386773156
          0.38638877689 0.022255052064 0.19720679696 0.33776622494 0.061393521183 0.13925426141
          0.48059174737 0.045993944049 0.35389244675 0.34056784381 0.052607148225 0.13344085357
          0.36396426993 0.067961408903 0.2092352584 0.39161456859 0.027459502094 0.18914746837
          0.31587795325 0.035622090131 0.096562602374 0.31771129458 0.041418573525 0.10506006907
          0.47406611509 0.027059169268 0.27425953704 0.29974311496 0.029436361136 0.11077115097
          0.31406644229 0.021097045355 0.097804829688 -0.34783454825 -0.016896778993 0.097274471009
          -0.34674112817 -0.01372895334 0.10050657943 -0.34510105561 -0.003015069319 0.10561234521
          -0.36220776967 -0.023384888914 0.1224067347 -0.089504590767 -0.039614909105 -0.0023431052237
          -0.31149440081 -0.017788818297 0.074487822303 -0.3114226705 -0.01726466368 0.074833922416
          -0.28534474114 -0.00078399973992 0.048443649033 0.46729641273 0.023729414154 0.3052806562
          -0.036544618124 0.024823810233 -0.02840167283 -0.039541866799 0.044487187652 -0.04525024153
          0.48157592933 0.049241569256 0.35400841155 0.47999855239 0.050572583257 0.3549669855
          0.48298937116 0.051208715867 0.35037599396 -0.015939522552 -0.037418735608 -0.021041070258
          -0.023500610963 -0.031080395739 -0.014689938662 0.48190383867 0.049204573979 0.35430651886
          -0.16708691929 -0.014399719597 0.072704920697 0.48047509023 0.044472190448 0.35511713143
          0.47944331615 0.044409931623 0.35357252176 0.33602504824 0.040932241954 0.081359366724
          0.4676920319 0.041562126761 0.30016940569 -0.34511687222 -0.010602459398 0.10017549355
          0.5043575981 0.051891364923 0.35058491152 0.34232359917 0.019757255343 0.12345641787
          0.16970867 -0.090599028495 0.11550319594 0.39002739194 0.024159649781 0.14517691657
          0.22237086635 -0.22287779285 0.0003597531329 0.19671873716 -0.25887038218 0.0014188690313
          0.085812902803 -0.09367805497 0.045520774536 0.17256072916 -0.22707985295 -0.038250409961
          0.4853193296 0.043933311212 0.34026232644 0.49572678049 0.039069528199 0.32503641509
          0.48793213982 0.056163086932 0.33736071375 0.48581802597 0.039220971594 0.31935204475
          0.49407220853 0.026272379356 0.31139968477 0.47788931156 0.041037346 0.30300678013
          0.47554775002 0.046440378028 0.32060872339 -0.10566026393 0.011899289943 0.0046245321691
          0.4903334275 0.037377386529 0.34132860783 0.48608569208 0.045724743718 0.3467243105
          0.4522279647 0.06656154108 0.24859366003 0.42466111142 0.060889317773 0.22590108502
          0.43006436186 0.065118674144 0.22083029069 0.41010561064 0.025527472285 0.16815213892
          0.48434071861 0.049039442663 0.34476078727 0.4793342645 0.044626641518 0.30552202299
          0.48505845131 0.045831539229 0.3482203726 0.48522606563 0.044540207343 0.34810366404
          0.48741177682 0.039377887078 0.34900536292 -0.32028021142 -0.015762781472 0.11378905218
          -0.3750453809 -0.0025418385453 0.11859652989 0.46146564273 0.038037640055 0.26294120688
          0.45594054428 0.03514979158 0.26195354169 0.041623859357 -0.032864337523 9.9665516579e-08
          0.49021335171 0.044193364682 0.35678921928 0.26481382858 0.053248312333 0.1125103169
          0.48045003908 0.050292136815 0.32074340038 0.081324971158 0.019235785348 0.006619123818
          -0.36434377939 -0.01327160697 0.11806738529 0.48512564713 0.04910820123 0.29268910723
          -0.26412364136 -0.029463271807 0.060607644266 -0.13874063647 0.0098516104799 0.025052176663
          0.31732852005 0.020833155147 0.16359687782 0.038547723015 0.045245153829 0.013823421442
          0.05620598534 0.037778763131 0.020892303159 0.056918195844 0.035538350779 0.012708879061
          0.43040047024 0.064595955507 0.20620909117 0.43031877432 0.064624265588 0.20630145147
          0.03169457129 0.013325725396 0.0053591077849 0.08249694167 0.026853362569 -0.0039212525668
          0.46614353986 0.066532267106 0.28943428993 -0.17581642396 -0.041401270105 -0.019315222571
          -0.17511543797 -0.043182018113 -0.016169107563 -0.30297563845 -0.023779344353 0.065664244267
          -0.10638290766 -0.021512946652 -0.052241007153 -0.34568490375 -0.018594557435 0.078754668317
          0.45047963916 0.068766246407 0.26342391565 0.47960413473 0.044658941793 0.35364777396
          -0.35663451733 -0.0059591000652 0.11913428818 -0.36760447771 -0.0074883559461 0.13173605542
          -0.090183052696 0.022971262428 -0.065315899656 0.34194377492 0.026133832985 0.082925651016
          0.16059700363 0.0091898867021 0.029914009423 -0.3553688757 -0.0077992741364 0.11959999504
          0.14779585522 0.01569692577 0.0322773084 -0.13360918391 -0.02806492209 -0.066231256212
          -0.083317844358 -0.016700188469 -0.047571538726 -0.28408399389 -0.0082630623021 0.090146092387
          0.48051642125 0.051938189229 0.3025507365 0.48456392974 0.05221062023 0.30102546428
          0.46001215969 0.04026478799 0.26624864344 0.4612931885 0.071858298305 0.27337063278
          0.4546829333 0.046178688691 0.26836871203 0.48505905164 0.044570850645 0.36045439957
          0.4789493639 0.048603532129 0.35620411041 0.47984168082 0.048878178205 0.35619718033
          0.49739341895 0.038090405292 0.35516261244 0.48995482348 0.040878152124 0.35415831611
          0.16616431887 0.033307157336 0.031105360394 0.48113515845 0.043682128246 0.35752597312
          0.48101391709 0.043609900235 0.35754237971 0.48147343418 0.045529718618 0.35568358539
          -0.32324559034 -0.0086847669796 0.075531836991 -0.21916741349 0.010927197495 0.058931746403
          0.45371757693 0.056727158284 0.25639075065 0.45756927126 0.073323154007 0.24881131457
          0.48267796271 0.021096317966 0.31763490984 0.42582546713 0.045981813455 0.16607070836
          0.22222213994 0.073039766701 0.092314887258 0.030202779556 0.0074703253475 -0.013835633788
          0.061137412927 -1.9989287546e-05 -0.060567856017 0.40846684375 0.022785316235 0.17973602118
          0.36373601222 0.031619290147 0.14862202751 0.39878363826 0.032956358827 0.18259101747
          0.38544634662 0.046020479167 0.17955063161 0.26658377581 0.0064211932242 0.015648871525
          0.30670405545 0.036219448139 0.17336234929 0.30621806169 0.050232115348 0.17277176196
          0.30559804249 0.051970228825 0.17500824334 -0.20391278607 0.011046870948 0.012216899056
          0.31009405207 0.055634950986 0.15577667022 0.30315615572 0.0014530208723 0.19444356419
          0.10302894625 0.035993169843 0.087672237638 0.31148679401 0.050888832588 0.15090884481
          0.3109127786 0.050602789272 0.15333049383 0.46573507023 0.040769920225 0.28814866622
          0.30257638586 0.013787658572 0.058954183871 -0.3538948916 0.00070711213166 0.1078241747
          -0.36336080361 -0.0066935999947 0.11830701802 0.43072817192 0.036455856697 0.25620015389
          0.36696811179 0.059435385634 0.18556065729 0.27189989039 0.040410259698 0.022149691123
          0.29070306408 0.016884725551 0.078781626784 0.38445883333 0.04423698801 0.23602475113
          0.38700770236 0.06398959979 0.23780318478 0.39087236433 0.066497808457 0.23128378955
          0.30025862302 -0.039857525945 0.1759857443 0.33120111681 0.077786194024 0.18794056004
          0.35869460755 0.057209918814 0.19697144178 0.36504208229 0.049260093498 0.16725571106
          0.47125471267 0.061676654365 0.3044475235 0.4727763566 0.065357265599 0.28395384941
          0.47251114583 0.065516639802 0.28412612614 -0.31041206202 -0.024083157134 0.093996495823
          -0.28433072692 -0.019118230879 0.097462247404 -0.25025586128 0.010358576 0.049849348256
          -0.26471214868 0.017379514652 0.08542981798 -0.31489543094 -0.029979566928 0.11089707252
          -0.28294342567 -0.008477722251 0.1004155952 0.42987468634 0.044252515043 0.22491686464
          -0.28160822792 -0.0041972851227 0.025539367726 -0.26915655879 -0.019529691668 0.029854589397
          0.43775225359 0.051586421904 0.23231913336 0.3964492185 0.052985889666 0.15114057047
          0.41743529853 0.032784493919 0.18172442731 0.43254546604 0.048254542952 0.22500199685
          0.45714805776 0.042446315697 0.27096758968 0.29053849791 0.019921448466 0.11237811224
          -0.16708831459 -0.01397193323 0.073005771554 0.14817154077 0.061423194837 -0.032857963061
          -0.13827802196 -0.045639764912 -0.04804286201 -0.36647343045 -0.0029087898704 0.12752913586
          0.0048233451686 -0.008289628036 -0.061254641112 -0.039041824943 -0.036175498299 -0.058311430276
          0.078970109179 -0.011118515417 0.038150170421 0.43258764661 0.02330832515 0.24351693297
          -0.35945370446 0.00056701344499 0.12891673752 0.4766176324 0.041885824097 0.35110336124
          0.47745180308 0.04141729727 0.35090937629 -0.29934346937 0.0062994343042 0.072039351822
          -0.057021699656 0.03998474578 -0.066827754987 0.41532377868 0.045124471517 0.19642155331
          0.13432736721 -0.17676697903 0.098439817467 -0.078272230514 0.003588039473 -0.064924944957
          0.34817303556 0.031421365217 0.15085108893 0.490127061 0.036874582938 0.32718426225
          0.44929892538 0.048416965893 0.2172553508 -0.30081672194 0.010658813573 0.056838013184
          -0.2995134957 0.0089163395628 0.056206915289 -0.30666244885 0.0062601844521 0.05261602935
          -0.049917646753 0.007641554981 -0.049109477422 -0.05994812816 0.012835339007 -0.046317436354
          -0.1584894317 -0.059835761479 -0.012753446051 -0.18104081905 -0.031648260564 -0.02246371838
          0.46776797441 0.033170221301 0.31360802551 0.47457180527 0.015597168954 0.30966211471
          0.46484300398 0.039718963376 0.29791044395 0.01807947886 0.053669999687 -0.01689156146
          0.38588246058 0.019336757494 0.18844642528 0.42903001663 0.018731313598 0.2441782064
          0.4883860479 0.03711340665 0.32043658587 0.48340216591 0.014567888163 0.3319646882
          0.47636772309 0.059359679375 0.33183127967 0.48570965541 0.043220346112 0.32272724801
          0.49216176248 0.043336215039 0.31402786307 0.48339212753 0.037690599974 0.31749870724
          0.49516219909 0.03842500265 0.32257434271 0.50709178262 0.041231501672 0.32933824108
          0.48523555292 0.037628139385 0.3181542684 -0.32900666406 -0.0010705114437 0.10573208768
          -0.12139376725 -0.0030237164967 0.020317729274 -0.27744590652 -0.0060017151745 0.10673091161
          -0.24615791149 -0.035393997202 0.093300285242 -0.26076253984 -0.030795045003 0.08364985692
          -0.26197486736 -0.031465500582 0.083376431233 -0.26148461334 -0.030142223452 0.062580305382
          -0.34173030679 -0.013020328916 0.10307374554 -0.23218960479 -0.013056959894 0.051618110415
          -0.19331495376 -0.021513594952 0.070098192497 0.42082635742 0.017448341608 0.2184786181
          -0.32714343681 0.0066191494938 0.11326911416 -0.29965067709 0.015247009887 0.10250453785
          -0.32950948884 0.0045744030289 0.11301736202 0.47901152203 0.046577976338 0.35528113038
          0.47879904613 0.046373156597 0.35515498534 0.3330244499 0.083804066171 0.072208556791
          0.28786750525 0.062078818086 0.079204936262 0.32163709435 0.035580972723 0.10646672265
          0.32983537014 0.04806886944 0.11466116853 0.29026170269 0.033446514638 0.11968478497
          0.42276084379 0.048025531024 0.20787941024 0.13007184379 0.023845659308 0.0178608886
          0.39193582883 0.055280109028 0.16291218767 0.38697586808 0.058436411284 0.16236257408
          0.38908910053 0.07697290654 0.14775784771 -0.24463980895 -0.046392633989 0.016529967966
          -0.24382325169 -0.046889803059 0.020749310615 0.36471438808 0.063708057564 0.166534482
          0.38933070418 0.049089715145 0.16848120605 0.41376698649 0.062549752484 0.1776723871
          -0.37392803118 -0.0019005281658 0.12582799021 -0.37368625476 -0.0072114212358 0.12430048107
          -0.37407184636 -0.0061877804161 0.12365362935 0.19027702686 -0.0012273440304 -0.015348159155
          -0.37644051023 0.0015919260826 0.12273538553 -0.11767971737 0.016315912644 0.016706144485
          -0.10718324176 0.0018561272357 0.014456441558 -0.11074076988 -0.0055449144701 0.014024826537
          -0.17275767817 -0.0011966622603 0.019446195857 -0.37568109519 -0.0086885858482 0.12928072574
          -0.37679282532 -0.0091553835496 0.12968173095 -0.16788539924 -0.0090846249322 0.00074437749157
          -0.20009351079 0.0055712435574 -0.014255329604 -0.22428830146 0.0045925943462 0.01628380654
          -0.22259817381 -0.0035424898106 0.042758801698 0.25395021844 0.062368970452 0.11175884716
          0.25154443983 0.072627549963 0.1196430845 -0.36291763173 0.011155872346 0.14122049809
          0.17473339603 0.066763771086 0.053216747395 0.18701624646 0.013321756265 0.075872531495
          0.19289808804 0.081283674439 0.08145828844 -0.20773533211 0.013887033224 0.013039164629
          -0.20254521565 0.015874742581 0.030201944103 -0.25245153039 -0.0080458451225 0.04346690876
          -0.33334697282 -0.010445195702 0.090324439087 -0.15726943294 0.004526687624 -0.04711873416
          0.46920854355 0.014285528006 0.31045952795 -0.27422915204 -0.0083752639023 0.065442023636
          -0.36592479969 -0.0056311716609 0.13167153948 -0.2651070199 0.0060990745802 0.088601523698
          -0.2558969909 0.020977146552 0.097889616574 -0.27471069163 0.021405588184 0.070623342849
          0.48686362964 0.045341837325 0.35826398555 0.48706617845 0.045098829474 0.3583818938
          0.068639707348 0.024684374402 -0.040390648573 0.48533242223 0.051623029492 0.33489470334
          -0.22919648941 0.014944541889 0.060079395325 -0.29529989752 -0.0095219373087 0.06380705645
          -0.20485901645 0.010860809685 0.072849723109 0.48340136546 0.048883425846 0.33914749432
          0.47948955536 0.045424148004 0.35610374718 0.47904313929 0.047686890103 0.33401494579
          0.47993502659 0.043879604571 0.35583946509 0.48708041607 0.044835341196 0.33788794234
          0.48811151215 0.045458264493 0.35456222232 0.48363225981 0.044142039929 0.35399683818
          0.47994108332 0.048720923274 0.34555936557 0.10697254982 0.064579025124 -0.0033940273757
          -0.34838135158 0.013690959608 0.088793036399 -0.050337400811 0.017759443164 -0.042723419106
          0.019932819297 0.030342689478 -0.030643014041 -0.21227163678 -0.025546388283 0.052001932733
          -0.20851205022 -0.022574782186 0.052132525875 -0.18258483 0.0042601290407 0.04087216474
          0.45429950468 0.057053895707 0.24890416882 -0.21860565456 0.020507803972 0.069980330797
          -0.099584520935 0.027352684896 0.046849606967 0.26776065998 0.043174904405 0.062022741517
          0.25652005856 0.062089087221 0.12122997757 0.054453062158 -0.094891761807 -0.076180378841
          0.092695687608 -0.16153466418 0.017478959181 0.36951155468 0.021239027024 -0.094945842006
          0.30920102036 0.038106651009 0.007907686901 0.32706950701 0.0023181578945 0.096944535503
          0.44880115629 -0.072072798969 0.045935562807 0.22895436895 -0.04387530452 0.11013124953
          0.29130319089 0.049109812238 0.053656936733 0.31482659529 -0.0090089893932 0.10908326846
          -0.040091364577 0.015710293028 -0.05287500525 0.10933680415 0.021601892535 0.02677062252
          0.0081167388985 -0.018198788444 -0.065400032945 0.46516620187 0.0350490427 0.31381781207
          0.49632802096 0.038919823818 0.34613777926 0.49643623026 0.038243549507 0.34563113096
          0.4947808678 0.0386363151 0.34610817486 0.44379004213 0.031908099278 0.24046940827
          -0.33362919278 -0.0011623026726 0.093903410943 0.46019953957 0.068450556276 0.24332205987
          0.45466460539 0.052176255875 0.25436026867 0.069187191287 -0.0056702197099 -0.068419371108
          -0.093606118796 -0.034110900456 0.07036344851 0.31861025851 0.049621044552 -0.015380784417
          0.45869636163 0.091708091168 0.27798430317 -0.30926536711 -0.022118559936 0.088917935501
          -0.33169360644 -0.032749952794 0.10792795456 -0.37005410804 -0.0074876260247 0.12289932594
          0.27433449322 -0.010954027081 0.076439415542 0.27078816072 0.005224573764 0.073012417339
          0.37410147932 0.032269114104 0.15335233748 -0.20484028631 -0.010182394911 -0.006085040885
          -0.37022351383 -8.6757641895e-05 0.12461769621 0.48788402686 0.049239895735 0.35219514502
          -0.1874373051 -0.022733224971 -0.012460633404 -0.22026947111 -0.026392067188 -0.0091295309549
          -0.37591574636 -0.0081447493104 0.11955683029 0.3169987143 0.017147203672 0.10325408728
          0.31365109138 0.024478074099 0.10793692172 0.32125793425 0.020739251593 0.13684491042
          0.48759221077 0.04731968476 0.34370304776 -0.17145688678 -0.014852750116 0.011964095329
          0.25901888156 0.0055982347228 0.02193244579 0.48919753254 0.053219715288 0.32239931861
          0.29514808864 -0.0069580739236 0.066554298342 0.43781003263 0.036864149657 0.25115619566
          -0.15758416396 -0.0079486745066 0.048837165736 0.45737496486 0.049511055965 0.26199878347
          0.45613403842 0.045609457678 0.25669430748 -0.31949106762 -0.013166491003 0.10632119526
          0.0094665715489 -0.025461700167 -0.061115333327 0.41321148328 0.04490131878 0.23405726128
          0.40895238822 0.057126429299 0.2355707148 0.2301856325 -0.0033478933911 0.021378955413
          0.22648433734 -0.011694241657 0.042398533207 0.46951766885 0.060145653724 0.30524942526
          0.27013330617 0.011949010352 0.078366048977 0.29233689904 -0.00085691922734 0.07734993732
          0.29702755376 -0.0028749397892 0.066210075094 0.32347398192 0.032123907756 0.12770658198
          0.32535119236 -0.01503964144 0.093829527526 -0.30749215426 -0.0091825938599 0.092137177758
          -0.32886424215 -0.0036209319942 0.1188337463 0.32043178601 -0.018856526122 0.1030831934
          -0.17294501782 -0.011581811488 0.013032227934 0.49061963673 0.041632955773 0.34588510705
          -0.17220071355 -0.012940360532 0.014383560494 -0.1731638594 -0.011876829987 0.0079152129022
          -0.19310359272 -0.020191290604 -0.012794788273 -0.37269738197 -0.0068872302622 0.12241683045
          -0.37942681087 -0.0053698369405 0.12301966548 -0.37892679292 -0.0055610976446 0.12514467687
          0.46308375891 0.054521079658 0.28305106311 0.48975700719 0.046784911309 0.34685550705
          0.48554043643 0.039290525871 0.27809221426 -0.37140703207 -0.0095857614609 0.12126635097
          -0.37841803284 -0.0064751933856 0.11827563651 -0.37162288314 -0.011248453366 0.11986484182
          0.46318506181 0.054334632578 0.27204696415 0.43782944026 0.037901355808 0.24943467129
          0.47965635439 0.050364327176 0.31277429327 0.4542531521 0.032169006246 0.23177834856
          0.4620698548 0.055537566784 0.29213800854 0.26101169455 0.087291174384 0.20598367712
          0.46117527382 0.016352076943 0.28296487393 0.46029157818 0.034517019327 0.28122389561
          0.078859928371 -0.031833424891 -0.01018454258 0.088426125786 0.047541545012 -0.0023598491511
          -0.32246445139 -0.0024906920023 0.10452441285 -0.32027660197 0.0040534587084 0.10855489885
          0.073627070155 0.0093946704356 -0.017693405267 -0.36233832937 -0.0073653337743 0.11771398568
          -0.24039825896 0.0093412633764 -0.00079259484187 0.41548496241 0.050191555266 0.23028432108
          0.33876889321 0.011416527299 0.20392699856 -0.37054420214 0.0054083042268 0.12245387087
          -0.17026679284 -0.013013371165 0.014587261575 0.47937843947 0.046390246887 0.3565301216
          -0.19330141239 -0.019877385531 0.03698070133 -0.21174550222 -0.017977622133 0.027897174252
          -0.28991159464 -0.012013250544 0.095441102746 -0.11656642631 -0.011746166158 -0.036563528646
          -0.070221379186 0 0 -0.070221379186 0 0
          -0.071044896539 -0.0046840758577 -0.010505689153 -0.077102438704 -0.010453740989 0.0075820061427
          0.46761335532 0.036642777899 0.28211716809 -0.095533614609 -0.027315374689 0.064923095949
          -0.08825035563 -0.026940917577 0.021357558665 -0.12240145414 -0.023590816533 -0.02468049197
          0.46487935962 0.04444791566 0.26967326693 -0.049277948719 -0.024665530072 0.01843725174
          -0.26524660323 0.0067709415925 0.021378995992 -0.25059214007 -0.0029731922593 0.01605919925
          -0.30742748316 0.0027289301835 0.05035690797 -0.35466443105 -0.016772290085 0.11718773899
          -0.25760181975 0.026016110225 0.0047204942416 -0.06737546158 -0.018964759487 0.033878496884
          -0.046128701908 -0.037565980482 0.0024303254572 0.48033593732 0.039295432829 0.357384797
          0.29880494432 0.009569607146 0.1871461353 0.32187919899 0.01620286191 0.17269764549
          0.48153835238 0.045366275807 0.35184772677 -0.28762395743 -0.0049499556684 0.063792547632
          0.44882365186 0.033137181545 0.26300405278 0.44636937556 0.026485667332 0.21340584134
          0.48444751068 0.050580270446 0.34849145102 0.25811408487 0.062407656003 0.09480018863
          -0.040003473483 -0.0068863130541 -0.011101493778 0.2192044976 -0.090794977028 0.0077190959099
          0.47925792016 0.043910102108 0.34710200837 0.47858423254 0.046011394779 0.34292028198
          0.47942192918 0.044972284561 0.34181182099 -0.14440389231 0.0020701785681 -0.031488469969
          -0.14606425317 -0.00091128533705 -0.032916774965 -0.094317236719 -0.0092730886496 -0.079703862007
          0.34093724765 -0.44865352875 0.0095157601028 -0.14909488054 -0.00095595905409 0.092286699638
          -0.18824903218 -0.081213998627 -0.0088929121541 0.072739709864 -0.0082307987565 -0.018119778378
          -0.35905888875 -0.0078074071536 0.13140512247 -0.3522130875 -0.0038752732953 0.13342378498
          -0.2863363655 -0.0036084154925 0.034488090253 -0.33587727184 -0.0012886530831 0.1119919139
          -0.3498922868 -0.0065331346644 0.1343535187 0.45606606779 0.03827916456 0.29328121859
          -0.061715366917 0.035143254005 -0.017886007121 -0.27887344598 -0.011160134974 0.025541611546
          -0.29224140059 -0.020662355727 0.038520747291 -0.29212319756 -0.022457771527 0.040097275088
          -0.039249603783 0.04870644282 -0.053701836857 -0.29021736132 -0.036011661273 0.017895681831
          0.47698609168 0.037330027806 0.28119137175 0.40797473737 -0.021773173417 0.18561640068
          -0.140295322 -0.029179067791 -0.018028913816 0.48667962038 0.0625550806 0.33198206517
          0.48750641781 0.058129812776 0.33761601743 0.49258720182 0.048499456414 0.33982929675
          0.49351154209 0.049524882148 0.35240293192 -0.091094630229 -0.052996787461 0.025214947289
          -0.066171075735 -0.033652338517 0.0054100393535 0.48279597556 0.046331504494 0.33589502257
          -0.10607088283 0.0076608903989 0.035628067368 0.29040344005 0.0060879233054 0.11035294006
          0.29270407851 0.01169796963 0.10513646965 0.29710176607 0.040037759467 0.13550111093
          0.48661217721 0.043831566985 0.35009263592 0.29527654813 0.016629242371 0.13414371267
          0.17958130052 0.031417460975 0.027855647315 0.13541190449 0.014949910565 0.029347015465
          0.31240530573 0.06552534253 0.074328147438 0.1345499389 0.019673675432 0.025966671902
          -0.17902359819 -0.01359899585 0.023785480491 -0.10637093726 0.033407789017 0.0027174206852
          -0.18293996879 -0.010894582893 0.020624578036 0.31385405509 0.057579890069 0.084693410602
          0.2952510739 0.050080354269 0.084225093377 0.31412216998 0.047559296269 0.090775273505
          0.32968864033 0.069671562583 0.081668309623 0.31761172999 0.042297926042 0.094862624482
          0.31383804102 0.044964125872 0.083548951414 0.31334878733 0.043708212753 0.081943078587
          0.1397023557 0.034151099445 -0.02369699289 -0.29633907853 -0.0033739971888 0.088400802714
          -0.30996281484 -0.013594706915 0.087692351423 -0.30887477141 -0.00043484605206 0.058955210337
          -0.30627805697 0.011838367578 0.068206162071 -0.3229786384 0.014577973164 0.071333081905
          -0.33894085088 -0.0027274062027 0.089641957094 -0.34086635581 0.0012437168803 0.087191812318
          -0.33013470761 -0.0042500078079 0.088053138192 -0.31134292126 0.019909274024 0.063587329572
          0.43724949609 0.042873113397 0.21952654471 0.34100552816 0.043289626266 0.056686838195
          -0.35541372544 0.0050999724222 0.10293737163 -0.3450615424 -0.0032719000886 0.10484579692
          0.45169137013 0.035772428056 0.26592908632 0.45008776848 0.039357781302 0.26353880541
          0.45548054571 0.035282674619 0.2644151921 0.44683572551 0.02211588871 0.20393745213
          0.42414389373 0.012354416938 0.21418467293 -0.31057003618 -0.004239081478 0.085073499069
          0.48134464424 0.046060974939 0.35109256887 0.48759348008 0.042494484271 0.34713805993
          0.47958252369 0.046906225619 0.33329596392 0.45929154721 0.032259238115 0.26537897682
          0.48156205111 0.043904558517 0.35626802482 -0.32706403284 -0.008000108514 0.075909207643
          0.48249834283 0.043580347879 0.35442885103 0.39402330716 0.035267468471 0.22058328625
          0.3596819981 0.03486264128 0.2141328937 0.37092875566 0.011982139422 0.21019369634
          0.31934876909 0.029757751123 0.14391665691 0.48877368451 0.044869394822 0.35145985974
          0.48523103687 0.048324731098 0.35258189039 0.37219889851 0.028744720531 0.20337097721
          0.38203324855 0.020979617143 0.19886186732 0.38205322378 0.020849423043 0.20915414405
          0.49123001423 0.051602001051 0.35766257842 0.49085238781 0.051574845093 0.3574505337
          0.48465296463 0.035649149585 0.35694342969 0.48771616545 0.045984059089 0.35672025521
          -0.27489243643 -0.01634963442 0.047705559594 0.48550270766 0.042975723108 0.35828373021
          0.49112709483 0.039810607976 0.35091226133 0.4874790256 0.048037993067 0.33745284801
          0.4889992423 0.05407202471 0.3578086906 0.4914847604 0.03840601258 0.33718605495
          0.080783630099 0.21629041375 -0.10827031976 -0.30902389303 -0.016504953837 0.062888844356
          -0.29914101696 -0.0082725718395 0.067933192071 -0.30039078352 -0.0093779763878 0.061600393345
          -0.32111861902 -0.026098656942 0.099291855809 -0.30747934212 -0.022070944101 0.063775739554
          -0.30706542967 -0.019813783102 0.062275830981 -0.31109874333 -0.018141638015 0.059058327709
          -0.27736369964 -0.008316242121 0.098832000979 -0.29473898146 -0.011251384257 0.096332522579
          -0.309269409 -0.016194816077 0.090426177723 -0.33256056579 -0.0049343154131 0.089583704692
          -0.33420911323 -0.0045506931727 0.084953653054 -0.14743578326 0.05335719478 -0.015120734451
          -0.13417132274 0.036908996057 -0.0031561445018 0.48222822337 0.043573518604 0.35188684165
          -0.15760675779 0.024034872581 -0.020633360466 -0.15800006834 0.028994557052 -0.014440639595
          -0.12165525342 0.043640801636 -0.019563575525 -0.12760187008 0.048612784372 -0.0098898838163
          -0.11975409176 0.0055735190485 -0.015177255241 -0.16624953545 -0.018197279925 -0.0080202052362
          -0.16524973025 0.035071430826 -0.014497250411 -0.19400215008 -0.02467441636 0.0040414858153
          -0.33213066716 -0.013356048829 0.07831156282 -0.12810424705 0.045887592943 -0.012844128837
          0.44053421684 0.053853682557 0.25733041016 0.44688474536 0.059553389098 0.25805781244
          0.44707924444 0.063158920747 0.25748184459 0.43389644718 0.070250113388 0.25267232342
          0.44285342439 0.07879783338 0.2536095764 0.44096581808 0.053556326707 0.25749923993
          0.44598065729 0.06085714579 0.24914078324 -0.35187962723 -0.012924735648 0.10206758761
          -0.35629572694 -0.0084765410422 0.11636485879 -0.35664355018 -0.0091910962046 0.11625150832
          0.46299480726 0.038115191183 0.26622348176 0.49010504828 0.038633053599 0.35922699297
          0.49215693001 0.035817215983 0.3630925401 0.4971719791 0.03955992161 0.35135486041
          0.49255369247 0.03728291884 0.36245368078 -0.34391978156 0.00072262947616 0.10911778024
          0.48461898867 0.051547724034 0.33999244251 0.48365457002 0.045346877027 0.35284599031
          0.48399267143 0.044982292699 0.35325255387 -0.21985672373 -0.006190501082 0.045742237702
          -0.16130878783 0.024232064968 0.067554094943 -0.16126454042 0.012117007068 0.069385766696
          0.48194458894 0.044589819019 0.35139807578 0.48173492937 0.045358883686 0.35052945757
          0.4824061674 0.044943621533 0.35050035502 0.48232243424 0.04458196738 0.35107157549
          0.10271757336 -0.015859320256 0.0019427045739 0.40361356651 0.059455380785 0.2153081873
          -0.35252702095 -0.0018629148703 0.10066700472 -0.34505056622 -0.0024076765945 0.1017547766
          0.39198478124 0.04021293147 0.14251318296 -0.18583679667 -0.02699041194 0.03233143975
          -0.29367007084 -0.0086247677788 0.1010063281 0.43026621322 0.017483567334 0.24318861405
          0.4294841078 0.018798281675 0.24419101617 0.43478087899 0.020905232436 0.2339690456
          0.44149458901 0.03931137348 0.21610612549 0.44544228316 -0.0013383422221 0.22165220696
          0.42593987964 -0.0021589872908 0.22737523062 0.44885432549 0.018367293134 0.24132864067
          0.44550605163 0.022053158211 0.24635620094 0.46928777116 0.018138748958 0.29382833231
          0.4683317184 0.016417042029 0.29620991387 0.46218208759 0.022713242353 0.29236483439
          0.46952502708 0.0073692488634 0.25421354473 0.47233923945 0.020394992398 0.25582122788
          0.4217099201 0.022657539648 0.22451084055 -0.310480516 0.00063093744416 0.089133763382
          0.039778114092 -0.031871112056 -0.00083030261935 0.47645694485 0.049538600794 0.31448875894
          0.34114739566 -4.0835822447e-05 0.12715052865 0.34487385864 -8.4303538267e-06 0.1311235089
          0.34126913103 -0.002487456075 0.12963375711 0.33973547385 -0.015474963294 0.12400555983
          0.3619956744 0.011963339762 0.10628565585 0.1406375967 0.11561916475 0.13867832305
          0.47027352526 0.046060295042 0.2858951647 -0.35806576344 0.0070276933396 0.1307785563
          0.48398828121 0.04407156907 0.35279433991 0.050629903302 0.027315691043 -0.027644444824
          0.055043780658 0.032403466285 -0.011275970089 -0.16582218603 -0.012351389886 0.081122505207
          0.47111230691 0.042147864163 0.28744929134 0.27489277045 0.04361352453 0.041649827698
          0.32158847095 0.013081160404 0.085492876614 0.38485423005 0.046829792679 0.15198005638
          -0.36983126054 -0.0087028714437 0.11862433956 -0.35228099381 -0.015235077755 0.11611402632
          -0.34805528754 -0.018407968268 0.10844708912 -0.34270452867 -0.0054977624233 0.10775015741
          0.47811467329 0.045121639948 0.28445457703 -0.20837134715 -0.013036210504 0.07997867454
          -0.18945192737 -0.013984040983 0.061131667633 0.29220807633 0.036680011997 0.11701121201
          -0.35159411491 -0.016495390981 0.10025432225 0.48808788392 0.035509873932 0.36106128227
          0.32371407862 0.050729072252 0.11229669441 0.34712991868 0.032283868138 0.15108951611
          0.48002143247 0.047019513921 0.34780368987 0.48205941958 0.047507659112 0.34968804188
          0.48264014224 0.044993601156 0.35101458639 0.48389253588 0.043664500302 0.35114967577
          0.48315255962 0.043494730075 0.3517059302 0.48025900476 0.037312497843 0.35755628533
          0.47776368643 0.046787830926 0.35274025419 0.47778109481 0.046794798451 0.35281992892
          0.47586213786 0.046236163065 0.34879590076 0.47715925081 0.045238815443 0.34914966688
          -0.25502928103 0.0097783072399 0.053691424522 -0.26421431624 -0.019852318915 0.053544294981
          0.24835114098 0.050292475815 0.024312537515 0.10602966796 0.013117520876 -0.081520252951
          -0.16618209796 -0.01416783114 -0.075032256641 0.48434289023 0.061924556934 0.33321177518
          0.49214288718 0.042242791847 0.35088538113 -0.21893449888 -0.011066064141 -0.021484500354
          -0.35923771215 -0.007373545557 0.1317778662 -0.016406490338 -0.064925263429 0.108632358
          0.31367474622 0.11559651807 0.12488711874 0.32039720087 0.05981087162 0.092063969763
          0.47393773865 0.048933273114 0.32440215452 0.14783380745 -0.0050531764549 -0.018511308619
          0.29258391728 0.037295307038 0.16277766456 -0.26683716772 -0.015788397106 0.040704956314
          0.2312238308 0.065241063356 0.089972400553 0.096248227258 0.015500541748 -0.02864956112
          0.098536479281 -0.023311638832 -0.025736039131 -0.36131055551 -0.001640067439 0.13028987142
          -0.35278652602 -0.014326959188 0.11038329643 -0.36981410413 -0.008662896893 0.12428035767
          0.11403817466 -0.0039355083049 -0.02435055556 0.48102531288 0.045664451207 0.35259146805
          -0.33248398158 -0.010491329412 0.079493648214 0.47149682511 0.023922163386 0.29521826488
          -0.36445299519 -0.0020618389953 0.12013040912 -0.33100071797 -0.0072100299471 0.08727738316
          -0.33308795007 -0.0097777344856 0.084929443883 -0.33342279423 -0.0094841809676 0.073052021001
          -0.33561427382 -0.012444449195 0.074895761734 0.27789618703 0.011153483599 0.08472980075
          0.3881687631 0.064761593813 0.23082983302 0.26252392994 0.029565056449 0.094706646385
          -0.36560687491 -0.017096792438 0.11426156756 -0.36740298067 -0.0127195318 0.11501090761
          -0.3707747729 -0.013192693896 0.11531155346 -0.36541471362 -0.016786535243 0.11428048911
          0.47365840798 0.026769897878 0.30326079286 -0.36479430598 -0.0063982011443 0.10334582287
          -0.35338732125 -0.010482981073 0.11324337442 -0.35241236346 -0.011937852879 0.11109449576
          0.0080901204541 -0.08651937589 0.14823555754 0.25323753982 0.047026934276 0.15817706089
          0.18763169321 0.015625622647 0.075377679537 -0.35831312056 -0.01429192264 0.11134561658
          -0.35995681549 -0.0040597900077 0.12385978808 -0.37194165453 -0.01459503832 0.11779336874
          -0.37315628265 -0.010614248705 0.10993241685 -0.36144788728 -0.0068938721955 0.12529152747
          -0.36140122663 -0.0060080777997 0.12589937868 -0.36002547038 -0.010675949271 0.12450005825
          0.26123581384 0.028592843116 0.093879188573 0.48502608405 0.052300470881 0.34516244305
          -0.35623346408 -0.0079955654159 0.11126756733 0.038443654477 0.014328894467 -0.059979580273
          0.090799728349 0.049087635692 -0.082527603418 0.50034371608 0.037559705703 0.34247281463
          0.49322125832 0.039370260857 0.3427092601 0.49403738616 0.031711188739 0.34212442847
          0.49419875955 0.027186917672 0.34191910729 0.49490557782 0.031717058809 0.34442791204
          0.49096770828 0.042763822116 0.3486301268 0.48568768297 0.042487554448 0.35673866114
          0.48533757023 0.044893401899 0.36217516095 0.48291751462 0.045621543913 0.3567679378
          0.48499898599 0.055474683802 0.35393741915 0.4859670605 0.050504610472 0.35423896192
          0.48077134856 0.049442085866 0.3507357312 0.48034628408 0.046833814834 0.35344403039
          0.47591152485 0.043180084329 0.35371660023 0.47969991845 0.046945155862 0.3551412414
          0.48245000894 0.040400089606 0.35152507189 0.48005627053 0.044780361537 0.35545447188
          0.48062155239 0.04442788787 0.3553863593 0.48774662642 0.040404817576 0.3550569827
          -0.35576201131 -0.02047382376 0.13709346913 -0.34953409313 -0.013904069428 0.13654539654
          -0.35361251818 -0.014272235765 0.13472984964 -0.35793949085 -0.017779244086 0.13263898524
          0.48134501518 0.053439875389 0.33407551663 -0.36020267294 -0.0031895970968 0.1324132386
          -0.34959065187 -0.014324883773 0.1364982524 -0.35554620623 0.0049062139123 0.12680198318
          0.4778192083 0.058140993692 0.31921342502 -0.35484685995 -0.015879938575 0.12188520018
          -0.35810595865 -0.01781959162 0.1344660455 -0.088896935021 -0.003545458461 -0.017342399719
          -0.083136320163 -0.0060592162908 -0.019897102561 -0.14648083015 -0.01293953915 -0.024291672943
          -0.14481164967 -0.0009454596972 -0.013059611191 -0.14580511107 -0.01239968125 0.0062442900627
          -0.14596498243 -0.014053678307 0.0082110152536 -0.30593472704 0.012686742075 0.068754141232
          -0.36784068566 -0.013349445997 0.12451143904 -0.1156860273 -0.0097393199508 -0.0078534715808
          -0.11842733599 0.009772920048 -0.022508317909 0.22895772655 0.050448980628 0.14983682296
          0.4785008864 0.050107276227 0.35463167313 0.24454741203 0.061496271098 0.1061145661
          0.270410144 0.082985982945 0.1374666946 -0.25901482059 -0.029279246139 0.04872531705
          0.3916770119 0.059195416254 0.23398011013 0.33831521286 0.044764088892 0.14263890321
          -0.19318056096 -0.022897356611 0.0062396604026 -0.23023059391 -0.011434110181 0.012071604032
          -0.20373292225 -0.033058856736 0.016771381835 0.48840029444 0.038495744738 0.35772260926
          0.27131000449 0.045740353893 0.13975095384 0.50954061083 0.040920155236 0.36526574454
          0.47999613824 0.043716656582 0.35093560069 -0.24052682941 -0.034692765912 -0.01054491882
          -0.23432336253 -0.0055648348028 0.013006453715 0.4457424272 0.055019672943 0.24987559188
          -0.059052377046 0.014378446279 -0.046461776945 -0.22566178762 -0.012996712766 0.0052590397986
          -0.23638664449 -0.0082649246911 0.014326122791 0.30671873247 0.041078936139 0.01892855623
          -0.23841220828 0.014564449721 0.016131683991 -0.20819866353 0.015568156258 0.011196309376
          -0.23346577096 -0.01676779182 0.018024020361 0.48027258383 0.043648061959 0.35017610605
          0.47897320852 0.047175406843 0.35042158942 0.47580486009 0.044958214183 0.35123936646
          0.47764713852 0.045817712028 0.35325452263 0.19649781652 0.0073225767269 0.039970739445
          0.17121247051 0.038899603786 0.020973311009 0.14580947938 0.005061816936 -0.012966264231
          0.16512671607 -0.0048720794535 -0.0038254239763 0.16559844217 -0.0029423675291 0.014463771764
          0.15837037968 0.00096884594389 0.012658381388 0.15646230663 -0.0022498797083 -0.02317354899
          0.15995113181 -0.015826327737 0.0022345053382 0.15931637054 -0.01287228108 -0.0013909282543
          0.15924066205 -0.019225842618 -0.015643616359 0.47080325016 0.041926264347 0.31318826071
          0.48232156439 0.042591411867 0.32062833169 0.48322786409 0.048510403259 0.32159448865
          0.46947063282 0.050015780313 0.31285748348 0.4724287641 0.045212925849 0.3077254333
          0.46858756101 0.04754673173 0.30828089976 0.46646100331 0.054554266886 0.29810115552
          0.47534357924 0.047730315011 0.2994353214 0.071638571537 -0.0020222215359 -0.001847964378
          0.11629884925 0.018655831169 -0.0084668065235 -0.36605235005 -0.0059957155128 0.13586493464
          -0.36968236852 -0.0071399948795 0.13268470741 -0.36783523439 -0.0069111719144 0.13525214606
          0.3936837853 0.025295071134 0.18442560978 0.35053934289 0.011785480143 0.1382934898
          0.34275946716 0.012945954706 0.13884280292 0.34691390151 0.0079592465407 0.12778180252
          0.35378324287 0.02118758019 0.16244009256 0.33883032723 0.0081182667355 0.15220012018
          0.339337921 0.010831342422 0.14984049177 -0.30808448084 -0.019737369888 0.086057911846
          -0.30853180022 -0.01777703165 0.086210070053 -0.30583827308 -0.013329079827 0.093055885027
          -0.31995358276 -0.0033297350394 0.10560688654 0.47501482914 0.029423942068 0.27306783599
          0.49266216794 0.053734770272 0.26188896649 0.48072403115 0.042177418169 0.32297601689
          0.47714190851 0.042952700886 0.32169506416 0.4749713764 0.04540291619 0.32218848191
          0.48073860244 0.051013211756 0.32864755648 0.015082396449 -0.021636904088 -0.069655877652
          0.44565985094 0.059105148668 0.27896126125 0.44693467513 0.056892845074 0.27668159707
          0.4537139825 0.058060383878 0.26692863499 0.012257901945 -0.025593490422 -0.051383495577
          -0.10691162756 -0.055740013918 0.040427740496 -0.10730897773 -0.056458354612 0.040484294632
          -0.1260469059 0.0028952511779 -0.00082616813523 -0.15203021071 -0.011487712336 0.038328360493
          -0.10612951097 -0.0044019964628 0.036935338453 -0.11931983874 0.0064683892412 0.036461554244
          -0.12261889586 -0.022933641773 -0.00016336520671 -0.12089385384 0.010587434345 0.033037765081
          -0.13985502569 -0.0079024684602 0.06996504423 -0.15048253387 0.00041559763262 0.078657919917
          -0.14523189897 -0.020170070179 0.08495037447 -0.17409536756 -0.014260489473 0.069076683422
          -0.18559990384 -0.02616310684 0.065237870227 -0.11683025598 -0.005250791561 0.037847547077
          0.48965824798 0.045288832109 0.34364028278 -0.28032736839 -0.022775971833 0.024034977265
          -0.30181699265 -0.0018790364981 0.068782688388 -0.30347455521 -0.0013206548936 0.061277880727
          -0.28878936276 -0.011962002017 0.068543818003 -0.32579285265 -0.015766238604 0.084111561178
          -0.32641731624 -0.0088791865026 0.076683314481 -0.30511816002 -0.010748291509 0.11013353563
          -0.32280463561 -0.013822143139 0.080998144031 -0.30707327269 -0.0040031138174 0.066951721179
          -0.28061283135 -0.023055314427 0.023645976182 -0.28250869068 -0.0044628422616 0.036280528162
          0.110336077 -0.019280120143 -0.0088416509077 0.4127992379 0.034434320706 0.21850401734
          0.48469841954 0.041945798339 0.33689115858 -0.28028860594 0.0003833522075 0.036212881854
          -0.28322945746 0.0077202521623 0.032086378731 0.48812302597 0.014664201583 0.31144684727
          0.47854230165 0.032679140371 0.29851107553 0.46377686747 0.0379270653 0.29888695097
          -0.2747088849 0.0048066692083 0.056025936149 -0.37002929632 -0.005807359628 0.13108456187
          0.30815757493 0.05573630957 0.070314792714 -0.29447122341 -0.013736308983 0.074980629214
          -0.30077023147 -0.034635295503 0.062262598989 -0.30014496298 -0.030274672788 0.061099955003
          -0.32065230489 -0.0099431491095 0.089337921907 -0.32017617141 -0.0088733200275 0.088588909909
          -0.34247146087 -0.016319186411 0.091916309028 -0.36905481008 -0.0063458515216 0.12327384679
          0.48324422329 0.044695681723 0.35228746478 0.48490729697 0.043930351754 0.35128814776
          0.26423189044 -0.023909884022 0.044446609812 -0.047407080914 -0.038744892396 -0.065108340524
          -0.08133551854 -0.025127225037 -0.047771911455 0.25782250477 -0.0087780558073 0.024151760976
          0.24396259904 -0.011688472734 0.077670852641 -0.033326712255 0.0085711732547 -0.0033348177721
          -0.09286016072 0.005968047098 -0.030243007376 -0.039309208663 0.019188525254 -0.005746142578
          -0.02572071645 0.020680710406 -0.0057284951596 0.47809654511 0.049785151283 0.34758805173
          0.47783907495 0.038932485828 0.34936910248 0.47708904018 0.034675371471 0.33823171439
          -0.22197316029 -0.01470584108 0.025454352357 -0.220671817 0.02048303527 0.043129903047
          -0.26500656106 0.008617438877 0.026202071633 -0.25743144599 0.012565075926 0.030041204456
          0.45185606663 0.065075545568 0.23959940075 0.46828763146 0.026106243003 0.27119156294
          -0.28254327544 0.0096743661892 0.066507511288 -0.28261075835 0.0094195292213 0.066246349554
          0.38417525361 0.037356250396 0.20477404534 -0.3622661442 -0.0059919858582 0.10638604883
          -0.23881536607 0.0099322187822 0.016365729776 0.48218692795 0.040713903664 0.35732939471
          -0.2361500143 0.012212685279 0.016372673218 0.48182743725 0.043775113035 0.35933919472
          0.48219927842 0.044453568506 0.35916396035 0.47675917741 0.046080194412 0.35234938348
          0.47779443181 0.045766876985 0.35251699458 0.47711837327 0.044428565749 0.35114964137
          0.47753123143 0.044824468743 0.35291823633 0.48517169593 0.04501958227 0.33707170624
          0.44750558788 0.081384590193 0.18068046954 0.46631184199 0.0057589820557 0.14718197697
          0.42671685753 0.046357541026 0.16620250643 0.44343917143 0.066379402256 0.24119989662
          0.42291652968 0.06349622092 0.27040636084 0.4647453181 0.053751254241 0.25155724447
          0.45317864592 0.064284837904 0.25415085661 0.26103765802 0.014982434116 0.10104480198
          0.24413156545 -0.0051850024855 0.08558821658 -0.061194948677 0.034290304878 -0.040597984723
          -0.061211382303 0.023302162818 -0.027951697271 -0.083857002391 0.012205209587 -0.016374081269
          -0.36474755778 -0.002788233714 0.11672149525 -0.36202549166 -0.00042893051764 0.11792511844
          0.48331620885 0.044194308391 0.32700188338 0.48569119104 0.051158981772 0.33185388383
          -0.36356532154 -0.0032619322584 0.11978218028 -0.36349744984 -0.004514899259 0.12123835629
          -0.36969687435 -0.0064993653852 0.12344163276 -0.37242609713 0.0045556516776 0.12351597532
          0.48159822776 0.051850930877 0.31686174841 -0.36946022719 -0.0058344642154 0.12380319885
          -0.36323414057 -0.0048419921262 0.099685405078 -0.36796289345 -0.010275650141 0.12476274278
          -0.27064758775 0.019054323014 0.035398060356 -0.25080534923 -0.0044056500734 0.025337988081
          -0.25150801559 0.017992244882 -0.00098001015712 -0.22524719943 0.041723685899 -0.0086773160822
          0.42853402445 0.023706419031 0.22566172037 -0.257311618 0.023372469899 0.0037947784591
          -0.27307079786 0.017728143371 0.02860991804 -0.26096224704 0.025395805334 0.031222171657
          -0.24717349499 0.0007304142269 0.042512881151 -0.22954938578 0.0030389234526 0.004507449554
          0.47859163263 0.04606678307 0.34288449446 0.47912381047 0.044238537476 0.3426505965
          0.47467607029 0.041410401558 0.34299276931 0.4761020068 0.045151879715 0.34763191376
          0.48001961124 0.043480445725 0.3471221514 0.48002008577 0.043481849429 0.34712025992
          0.48329969922 0.047645819344 0.3471151344 0.47613253714 0.045119475909 0.34765001668
          0.28634412388 -0.075929700362 0.070816789402 0.40932951398 0.012584545551 0.16812990408
          0.42654058986 0.044498371529 0.1961117087 0.44607709256 0.021395012769 0.23426694201
          0.42902217646 0.039850234913 0.24526062871 0.43861017563 -0.017985537986 0.22871223127
          -0.018355975125 0.030164036227 -0.038794072085 0.032186854431 0.053071885105 -0.063234530617
          -0.017078913873 0.0293483796 -0.041133085714 -0.017070774592 0.031574491801 -0.038393425947
          -0.2261211316 -0.025333401393 0.030121191436 0.48474968554 0.045952791946 0.35165776682
          0.48553764965 0.047426799405 0.35338350321 0.48429462492 0.047985330306 0.35483173697
          0.08498858078 0.042659737865 -0.022557867192 0.48134719374 0.050732917134 0.35018145296
          0.090116499838 0.04340991245 0.0052977262189 0.47849173437 0.045467270461 0.35093272845
          0.48179961657 0.046639704243 0.35635509157 0.48043031975 0.046190352779 0.35611933763
          0.48436821564 0.05137031959 0.34953526631 0.09238461489 0.029295383449 -0.076818659064
          -0.12700183096 -0.01150318956 0.000303299547 -0.13869209385 1.3877787808e-17 -2.7755575616e-17
          -0.13153216869 -0.012627505747 0.038880301634 -0.13166029165 0.013979552298 0.034893343186
          -0.13352132305 0.013236936873 0.025289567031 -0.13361913446 0.013867743617 0.024701248648
          -0.13338726481 0.020380730138 0.025096807175 -0.13744644556 0.0098562684508 0.042219113673
          -0.16104876379 -0.0055317117832 0.042767855102 0.25083945536 -0.010598260289 0.022065156412
          -0.36181680722 -0.0037379228193 0.13497210574 -0.3620975778 -0.004270387809 0.13536260168
          -0.36275571265 -0.004112524381 0.13506972463 0.484419053 0.041126739606 0.34636543834
          0.48479178238 0.041806978156 0.34726119454 0.48200068629 0.044597674706 0.34745740933
          0.48125258002 0.042477788225 0.3449988067 0.48266068872 0.043762641449 0.35066027503
          0.48428883145 0.042191893688 0.3494852377 0.48389113879 0.042631221515 0.34873964307
          0.48199046125 0.041395832284 0.35066970513 -0.35555624698 -0.0088298307322 0.11492286782
          -0.35843995344 -0.012780569096 0.12494283209 -0.28822482632 0.01148200751 0.063900580349
          -0.33926321068 0.0007570488044 0.093727703694 0.30921175456 0.026145933379 0.080111018092
          0.13359536019 -0.0040719416319 0.015779256069 0.13235840778 -0.00014058188812 0.020348945687
          0.14914308243 -0.010254803997 0.035327537166 0.14097635659 -0.011178905052 0.01763045649
          0.124345828 -0.036837388419 0.014560088588 0.12652955209 0.00096263727351 0.023056459296
          0.12437211121 -0.0019745494999 0.035041743377 0.10400441029 -0.01316713244 0.044196525284
          -0.1252406211 0.0024913422114 -0.0052786065796 -0.12659204277 -5.6799822855e-06 -0.010436981264
          -0.088990131073 -0.022839293786 0.027847208454 0.13143742877 -0.021043598042 0.049674209625
          0.13577641929 -0.0080253973995 0.053448370311 0.15043989554 -0.013024955351 0.043013621056
          0.16708287437 -0.015398152484 0.032732755193 -0.26434715265 0.0049455270988 0.06966867082
          0.40226185979 0.058861733517 0.21558350995 0.35055159766 0.012495069941 0.13837214168
          0.38652492328 0.052942248318 0.17954700363 0.4058142256 0.031176744238 0.17104493196
          0.40061766113 0.04838349909 0.18131808861 0.36554164131 0.039140413712 0.14054188576
          0.36377442479 0.026550493762 0.15474969582 -0.25464221528 0.011497220167 0.033932128431
          -0.25703875124 0.020916542797 0.034585011515 -0.27907501373 0.00063783846548 0.049694038324
          -0.30453887334 0.016209106707 0.063830484756 -0.30588496654 0.0075691702824 0.065383919372
          -0.3049857908 0.018019437132 0.061820625543 0.010851623166 -0.026376314691 -0.061782661516
          0.47411413247 0.032547811845 0.30984141291 0.032847117509 -0.015447501505 -0.030943700546
          0.47486298277 0.027309365452 0.31584941067 0.49822757382 0.05231872206 0.30472898683
          0.46546409326 0.054526066391 0.26616310511 -0.14300910802 -0.051707268487 -0.0054746183724
          -0.13261586135 -0.025810298555 0.0012519827654 -0.12331235943 -0.035956822461 -0.031186965793
          -0.090656657184 -0.0016709802687 -0.064384759619 0.48452030957 0.041535483751 0.3639233322
          0.48865097321 0.042944341964 0.35751330716 0.4848439217 0.040089299133 0.36335703534
          0.48623988377 0.039335854451 0.36315708125 0.48970529863 0.04120139174 0.36418838061
          0.48956023726 0.039708418572 0.36356664468 0.49027121405 0.040032941007 0.36609929239
          0.48942370838 0.036595345593 0.36285579152 0.19156723515 0.0078185390119 0.048972230107
          -0.15689600727 -0.038308018434 0.023951762297 -0.17051719781 -0.04000553072 -0.0078768295996
          -0.18136671995 -0.017426294753 0.011676588878 -0.20924465687 -0.020571017535 -0.013845810346
          -0.048855859622 0.013005559253 -0.0140404948 -0.096815080841 0.0041618412116 -0.0039635621326
          -0.20931416759 -0.023552784478 -0.0107241168 -0.21164664659 -0.015773620113 0.0048131823392
          0.46148239382 0.054921548025 0.26242696708 0.36409966411 0.053228081638 0.11539378781
          0.3270676428 0.053817934387 0.097757205285 0.32003235977 0.065934040548 0.075711927322
          0.46842192614 0.026670695554 0.29250521638 0.36865570188 0.055964108861 0.11318959472
          0.31863503701 0.063122689016 0.070320580025 0.31790749998 0.061855946686 0.070731300376
          0.46026083818 0.048703378691 0.29066861738 0.30866452716 0.017567324646 0.10988197751
          -0.16429744352 0.024141989766 -0.028047233017 0.24949192468 0.0007345702384 0.0327133988
          0.24870793077 0.0063636399803 0.032584789828 0.25055592827 0.014122866292 0.022708565237
          0.48429809208 0.048825133535 0.34670940257 0.48511366927 0.049584000842 0.348864882
          0.48538372841 0.047406969404 0.34389979052 0.19773914894 0.014888329907 -0.019178652898
          0.19613717049 0.0094067919583 0.0037398356065 0.19035810817 0.047518753383 0.0018235305575
          0.22152086631 0.045022892594 0.03203469727 0.26779161563 0.0299182457 0.031704884055
          0.22589875352 0.00966175009 0.032850963165 0.20789912501 0.025500095333 0.016810582622
          0.48450832961 0.047724225271 0.34423299097 0.38316633776 0.016726682515 0.13383176632
          0.48780039997 0.043212719929 0.35423077698 -0.25955268065 -0.026563380074 0.017881052676
          -0.26525616218 -0.017111891059 0.032021488813 0.47118232151 0.023069002908 0.28137909127
          -0.27736740557 -0.025689400865 0.044686452409 -0.25635781991 -0.0048207438136 0.039719401603
          0.36165640013 0.029473663074 0.15772187256 -0.23709374416 0.011362618295 0.012479704623
          -0.039824181433 0.034663247452 -0.043571220151 -0.061364714712 0.028419675389 -0.026529996013
          -0.056128781245 0.025296343939 -0.029978807014 -0.040749893139 0.016080396895 -0.022689248247
          -0.045643762237 0.022137694924 -0.029155193098 -0.089806880697 0.02332145471 -0.044301183496
          -0.36643542515 -0.0026500035923 0.12743379558 -0.3670633804 -0.0016717596814 0.12782228634
          -0.35068785578 0.0027599034071 0.1008314779 -0.092946075768 0.021437903563 -0.04604075992
          -0.057529879229 0.040489719737 -0.067236617068 0.12567680699 0.034497591027 -0.0045189136874
          0.48011308977 0.050685169074 0.31988189207 -0.054875181822 -0.052048398081 -0.039312608195
          -0.052703882795 -0.020336427703 -0.0033864584897 -0.099717457602 -0.023303586456 -0.071179293846
          -0.3576601906 -0.0040346931357 0.13162423488 -0.036238719333 -0.028197143302 -0.054932470991
          -0.042692728077 -0.029004910762 -0.039801064837 -0.055485333308 -0.018584775108 -0.037865292307
          -0.057817161789 -0.013904753714 -0.044002215872 0.35473245862 -0.041661088421 0.11806275564
          0.34080420642 0.01240682544 0.097318261423 0.49072560366 0.048024302756 0.34072608808
          0.37839340776 -0.021855531677 0.0543254767 0.4864846385 0.045196544733 0.34153386143
          0.30419807504 0.0067782143505 0.075366953205 0.31196619211 0.01630795516 0.061440962908
          0.32340442048 0.0094953309792 0.087410626048 0.16503768198 0.031849192336 -0.038507258377
          0.48546724315 0.041716229339 0.3538262931 0.2982503249 -0.034779196509 0.053444276831
          0.28743934885 0.070491535547 0.047147766531 -0.371291618 -0.0099626577621 0.12017723462
          -0.35424642857 -0.013101294282 0.11535006569 0.45000754471 0.043653858407 0.22110042875
          -0.36568324053 -0.016949677439 0.11252708776 0.44890741289 0.047487335053 0.25764636121
          0.45125220023 0.051894634472 0.25424923126 0.44962700065 0.052770920879 0.25695688014
          0.44873973865 0.05670796579 0.25874572618 0.45530900361 0.046950253219 0.2565183292
          0.43229651475 0.04964728102 0.26007672029 0.4372832345 0.073956959329 0.26195296901
          0.43697766866 0.074131702166 0.26201177295 -0.34020663507 -0.027310135914 0.12345207159
          -0.31832121984 -0.011382873231 0.10575298506 -0.32732023893 -0.018098629249 0.10137609978
          -0.29543443337 -0.019629369589 0.082946049544 -0.28264836061 -0.014318917719 0.096616669616
          -0.36867935102 -0.009457347425 0.12276904017 -0.14539589946 -0.017888887468 0.045758965775
          0.15495766057 0.024907458319 -0.0080840167079 -0.13038979238 -0.013922929027 0.018044937917
          -0.15443270637 0.017264500942 0.038277924974 -0.13330823456 0.025832656838 0.047351309092
          -0.14349580446 -0.019629414362 0.04680795213 -0.30896746491 -0.0123437878 0.071761858287
          -0.26571245244 0.0016348446228 0.0071135881842 -0.26884415962 0.0045335914954 0.0047400636494
          -0.26890989021 -0.0041953588822 0.035622695606 -0.26144232637 0.01029909883 0.034802034266
          -0.30235197747 0.0066131751606 0.064094159564 0.48990908585 0.048748976655 0.35486122015
          0.48808418478 0.042238610521 0.33932170591 0.4663081771 0.00062338976758 0.23260389513
          0.42436130747 0.044679448006 0.19404552636 0.43053837233 0.036844510311 0.18611855271
          0.4478116195 0.018322685687 0.19815876108 0.44158029743 0.029145928438 0.2356369021
          0.48701359417 0.028180254917 0.34811349694 0.48977413154 0.019900249624 0.34967102655
          0.4447612261 0.14953337782 0.21174329893 0.42774474383 0.038263232213 0.17485766786
          0.44964020005 0.018071898612 0.16617180839 0.31872461126 0.0073770823867 0.16250888554
          0.14091242878 0.05445468343 -0.03528740078 0.14373482507 0.043304724325 -0.046419668068
          0.15742198569 0.050507538834 -0.057171679608 0.22878059308 0.026727174711 0.011139346284
          0.21912442415 0.049599092567 0.049256762241 0.22828915351 0.063568636094 0.049140149318
          0.20874049837 0.050172712842 0.065966713605 0.22557428869 0.032309653009 0.079398959065
          0.22763864392 0.03084959192 0.070004497746 0.24115330481 0.047802669921 0.090106275399
          0.24121572565 0.045757196124 0.088856985622 0.26529926512 0.056961788625 0.091832546722
          0.25602924343 0.061133897155 0.09582842904 0.23928360572 0.039674681896 0.069526116228
          0.26046205599 0.056849781149 0.072119187691 0.25374655811 0.032215539505 0.081844362235
          0.22478460966 0.047643951785 0.056906981136 0.21263250886 0.055835645666 0.050943489973
          0.21073269927 0.064331953861 0.052100467536 0.23599443659 0.04607172984 0.064140808128
          0.44548807128 0.025566575707 0.20258189222 0.43216851324 0.063877063656 0.20410451066
          0.43137047013 0.062372680966 0.20399097873 0.42605094051 0.019927259403 0.20148730005
          0.47547311921 0.15267354561 0.21065116901 0.28300349603 0.064622724697 0.067402678183
          0.48850125615 0.031415138592 0.33667466739 0.4941228492 0.041310918916 0.35046262015
          0.4912202465 0.036236191802 0.3630555767 -0.26796021048 -0.029854950768 0.029684714852
          -0.25445254306 -0.028377343962 0.053653834029 -0.27551121267 -0.042581264721 0.060395066237
          0.47833620981 0.046490735105 0.35413492564 -0.27741100399 -0.015215602755 0.093773537592
          0.45852839345 0.021154124009 0.25575692739 0.46284287814 0.0042366668174 0.22944202289
          0.4586855597 0.069773699024 0.23777246433 0.44760756254 0.070101946915 0.24351576911
          0.43836441331 0.02159129973 0.24370251887 0.46777104145 0.0067046032995 0.22713381314
          0.45986506697 0.019826744188 0.25121871688 0.30164063543 0.050657205437 0.09657265457
          0.46834119484 0.050136417832 0.2520308606 0.46631212477 0.031713173224 0.27148318999
          0.50192100058 0.037762588276 0.24594940737 0.45569504221 0.040141636926 0.26891009696
          -0.19342331209 0.010370726767 0.028034983544 0.49449651965 0.046441511871 0.360903664
          0.49267246516 0.048319607134 0.36037574977 -0.1973951735 0.0119800558 -0.0076751919052
          0.49259581014 0.045512315007 0.35985251064 0.4911315602 0.044904599106 0.3590615015
          0.48982217149 0.047797735624 0.35490296852 0.48748532814 0.021332691537 0.34907492648
          0.48189573817 0.043373374406 0.35038978263 0.47354125847 0.027789092813 0.30664346711
          0.46253819609 0.035181277096 0.31631136937 0.49760375542 0.024523348831 0.30054726524
          0.4899103284 0.070024630812 0.29248048734 -0.36318376358 -0.010553822974 0.13754834073
          -0.36283275996 -0.010558884105 0.13601494333 -0.3641160683 -0.01226390222 0.13552342555
          0.40419033185 0.016211336119 0.16922913905 0.40417539786 0.016264388853 0.16926288523
          -0.3566440008 -0.0089802327098 0.13078277268 0.40688597529 0.028149750499 0.16526138478
          0.40941299257 0.021132263136 0.15974453794 -0.3634283662 -0.0090498951449 0.13732473049
          -0.36341798908 -0.0094540286174 0.13762731807 -0.36206389994 -0.012785099625 0.1389082396
          0.46775282861 0.039877729715 0.28097888769 0.48834338513 0.038140243303 0.35910017877
          0.49237324654 0.044263115895 0.36518410086 0.48815693537 0.034620204391 0.36220654391
          0.49216487569 0.038071173188 0.35826369919 0.46135150893 0.044498919559 0.2990448499
          0.48864127164 0.037859489139 0.36031749124 0.48912270625 0.037607545931 0.36207364933
          0.49084762455 0.050221732123 0.36949906248 0.49074198169 0.041244117798 0.35357859493
          -0.36604878308 -0.0052730252795 0.1375578285 -0.3665442162 -0.0071893213417 0.13630171077
          -0.3708558542 -0.0077615478045 0.12708227014 -0.36427687933 -0.0071358419311 0.13682975549
          -0.36069286803 -0.0072292709025 0.13455723027 -0.35597681076 -0.003208523104 0.13066490649
          -0.35514275437 -0.00019124769762 0.13546912924 -0.35736339196 -0.00016070739619 0.13088851946
          0.21962296861 -0.0031620279719 -0.035795476897 0.21691767417 0.0043030890967 -0.036179000772
          0.2505341053 0.0053625608361 0.024502187786 0.19262182798 -0.0085236384254 -0.01475861342
          0.19280327041 -0.017924263001 -0.025068079646 0.20415217183 -0.0049603013344 -0.022369531407
          -0.22816067747 -0.027816657771 0.055021976167 -0.22768177736 -0.055577530865 0.084888007079
          -0.21218366339 -0.01546077743 0.0045938567121 -0.26243811405 -0.040651735811 0.047193397064
          -0.26869601753 -0.043029729135 0.033444570666 0.48490570127 0.049086154193 0.34760352072
          0.48112529251 0.051192331882 0.35076390279 0.48214650534 0.050897074785 0.35055023023
          0.48152582541 0.050745342717 0.35049873546 0.48321081462 0.043854641267 0.35094274148
          0.48878686733 0.049854368867 0.35121220883 0.48369181895 0.046781364667 0.349546223
          0.48719372969 0.047851339864 0.34567832906 -0.36614501775 -0.0048685042155 0.13036929385
          -0.36355100532 -0.014462970177 0.12869484944 -0.37277181939 -0.0065697204358 0.13304044203
          -0.369999764 -0.0032000925514 0.13208597897 -0.37060604905 0.00038736029355 0.13511598123
          -0.37453934279 -0.0038934613783 0.13679671907 -0.37151380565 -0.0092366508061 0.12845163342
          -0.36803374135 -0.0045712061559 0.13010220311 0.48557951598 0.045294295539 0.34141490079
          0.29399668906 0.0041722660615 0.10771451173 0.28448583447 0.03884576021 0.14751203943
          0.48468349386 0.045380089407 0.34230443973 0.48302392799 0.045387810057 0.36144290206
          0.48288144421 0.044933324174 0.36148373048 0.30686893083 0.023324770927 0.13677845185
          0.48341750758 0.044605944602 0.35927170483 0.48107281259 0.043806839798 0.35889852823
          0.48356233061 0.045776423588 0.35421247916 -0.1986229007 0.012381400235 0.057678812077
          -0.21818631133 0.022661741378 0.053253330076 -0.20328988751 0.013505112478 0.075446829829
          -0.2404546999 0.031297467438 0.091651673241 -0.22689475645 0.016780998463 0.044291583936
          -0.34079950325 -0.023887043138 0.091815720165 0.48637858492 0.0470544226 0.35276579489
          0.47077196675 0.05786449914 0.3070725546 -0.3685115274 -0.0060833538689 0.13166980698
          -0.34665283663 -0.0084880812673 0.11499102789 -0.30922841087 0.0029260375696 0.079714321234
          0.46191568101 0.022607458307 0.27538156103 -0.31880634149 0.0017382867284 0.091497930779
          -0.30009594003 0.0041297989766 0.091158947499 -0.32892182856 -0.0046620437499 0.11833312849
          -0.33136834828 -0.00033773098328 0.11322616627 -0.32937642672 0.0074341774463 0.11551480547
          0.31512775997 0.06122984953 0.072372590566 0.43908558048 0.02374545877 0.22124997752
          0.4303772517 0.044841188988 0.22778405453 0.4313889286 0.035749453386 0.2266073932
          0.47873313931 0.045906304673 0.35398929936 0.48106236848 0.054740844945 0.34545120977
          0.47791256419 0.045211831749 0.35399179693 0.42671136277 0.020051591537 0.23876176443
          0.45169995425 0.053226459805 0.24110218206 0.4419167512 0.023637814793 0.23990347237
          0.43174518638 0.052284423917 0.23966790537 0.44712525141 0.041966880364 0.21847117405
          0.44449185707 0.023433764406 0.23535943194 0.44818661075 0.035840797439 0.23656153713
          0.45222012216 0.0332882818 0.2673516303 0.45986334323 0.026959948296 0.26957953327
          0.46192366034 0.025939513507 0.26289643757 0.43986771752 0.04573819916 0.24013383036
          0.42989226043 0.038863519982 0.23930788474 0.43412155166 0.016136939859 0.23922183138
          0.45832609194 0.037861301123 0.27748971965 0.45431222007 0.044632873548 0.28219541759
          0.46270604467 0.032361507993 0.28200627972 0.46559003627 0.022983840107 0.28351031773
          0.46656997699 0.046079448324 0.2907326094 0.4516709622 0.017002774004 0.26316677685
          0.45198630108 0.018582805285 0.26237770472 0.46429607228 0.038293504632 0.29128948681
          -0.32793697409 -0.0028865273121 0.10684447674 -0.32920613216 -0.029719419177 0.10423286283
          -0.35783822626 -0.0060721475395 0.11537803227 -0.35951907383 -0.0139617503 0.11888923935
          -0.35702345557 -0.01144218201 0.1227144578 -0.34476514429 -0.022193590338 0.11101444298
          0.49232143924 0.04854345968 0.35871969059 0.49258045703 0.048240600281 0.3583859884
          0.49720264364 0.051741265929 0.35205203943 -0.34068471332 -0.0095305198091 0.10441243944
          0.49773281627 0.048891103637 0.34061463478 0.50326264136 0.055638971818 0.34146872047
          0.49028295297 0.04444707077 0.35477027063 0.49755931192 0.054614665909 0.32095940351
          -0.23025608696 0.0066656622486 -0.0033969281736 -0.21521322182 0.021182068652 0.0061732126261
          -0.20166662897 0.011045556243 -0.00093088031237 -0.22226054141 0.0013610324415 -0.0071305178794
          -0.22180700101 -0.0003224430354 -0.0054074439846 -0.23452168559 -0.098521155934 -0.074578147939
          -0.21729311985 0.024032581226 0.017641230908 0.41505034808 0.060615436248 0.25425020219
          0.43516160008 0.058475229587 0.24346427899 0.4377245141 0.059937004433 0.24313401211
          -0.35897965632 -0.010730358283 0.11629102461 -0.35290465633 -0.0064429605028 0.10838583787
          0.027458149225 -0.015447324961 0.012309081324 0.030111365644 -0.014570309796 0.0064558061663
          0.08707947369 -0.019316421623 0.039689668304 0.088096769741 -0.019900442293 0.038716485485
          0.08454675574 -0.01764564466 0.013863808166 -0.28092101306 0.01793056236 0.096502803451
          0.068617385395 -0.0084834238488 0.026846592002 -0.12905359297 -0.0058527759548 -0.019454560348
          -0.11518914927 -0.0061823864251 -0.0065079112148 0.020914359375 0.027398809156 0.023309712111
          0.48041368477 0.043331854888 0.35084799042 0.48037482816 0.043360032646 0.35078538048
          0.22293216865 0.0096691813815 0.064319557327 0.43967765497 0.042870144408 0.25847570747
          0.45607930471 0.054328021186 0.24580766938 -0.37152611095 -0.0097797513559 0.1250730724
          -0.027389042722 0.0043503513801 0.02112151813 0.46816420295 0.060474729391 0.26627581412
          0.4675575268 0.059019931337 0.2695178031 0.46438076439 0.018509156242 0.29062787678
          0.26293085317 0.032043937682 0.068992295692 0.24191565437 0.032755437641 0.063189027293
          0.25116097671 -0.00080314730347 0.07212827066 0.25065175081 -0.0002861288255 0.072537962012
          0.25678985433 0.0091931153921 0.076043973867 0.27293387507 0.0084770049435 0.071480329374
          0.27339548607 0.015303246548 0.075029747586 0.29825559163 0.017193843877 0.10745317207
          0.30334787029 0.010983265348 0.11123122173 0.29505611609 0.011034390098 0.14393494566
          0.30793068538 0.028160928025 0.13028960171 -0.21743111083 -0.024200641916 -0.0099546517392
          -0.24172230018 -0.01477268924 0.046490076185 0.48041822632 0.027648906083 0.3510697748
          0.4814752283 0.050955895279 0.35014816236 0.48151247293 0.050334170109 0.3508256821
          0.48182506267 0.047467375805 0.35535511603 0.48150190575 0.045717961651 0.35299158655
          0.48218533458 0.045156238204 0.35356772198 0.48223023786 0.046350177 0.35488289541
          0.482712082 0.045840190732 0.35517084182 0.4817259713 0.044633995222 0.35323950089
          0.48139874663 0.044512432677 0.35328687237 0.47907455413 0.048550007486 0.35428009521
          0.47839577365 0.048762761782 0.35444348726 0.11670928772 0.034732746212 -0.026626781309
          0.11083324844 0.049077448162 -0.018460201474 0.070563678769 0.049886128737 -0.025064274124
          0.48258519843 0.064019034351 0.3452977466 0.48440757625 0.051300190613 0.34741717587
          0.47966078057 0.046137252139 0.34770708542 0.4802642607 0.047038201832 0.3471311639
          0.48004662937 0.04637589884 0.34808254119 0.48086475466 0.046318738789 0.35011995995
          0.47955773254 0.046339873484 0.34852095543 0.47726890636 0.047972942193 0.34846518158
          0.47774850857 0.046647814093 0.34962703253 0.43908533582 0.06645632185 0.19225666843
          0.45783155638 0.05849548638 0.18730281065 0.42211918157 0.050101490598 0.17424859217
          0.40758953559 0.026167270991 0.14934869172 -0.33231235192 -0.017811852265 0.068475081586
          -0.32238852446 -0.025932126736 0.07224909137 -0.31693913754 -0.0094671013304 0.081480702369
          -0.33427326779 -0.010233281611 0.0862977772 0.28751250457 0.022434539282 0.076160981769
          0.28639662471 0.039038717972 0.11561363276 -0.3350793453 -0.0093216226669 0.086365265844
          -0.32003300493 -0.005303305936 0.081629911988 -0.31961915616 -0.0045502174434 0.081393497944
          -0.32619921621 -0.002574626607 0.077724849421 -0.32799063351 -0.0072630645096 0.079508864238
          -0.009237530405 0.014216118579 0.074904716435 -0.0047368340482 0.012458702017 0.074341440155
          0.10725340415 0.10952482166 0.0039141979299 0.11165823532 0.078972649111 0.014914847465
          0.12508467115 -0.014835056791 -0.064014337949 0.029578415203 -0.077796405238 0.0040854649588
          0.16822956201 0.025242693762 0.12163145263 0.12391036238 -0.0055318892473 0.12426004911
          0.30229948364 0.16784550869 0.16715227054 0.27952836094 0.041909737348 0.15400587715
          0.48591438973 0.042286350717 0.34377005744 0.48297245673 0.041649746663 0.34318791462
          0.48211877366 0.042033600873 0.34335090079 0.47735884027 0.041203210396 0.34733417801
          0.48324590262 0.040950803358 0.34373183059 0.48938969984 0.04328770349 0.3442966541
          0.48211421677 0.039108727637 0.33288847303 0.48312242602 0.039144703812 0.33033734663
          0.013371192686 0.019126002754 0.051169802995 0.47801347311 0.046172823062 0.35310819615
          0.48307844084 0.043458740176 0.35945967688 0.47204131758 0.045182769657 0.33022356943
          0.47524095996 0.040118745975 0.31886022361 0.47764077839 0.039134905896 0.31929853746
          0.47188974203 0.043670270506 0.28693234426 0.47138690364 0.030817727119 0.31339112344
          0.46383358245 0.036031677948 0.31293881297 0.47396842751 0.045377139881 0.32070216405
          -0.15670963421 0.0059868048531 -0.043664268237 -0.16996376251 -0.0067798991284 -0.037175938291
          -0.21147038112 0.040510657412 -0.021796678638 -0.15771383217 -0.0092472969571 0.030911539666
          -0.34364807198 -0.013048075458 0.10270720016 -0.36077815387 -0.0081343054748 0.13519821956
          -0.36112500284 -0.0080862777206 0.13381173069 -0.36312680999 -0.0093661148552 0.13375105656
          -0.35731871883 -0.0056285970471 0.1384064605 0.47841111603 0.043717116143 0.35218498804
          -0.2356405311 -0.015093500989 0.014068961241 -0.086550171111 0.029015018128 -0.016184684221
          -0.089955303231 0.020595263316 -0.012617392022 -0.061387925453 0.0072250179491 -0.025203319175
          -0.025036158935 0.027256544426 0.0025894307758 -0.026279761306 0.028168099244 -0.00060564004883
          -0.022215505707 0.0081123614208 -0.01754868635 -0.022994095391 0.0096440414025 -0.018007973831
          -0.027362425539 0.02665262025 -0.00014195180149 0.41866572607 0.057667099137 0.21607502257
          0.40527760274 0.05862347264 0.22711780259 0.4473008776 0.080377938272 0.22863565654
          0.47652757165 0.056206351844 0.3032521523 0.45494363996 0.041710372354 0.28117040349
          0.46098574393 0.050439009583 0.29106149067 0.46086934958 0.050869419252 0.29134634396
          0.45800281262 0.052509098649 0.29124503404 0.46769567727 0.063861156249 0.30500732182
          0.48893666547 0.059451529109 0.30551422272 0.45801439012 0.055221788027 0.2911804674
          0.46153432671 0.056570614213 0.29122453152 0.46235498333 0.057798990401 0.29000268174
          0.45937155114 0.059065219814 0.29550218229 0.46285134242 0.048213625737 0.28735804186
          0.46385547457 0.050390902275 0.28598742731 0.46234350898 0.054634690727 0.29426271248
          0.48119700142 0.048558115708 0.31243132664 0.32017467748 -0.00096832401394 0.051062786835
          0.33453541155 -0.0029958903651 0.10068369786 0.37630636478 -0.011541922432 0.10115629601
          0.35355609092 -0.010799549856 0.11133419355 0.28383496127 0.029888542959 0.1047033185
          0.39253250386 0.0056487353735 0.18945751454 -0.024689558541 0.042052605826 -0.0028169704448
          -0.056449867204 0.022578209826 -0.03432525291 -0.054538551762 0.026371007752 -0.022291045616
          -0.017276972754 0.03400249299 -0.044184817131 -0.048290211887 0.036645407152 -0.025523332875
          0.4123702133 0.05846970619 0.21970650229 0.41078368847 0.063904604941 0.21832243747
          0.43091200517 0.065434261083 0.20699553384 0.43085639473 0.066225622885 0.20670076331
          0.45181714475 0.074849725955 0.24502692371 0.43945389587 0.012709848753 0.23595056747
          0.025436208041 0.035619958283 -0.052933461971 0.020129272429 0.035377860008 -0.057680194785
          0.016336155002 0.022359850205 -0.074485185499 0.035914518174 0.019870939332 -0.060504955545
          0.039965219256 0.019440213847 -0.061355974494 0.075805525948 0.016642829676 -0.11393982573
          -0.24679013765 -0.0084507156239 0.054986068211 0.20057434035 0.071120251482 -0.031492131865
          0.17188407199 0.023219855484 -0.035134862687 0.17434376233 0.055282359695 -0.022484266311
          0.17328740793 0.053900191857 -0.022450019131 0.20434601679 0.066296153595 -0.035921568907
          0.48387619568 0.046166479266 0.35001731704 0.4845312426 0.047689338443 0.3516280101
          0.4857991468 0.049281426869 0.34995440184 -0.021084355065 0.0015742177226 0.027347881194
          -0.01853954303 -0.0062254287071 0.021998950303 0.32848144723 0.11583232874 0.20753186435
          0.35983929663 0.046843466794 0.15143168219 0.32683376937 0.051074272819 0.1619151013
          -0.12354992691 -0.001309016638 -0.034888585833 -0.13149709399 0.011069707397 -0.029557555068
          -0.12488673641 0.059227433541 0.0068882228465 -0.14833835681 0.039575728713 -0.016670230536
          -0.3252249442 0.010449188554 0.091667390377 0.48375163281 0.048268690115 0.35056160174
          0.48754738537 0.042352440104 0.35267202974 -0.27356054689 0.0042239577393 0.02229134685
          -0.26323424564 0.014555246009 0.014166810646 0.47941150149 0.044547395199 0.35906245148
          0.49084671325 0.041915297964 0.35179900302 0.49439011017 0.042908293489 0.35193958905
          0.48627106259 0.0404329277 0.34621500035 0.48455833149 0.042029231584 0.34915326044
          -0.12015534967 -0.093404442466 -0.055202777005 -0.1146584774 -0.2938559706 -0.19475204581
          -0.14416101343 -0.078962276109 0.044796747083 0.49220475751 0.05571333842 0.358570665
          0.49413956101 0.056690901096 0.35594009455 0.49129906861 0.05114468641 0.35295520679
          0.49109092951 0.050898471691 0.35300327573 -0.34300643018 -0.013296492597 0.12756804202
          -0.32908061724 -0.029857400981 0.10444715764 -0.34139013583 -0.0081154578993 0.12596164914
          -0.34889280782 -0.017200018856 0.13568769138 -0.34726257246 -0.0055450160268 0.1350423783
          -0.36105288013 -0.017849622647 0.13024133029 -0.35579161763 -0.011439015603 0.13186896058
          0.49170459359 0.047946235126 0.3407184883 0.35990730594 -0.015371760625 0.11875365057
          0.39992688006 0.010729862647 0.13780341188 0.40790766693 0.0089185106812 0.17259915656
          0.41382745063 0.016215889161 0.16023638747 0.4129573467 0.019569699642 0.15790367114
          0.38121600522 0.0092065182471 0.15704290501 0.38793474467 -0.0051595901973 0.16773623933
          0.27835539637 -0.073714630612 0.029873458889 0.32842007285 0.016180683048 0.045931471272
          0.29201188069 0.098204267496 0.069276816847 0.32056164695 0.00018212723154 0.10866648938
          0.45291187713 0.13548973354 -0.030762054665 0.44661287277 0.021405492584 0.034655969081
          0.66584221603 -0.0038886104552 0.23170045145 0.40441621218 -0.021172664679 0.026103684627
          0.32072365784 -0.0020661892377 0.11178669298 -0.17674703952 -0.019134838799 0.050837856487
          -0.19284687072 -0.039471789639 0.068230840197 -0.20081395328 0.020552405919 0.084150153598
          -0.18064138029 -0.016647285642 0.048934601499 0.24823340682 0.05060015562 0.024090608552
          0.16476534528 0.0011637522045 -0.030373820743 0.16461510841 -3.9049821944e-05 -0.032270629434
          0.16691880151 -0.0022663478076 -0.029466562014 0.16138660372 0.014305782175 -0.040226652042
          0.14614353577 0.0052192974534 -0.010405546397 0.1550625553 0.025101841646 -0.0080453646072
          0.14641937232 0.0044738888808 -0.0099569010902 0.097749890704 -0.0067561482496 -0.049696007689
          0.12634156166 -0.0062984044751 -0.063337019863 0.11422820429 -0.022255571295 -0.0681555735
          0.16406346132 0.02976124982 -0.03947338149 0.23167160802 0.065271120673 0.08808329532
          0.23607654267 0.087873525545 0.064767517806 0.24460827567 -0.049557448384 0.058048693127
          0.48682894429 0.050864872729 0.35015880407 0.48551042956 0.047517542607 0.35163216829
          0.48250562616 0.047234420415 0.35136971808 -0.10204028027 0.013689386293 0.0074075724409
          -0.11516297979 0.02804578873 0.017224926022 -0.1097719991 0.02739129854 0.0035605304717
          -0.117911593 0.030847682967 -0.004870622213 -0.10806957298 0.025124034353 0.0030304554953
          0.48744082547 0.036428228125 0.30860821366 0.48614253714 0.033475499146 0.31056559859
          0.49284660348 0.019451848683 0.31246598758 0.49404719424 0.039288539991 0.34725087055
          0.48821515491 0.028478160158 0.34624065203 0.48747102362 0.03244648614 0.3473085119
          0.49191151251 0.035034155027 0.34681476796 0.48989403887 0.037454228623 0.34784378798
          0.48535469594 0.038070782209 0.3462508583 0.26162651169 0.041932372354 0.070834722104
          -0.21991798843 -0.0053207351677 0.044678516205 -0.22246696677 -0.003418966329 0.043106836007
          0.47890232251 0.043731647198 0.34954551322 0.46268384856 0.056019473975 0.29173949769
          -0.36528894171 -0.0059532091427 0.13057317883 -0.15542241838 -0.0076448437132 0.017422864958
          0.46188994503 0.05560156723 0.29225074962 -0.22413978716 0.0051519734418 0.015729085007
          -0.19401773068 -0.019426875946 -0.0051703480415 -0.19259565477 -0.017124956077 -0.0053377818666
          0.48817201147 0.051442554461 0.33309618937 0.48541317821 0.047744794852 0.33911017806
          0.4670689389 0.055183898858 0.31996422747 -0.36938053906 -0.002427088999 0.11857073848
          -0.3671435139 0.0037814496815 0.12673397546 -0.36831147847 -0.0064161178836 0.12205314755
          -0.36336614649 -0.0048140341045 0.11513529416 0.19457524348 0.039300438844 0.071959220927
          0.16465327783 0.034188333651 0.0851393465 0.23478446077 0.083984623761 0.054116180257
          0.2321716639 0.089311935706 0.06512731196 0.22940922434 0.065692925974 0.088680979063
          0.27513406648 0.05217344087 0.15449439973 0.29099897692 0.065823255661 0.15666652312
          0.28907772686 0.051767911353 0.17037615848 0.1805635436 0.037205727954 0.066740604094
          0.24429438535 0.043815218569 0.20158415761 0.27591790242 0.019526672905 0.2065217878
          0.29211823568 0.065152479139 0.15667090935 0.49037534699 0.042619178543 0.34434822154
          0.48371840191 0.031758106699 0.33806502797 0.48054401734 0.042797680607 0.33448072163
          0.47834640743 0.061489441257 0.32166523886 0.47535946375 0.042507012246 0.34576205235
          -0.253381604 -0.00825651992 0.03720865193 -0.26311252394 -0.010615442702 0.038296262811
          -0.26258750202 -0.012032633843 0.037650850926 -0.37308688033 -0.0070937582647 0.12220603431
          0.44727762983 0.047757805908 0.26351368295 0.45639317068 0.027506597338 0.2775293558
          0.45829384206 0.046511536622 0.29235346785 0.46574410684 0.033069559915 0.30700300811
          0.015865966915 -0.022466822571 -0.038611151196 0.034433217738 -0.016775679912 -0.032159127857
          -0.3708794719 -0.0031758917906 0.12280963842 -0.37248113356 -0.0012674820827 0.12798903273
          -0.36329423341 -0.0093916196419 0.13182284941 -0.28671429035 0.0091642398962 0.067793142881
          0.076179107547 -0.004875086377 0.018773317843 -0.28586301456 0.0097034695553 0.068068407346
          0.4720325769 0.036725209446 0.31734092695 0.48479870509 0.031197660439 0.34043161923
          0.48160778031 0.036756735459 0.34346051798 0.4723633061 0.045533368129 0.34552508022
          0.01726471286 0.039304680987 0.024574961501 0.48392315932 0.041973660403 0.35095443379
          0.48424298486 0.043614232211 0.34945868246 0.48120131358 0.046784807287 0.34892695759
          0.48275649323 0.046563881985 0.34809820068 0.47918514057 0.049772798757 0.35420182747
          0.47785888797 0.043233103412 0.3538732617 0.47810401985 0.046886572193 0.35084338045
          0.47677855306 0.043262866492 0.34683354041 0.30732692421 0.017855087094 0.1084493685
          0.30877033938 0.019458855185 0.10910332187 0.30936720876 0.018863064225 0.10553843923
          0.30593840023 0.019652566673 0.11033763607 -0.17028020161 0.038509196753 -0.021107426984
          0.28220950469 -0.011610913411 0.083339747519 0.31509693428 0.041309259246 0.096630888392
          0.31043461909 0.019210636431 0.10402225176 0.31004987474 0.020300760222 0.10278059195
          0.31927205304 0.023162106235 0.091429132065 0.3162900944 0.0061236832017 0.096265059257
          0.4737452337 0.033044802395 0.28225968446 0.46601577363 0.023271054177 0.2819601379
          0.48021700318 0.032008762768 0.31392109096 0.3052728995 0.058140722926 0.078555769376
          0.30744182963 0.060702915091 0.080127080386 0.28949344413 0.04457376844 0.077750149647
          0.29915845316 0.029067996561 0.056427358801 0.31428923225 0.0192425375 0.117290733
          0.30544206727 0.017301682888 0.11663563466 0.29414081472 0.017755914493 0.10246628601
          0.28358027097 0.02325848486 0.066145639708 0.30103736644 0.010076916693 0.11835732544
          0.45261420989 0.041435766757 0.26148862073 0.46308487856 0.031441908313 0.27203640903
          0.4617585419 0.032050685261 0.26289432964 -0.3410391539 -0.011122684584 0.094096417991
          -0.34036089361 -0.011058226163 0.097145393948 -0.26075587533 0.0041074941554 0.10348172236
          -0.32334322372 -0.0038477258906 0.078730282733 0.081023749221 -0.017391703833 -0.031026826823
          0.023178173393 -0.021455722599 0.0093861772935 0.077280958263 -0.028997828835 -0.0051461864393
          0.084251907702 -0.014523002022 -0.023744496311 0.081159668664 -0.02365293057 -0.0042645177873
          0.045631815347 -0.015825167707 -0.014613878943 -0.3074558057 0.0065119946123 0.086993191081
          -0.30726516165 0.008404667599 0.08562040214 -0.30998295647 0.005801981415 0.085362752274
          -0.31063587573 0.00096656293525 0.061962163666 -0.28767595223 0.012249651125 0.06464458395
          -0.28802092261 0.012048220753 0.064519912614 -0.33056547299 0.020750235961 0.090076858399
          0.48730736369 0.018324012327 0.27478588852 0.47239358526 0.025203665089 0.27965857197
          0.33520986867 0.048169576517 0.14797866685 0.33396777908 0.051021665814 0.15411843763
          0.38409360268 0.04557014313 0.21050838295 0.48235481628 0.03550044102 0.33746046913
          0.47332728418 0.057641728136 0.29341510516 0.47620506949 0.04157865266 0.33033901278
          0.4760057978 0.043418139117 0.33267195525 0.47528925116 0.04317222602 0.33231229772
          0.47562098758 0.041561056796 0.33027902593 0.47516467557 0.04227234968 0.33016958169
          0.47606965188 0.048845529692 0.34580490982 0.48312389945 0.046299375154 0.34031736057
          -0.34097413157 -0.0018613430739 0.13622692487 0.3657976767 0.02978824896 0.11071312459
          0.36453187076 0.028428884852 0.11152367148 0.36363709651 0.02566055941 0.10883547378
          -0.3514905104 -0.015751624137 0.13674877488 -0.33917568016 -0.020684047287 0.11992362623
          -0.23576402017 0.019454848981 0.070427026609 -0.22601090033 0.014547416151 0.041695292163
          -0.22406944393 0.017139156228 0.049105333185 -0.22686554142 0.014983833667 0.044236496698
          -0.23646654556 0.011150196441 0.040642210189 -0.22738275807 0.0043270198314 0.05210734787
          -0.21955846945 0.0063165760474 0.055912098669 -0.22590094227 0.016855317239 0.043450615173
          -0.21906113972 0.016615116698 0.06376480892 -0.22269247234 0.027961410993 0.059913342265
          -0.28494425934 0.0066427125441 0.077126806915 -0.27951624295 0.0052934253767 0.077466786732
          -0.28198742255 0.0095771304976 0.068553749476 -0.28152037247 0.010270562504 0.0666507984
          -0.28327013092 0.010618171859 0.082205167353 -0.28180402351 0.017970818937 0.091036604789
          -0.28583099639 0.0057606431725 0.089620357442 -0.28025710543 0.018130301118 0.078620573517
          -0.34191691166 -0.0027081918123 0.097846815937 -0.32825667829 -0.0066576773747 0.10374022336
          0.42492667115 0.045346867668 0.25856643681 0.46210726066 0.040583247012 0.25630135842
          0.46291313035 0.042224766612 0.25616904258 0.47185647214 0.01945384886 0.25665567237
          0.44095746596 0.0021360824659 0.25955291473 0.4517670819 0.0015308118493 0.24735870578
          0.45281110282 0.025015037589 0.28568209949 0.4528430082 0.024934221822 0.28574811471
          0.45762404585 0.030744146777 0.29031744126 0.47277334993 0.018855778751 0.28673092341
          0.47695679712 0.026400546578 0.28676737954 -0.29264896394 0.007145703071 0.098985375548
          -0.29270077886 0.0074197074318 0.098736666686 -0.28048403292 -9.0282861195e-06 0.096261941479
          -0.28079156546 0.0012391066561 0.095189994549 -0.28438537638 -0.011529612079 0.07967841061
          -0.30420885542 -0.0086537237269 0.078013752791 -0.32306616511 -0.0045190931045 0.10776226633
          -0.31620866675 0.017544798448 0.090882902872 -0.33518510981 0.016050443726 0.10719435916
          -0.32795357597 0.020515434215 0.11259825003 -0.32766907364 0.022408579951 0.11528766386
          -0.35110423651 0.0083678622454 0.10657367813 -0.35719344953 0.0039094720049 0.10547413032
          -0.36086919142 -0.0033317493039 0.11179953723 -0.35712910122 -0.0030816201492 0.11629715593
          -0.35051356173 0.00050397957034 0.11361244529 -0.35766556923 0.0010833949453 0.10246379657
          -0.34141621964 0.0064969706902 0.1036276964 -0.33144216847 0.016318187607 0.081008311449
          -0.33065670364 0.014286007047 0.089301275771 -0.32980085738 0.011023233318 0.089901457967
          -0.32596498581 -0.0054232225067 0.077925639195 -0.33158944647 0.017695617782 0.087469938969
          -0.34294994481 0.0032977041171 0.10030778212 -0.32670112484 0.020998314802 0.076484663375
          -0.34298403371 0.0022706020482 0.095070748211 -0.26413085164 0.0097623113903 0.066762147077
          -0.26568936179 0.00010063241713 0.050074287258 0.4058844377 0.05346557849 0.24123107625
          0.4590715784 0.06865558246 0.256374094 0.43713011346 0.0792980918 0.26290036809
          0.46628435046 0.038527309153 0.30972160005 -0.25418051692 0.0090039066415 0.033641151661
          -0.26687553106 -0.0046121287053 0.033410266538 -0.26638369594 0.0017423902457 0.050395572593
          0.055656668958 -0.0046110593896 -0.048756137144 0.055537115612 -0.0046846850481 -0.050349213907
          -0.35426645535 -0.02359728893 0.11175227411 -0.35164845208 -0.0060705885643 0.10898227063
          -0.3543044386 -0.0077105319438 0.10680635736 -0.35701305766 -0.017749341736 0.11854518119
          -0.35992776291 -0.01391185919 0.11403214255 -0.37196783193 -0.0124473444 0.1210341942
          -0.37286662705 -0.014950844619 0.12621408936 0.47731508605 0.052604193404 0.31934126181
          -0.36680966799 0.0051447372244 0.12460917847 0.4832808014 0.044798212761 0.35237237299
          0.4830742004 0.044822407094 0.35273030376 0.48411131305 0.04622250622 0.35304573519
          0.3282572565 0.049756838244 0.1628662335 0.32524695534 0.044612034876 0.17066050457
          0.48590559077 0.046202378655 0.35332815139 -0.22943833838 -0.005998890426 0.043814919628
          -0.19882455616 -0.048257965832 0.033628083703 -0.22410110285 -0.010559922519 0.051439950643
          -0.20797328137 -0.0082077643396 0.048606260915 -0.20831730794 -0.007848310242 0.048799052087
          -0.21124876175 -0.010176972908 0.048699888253 -0.16000958437 -0.00083298448111 0.0093119186454
          -0.16980959798 -0.021184020277 0.021410280206 -0.17014094395 -0.021108250366 0.018842499378
          -0.17450663999 -0.01366245067 0.018922439738 -0.15657784006 -0.00061903428785 0.032014327408
          -0.20720602017 -0.0075520574437 0.0042434889512 -0.23189117507 -0.011240185874 0.015731944505
          0.48587984165 0.050310847577 0.33800309546 0.48160521813 0.050547588119 0.33783682664
          0.48739772325 0.017693097982 0.34046753522 0.48933717111 0.046474196273 0.31110757175
          -0.3733233996 -0.0028432539679 0.12459565614 -0.36993698708 -0.0021656041119 0.12444948762
          -0.37026174953 -0.0019457061989 0.12446336044 -0.36799683763 -0.0041391290173 0.13088083656
          0.20769264631 -0.044465484334 0.0018676073374 0.20414745342 -0.047921776815 0.011242679693
          0.26675892417 0.010083823865 0.047456399036 0.27059477642 -0.016734694646 0.036234308394
          0.19002511778 -0.015876294102 0.023045540794 0.18868006274 -0.031722623009 0.015806496819
          0.25880397881 -0.0097498259535 0.023581739345 -0.21756951025 -0.023929030144 0.029709714663
          -0.2235626011 -0.026204840062 0.017094121501 -0.2205200611 -0.028547865494 0.015589722696
          -0.20634016243 -0.034645117666 0.019480950419 -0.20531144715 -0.027733535781 0.019142340681
          -0.20985705701 -0.014903207511 0.0081638102042 -0.27435926099 -0.020308074724 0.034820013468
          -0.26011390386 -0.041905218237 0.051112801888 -0.2440358543 -0.020656446223 0.02510037203
          -0.24052073426 -0.018737048791 0.022066418701 -0.21015210971 -0.024629953739 0.017727671925
          -0.24936073548 -0.035863100652 0.011829597427 -0.26399214569 -0.023933322514 0.053394569691
          0.47949474591 0.043984135701 0.35216470445 0.47940773889 0.043964888382 0.35244610197
          0.48041941202 0.0423824012 0.35104775291 0.48373098924 0.045327876137 0.35322167243
          0.48254651331 0.045557242228 0.3535100247 0.48078132497 0.047958499843 0.35565086556
          0.47846507388 0.043731556649 0.35233005273 0.48135903869 0.043859512963 0.35506786316
          0.480138176 0.043952549725 0.35065304075 0.42016918203 0.065135967739 0.25592835064
          -0.36240551434 -0.0092206275298 0.13495113961 -0.36152639982 -0.0080433596087 0.13396246582
          -0.36098203329 -0.0075742133274 0.13404482826 -0.35993059156 -0.014900723015 0.13424933144
          -0.36665653542 -0.0089069352119 0.13316665024 -0.36502185903 -0.0090708672236 0.12905410249
          -0.36484629868 -0.0082345479938 0.12861456959 -0.3663729036 -0.0062123873888 0.13596606587
          -0.36572989264 -0.0052357328908 0.1335639077 0.43816110374 0.035611844349 0.22627187005
          0.42141541299 0.026990383426 0.23840962375 0.43048211155 0.046237108039 0.23880498559
          0.43480246262 0.036536956157 0.22997479184 0.4611074199 0.044209956465 0.26015190371
          0.45895991972 0.043047857927 0.26259542718 0.46285427379 0.040776290493 0.26322196992
          -0.36674271658 0.0011824902122 0.10482064991 -0.35955126214 -0.008106411373 0.1089499433
          -0.34020973255 -0.01348864669 0.099568494145 0.34449367698 0.0071001649489 0.082587980156
          0.31211383002 -0.0038633559138 0.07565612706 0.31317020186 -0.0074534904769 0.073810133416
          0.31153950475 -0.011508720045 0.07162232127 0.31557595979 -0.011811611157 0.06500197328
          0.33000165208 -0.010582099084 0.10636971315 0.31658856644 -0.01056137807 0.064884767695
          0.31175934217 0.035921798532 0.062892748481 0.34447549518 0.0069909843276 0.082616843491
          0.36095035251 0.030583704225 0.11097988068 0.36098589094 0.030568971219 0.11089592781
          0.36723017029 -0.0068118993421 0.10552423515 0.35804610692 -0.0028813587492 0.12718666229
          0.3683280147 0.027173733098 0.12458932789 0.36629231133 0.039431468032 0.13883994714
          0.37370721489 0.0028996360628 0.15793477938 0.48698926065 0.044951797552 0.35591524087
          0.48996615028 0.043565663107 0.35724305136 0.49011604106 0.044137687927 0.35682250581
          0.1414188801 0.026252104109 -0.030163602736 0.14443284666 0.030866674958 -0.028476404795
          0.49251499722 0.048624675205 0.34824858219 0.32514068054 0.03683891702 0.16014279968
          0.36069995844 0.072748018991 0.15917632148 0.30976609107 0.037549153937 0.13994395496
          0.31969062052 0.033964021714 0.15951780188 0.29791523179 0.023506079537 0.11962886131
          0.30020418225 0.038001516848 0.12158624216 0.48364781698 0.04436992065 0.3498957005
          0.48187511002 0.045630714271 0.34774115145 0.48446353294 0.038614531126 0.34730854516
          0.48399672307 0.045871248636 0.35152949331 0.48456391325 0.046490613915 0.35117263117
          0.48731916467 0.044171216173 0.35053979113 0.11367689836 0.053418078487 -0.0957825096
          0.092305042468 0.029193504889 -0.076902549557 0.11072558853 0.0083810468256 -0.042181390554
          0.12666423051 0.045244438903 -0.031049518994 0.15737702776 0.01553239314 -0.02746377834
          0.26986320004 -0.017901112689 0.11227942255 0.28120681431 0.0018081572538 0.08855615587
          0.2919713206 0.0047743896143 0.11331442284 0.28907006297 -0.0008405450016 0.12110629855
          -0.1935770619 -0.021145465416 -0.0092908955276 -0.17392424406 -0.0062426989799 -0.03989474282
          -0.1701861095 -0.0054155405888 -0.03808812392 -0.20034911625 -0.020866065743 -0.019319178446
          -0.18295997155 -0.01686048702 -0.022936869217 -0.16150656741 0.034442869186 -0.011110431242
          -0.37706569315 -0.094877885045 0.14083541643 -0.19470093627 -0.044452339008 0.067806527295
          -0.25976198847 -0.02536086896 0.081983666678 -0.26518013388 -0.020362907403 0.051321888511
          -0.24796253008 -0.022479697532 0.061966238333 -0.20837194253 -0.021936193847 0.052326477741
          -0.22109639605 -0.0081228189038 0.077979575666 -0.33065248648 -0.03569859368 0.067655398348
          -0.32739728628 -0.0080055991128 0.070613062352 -0.32502169557 -0.011261254429 0.073173225805
          -0.32770518336 -0.015118436386 0.070410232258 -0.33009209206 -0.014310351326 0.088524270275
          -0.33615664439 -0.020073926929 0.096613178944 -0.33586899533 -0.019539051055 0.097498580043
          -0.34271970267 -0.015747312589 0.098825332746 -0.34936788511 0.0011425472842 0.11802459878
          -0.3480704383 -0.01693428389 0.10919846543 -0.36958308147 -0.0066597979316 0.12841340957
          -0.36933022591 -0.0060023020122 0.12519541434 -0.37199851772 -0.004471992733 0.12689765071
          -0.37140841608 -0.0014216956507 0.11070199226 -0.36951918197 -0.00076862552315 0.11804930853
          -0.36409796111 -0.00098260408799 0.12113290947 -0.36394761326 -0.0028705176 0.12275126707
          -0.368469445 -0.0061352171394 0.12298364984 -0.36833686282 -0.00088334358979 0.12272522408
          -0.34988460836 0.0036957075588 0.11256371063 -0.36319686496 0.003601252998 0.11301799633
          -0.36313731368 0.0036910570572 0.11293479992 -0.36187752021 0.0035263924238 0.11304945198
          -0.36456634475 0.0040193730765 0.10817781663 -0.35213203247 0.013336878739 0.11096178189
          -0.35644184043 0.013976445558 0.10340965533 0.47706286457 0.043955497729 0.31923384303
          0.47576477418 0.044707830951 0.32000058585 0.47522807961 0.04698513845 0.32317196058
          0.48184077471 0.053517079731 0.33889054871 0.47962292407 0.044532171172 0.33428425724
          0.48007181592 0.046683062932 0.3346832001 0.47846474015 0.035297592446 0.34136983805
          0.47948962103 0.036585345033 0.34156867095 0.48377581595 0.040393692403 0.34357871178
          0.47812413515 0.034098307183 0.34011418859 0.48254292861 0.052044374199 0.35114711901
          0.48626358399 0.04202342752 0.34437422878 0.48088148993 0.043538035342 0.35087170273
          0.48091540621 0.043962188124 0.35032568602 0.49078415295 0.041919304643 0.34804360478
          0.48945767192 0.044629682953 0.34348726205 0.49275823037 0.036687121783 0.34489992684
          0.49350454542 0.037576617179 0.34456330603 0.48884342851 0.038772531706 0.34501635489
          0.48706670937 0.04151461209 0.34673947972 0.48679785103 0.041661849489 0.34646387276
          0.48561590828 0.040218060257 0.35479306522 0.48702610869 0.040617624783 0.34485615144
          0.48733873552 0.049452496958 0.34264782971 0.48693831299 0.043859034056 0.34547277922
          0.48597563099 0.043162170969 0.34440247228 0.48824611455 0.044740667384 0.34365384967
          0.46965836852 0.053692697472 0.29756362111 0.39511736131 0.023797744943 0.20885707918
          0.40993549326 0.049659581353 0.24163361173 0.40664494382 0.10381419514 0.21377115532
          -0.25597282772 0.0035640389972 0.045255846065 -0.31178607638 -0.0075968503956 0.054878763507
          -0.2476757565 -0.063822132911 0.10022122703 -0.2897429431 -0.021230151298 0.065814240812
          -0.28373610701 0.018433578496 0.033362550661 -0.29654450914 -0.011463860393 0.070373205499
          -0.29716504068 -0.014157445853 0.068327444694 -0.29560407957 -0.010158900161 0.064911258194
          -0.29532537358 -0.013985784742 0.070514471194 -0.27641375148 -0.029447166069 0.084447808524
          -0.31419944969 -0.0024979248539 0.062522305496 -0.30730778077 0.0012288645916 0.06437536095
          -0.29430571307 -0.016948742381 0.07020895487 0.30455899023 0.10558880297 0.021017941252
          0.31919630902 0.073168113245 0.086266441824 0.3114561552 0.057245579657 0.069319024714
          0.28840007354 0.036275007028 0.0047890829973 0.37205852826 0.21100318761 0.0088005136453
          0.14843023918 0.017093384217 0.0047192648756 0.13969266856 0.0232977045 0.013377576003
          0.14913709942 0.025708361959 0.038342733202 0.15103664136 0.028919086238 0.040457639713
          0.15261971043 0.02478584206 0.04072872914 0.16155773708 0.021023265718 0.041600506782
          0.14290460773 0.006613585287 0.040530431724 0.19192544861 0.014291935403 0.044358741593
          0.13962529706 0.0146962982 0.022351866741 -0.083051033909 0.033507978533 -0.059068057266
          -0.091530925889 0.025047908902 -0.067909850725 -0.3648884691 0.0013502412799 0.12877343604
          -0.35435345703 -0.0032314451679 0.11583908758 0.020127974773 -0.00092738550293 -0.065146075413
          0.011613921081 0.0071597937987 -0.06115329417 -0.027916625091 -0.019127754364 -0.063970547696
          -0.044879708811 0.007411923481 -0.068291737691 -0.048303325878 0.00025912349749 -0.073279475472
          -0.0050999693729 0.023207250424 -0.063271504357 -0.0068931183124 0.0094384471321 -0.073765118023
          -0.049634130602 -0.00042479836094 -0.074528526705 -0.039306931021 -0.01620969032 -0.071775186608
          -0.3551800912 -0.0057776779911 0.11721651224 -0.35290929995 -0.0070252666766 0.10804256898
          -0.35188223351 -0.0088019267178 0.10604267065 -0.34996354068 -0.019412325989 0.11523342751
          -0.35692365531 -0.0067282950496 0.11911110999 -0.15220198174 -0.04844164984 -0.019291573186
          -0.20018653871 -0.011514384413 -0.0020059731205 -0.19836343891 -0.04550722513 0.0071058203881
          -0.18430934405 -0.026759497215 -0.0068182667847 -0.18738224726 -0.023117083036 -0.012354502043
          -0.20566321251 -0.035513302777 -0.0075323151071 -0.15353194036 -0.056962641445 -0.038328211606
          0.49000707386 0.036290925356 0.34917088887 0.49255711009 0.041912855966 0.33885975028
          0.48777390838 0.046320823695 0.34955540765 0.48787726848 0.045460977672 0.34948461559
          0.48661773185 0.043354582798 0.34866155268 0.48603820694 0.045270405603 0.350784879
          0.48528479807 0.04211189553 0.3513256478 0.48528149999 0.04688196439 0.34697857361
          0.48672928258 0.046487527096 0.35181634305 0.48470059198 0.04357136047 0.34819130728
          0.4784394812 0.048252638043 0.3491296159 0.48489487021 0.047960165539 0.3495707516
          0.48491291702 0.045589338536 0.35157934391 -0.094898540225 0.017794511656 0.025070132014
          -0.090770762482 -0.013313296663 0.018574978718 -0.37189339408 -0.0046008549157 0.12809019309
          -0.35616500713 -0.0099026349995 0.12008888658 -0.37211809276 -0.0046740828412 0.12798484631
          -0.37066840087 -0.012233817146 0.1227728611
        </DataArray>
        <DataArray type="Float64" Name="Strain" NumberOfComponents="9" format="ascii" RangeMin="0.0097997438738" RangeMax="0.53942927581">
          0.37130101565 0.020515426709 0.0062806745171 0.020515426709 -0.004835626544 0.016383005477
          0.0062806745171 0.016383005477 0.35499484657 0.18968886604 -0.0082693416592 0.0055665049499
          -0.0082693416592 -0.014044916956 0.015200129528 0.0055665049499 0.015200129528 0.13731486955
          -0.0078887686638 -0.002927288387 -0.019308366161 -0.002927288387 0.014411193294 0.0039481160676
          -0.019308366161 0.0039481160676 0.0082626086209 0.18643074611 0.015699468463 -0.01089788662
          0.015699468463 -0.078728478649 0.013193938476 -0.01089788662 0.013193938476 -0.038624176928
          0.35813356885 0.025559410591 0.017987894114 0.025559410591 -0.0031610835052 0.021614207706
          0.017987894114 0.021614207706 0.34060232368 0.12870096642 -0.0039865574578 -0.025371705855
          -0.0039865574578 -0.029599144045 -0.01647794346 -0.025371705855 -0.01647794346 0.057988859156
          0.39138460537 0.019010097843 0.0065942415496 0.019010097843 -0.014716325647 0.014737977039
          0.0065942415496 0.014737977039 0.34977289687 0.11144678839 0.02693127741 -0.053992028913
          0.02693127741 0.011634323633 0.018996278596 -0.053992028913 0.018996278596 0.089710900974
          0.3223027431 0.00095827218338 0.18875705621 0.00095827218338 -0.13815258315 0.005548677627
          0.18875705621 0.005548677627 0.28011959888 0.18356653544 0.0058891266853 -0.0250144095
          0.0058891266853 -0.017792414205 -0.0020682943384 -0.0250144095 -0.0020682943384 0.12578152355
          0.20815658872 -0.014169481231 0.0067352642361 -0.014169481231 0.0081308658624 0.0246698393
          0.0067352642361 0.0246698393 0.24237030598 0.059603205216 -0.0045146081243 -0.0091064265404
          -0.0045146081243 -0.018382041422 -0.015674965702 -0.0091064265404 -0.015674965702 0.020160607405
          0.071091029895 0.0013850322332 -0.011572542453 0.0013850322332 -0.012643496708 0.0048166647967
          -0.011572542453 0.0048166647967 0.043803253803 0.12812300694 0.025042469685 -0.042585776023
          0.025042469685 -0.00069311079159 -0.0070836356302 -0.042585776023 -0.0070836356302 0.16589468011
          0.36617179114 0.019737550813 0.015076416423 0.019737550813 -0.0034935752971 0.018618319595
          0.015076416423 0.018618319595 0.33592896485 0.11282810324 0.027468495004 -0.018084897586
          0.027468495004 -0.0060207174525 0.0087262830435 -0.018084897586 0.0087262830435 0.073913222035
          0.22595073444 -0.00084883631917 0.014293868394 -0.00084883631917 -0.0031261869928 -0.00027701204036
          0.014293868394 -0.00027701204036 0.25347342468 0.24720539602 0.022487578571 0.015771304764
          0.022487578571 -0.0044098160892 0.017081104523 0.015771304764 0.017081104523 0.21480242339
          0.34448476345 0.026891865927 0.022025459245 0.026891865927 -0.0076171140391 0.018783058958
          0.022025459245 0.018783058958 0.32100488592 0.038313418636 0.022923463818 -0.0054986761507
          0.022923463818 0.019698978644 0.013260377008 -0.0054986761507 0.013260377008 0.10663067157
          0.37102869631 0.025736006927 0.0033213763869 0.025736006927 -0.0038621795054 0.020005537968
          0.0033213763869 0.020005537968 0.35514508666 0.19288237197 0.0063354405049 -0.014097783203
          0.0063354405049 -0.03076558661 0.0086933015433 -0.014097783203 0.0086933015433 0.090629916941
          0.26950876519 0.0097122166701 -0.016945832745 0.0097122166701 -0.072541182339 0.032149681268
          -0.016945832745 0.032149681268 0.045577414188 0.26943604683 0.020140315053 0.010051623547
          0.020140315053 -0.023803429513 0.014544060802 0.010051623547 0.014544060802 0.23214811274
          0.35196184248 0.043483379955 0.038781723948 0.043483379955 -0.058324079485 -0.0069557578394
          0.038781723948 -0.0069557578394 0.20725989539 0.32877736709 0.022694760622 0.0228414189
          0.022694760622 0.0017117013114 0.023335282779 0.0228414189 0.023335282779 0.31937192888
          -0.02256883109 -0.00019861325409 -0.016686498089 -0.00019861325409 0.0076981404929 -0.0053537970298
          -0.016686498089 -0.0053537970298 0.021630477459 0.20318831682 0.0037171694496 -0.013580615046
          0.0037171694496 -0.04038416023 0.0071113623185 -0.013580615046 0.0071113623185 0.064934103431
          0.051196577885 -0.0041312084306 0.0077035419399 -0.0041312084306 -0.010861396977 0.012748602213
          0.0077035419399 0.012748602213 -0.014728700952 0.17664781957 0.0057375446108 -0.03371207273
          0.0057375446108 -0.04604971045 0.017228715066 -0.03371207273 0.017228715066 -0.025449477802
          0.34717382555 0.022954551139 0.018290999401 0.022954551139 -0.014100348833 0.01772229672
          0.018290999401 0.01772229672 0.30973421343 0.287012185 0.027785034238 0.015105009692
          0.027785034238 -0.028634406898 0.0015326061485 0.015105009692 0.0015326061485 0.20742436795
          0.22819023388 0.0092637434397 0.015360577678 0.0092637434397 -0.03759654868 0.010492074775
          0.015360577678 0.010492074775 0.13861237425 0.15221031566 0.016454418179 0.007587982211
          0.016454418179 -0.071881161823 -0.00060576934568 0.007587982211 -0.00060576934568 -0.051017623049
          0.17572065391 0.00014291702386 -0.031851873326 0.00014291702386 -0.017659805632 0.00088370961971
          -0.031851873326 0.00088370961971 0.12065236752 0.1371509357 0.012098889045 -0.031155514514
          0.012098889045 0.018268353744 0.0024867868929 -0.031155514514 0.0024867868929 0.052660024971
          0.17315951467 -0.0017826006054 0.01321795101 -0.0017826006054 -0.061881419263 0.0029605187738
          0.01321795101 0.0029605187738 -0.04174577088 0.26078147156 0.0081736956933 0.0097046649509
          0.0081736956933 -0.05061565111 0.018494649444 0.0097046649509 0.018494649444 0.16101204915
          0.13408407603 0.015310421979 -0.01584786328 0.015310421979 0.013654304514 -0.013097874793
          -0.01584786328 -0.013097874793 0.10097174089 0.24292618383 -0.0015296492362 0.088947008969
          -0.0015296492362 -0.10450778226 0.017035232486 0.088947008969 0.017035232486 0.15969873162
          0.15150659491 0.014221664615 -0.033711865969 0.014221664615 -0.032819078307 0.0056711849444
          -0.033711865969 0.0056711849444 0.063136897931 0.17138706074 0.00051746251035 -0.002129216737
          0.00051746251035 -0.041631360888 0.017862288171 -0.002129216737 0.017862288171 0.043042062705
          0.37573291252 0.019848560393 0.012997148458 0.019848560393 -0.0045669333589 0.01989364242
          0.012997148458 0.01989364242 0.35503204105 0.36915817842 0.028903150546 0.020816572251
          0.028903150546 -0.011861300629 0.012677213969 0.020816572251 0.012677213969 0.34207415194
          0.13433101314 -0.0098750163009 -0.0030506133375 -0.0098750163009 0.030054553673 0.021108260848
          -0.0030506133375 0.021108260848 0.19167918039 0.13555393465 -0.0014781431881 -0.028304210979
          -0.0014781431881 -0.0069922159978 -0.0051656089559 -0.028304210979 -0.0051656089559 0.10486429785
          0.17690307518 -0.00039539272333 -0.031235856117 -0.00039539272333 -0.01999646058 -0.0074958459208
          -0.031235856117 -0.0074958459208 0.10299496094 0.037091043403 0.0050908593251 -0.011016228962
          0.0050908593251 0.0039959635896 -0.0044284604206 -0.011016228962 -0.0044284604206 0.038217590661
          0.38116431385 0.021896826139 0.0077415315298 0.021896826139 -0.011724491932 0.016872247155
          0.0077415315298 0.016872247155 0.34709855853 0.15372719868 -0.001389686891 -0.032338866371
          -0.001389686891 -0.006295666053 0.0030779471258 -0.032338866371 0.0030779471258 0.10310661272
          0.19510931983 -0.0064401496805 -0.009485457168 -0.0064401496805 -0.050347406128 -0.0040152221531
          -0.009485457168 -0.0040152221531 0.010289800785 0.20253610618 -0.0045636297056 0.0043614946119
          -0.0045636297056 -0.050289277853 0.012212706361 0.0043614946119 0.012212706361 0.016021914882
          0.047012181275 -0.0029201301541 -0.011395674658 -0.0029201301541 -0.0017842879935 -0.0046806906773
          -0.011395674658 -0.0046806906773 0.098921667225 0.37958153052 0.017134828777 0.016234795695
          0.017134828777 -0.013027769776 0.019833077768 0.016234795695 0.019833077768 0.34080512267
          0.088932898083 -0.012773476592 -0.013390689753 -0.012773476592 3.3265282323e-05 0.0077480073557
          -0.013390689753 0.0077480073557 0.14449446306 0.084220766131 -0.00093997774163 -0.012835034515
          -0.00093997774163 0.005899609557 -0.003190647807 -0.012835034515 -0.003190647807 0.089187838545
          0.048846068277 -0.0022710759532 -0.013136623245 -0.0022710759532 -0.0048633006419 0.011952410673
          -0.013136623245 0.011952410673 -0.0063254726998 0.088067665365 0.0068148898729 -0.016204951141
          0.0068148898729 -0.0058303399111 -0.0091466371241 -0.016204951141 -0.0091466371241 0.00078928528276
          0.16348742874 -0.0021018711529 -0.033579097516 -0.0021018711529 -0.01347680744 -0.0014177337633
          -0.033579097516 -0.0014177337633 0.1212655843 0.13922979824 0.0092199351627 -0.041219877865
          0.0092199351627 0.018996816837 0.0092819161976 -0.041219877865 0.0092819161976 0.085727564666
          0.15878252392 0.0031548916989 -0.021509870031 0.0031548916989 -0.0085246489963 0.01160882688
          -0.021509870031 0.01160882688 0.135163755 0.09748931802 -0.0045318392412 -0.029754136107
          -0.0045318392412 -0.018349000981 0.0020996468819 -0.029754136107 0.0020996468819 0.056885092664
          0.19378622556 -0.0007483699156 -0.0047327495688 -0.0007483699156 -0.047667795442 0.0055147058201
          -0.0047327495688 0.0055147058201 0.0042295498612 0.089308869353 0.015529934227 0.0079634700021
          0.015529934227 -0.051979108805 -0.012575563425 0.0079634700021 -0.012575563425 -0.029938970951
          0.20216033311 0.013487783741 0.0023038994318 0.013487783741 0.015010977386 0.020770026329
          0.0023038994318 0.020770026329 0.24434221807 0.14681197898 -0.0057391956944 -0.011466039742
          -0.0057391956944 -0.0094637765654 0.00059162142432 -0.011466039742 0.00059162142432 0.13354573897
          0.18326999624 -0.0041134329258 -0.016308228432 -0.0041134329258 -0.013446697865 0.0013439912883
          -0.016308228432 0.0013439912883 0.12983122755 0.14827088024 0.012600459044 -0.032585782506
          0.012600459044 -0.011932634051 -0.0022582016787 -0.032585782506 -0.0022582016787 0.10565674585
          0.37708119098 0.019567478021 0.010417290047 0.019567478021 -0.0078533286414 0.021646329721
          0.010417290047 0.021646329721 0.35621785054 0 0 -0.2131003076
          0 0 -0.065300879134 -0.2131003076 -0.065300879134 -0.08115144973
          0.047679556633 -0.0031699959332 0.0023656558202 -0.0031699959332 0.0025077210835 -0.007528027043
          0.0023656558202 -0.007528027043 0.061925083501 0.036393081127 0.015942981227 -0.017979073722
          0.015942981227 0.013995164569 0.0051089816241 -0.017979073722 0.0051089816241 0.090079748567
          -0.0061361122216 0.0053364346544 -0.035748330649 0.0053364346544 -0.0017749907613 -0.0056579888316
          -0.035748330649 -0.0056579888316 -0.0041549071628 0.10512171544 -0.01461612614 0.0017311970345
          -0.01461612614 -0.031911727612 0.016963789818 0.0017311970345 0.016963789818 0.0242832099
          0.36629307963 0.017605039541 0.0089256873993 0.017605039541 -0.00064715137358 0.016655903403
          0.0089256873993 0.016655903403 0.35425840396 0.30199035236 -0.0074263314015 -0.0062726372378
          -0.0074263314015 -0.057065199603 0.01256192701 -0.0062726372378 0.01256192701 0.087362297416
          0.39307385362 0.021693981536 0.0074978637396 0.021693981536 -0.022686780847 0.015208552673
          0.0074978637396 0.015208552673 0.32894033681 0.11889782997 -0.068347584981 0.031420205807
          -0.068347584981 -0.034641229197 -0.13773530354 0.031420205807 -0.13773530354 0.22855036059
          0.19810083644 0.035825599732 -0.048184938094 0.035825599732 -0.024552504152 -0.021399519753
          -0.048184938094 -0.021399519753 -0.01501299675 -0.0013600302007 0.0080483303335 -0.01072404254
          0.0080483303335 -0.00011320878004 0.0061370256634 -0.01072404254 0.0061370256634 0.042280516015
          0.37868178923 0.021266572322 0.0091337810169 0.021266572322 -0.0094105747001 0.017283342578
          0.0091337810169 0.017283342578 0.34881611905 0.3757867648 0.020837421486 0.012670791696
          0.020837421486 -0.0073233262144 0.019403860219 0.012670791696 0.019403860219 0.35556191436
          0.132213398 -0.0059096001523 -0.037902811558 -0.0059096001523 -0.021020592062 -0.010147530253
          -0.037902811558 -0.010147530253 0.10021250866 0.19791898474 -0.045112205902 -0.010730063121
          -0.045112205902 -0.036396059518 0.023414068339 -0.010730063121 0.023414068339 0.13449046044
          0.20088921048 0.0039896190064 -0.018661561775 0.0039896190064 -0.032216966003 0.01396014404
          -0.018661561775 0.01396014404 0.087874198824 0.1661540763 -0.0039678993535 -0.0075254417335
          -0.0039678993535 -0.063505845473 0.013097272489 -0.0075254417335 0.013097272489 -0.027022756987
          0.13177173223 0.00023515006197 0.0028409565895 0.00023515006197 -0.03194778125 -0.0063698398522
          0.0028409565895 -0.0063698398522 0.0073348172197 0.37654234434 0.019776191856 0.012349641265
          0.019776191856 -0.0071822157824 0.019571938662 0.012349641265 0.019571938662 0.35162627861
          0.16986613216 0.0039034631065 -0.032680273761 0.0039034631065 -0.018453413186 -0.0016351982481
          -0.032680273761 -0.0016351982481 0.12229096254 0.15900832584 0.0044187983829 -0.028362603493
          0.0044187983829 -0.015206664467 0.00035548537707 -0.028362603493 0.00035548537707 0.12439581694
          0.19267109555 -0.0094732620807 0.0041966967937 -0.0094732620807 0.021090493494 0.021598175062
          0.0041966967937 0.021598175062 0.29076645212 0.30613790937 0.014588290252 0.02132419445
          0.014588290252 0.0042365626189 0.0087068502997 0.02132419445 0.0087068502997 0.31319562848
          0.37720024529 0.02356305952 0.013964583134 0.02356305952 -0.013771530211 0.015952330987
          0.013964583134 0.015952330987 0.33270383833 0.16771105043 0.016310624788 0.018868721475
          0.016310624788 0.0068615354753 0.017548119354 0.018868721475 0.017548119354 0.2573075191
          0.37912010082 0.01368633905 0.015410271683 0.01368633905 -0.010921580884 0.022124840196
          0.015410271683 0.022124840196 0.31827040256 0.11333510563 0.0096894279429 -0.031937618381
          0.0096894279429 0.013938409436 -0.015559160813 -0.031937618381 -0.015559160813 0.10080643294
          0.021443263787 0.013987422558 0.0018565332955 0.013987422558 -0.011959502 0.023371879277
          0.0018565332955 0.023371879277 0.02409206586 0.37208948403 0.030179689506 0.01511164566
          0.030179689506 -0.016454233557 0.014294013701 0.01511164566 0.014294013701 0.3420808492
          0.11897821235 0.0012619464855 -0.013151485732 0.0012619464855 0.0022161058531 0.0024759923799
          -0.013151485732 0.0024759923799 0.13545311672 0.17753462665 0.0027940539125 -0.018033697052
          0.0027940539125 -0.030021531653 0.0047938754873 -0.018033697052 0.0047938754873 0.1034003679
          0.37666166075 0.02233437582 0.0077572802669 0.02233437582 -0.0084074017722 0.019975457244
          0.0077572802669 0.019975457244 0.35931428386 0.3617673901 0.03001010553 0.0120502985
          0.03001010553 -0.071500548465 0.011524340207 0.0120502985 0.011524340207 0.20530464756
          -0.087175194375 0.034861755781 -0.02097396448 0.034861755781 0.010258638775 0.0010935220144
          -0.02097396448 0.0010935220144 0.026475531468 0.094440068756 -0.03942996819 -0.061806614579
          -0.03942996819 -0.057560161395 0.021892659323 -0.061806614579 0.021892659323 0.11118729309
          0.12452262419 -0.005752407034 -0.00065101652708 -0.005752407034 -0.057578131591 0.0094100688669
          -0.00065101652708 0.0094100688669 -0.044863870271 0.26841390191 0.019395233235 0.01143926247
          0.019395233235 -0.022298616126 0.017597769643 0.01143926247 0.017597769643 0.23230077913
          0.18019692124 0.018407707347 -0.0094251862383 0.018407707347 -0.075694751148 -0.0063468968468
          -0.0094251862383 -0.0063468968468 -0.011164323122 -0.018162347033 0.006092733299 0.0035512466935
          0.006092733299 0.01234492799 -0.0072640557554 0.0035512466935 -0.0072640557554 0.091816585615
          0.19677479825 0.0024441951759 -0.013249784333 0.0024441951759 -0.029072118254 0.00094798243316
          -0.013249784333 0.00094798243316 0.11085903047 0.06356273236 -0.0013650271153 0.011317687626
          -0.0013650271153 -0.028851603327 0.0064864509433 0.011317687626 0.0064864509433 -0.0056808527437
          0.30864151155 0.013103112103 0.019899643676 0.013103112103 0.014025486867 0.0070403186703
          0.019899643676 0.0070403186703 0.34315379693 0.032592341646 -0.0016421387288 -0.0057758906051
          -0.0016421387288 0.013957834625 -0.0007761329082 -0.0057758906051 -0.0007761329082 0.10128403865
          0.19185720332 0.0093882104886 0.0072287146791 0.0093882104886 0.022147138698 0.02285344243
          0.0072287146791 0.02285344243 0.21797587764 0.37388026264 0.019101624348 0.0084779231691
          0.019101624348 -0.0079781197927 0.018801616789 0.0084779231691 0.018801616789 0.35284740137
          0.12731015254 -0.008384704408 -0.026755502676 -0.008384704408 -0.02655858092 -0.0041040238101
          -0.026755502676 -0.0041040238101 0.068590931591 0.19323059692 0.013212543202 -0.015539309363
          0.013212543202 -0.035654864501 0.00071357675414 -0.015539309363 0.00071357675414 0.077782590441
          0.061880463428 -0.0039779676236 -0.0066617861243 -0.0039779676236 -0.019050552611 0.011566893637
          -0.0066617861243 0.011566893637 -0.020395220731 -0.050419934322 0.0060451187082 0.022292186051
          0.0060451187082 0.028630367696 0.010983689766 0.022292186051 0.010983689766 0.047490521979
          0.10232040756 0.015828157316 -0.0067149967745 0.015828157316 -0.013713866987 -0.001693337834
          -0.0067149967745 -0.001693337834 0.046025984448 -0.062225100339 0.0096181722259 0.0043636270701
          0.0096181722259 0.027482058466 -0.0029776093286 0.0043636270701 -0.0029776093286 0.064340775974
          0.3649037456 0.032298921412 0.029299117943 0.032298921412 -0.028886442155 0.0063290032903
          0.029299117943 0.0063290032903 0.30353838189 0.176289039 0.00090778888148 -0.034038246653
          0.00090778888148 -0.016713855876 -0.0029408361919 -0.034038246653 -0.0029408361919 0.1198641225
          0.12597576392 -0.0045648835789 0.0014936875569 -0.0045648835789 -0.018054369187 0.00038436313931
          0.0014936875569 0.00038436313931 0.10922363734 0.1475959303 0.0066200319112 0.0040729222305
          0.0066200319112 -0.051076253235 -5.7462036668e-05 0.0040729222305 -5.7462036668e-05 -0.03195747466
          0.18645830592 0.0064131704581 -0.02973911366 0.0064131704581 -0.032272636019 0.0075914811424
          -0.02973911366 0.0075914811424 0.093088171712 0 0 -0.088010784667
          0 0 -0.041371696637 -0.088010784667 -0.041371696637 0.077999252681
          0.34070930927 0.015331777962 0.020396108186 0.015331777962 0.0012631898755 0.012296504267
          0.020396108186 0.012296504267 0.34230206075 0.067541732065 -0.0068734583513 -0.00031010733791
          -0.0068734583513 0.0004927922453 0.004261104423 -0.00031010733791 0.004261104423 0.01999602494
          0.1544038836 0.0012410094096 -0.018464313474 0.0012410094096 -0.018877119749 0.00021602324506
          -0.018464313474 0.00021602324506 0.10156658237 0.38571918877 0.018738785631 0.0059296447922
          0.018738785631 -0.011521427019 0.01452380092 0.0059296447922 0.01452380092 0.34207129578
          0.35610896962 0.032954365748 0.011174222025 0.032954365748 0.00044368213512 0.01669662692
          0.011174222025 0.01669662692 0.35728298696 0.15208160276 0.01597557476 -0.0022897746651
          0.01597557476 -0.062242452098 -0.0003042999192 -0.0022897746651 -0.0003042999192 -0.063369547368
          0.043096169792 0.0050861080877 -0.010558706548 0.0050861080877 -0.012456885101 0.01433493713
          -0.010558706548 0.01433493713 0.012099066286 0.13794046338 -0.0012943128683 -0.01478986804
          -0.0012943128683 0.0055597858774 0.0034000763396 -0.01478986804 0.0034000763396 0.13337190986
          -0.096293229847 0.0007883637412 0.0029504211981 0.0007883637412 0.031642417745 0.0168824194
          0.0029504211981 0.0168824194 0.032070272277 0.108383018 -0.00097411159531 -0.039262538522
          -0.00097411159531 -0.01890992555 0.0067009525186 -0.039262538522 0.0067009525186 0.062185056001
          0.27325718783 0.034851652689 0.027702464708 0.034851652689 -3.1485013591e-06 0.014887051216
          0.027702464708 0.014887051216 0.28491315445 0.17353067003 -0.0071912155695 -0.02247791172
          -0.0071912155695 -0.016701409748 -0.0029517139221 -0.02247791172 -0.0029517139221 0.12975493953
          0.16457111229 0.0040118726683 -0.036304179344 0.0040118726683 -0.015353397883 0.0011230724258
          -0.036304179344 0.0011230724258 0.11041653789 0.38709684719 0.019504686209 0.0085378174122
          0.019504686209 -0.014270419716 0.014937346272 0.0085378174122 0.014937346272 0.34850911172
          0.381167341 0.020535793726 0.0094757483468 0.020535793726 -0.0093661507545 0.01965821004
          0.0094757483468 0.01965821004 0.35272061367 0.17313021696 0.00098489583649 -0.032407174177
          0.00098489583649 -0.019107866676 -0.0017672435264 -0.032407174177 -0.0017672435264 0.12278880678
          -0.018718843987 -0.0077435519443 -0.0074672471612 -0.0077435519443 0.012497607025 0.0068979436425
          -0.0074672471612 0.0068979436425 0.045710144848 0.12317833437 0.0086197489616 -0.017401738265
          0.0086197489616 0.022744627517 0.0061145911451 -0.017401738265 0.0061145911451 0.09325551746
          0.21028029969 -0.0040404005916 -0.0021920034831 -0.0040404005916 -0.062258584064 -0.0040603691142
          -0.0021920034831 -0.0040603691142 0.016595674246 0.11066612455 0.0057557139116 -0.047307564094
          0.0057557139116 0.0084390615213 0.0097313221052 -0.047307564094 0.0097313221052 0.057364645574
          0.062711967704 0.0114934006 -0.0075080527042 0.0114934006 0.0083567606431 -0.0030516435927
          -0.0075080527042 -0.0030516435927 0.11784629273 0.35250238948 0.010076390252 0.023868333489
          0.010076390252 -0.010792056651 0.026520334156 0.023868333489 0.026520334156 0.3137579614
          0.15161993113 0.0019907582999 0.0015625232692 0.0019907582999 -0.068777368609 0.0034313966872
          0.0015625232692 0.0034313966872 -0.069526016978 0.077921282672 0.051318928708 -0.031802796878
          0.051318928708 -0.019014835844 0.010974865961 -0.031802796878 0.010974865961 0.093747740764
          0.12909688301 -0.0052062304996 -0.015155912407 -0.0052062304996 0.0022699722313 0.0045320344961
          -0.015155912407 0.0045320344961 0.15113526145 0.11067793206 -0.0035694240062 -0.0035372892203
          -0.0035694240062 -0.0026169353485 0.0057072946742 -0.0035372892203 0.0057072946742 0.10104593015
          -0.04918356615 -0.0083134341305 0.012933959278 -0.0083134341305 0.019990380508 -0.0035941629992
          0.012933959278 -0.0035941629992 0.064165219638 0.0021286594954 -0.0019886533085 0.0087314610158
          -0.0019886533085 0.0044197710568 0.0035350687837 0.0087314610158 0.0035350687837 0.091053681803
          0.17442792001 -0.0064569954805 -0.0094597409756 -0.0064569954805 -0.021731846812 0.029262251516
          -0.0094597409756 0.029262251516 0.075843185015 0.087966031164 -0.010184779648 -0.021584097098
          -0.010184779648 -0.00015264651618 0.00047761766585 -0.021584097098 0.00047761766585 0.085402882136
          0.36668792023 0.00026918243165 0.0094651933881 0.00026918243165 -0.047500629753 0.021712106515
          0.0094651933881 0.021712106515 0.22888783046 0.17660316066 0.0016033695981 -0.031836335195
          0.0016033695981 -0.016407973927 -0.0030068082967 -0.031836335195 -0.0030068082967 0.11941231226
          0.38618623271 0.018125202458 0.013061725535 0.018125202458 -0.016058480329 0.019265387582
          0.013061725535 0.019265387582 0.33969629417 0.09990239211 0.0053373728473 -0.011533463073
          0.0053373728473 -0.0036790499166 0.0012290345146 -0.011533463073 0.0012290345146 0.11927593599
          -0.036061724138 -0.008563145989 0.0025862525502 -0.008563145989 0.024337624369 -0.0027936681348
          0.0025862525502 -0.0027936681348 0.092377866597 0.11966496778 -0.010136543943 -0.013405052723
          -0.010136543943 -0.057269914817 -0.02174255719 -0.013405052723 -0.02174255719 -0.044598819459
          0.21266312462 0.0043952585288 -0.011519289766 0.0043952585288 -0.029748099129 0.0041912305643
          -0.011519289766 0.0041912305643 0.087627963313 0.17647964234 0.00064661536969 -0.031984126716
          0.00064661536969 -0.019990651888 -0.00058186239144 -0.031984126716 -0.00058186239144 0.098691191195
          0.38189258227 0.022727470632 0.0041281340203 0.022727470632 -0.0076645124408 0.022562262691
          0.0041281340203 0.022562262691 0.35666411014 0.37766180539 0.022362107536 0.011256611594
          0.022362107536 -0.011560996055 0.018602169412 0.011256611594 0.018602169412 0.35026337852
          -0.053514257957 -0.01207518881 -0.0054127558228 -0.01207518881 0.019614815971 -0.0019169907577
          -0.0054127558228 -0.0019169907577 0.050914965206 0.33439405793 0.01476568211 0.019358186548
          0.01476568211 0.0053254519393 0.018215461827 0.019358186548 0.018215461827 0.30824092053
          0.13709462716 -0.0081329171867 -0.008205821175 -0.0081329171867 -0.046158531926 0.010546564793
          -0.008205821175 0.010546564793 -0.024316015105 0.38594627812 0.0060040759113 0.015154877091
          0.0060040759113 -0.031881433947 0.032332934716 0.015154877091 0.032332934716 0.28876585173
          0.00078310003628 -0.005846539634 -0.01084056876 -0.005846539634 0.0058555222122 -0.0093286840487
          -0.01084056876 -0.0093286840487 0.024287118561 0.31827474611 0.0042025740327 0.0061371400928
          0.0042025740327 0.015356972929 0.015314857926 0.0061371400928 0.015314857926 0.35995370363
          0.031197675191 0.005873697308 -0.029018478422 0.005873697308 0.0016985199251 0.018645699245
          -0.029018478422 0.018645699245 0.027953514469 0.36150569224 0.022186498678 0.020973469013
          0.022186498678 -0.013599491436 0.016279554309 0.020973469013 0.016279554309 0.32535170555
          0.1084073588 0.013556005047 -0.031554706327 0.013556005047 0.010181918419 0.0062761627638
          -0.031554706327 0.0062761627638 0.10517844881 0.16809928843 0.0058910923144 -0.034596756715
          0.0058910923144 -0.020016975969 -0.0016535704786 -0.034596756715 -0.0016535704786 0.11380494058
          0.38056570075 0.023126113758 0.0065365572176 0.023126113758 -0.0081983505915 0.020399738962
          0.0065365572176 0.020399738962 0.35215986792 0.3790346915 0.024085067059 0.014086628807
          0.024085067059 -0.012340431553 0.013859232718 0.014086628807 0.013859232718 0.34474035252
          0.25624027351 0.0011642405774 0.010937260445 0.0011642405774 -0.056287930817 0.041420742829
          0.010937260445 0.041420742829 0.026128331619 -0.087333746877 -0.0052059721281 0.0048911199009
          -0.0052059721281 0.019295993024 0.013128293483 0.0048911199009 0.013128293483 0.034319907869
          0.38256940149 0.023716572791 0.0147306035 0.023716572791 -0.013787101717 0.014572565995
          0.0147306035 0.014572565995 0.34209326492 0.36641974078 0.016117444875 0.0048802872852
          0.016117444875 -0.0049523177856 0.017990967307 0.0048802872852 0.017990967307 0.35676163122
          -0.014264454406 0.0037968731707 0.0014243205719 0.0037968731707 0.02016654499 0.014243192711
          0.0014243205719 0.014243192711 0.02452194506 0.093984643396 -0.010477722685 -0.055928816964
          -0.010477722685 -1.5200030693e-05 -0.019055457333 -0.055928816964 -0.019055457333 0.132527587
          0.11075675944 -0.0032530963908 -0.022198213787 -0.0032530963908 -0.034597111898 -0.0098984199091
          -0.022198213787 -0.0098984199091 -0.045584399448 0.17639716599 0.0054395223943 -0.026442144784
          0.0054395223943 -0.017816073265 -0.0020462077967 -0.026442144784 -0.0020462077967 0.12824374548
          0.15342500643 -0.001057548058 -0.022402943329 -0.001057548058 -0.030540818252 0.0074286494486
          -0.022402943329 0.0074286494486 0.050148503164 0.21969444066 0.020444570493 0.0088823808266
          0.020444570493 -0.032184237919 0.011393927811 0.0088823808266 0.011393927811 0.18464377816
          0.38834588117 0.019605666305 0.0058257338359 0.019605666305 -0.012690517063 0.022728982373
          0.0058257338359 0.022728982373 0.34660311547 0.19020136245 -0.0028776787128 0.017186504013
          -0.0028776787128 0.025912082227 0.01680000176 0.017186504013 0.01680000176 0.29427939961
          0.37957859715 0.011380693385 0.011854935075 0.011380693385 -0.0083458962015 0.021024961138
          0.011854935075 0.021024961138 0.36584427921 0.13707792214 0.0012222506343 -0.013725311468
          0.0012222506343 -0.017351773974 0.010035642676 -0.013725311468 0.010035642676 -0.01877257884
          0.0023704089571 -0.00094872696725 0.0027615241954 -0.00094872696725 0.0088410734038 -0.0032862437993
          0.0027615241954 -0.0032862437993 0.066177626504 0.072151278463 -0.00407551884 0.010842680701
          -0.00407551884 -0.036847558585 0.0014322353182 0.010842680701 0.0014322353182 0.065773348575
          -0.045754633159 0.010832153761 -0.024800461893 0.010832153761 0.021773501543 -0.011065132437
          -0.024800461893 -0.011065132437 0.087593416963 0.25581909652 0.017583904059 0.0049446439251
          0.017583904059 -0.038011322059 0.028791054233 0.0049446439251 0.028791054233 0.054110121859
          0.050182337687 0.0063654392344 -0.0080242295281 0.0063654392344 -3.2955597368e-05 -0.0037204056817
          -0.0080242295281 -0.0037204056817 0.026969938093 0.10206388147 -0.0024095675067 -0.032573753311
          -0.0024095675067 0.007018569332 0.031761155517 -0.032573753311 0.031761155517 0.12626809502
          0.11136297183 -0.0013536868134 -0.033765574851 -0.0013536868134 -0.018922734367 0.006262063985
          -0.033765574851 0.006262063985 0.071208646769 0.19695637383 0.0058985240612 -0.019801502574
          0.0058985240612 -0.027482313988 -0.0024070393723 -0.019801502574 -0.0024070393723 0.11696062305
          0.22246419966 -0.0016937444059 0.01138735766 -0.0016937444059 -0.021659117584 0.010882775248
          0.01138735766 0.010882775248 0.10853149287 0.3711511138 0.022965940868 0.036018436455
          0.022965940868 -0.0049995593079 0.020570435852 0.036018436455 0.020570435852 0.30739100759
          0.39112028717 0.011986356337 0.023859823048 0.011986356337 -0.022471759472 0.028453615082
          0.023859823048 0.028453615082 0.30969215216 0.13640259904 0.0099300567111 -0.010162543685
          0.0099300567111 -0.045446581295 0.0064574464582 -0.010162543685 0.0064574464582 -0.046331088455
          0.37471950548 0.022203119347 0.0065930977024 0.022203119347 -0.0081512786125 0.018632771331
          0.0065930977024 0.018632771331 0.35030684678 0.20957284631 0.02540463665 0.012590825692
          0.02540463665 -0.065282007456 -0.0058585946462 0.012590825692 -0.0058585946462 0.23789013915
          0.098645713353 0.011357949256 -0.0089025923654 0.011357949256 -0.0050010996421 -0.0057406458337
          -0.0089025923654 -0.0057406458337 0.13019758788 0.17993036451 0.0023658287071 -0.015980311699
          0.0023658287071 -0.015632333584 -0.0035135677281 -0.015980311699 -0.0035135677281 0.13103370162
          0.16183135831 0.0082714845336 -0.0099185332323 0.0082714845336 -0.019498924875 0.016465862093
          -0.0099185332323 0.016465862093 0.06352629584 0.0090059577589 -0.015425843532 -0.013050255068
          -0.015425843532 0.0099728423672 -0.018058261214 -0.013050255068 -0.018058261214 0.019546725371
          0.11991547556 0.00071876835272 -0.032186415712 0.00071876835272 -0.010815994168 -0.0018221548137
          -0.032186415712 -0.0018221548137 0.11053958983 0.36527287555 0.0035317756918 0.025912253066
          0.0035317756918 -0.030595301561 0.036516940429 0.025912253066 0.036516940429 0.2945005673
          0.0093713622462 0.01016121067 -0.0061189315995 0.01016121067 0.023372679809 0.011073286171
          -0.0061189315995 0.011073286171 0.097416837981 0.14004976477 0.00014632991193 -0.024919932952
          0.00014632991193 -0.014319553913 -0.0019056903329 -0.024919932952 -0.0019056903329 0.1068875157
          -0.025377678955 0.0026806493184 -0.0083349547578 0.0026806493184 0.0080304387393 0.009463569706
          -0.0083349547578 0.009463569706 0.016905066375 0.14726912474 -0.041520622239 0.0093372223902
          -0.041520622239 -0.072221408257 0.0035230512242 0.0093372223902 0.0035230512242 0.19058641134
          0.16172680553 0.0011709861445 -0.020909044079 0.0011709861445 -0.048346767408 0.0028527237972
          -0.020909044079 0.0028527237972 0.02960295277 0.32769998378 0.0063427154487 0.018989242447
          0.0063427154487 -0.030439484596 0.021794968308 0.018989242447 0.021794968308 0.22672824704
          0.15343557238 0.0066862249367 -0.033165780425 0.0066862249367 -0.038712035646 0.007709836085
          -0.033165780425 0.007709836085 0.068386405002 0.23700908207 0.023236239573 -0.028814210798
          0.023236239573 -0.083027689712 -0.014131475023 -0.028814210798 -0.014131475023 -0.031137554957
          0.37960272892 0.02020225485 0.0082660046038 0.02020225485 -0.0082925732206 0.020189200881
          0.0082660046038 0.020189200881 0.35295320701 0.18003662942 -0.0034826580776 -0.02740290318
          -0.0034826580776 -0.014340933657 0.0051023728746 -0.02740290318 0.0051023728746 0.12348753402
          0.020443075166 0.0083185103989 -0.032153836989 0.0083185103989 0.0006444714127 0.015935549236
          -0.032153836989 0.015935549236 0.034153058171 0.092144159749 0.0051164586002 -0.013489339625
          0.0051164586002 0.0054308942618 0.0039852679979 -0.013489339625 0.0039852679979 0.062171496502
          0.34122148135 0.014362241084 0.018335984777 0.014362241084 0.00077246893468 0.0097008374905
          0.018335984777 0.0097008374905 0.34023367228 0.079582526408 0.02200604977 -0.048031341722
          0.02200604977 -0.023010605623 0.023706385051 -0.048031341722 0.023706385051 0.031644074972
          0.37932289956 0.024507711796 0.0044112428464 0.024507711796 -0.011416122077 0.021572867023
          0.0044112428464 0.021572867023 0.35398296241 0.17963900807 -0.0047474325728 -0.0031171945194
          -0.0047474325728 -0.055385443521 0.01992962843 -0.0031171945194 0.01992962843 0.095757474696
          0.056983909674 0.0052187237961 -0.023091672537 0.0052187237961 0.00097531553455 0.0038587726595
          -0.023091672537 0.0038587726595 0.088523281127 0.26974369796 0.086690299742 0.07448676468
          0.086690299742 -0.12852554764 0.031488838793 0.07448676468 0.031488838793 0.16388791678
          -0.016963416298 -0.011130415755 -0.0054603006564 -0.011130415755 0.011097279804 -0.002541762412
          -0.0054603006564 -0.002541762412 0.050869509904 0.074372367427 0.0037473444657 -0.028073609381
          0.0037473444657 -0.014198690557 -0.0038218153514 -0.028073609381 -0.0038218153514 0.035523973429
          0.16925043817 -0.0041954246768 -0.0090421497189 -0.0041954246768 -0.067004124078 -0.016409313601
          -0.0090421497189 -0.016409313601 -0.016391608567 0.15183559465 -0.0015325913109 -0.020265601288
          -0.0015325913109 -0.019522511378 0.00089922899946 -0.020265601288 0.00089922899946 0.093418357619
          0.38206105583 0.020457885498 0.0072443840083 0.020457885498 -0.019972621033 0.019708615241
          0.0072443840083 0.019708615241 0.33611716616 -0.065352256714 0.0024053976721 0.0065406633339
          0.0024053976721 0.026270039003 -0.0046338453264 0.0065406633339 -0.0046338453264 0.043450461768
          0.34970770755 0.02478887567 0.026170568726 0.02478887567 -0.0098943346812 0.014709702124
          0.026170568726 0.014709702124 0.33839437156 0.3857224015 0.021684380485 0.0069413162329
          0.021684380485 -0.016350327988 0.016450233494 0.0069413162329 0.016450233494 0.34740879899
          0.29786056959 0.012292543929 0.025656054403 0.012292543929 -0.019598240402 0.024261363886
          0.025656054403 0.024261363886 0.26847019963 -0.054544386256 -0.0015921261599 -0.041673768082
          -0.0015921261599 0.0072755108442 -0.0095231544 -0.041673768082 -0.0095231544 0.080265933182
          0.12296227524 0.025336166246 -0.018140453616 0.025336166246 -0.00036399076251 -0.00091631259846
          -0.018140453616 -0.00091631259846 0.21529976618 0.17815552477 0.0037443601246 -0.023445044747
          0.0037443601246 -0.016268093015 -0.004696032094 -0.023445044747 -0.004696032094 0.13268694778
          0.079578564328 0.021212410965 -0.047242174238 0.021212410965 0.0015781453334 -0.0036050595839
          -0.047242174238 -0.0036050595839 0.06169135251 0.17651209543 0.00049885573567 -0.02909694697
          0.00049885573567 -0.023015133184 -0.00054494011336 -0.02909694697 -0.00054494011336 0.11298794486
          0.14712183687 0.0031359534426 -0.033225052575 0.0031359534426 -0.014742710443 0.0075650973243
          -0.033225052575 0.0075650973243 0.097486591354 0.38899865036 0.015492787832 0.013467062562
          0.015492787832 -0.015264529823 0.022258801433 0.013467062562 0.022258801433 0.34012209938
          0.36932031688 0.026247106924 0.0070932156169 0.026247106924 -0.0076366195719 0.018210629657
          0.0070932156169 0.018210629657 0.35767625506 0.059365081782 0.0068154787559 0.0017855161497
          0.0068154787559 -0.017519547515 0.0047038085797 0.0017855161497 0.0047038085797 0.054453329019
          0.12883003785 0.0073722506664 0.0012461167365 0.0073722506664 0.027941698656 -0.0046103919344
          0.0012461167365 -0.0046103919344 0.057114025876 0.38582461989 0.022670575376 0.0058315470859
          0.022670575376 -0.031367004521 0.018060936627 0.0058315470859 0.018060936627 0.32422278497
          0.33286557925 0.00010735467938 0.014784903265 0.00010735467938 0.010888326282 0.012560367898
          0.014784903265 0.012560367898 0.34969354156 0.15521499975 -0.0024507621654 -0.035520047607
          -0.0024507621654 -0.015103937396 -0.0038151983698 -0.035520047607 -0.0038151983698 0.096926475765
          0.10243722845 -0.036819106952 -0.020213125061 -0.036819106952 -0.067625788263 0.040054750067
          -0.020213125061 0.040054750067 -0.029346252648 0.39543640547 0.015694143518 0.0099699043476
          0.015694143518 -0.024889731976 0.026721720085 0.0099699043476 0.026721720085 0.33115054822
          0.14384476289 -0.0048478401905 0.0024130215772 -0.0048478401905 -0.019963094263 0.015075278671
          0.0024130215772 0.015075278671 0.0029205684064 0.063908306523 0.019366451186 -0.022286055553
          0.019366451186 0.032319282628 -0.0087534764264 -0.022286055553 -0.0087534764264 0.1933191091
          0.12744710846 -0.0014851086505 -0.022973137571 -0.0014851086505 -0.025876557702 0.00011875169473
          -0.022973137571 0.00011875169473 0.03684287081 0.14535575243 0.0077255041078 -0.0084735325454
          0.0077255041078 -0.04754592872 -0.00072725242134 -0.0084735325454 -0.00072725242134 -0.021535430797
          0.17964070977 0.0086830788267 -0.019003612084 0.0086830788267 -0.061466329693 0.0021307102951
          -0.019003612084 0.0021307102951 -0.025913250351 0.18836071229 0.0036549121161 -0.014901894465
          0.0036549121161 -0.024108949203 -0.0022902464533 -0.014901894465 -0.0022902464533 0.11974837728
          0.14670395884 0.0099646862917 -0.0147562206 0.0099646862917 0.0050606610855 0.0092137317476
          -0.0147562206 0.0092137317476 0.23210718924 0.096489768184 -0.0028267049287 -0.034328225472
          -0.0028267049287 -0.015431780664 0.0086035806439 -0.034328225472 0.0086035806439 0.077005413793
          0.26034989472 0.011560125907 0.0025722572108 0.011560125907 0.021344388027 0.002054299733
          0.0025722572108 0.002054299733 0.31888149529 0.18312687562 -0.0015228360071 -0.0065528209981
          -0.0015228360071 -0.059703948107 -0.0040744821314 -0.0065528209981 -0.0040744821314 -0.066526572392
          0.19648350433 -0.011330917638 0.012353090834 -0.011330917638 0.016618179795 0.029861811956
          0.012353090834 0.029861811956 0.18989717546 0.20045936745 -0.0061369789352 -0.015062649891
          -0.0061369789352 -0.044986744584 0.016462363908 -0.015062649891 0.016462363908 0.094907057964
          0.3548414688 0.0089490509417 0.034157413065 0.0089490509417 -0.015916881758 0.027027000159
          0.034157413065 0.027027000159 0.29875771128 0.37940277235 0.017883156993 0.015601901317
          0.017883156993 -0.012264118545 0.012529819415 0.015601901317 0.012529819415 0.33387230579
          0.3496954859 0.016437734616 0.015438569711 0.016437734616 -0.038894548579 0.022232616109
          0.015438569711 0.022232616109 0.23714035565 0.37122051706 0.018098194401 0.0071662812122
          0.018098194401 -0.0034220182219 0.020759618658 0.0071662812122 0.020759618658 0.36661153877
          0.23239055295 -3.1570049596e-05 -0.025649997234 -3.1570049596e-05 0.0068896176323 -0.072714217857
          -0.025649997234 -0.072714217857 -0.092839461939 0.35444943997 0.023851354066 0.017706500547
          0.023851354066 -0.022237481042 0.014336319 0.017706500547 0.014336319 0.26974529462
          -0.0029629263327 -0.015464440846 -0.017034353454 -0.015464440846 0.016324417059 0.006245825883
          -0.017034353454 0.006245825883 0.021304124258 0.10267845655 -0.01286309746 -0.064192235187
          -0.01286309746 0 0 -0.064192235187 0 0
          0.13141110354 0.018585627813 -0.033008185941 0.018585627813 0.015401795262 0.0080243483513
          -0.033008185941 0.0080243483513 0.10109832699 0.14384235666 0.0034714188466 -0.011216576579
          0.0034714188466 -0.023378006378 0.0048756666051 -0.011216576579 0.0048756666051 0.14678147724
          0.37507208233 0.023558438889 0.016000443747 0.023558438889 -0.017530069518 0.013217221488
          0.016000443747 0.013217221488 0.33451466892 0.34347940624 0.015922150487 0.018793106945
          0.015922150487 -0.011015540987 0.023223243047 0.018793106945 0.023223243047 0.29430476476
          0.05480136381 -0.0074992145394 -0.014059452875 -0.0074992145394 -0.002010960959 -0.0022831669987
          -0.014059452875 -0.0022831669987 0.096329042697 0.18833539476 0.0027306744294 -0.011836351687
          0.0027306744294 -0.014019478285 0.0089442811263 -0.011836351687 0.0089442811263 0.13859122692
          0.16603424684 0.0069687539903 -0.037067421776 0.0069687539903 -0.012656095926 -0.00067652840755
          -0.037067421776 -0.00067652840755 0.11086128724 0.086328394011 -0.0069834526784 -0.011050981551
          -0.0069834526784 -0.016559971912 -0.0044571433808 -0.011050981551 -0.0044571433808 0.074411865449
          0.12072474268 0.013180438199 -0.019190817205 0.013180438199 0.014315762401 0.009704062638
          -0.019190817205 0.009704062638 0.093388922995 0.1523722731 0.015108677477 -0.011589073552
          0.015108677477 0.011547338471 0.0086383521399 -0.011589073552 0.0086383521399 0.21138349004
          0.099742296631 -0.0029826735182 -0.046438239361 -0.0029826735182 0.0094729436606 -0.0080211012605
          -0.046438239361 -0.0080211012605 0.14168313036 0.35038573697 0.010544132898 0.010257858024
          0.010544132898 0.0054240532058 0.016431778554 0.010257858024 0.016431778554 0.36165522397
          0.091114811884 0.0056463616239 -0.018997692218 0.0056463616239 0.00527736973 0.00359947358
          -0.018997692218 0.00359947358 0.11970829415 0.16881057901 0.010451731218 -0.029561012803
          0.010451731218 -0.017579790242 0.0097338013445 -0.029561012803 0.0097338013445 0.12129324683
          0.19732601436 0.0079047061788 -0.0015791562025 0.0079047061788 -0.0088817071484 0.0019506532483
          -0.0015791562025 0.0019506532483 0.13473674228 0.12966812319 0.0053379513837 -0.0062384209862
          0.0053379513837 -0.041875858257 -0.0078554633245 -0.0062384209862 -0.0078554633245 -0.080199786824
          0.16549449046 0.0030522459246 -0.01776309619 0.0030522459246 -0.008191948895 0.00069599263053
          -0.01776309619 0.00069599263053 0.13325295926 0.09577495733 0.0095766718213 0.0029161653112
          0.0095766718213 0.02426256908 0.011279129532 0.0029161653112 0.011279129532 0.2311965773
          0.22768038605 0.02370411337 -0.00020535608132 0.02370411337 0.015085791119 -0.0028144990537
          -0.00020535608132 -0.0028144990537 0.27994466354 0.27255497671 -0.0083287475945 0.031070070308
          -0.0083287475945 0.0026063186542 0.032861983861 0.031070070308 0.032861983861 0.28326689617
          0.37929750105 0.021637483463 0.0060456041905 0.021637483463 -0.0078739864022 0.019683459067
          0.0060456041905 0.019683459067 0.35351899341 0.17745436432 0.0038273864692 -0.034363620749
          0.0038273864692 -0.021516319244 -0.00028707193323 -0.034363620749 -0.00028707193323 0.1196709778
          0.15913178518 -0.0063103924142 -0.0023156545372 -0.0063103924142 -0.055475844122 -0.016360916937
          -0.0023156545372 -0.016360916937 -0.048895772721 0.12172096467 -0.010078123363 -0.015362443307
          -0.010078123363 -0.0066125352141 -0.0015265346008 -0.015362443307 -0.0015265346008 0.11619492334
          0.13238559764 0.0013422795153 -0.020283458378 0.0013422795153 -0.0083161340453 -0.0026620093042
          -0.020283458378 -0.0026620093042 0.12097791749 0.26869058843 0.025523218873 0.016058615403
          0.025523218873 0.022898554601 0.014377127793 0.016058615403 0.014377127793 0.29399017772
          0.081410031471 0.079075733693 0.0044352074663 0.079075733693 0.064884111334 0.072978345885
          0.0044352074663 0.072978345885 0.19673122024 -0.016850949062 -0.0015697144123 0.0025570231697
          -0.0015697144123 0.0060297218203 0.0084530000639 0.0025570231697 0.0084530000639 0.00020068034148
          0.19072034392 -0.0039830016117 -0.022836132111 -0.0039830016117 -0.030276321416 0.0035162472655
          -0.022836132111 0.0035162472655 0.10377675286 0.165656222 -0.0088279242759 -0.0069666627145
          -0.0088279242759 -0.054515621531 0.016230227585 -0.0069666627145 0.016230227585 -0.032495357212
          0.37737522884 0.012160064072 0.019249474157 0.012160064072 -0.011464484512 0.019684037921
          0.019249474157 0.019684037921 0.34584791361 0.36075337971 0.015382702478 0.017321374605
          0.015382702478 -0.0042519492368 0.01747352253 0.017321374605 0.01747352253 0.34628979314
          0.36807455888 0.027279522985 0.0054730683952 0.027279522985 -0.0053279530732 0.018030123022
          0.0054730683952 0.018030123022 0.35464934079 0.3859107477 0.018868406556 0.0077184111986
          0.018868406556 -0.017946358033 0.012740518488 0.0077184111986 0.012740518488 0.32019123353
          0.1703901942 -0.003357681116 0.00080191213438 -0.003357681116 -0.054787476223 -0.009724393521
          0.00080191213438 -0.009724393521 -0.025720022665 0.31698116274 0.023120722124 0.012150428938
          0.023120722124 -0.032684641113 0.014435173699 0.012150428938 0.014435173699 0.25131105427
          0.098863494744 0.025939240034 0.0062743600566 0.025939240034 0.026569803167 0.019901648492
          0.0062743600566 0.019901648492 0.23385170425 0.37775531445 0.014170421141 0.02047306368
          0.014170421141 -0.01120806775 0.020343199002 0.02047306368 0.020343199002 0.34654695307
          0.018259824106 -0.0049460027084 -0.0050911042947 -0.0049460027084 -0.018663413194 0.0020556420602
          -0.0050911042947 0.0020556420602 0.033358540042 0.29639583744 0.0077383951852 0.032137037479
          0.0077383951852 0.0042645479775 0.015420560401 0.032137037479 0.015420560401 0.27856443938
          0.37275346633 0.020804260578 0.018369317307 0.020804260578 -0.021222516649 0.022528315468
          0.018369317307 0.022528315468 0.32048456048 0.17849613289 0.013948453288 0.0049972616397
          0.013948453288 -0.060526944494 0.01134436157 0.0049972616397 0.01134436157 -0.019395340623
          0.32639931101 0.035146804149 0.025028379164 0.035146804149 0.01446829419 0.0056761717434
          0.025028379164 0.0056761717434 0.3216552124 0.11700986282 0.014755260518 -0.036872048186
          0.014755260518 0.014618051911 0.0014548117159 -0.036872048186 0.0014548117159 0.11585338718
          0.19833761555 -0.0011528409794 -0.016243095754 -0.0011528409794 -0.030427459169 -0.0036032608413
          -0.016243095754 -0.0036032608413 0.077975912744 0.18109135003 0.012574103835 0.0050617972987
          0.012574103835 -0.050573059441 0.012084151024 0.0050617972987 0.012084151024 0.057191634535
          0.1035315882 0.019317802438 -0.059316533368 0.019317802438 0.0057252495815 0.00177573982
          -0.059316533368 0.00177573982 0.14916489155 0.13094714425 -0.013079007375 -0.018193541671
          -0.013079007375 -0.010936323401 0.0028312499383 -0.018193541671 0.0028312499383 0.13997735234
          0.092427781819 -0.0075518610626 -0.026671289705 -0.0075518610626 -0.01130019413 0.0030800130222
          -0.026671289705 0.0030800130222 0.09283401289 0.17343929096 0.0026678551958 -0.0070806827416
          0.0026678551958 -0.044741823878 -0.0095535583319 -0.0070806827416 -0.0095535583319 0.010019318286
          0.2188285541 -8.3198261289e-05 0.0067704550052 -8.3198261289e-05 -0.0060254830378 0.011564088639
          0.0067704550052 0.011564088639 0.1861907652 0.17898671635 -0.0033999251815 -0.01131315687
          -0.0033999251815 -0.041212789968 0.0081387993144 -0.01131315687 0.0081387993144 0.03579548945
          -0.017686579063 -0.0022326639919 -0.0098766947485 -0.0022326639919 0.013135205579 -0.0065087071277
          -0.0098766947485 -0.0065087071277 0.010364277501 0.23240608211 0.01781098466 0.0080162450713
          0.01781098466 0.0048103082353 0.023348457356 0.0080162450713 0.023348457356 0.31914767669
          0.23473677473 0.015848860997 0.021362084918 0.015848860997 -0.032595867373 0.017220874867
          0.021362084918 0.017220874867 0.14381928126 0.17811657046 -0.0026560401768 -0.025839586303
          -0.0026560401768 -0.011164689433 -0.0025573825806 -0.025839586303 -0.0025573825806 0.13603479384
          0.058069511325 0.0060252384597 -0.0007989940289 0.0060252384597 -0.0073540019071 -0.00077469153151
          -0.0007989940289 -0.00077469153151 -0.011483529412 0.14553830253 -0.0087895331896 -0.032322589195
          -0.0087895331896 -0.011751148479 0.002440565302 -0.032322589195 0.002440565302 0.12250278169
          0.18112069881 0.0073976964849 -0.019155212951 0.0073976964849 -0.033174807258 0.0065574332535
          -0.019155212951 0.0065574332535 0.060966156292 0.104405635 0.023496081562 -0.047094112721
          0.023496081562 0.0092297484918 0.0088664346626 -0.047094112721 0.0088664346626 0.1556270782
          0.16177150436 0.00074148475236 -0.029043541208 0.00074148475236 -0.02781256533 -0.0035220291914
          -0.029043541208 -0.0035220291914 0.08742551613 0.38992425615 0.021750554753 0.01084091117
          0.021750554753 -0.019353500176 0.011769967498 0.01084091117 0.011769967498 0.3435438808
          0.1193990849 0.0081571746102 0.0073184890592 0.0081571746102 -0.0053675549441 0.015801832017
          0.0073184890592 0.015801832017 0.11140160393 -0.04505329721 0.00024246861937 0.0051161622384
          0.00024246861937 0.0074409328589 -0.0066891349095 0.0051161622384 -0.0066891349095 0.022320439752
          0.38638094796 0.017012371051 0.013371201835 0.017012371051 -0.018838359229 0.021660929945
          0.013371201835 0.021660929945 0.33015221461 0.11184481823 0.0035876223474 -0.0043738281542
          0.0035876223474 0.026723722268 0.002129599617 -0.0043738281542 0.002129599617 0.099906920284
          0.38625097743 0.022276230584 0.0057669913106 0.022276230584 -0.011198035067 0.0211217278
          0.0057669913106 0.0211217278 0.35612792117 0.12463775601 0.013882467601 -0.019261255752
          0.013882467601 -0.029990354794 -0.011166767312 -0.019261255752 -0.011166767312 0.017832558067
          0.19629085297 0.0029047741078 -0.014312028811 0.0029047741078 -0.02566261027 0.00030342659374
          -0.014312028811 0.00030342659374 0.11728167472 -0.0087781630237 -0.0042645391395 -0.0073718727153
          -0.0042645391395 0.019365645854 0.013157860732 -0.0073718727153 0.013157860732 0.09860252483
          0.14200979095 0.0013161536692 -0.01390103494 0.0013161536692 -0.0081290835825 0.00081802918551
          -0.01390103494 0.00081802918551 0.13275759077 0.35357777844 0.02832173083 0.013250030779
          0.02832173083 0.0022851584725 0.014375951712 0.013250030779 0.014375951712 0.35251892876
          0.10267845655 -0.01286309746 -0.064192235187 -0.01286309746 0 0
          -0.064192235187 0 0 0.081610780768 0.010567812515 -0.034806982013
          0.010567812515 0.018060313565 0.0068379653238 -0.034806982013 0.0068379653238 0.1299593024
          0.094391842761 -0.0130840423 -0.050464772186 -0.0130840423 -0.00886456179 -0.019500103642
          -0.050464772186 -0.019500103642 0.15915120244 0.096141022482 0.013170187579 -0.011440918472
          0.013170187579 0.0020658769726 -0.0054662226858 -0.011440918472 -0.0054662226858 0.13454937513
          0.03345135426 0.0038613595563 -0.025571612588 0.0038613595563 -0.030397894466 -0.012620102669
          -0.025571612588 -0.012620102669 0.0083251587769 0.094531249935 0.0060888175185 -0.013415809098
          0.0060888175185 -0.032439077009 -0.003456443804 -0.013415809098 -0.003456443804 -0.036578160752
          0.23854121759 0.014539339552 0.0074473291571 0.014539339552 0.014092653629 -0.0031150828451
          0.0074473291571 -0.0031150828451 0.23794868425 0.17193154245 0.010886208759 -0.021870785688
          0.010886208759 -0.019315946267 0.0075349330187 -0.021870785688 0.0075349330187 0.087520482644
          0.094523230546 0.0052689827024 -0.030340564413 0.0052689827024 0.013946927865 -0.0029759316502
          -0.030340564413 -0.0029759316502 0.15905651631 -0.01160865104 -0.0053253254426 0.00018431696261
          -0.0053253254426 0.018003859979 0.0094572677053 0.00018431696261 0.0094572677053 0.045689751544
          -0.057710969336 -0.0023197756532 -0.012216289499 -0.0023197756532 0.012682951312 -0.0051996435848
          -0.012216289499 -0.0051996435848 0.059625203496 0.34347875324 0.025198706031 0.022132945644
          0.025198706031 -0.0016955049331 0.0107388033 0.022132945644 0.0107388033 0.34066527551
          0.37864203897 0.02114582319 0.0078751652383 0.02114582319 -0.010233177707 0.021743416497
          0.0078751652383 0.021743416497 0.35154199934 0.38252033871 0.022490903377 0.0056228161892
          0.022490903377 -0.01098232904 0.020999981268 0.0056228161892 0.020999981268 0.35166939668
          0.30978336679 0.0038257418638 0.030554151928 0.0038257418638 -0.014681493073 0.019602462483
          0.030554151928 0.019602462483 0.30772057121 0.36686556128 0.027320658762 0.019393870699
          0.027320658762 -0.011964428108 0.013858866746 0.019393870699 0.013858866746 0.34033361709
          0.36942195567 0.020574641359 0.011217279207 0.020574641359 -0.0073603309004 0.014917490201
          0.011217279207 0.014917490201 0.35118980845 0.18782239381 0.0071425623768 -0.0098312566019
          0.0071425623768 -0.014975392215 0.003547007909 -0.0098312566019 0.003547007909 0.11726052782
          0.36348085629 0.0054923959233 0.022790732381 0.0054923959233 -0.019950030536 0.020659618934
          0.022790732381 0.020659618934 0.31810306474 0.3769982096 0.020250445099 0.010897103203
          0.020250445099 -0.0086995299104 0.018539149181 0.010897103203 0.018539149181 0.35302178293
          0.16646046018 0.029332419142 0.011740969944 0.029332419142 -0.064726797882 0.0096369015803
          0.011740969944 0.0096369015803 -0.015236417277 0.1334700871 -0.027042051597 -0.0046725563175
          -0.027042051597 -0.054576803231 -0.010641291955 -0.0046725563175 -0.010641291955 -0.06136981734
          0.097089745481 0.0009316463652 -0.023442288489 0.0009316463652 -0.0075523061105 -0.0068412399807
          -0.023442288489 -0.0068412399807 0.10584817588 0.10430715712 0.0010789280951 -0.075073634628
          0.0010789280951 0.00091346868533 0.0011746308106 -0.075073634628 0.0011746308106 0.067080785472
          0.12380307067 0.008861419268 -0.02804747075 0.008861419268 0.013009543223 -0.020401584311
          -0.02804747075 -0.020401584311 0.08453756781 0.35123249031 0.006457900518 0.024061310114
          0.006457900518 -0.020996996741 0.026782248965 0.024061310114 0.026782248965 0.31451315402
          0.18454649806 -0.00063478219455 -0.017742323097 -0.00063478219455 -0.021530928537 0.0018111191361
          -0.017742323097 0.0018111191361 0.11868851697 0.37529482035 0.022986381114 0.004173160619
          0.022986381114 -0.0055777897855 0.019281736461 0.004173160619 0.019281736461 0.3542675408
          0.08706011837 0.0033545019904 -0.022415815565 0.0033545019904 -0.011060920743 0.0033000796746
          -0.022415815565 0.0033000796746 0.06619326015 0.35956245131 0.029618372681 0.014216150757
          0.029618372681 -0.0071011161847 0.01862601556 0.014216150757 0.01862601556 0.35066913047
          0.080800172268 0.0066163310177 -0.0097898803987 0.0066163310177 -0.028624453743 0.0004289412648
          -0.0097898803987 0.0004289412648 -0.0033391238524 0.0068891423741 0.0055544756698 -0.020568171272
          0.0055544756698 0.02420305032 0.013338932418 -0.020568171272 0.013338932418 0.095879530227
          0.1774625942 -0.0029148598411 -0.016323272296 -0.0029148598411 -0.017588933417 -0.0012646516161
          -0.016323272296 -0.0012646516161 0.13646998359 0.36327763216 0.024980692403 0.014627559762
          0.024980692403 -0.032758717902 0.016999676869 0.014627559762 0.016999676869 0.31223931453
          0.2750781228 0.0064557930764 0.011294578636 0.0064557930764 0.028728817712 0.017574975243
          0.011294578636 0.017574975243 0.33498246107 0.38111646532 0.015203581298 0.0095183807895
          0.015203581298 -0.0088622790792 0.020350636125 0.0095183807895 0.020350636125 0.35578440011
          0.062102638884 0.001860660815 0.0059272788643 0.001860660815 -0.030891431179 -0.010776658485
          0.0059272788643 -0.010776658485 -0.0019640306348 0.31351532179 0.011326109046 0.0066639460403
          0.011326109046 -0.043216467851 0.012007418673 0.0066639460403 0.012007418673 0.1876349294
          0.16620632988 -0.0010830335088 -0.029093093832 -0.0010830335088 -0.012981716778 0.00045355797141
          -0.029093093832 0.00045355797141 0.12492135097 0.1296993835 -0.0045836392179 0.003650252693
          -0.0045836392179 -0.044597254157 -0.005626314453 0.003650252693 -0.005626314453 -0.03891472512
          0.35777665516 0.021132834589 0.017662320294 0.021132834589 -0.039672704201 0.012048267336
          0.017662320294 0.012048267336 0.20018606411 0.30009916527 0.020441614152 0.011782046935
          0.020441614152 -0.014178940591 0.016172719725 0.011782046935 0.016172719725 0.28025069796
          -0.034213274372 0.0082672489882 -0.027046610631 0.0082672489882 0.018271047847 -0.010008009624
          -0.027046610631 -0.010008009624 0.063061917019 0.36458518947 0.020749362174 0.013505349672
          0.020749362174 -0.0042669084149 0.020989505345 0.013505349672 0.020989505345 0.35697799363
          0.11947055289 0.016208600229 -0.019779269931 0.016208600229 0.0085952738634 0.0055847945151
          -0.019779269931 0.0055847945151 0.1121540371 0.04043314636 -0.0018615546188 0.0084303952975
          -0.0018615546188 0.0026016866526 -0.007188040536 0.0084303952975 -0.007188040536 0.01580539613
          0.38373339593 0.018215661392 0.0091223190392 0.018215661392 -0.017852663695 0.016323598688
          0.0091223190392 0.016323598688 0.33737763183 0.11490944243 0.00155852041 -0.0018468734104
          0.00155852041 -0.042134463287 0.0010419261546 -0.0018468734104 0.0010419261546 -0.048813481731
          0.20315925987 0.0041755365314 -0.0085082794094 0.0041755365314 -0.028600951407 -0.00084599061997
          -0.0085082794094 -0.00084599061997 0.083676662689 0.14317800067 -0.00095759702986 -0.03248837968
          -0.00095759702986 -0.0045252399263 -0.00016190398712 -0.03248837968 -0.00016190398712 0.093576520107
          0.12623979398 -0.0079973996194 -0.01262216833 -0.0079973996194 0.006668294427 0.021537439483
          -0.01262216833 0.021537439483 0.16956857219 0.16542209362 -0.0040916577898 -0.016800651998
          -0.0040916577898 -0.018016051791 -0.0017294356587 -0.016800651998 -0.0017294356587 0.13304037171
          -0.063531105922 -0.010764989773 -0.0055059294249 -0.010764989773 0.015110157516 0.0065619625684
          -0.0055059294249 0.0065619625684 0.079649950029 0.18662914889 0.0042929229546 -0.017547234148
          0.0042929229546 -0.024809705418 -0.0037422928609 -0.017547234148 -0.0037422928609 0.11985365059
          0.17045377125 0.0024930296302 0.0040620198633 0.0024930296302 -0.034667201461 0.0142904412
          0.0040620198633 0.0142904412 0.063023259813 0.14902506735 0.016481121302 0.020801738573
          0.016481121302 0.0072067838471 0.013239633979 0.020801738573 0.013239633979 0.16227895439
          0.34936524799 0.014274848991 0.0081914281972 0.014274848991 -0.0030166659833 0.021487829911
          0.0081914281972 0.021487829911 0.35838634075 0.22362687835 0.020126984376 0.062194281452
          0.020126984376 -0.041145889795 0.011382050556 0.062194281452 0.011382050556 0.21949747911
          0.18969091336 -0.0053770999253 -0.0011981113678 -0.0053770999253 -0.053180506021 0.014011421564
          -0.0011981113678 0.014011421564 0.031191606579 0.35418545856 0.015570529502 0.012776765147
          0.015570529502 -0.044892183092 0.011712271784 0.012776765147 0.011712271784 0.22966830338
          -0.015943867186 0.0023938815323 -0.018460895392 0.0023938815323 0.0068259969895 -0.012641971395
          -0.018460895392 -0.012641971395 0.018512145507 0.0089102449147 -0.017944230834 -0.018984938519
          -0.017944230834 0.010347488281 -0.0010340902774 -0.018984938519 -0.0010340902774 0.090301286802
          0.20815371514 -0.010778591581 0.0031585685482 -0.010778591581 -0.02345768589 0.01299850537
          0.0031585685482 0.01299850537 0.15346013388 0.1764897742 0.00044785648309 -0.032419093214
          0.00044785648309 -0.016583034686 -0.0015102593688 -0.032419093214 -0.0015102593688 0.12118285628
          0.1800631043 0.0034932769864 -0.028471051373 0.0034932769864 -0.017558693182 -0.0027741478777
          -0.028471051373 -0.0027741478777 0.11549744939 0.16117759291 -0.0012564826605 -0.027784097211
          -0.0012564826605 -0.028488324071 -0.0035479783794 -0.027784097211 -0.0035479783794 0.074612040436
          0.080380970018 0.0048855494331 -0.010657836746 0.0048855494331 0.0031111799567 -0.00096564050375
          -0.010657836746 -0.00096564050375 0.05415720963 0.16653061571 0.0039557016137 -0.034762168928
          0.0039557016137 -0.01617096361 0.0010923957317 -0.034762168928 0.0010923957317 0.12270610056
          0.10797372772 -0.011736281077 -0.051845594739 -0.011736281077 6.4788698593e-05 -0.019615768393
          -0.051845594739 -0.019615768393 0.13259934458 0.2541534157 0.035480607044 0.004446962478
          0.035480607044 0.001528066311 -0.0020781163808 0.004446962478 -0.0020781163808 0.30999594277
          0.20223764083 0.0003671533163 -0.0083594614154 0.0003671533163 -0.037728259753 -0.0046094418006
          -0.0083594614154 -0.0046094418006 0.086552862486 -0.040623878825 0.016955445213 0.00029800520018
          0.016955445213 0.0092572905867 0.0040192392634 0.00029800520018 0.0040192392634 0.061718047139
          0.11195336413 -0.0072310017344 -0.010513728963 -0.0072310017344 -0.039357441309 -0.0075454007739
          -0.010513728963 -0.0075454007739 -0.0069831577326 0.15038828607 0.00038688028446 -0.032877955418
          0.00038688028446 -0.010869396493 -0.0061041494565 -0.032877955418 -0.0061041494565 0.1201813379
          0.34221870332 0.015764369457 0.019152767627 0.015764369457 -0.0059614790384 0.027992878257
          0.019152767627 0.027992878257 0.2986016264 0.40717629826 0.084384590515 0.030589932842
          0.084384590515 -0.1304035526 0.033762292117 0.030589932842 0.033762292117 0.17667632004
          0.14952438358 -0.0094037972226 -0.010863391139 -0.0094037972226 -0.042543681387 0.013745107519
          -0.010863391139 0.013745107519 -0.033886400805 0.15864232152 0.0033780830646 0.00012714464541
          0.0033780830646 -0.035562851884 0.0056289844835 0.00012714464541 0.0056289844835 0.026899233228
          0.067176848985 -0.043788102613 -0.040824235561 -0.043788102613 -0.0014418935139 -0.01904127115
          -0.040824235561 -0.01904127115 0.014644428222 0.3298653262 0.022420473017 0.011171269337
          0.022420473017 0.014070757131 0.021624639156 0.011171269337 0.021624639156 0.36519425985
          0.060610248894 0.0067555426635 0.0038476347106 0.0067555426635 -0.012223214367 0.011921389979
          0.0038476347106 0.011921389979 -0.018720453725 0.16117404844 -0.0017563620906 -0.034406828056
          -0.0017563620906 -0.015967836044 -0.0049393901392 -0.034406828056 -0.0049393901392 0.11685141463
          0.27545243246 0.0080951872005 0.019016085257 0.0080951872005 0.015021950194 0.013990987111
          0.019016085257 0.013990987111 0.35732656907 0.18333748541 0.0022150887032 -0.019475995944
          0.0022150887032 -0.034310002823 -0.0067767000008 -0.019475995944 -0.0067767000008 0.076930758322
          0.38385976078 0.014405718992 0.016316709517 0.014405718992 -0.0098120609743 0.018199751953
          0.016316709517 0.018199751953 0.35489989584 0.064357348911 -0.0074092276316 0.013542065189
          -0.0074092276316 0.01814530738 0.02043456321 0.013542065189 0.02043456321 0.10388023932
          0.39662302422 0.016573742052 0.014010617381 0.016573742052 -0.028133184657 0.029324924519
          0.014010617381 0.029324924519 0.30375168951 0.39946903774 0.014132038626 0.0094953133868
          0.014132038626 -0.03571177568 0.034222947833 0.0094953133868 0.034222947833 0.3108069495
          0.18907483176 7.432046272e-05 -0.030373842073 7.432046272e-05 -0.022040072291 0.0063854228088
          -0.030373842073 0.0063854228088 0.08469765699 0.24506417422 0.0166027013 -0.0018313010261
          0.0166027013 -0.0092535110301 0.01020651248 -0.0018313010261 0.01020651248 0.2365263453
          0.35061395266 0.04524808316 0.027566087448 0.04524808316 -0.025682920416 0.0060797222848
          0.027566087448 0.0060797222848 0.34033650734 0.10477612026 0.013228103039 -0.017975252584
          0.013228103039 -0.0029369898723 0.0020498332226 -0.017975252584 0.0020498332226 0.12872237785
          0.16606306517 -0.0021881925547 -0.029484597771 -0.0021881925547 -0.014459853449 -0.0016046933907
          -0.029484597771 -0.0016046933907 0.12398275658 -0.017637023597 -0.010962530516 -0.03099470514
          -0.010962530516 0.0056873426419 -0.0069311410184 -0.03099470514 -0.0069311410184 0.026429228075
          0.064090394465 -0.0044224207383 -0.010934355524 -0.0044224207383 -0.019315675427 0.010536646514
          -0.010934355524 0.010536646514 -0.022206017165 0.24784647547 0.0012130382005 0.01570957871
          0.0012130382005 -0.015440997434 -0.032171896178 0.01570957871 -0.032171896178 0.070132541745
          0.33080365196 0.0015449121974 0.020774062178 0.0015449121974 -0.029503975883 0.030736365547
          0.020774062178 0.030736365547 0.23873542979 0.19283672088 0.016804689039 -0.0033241283191
          0.016804689039 -0.052541174727 0.0050453936004 -0.0033241283191 0.0050453936004 0.019414253843
          0.14321344708 -0.0025841465544 -0.033027426693 -0.0025841465544 -0.0078638452199 -0.0033600069354
          -0.033027426693 -0.0033600069354 0.10655275728 0.35791740169 0.015229708252 0.0054669821715
          0.015229708252 -0.049523365843 0.026531591723 0.0054669821715 0.026531591723 0.16733703499
          0.13334517428 0.00091090203721 -0.021349632755 0.00091090203721 -0.010842249713 -0.0067586498888
          -0.021349632755 -0.0067586498888 0.11446440633 -4.3556730428e-05 0.0021071618039 -0.010662479504
          0.0021071618039 -0.01089987134 -0.024022616688 -0.010662479504 -0.024022616688 0.037727205619
          0.38449110071 0.017269189739 0.0021601187026 0.017269189739 -0.0099712393913 0.016664749648
          0.0021601187026 0.016664749648 0.34833584943 0.18543135281 0.0024818681852 -0.01005240271
          0.0024818681852 -0.018189335637 0.020499207702 -0.01005240271 0.020499207702 0.19851705041
          0.3330583142 0.0025822336358 0.032829721884 0.0025822336358 -0.017023005236 0.025389751051
          0.032829721884 0.025389751051 0.32655252444 0.13036433576 0.015229597364 -0.025635080986
          0.015229597364 0.017765097581 0.011898686351 -0.025635080986 0.011898686351 0.085266920181
          0.13126494119 0.011910967523 -0.044615905114 0.011910967523 -0.044401230972 0.013470755351
          -0.044615905114 0.013470755351 0.029812619534 0.10891818235 -0.0037949691018 -0.0081381544549
          -0.0037949691018 -0.0016320557404 -0.0053343739799 -0.0081381544549 -0.0053343739799 0.091438191259
          0.1829128743 0.0041380017957 -0.0064633812412 0.0041380017957 -0.070456582477 -0.018553038414
          -0.0064633812412 -0.018553038414 -0.044545221596 0.3769191991 0.015592481653 0.010964091342
          0.015592481653 -0.015990736719 0.017862857985 0.010964091342 0.017862857985 0.34012632971
          0.11487429692 0.015882553556 -0.021118868745 0.015882553556 -0.0012731558844 0.0044091954787
          -0.021118868745 0.0044091954787 0.084683052127 0.043475983964 0.0043918550761 -0.0041969184468
          0.0043918550761 -0.011464613754 0.0084415609416 -0.0041969184468 0.0084415609416 -0.0002003608861
          0.19695175821 -8.8151154506e-05 -0.022635668033 -8.8151154506e-05 -0.054067431141 -0.0057259887073
          -0.022635668033 -0.0057259887073 0.02718286026 0.033562601565 0.0089928990001 -0.028153941136
          0.0089928990001 -0.0051044898949 0.01859004306 -0.028153941136 0.01859004306 0.028138549446
          0.16831915941 0.004628673648 -0.016771603613 0.004628673648 -0.030906128803 0.0020116739753
          -0.016771603613 0.0020116739753 0.065645393576 0.14207049545 0.033588318416 -0.027037349975
          0.033588318416 0.033843937198 0.01933315559 -0.027037349975 0.01933315559 0.05693043799
          -0.08737358046 0.012984185118 -0.0041610548717 0.012984185118 0.037068728639 0.015836047809
          -0.0041610548717 0.015836047809 0.041458522797 0.099580840382 0.0051780626357 -0.011030717851
          0.0051780626357 -0.039327626351 -0.0091288323035 -0.011030717851 -0.0091288323035 -0.01869213767
          0.33810915661 0.023658793707 0.017308256655 0.023658793707 -0.0090336608911 0.016176081233
          0.017308256655 0.016176081233 0.31772182041 0.08912505276 -0.00041348034054 -0.015454908544
          -0.00041348034054 0.00040607978728 0.002335819467 -0.015454908544 0.002335819467 0.12220451236
          0.18300174113 0.0015589106805 -0.021274966138 0.0015589106805 -0.018631300833 -0.0016177540214
          -0.021274966138 -0.0016177540214 0.13281735566 0.35379752287 0.010816526573 0.023435103041
          0.010816526573 -0.018899729021 0.028278546268 0.023435103041 0.028278546268 0.31343126186
          0.10741904714 0.0021434799163 -0.017608618832 0.0021434799163 -0.0054231945179 0.0043135782004
          -0.017608618832 0.0043135782004 0.0742415547 0.077992169344 0.01759913994 -0.012059436694
          0.01759913994 0.0051685850214 -0.0008693840495 -0.012059436694 -0.0008693840495 0.11635770101
          0.13227912557 0.0047825087331 -0.038677125173 0.0047825087331 0.019160361902 -0.015420882684
          -0.038677125173 -0.015420882684 0.043975991093 0.26432417249 0.027132326406 0.017334399083
          0.027132326406 -0.063959680995 0.0048444155228 0.017334399083 0.0048444155228 0.11156448661
          0.19139154511 0.0022102461744 -0.015732106031 0.0022102461744 -0.024286412571 -0.0045480009303
          -0.015732106031 -0.0045480009303 0.11571596397 0.13976182502 0.011287533142 0.014610702228
          0.011287533142 -0.044104734801 0.0035402146485 0.014610702228 0.0035402146485 0.0058726298091
          0.18621407612 0.026298919673 -0.0009948241325 0.026298919673 -0.0061824015918 0.011350012908
          -0.0009948241325 0.011350012908 0.13532755312 0.36879300489 0.027218183034 0.0049091452679
          0.027218183034 -0.0015013281166 0.014162803648 0.0049091452679 0.014162803648 0.35666523502
          0.38140755672 0.018703909218 0.0038398763021 0.018703909218 -0.014185798201 0.017025796724
          0.0038398763021 0.017025796724 0.34820807224 0.19029795399 -0.003577998163 0.023750975021
          -0.003577998163 0.0023325254134 0.0083013159608 0.023750975021 0.0083013159608 0.13273094275
          0.18600094796 0.003617781859 -0.028569684245 0.003617781859 -0.029133902634 0.0072231509539
          -0.028569684245 0.0072231509539 0.099340323922 0.0069355156773 -0.0013286492328 0.0027020539802
          -0.0013286492328 -0.0055975279737 0.0042686083106 0.0027020539802 0.0042686083106 -0.0072456433696
          0.19298859982 0.0028497597868 -0.017640042668 0.0028497597868 -0.020205865237 -0.0013292657901
          -0.017640042668 -0.0013292657901 0.11495896539 0.033922319784 0.013486655925 -0.012537146343
          0.013486655925 -0.0026284582987 -0.0073795107802 -0.012537146343 -0.0073795107802 0.0052284568254
          -0.091027538023 0.01805398763 -0.026767974231 0.01805398763 0.0050195246258 0.0028394298532
          -0.026767974231 0.0028394298532 0.045989497036 0.16972746649 0.010589415178 -0.020867539847
          0.010589415178 -0.020305892714 -0.0095272548542 -0.020867539847 -0.0095272548542 0.11583020623
          0.18169459195 0.0078088818083 -0.0060759309197 0.0078088818083 -0.05695431933 0.010436756963
          -0.0060759309197 0.010436756963 -0.088034249659 0.19518576705 -0.010417146585 -0.014463945521
          -0.010417146585 -0.03964685606 -0.0078843770922 -0.014463945521 -0.0078843770922 0.071385066772
          -0.063748300172 -0.025089594496 0.0043442408693 -0.025089594496 0.028463346503 0.0057210963981
          0.0043442408693 0.0057210963981 0.06862387471 0.2928668099 0.019760237206 0.013714906038
          0.019760237206 0.015640124328 0.023184505161 0.013714906038 0.023184505161 0.30073010229
          0.35010614425 0.018709913595 0.027518882226 0.018709913595 -0.010704100239 0.0098930578404
          0.027518882226 0.0098930578404 0.32765183647 0.30267797923 0.0078102875374 0.025333559383
          0.0078102875374 -0.0077061037206 0.012100519635 0.025333559383 0.012100519635 0.2839519194
          0.39041424398 0.025259254642 0.0086136521643 0.025259254642 -0.021874896739 0.011092891948
          0.0086136521643 0.011092891948 0.33942451305 0.027598423219 -0.012768257602 -0.051691103824
          -0.012768257602 0 0 -0.051691103824 0 0
          0.073823588763 0.023521025996 0.0014184187256 0.023521025996 -0.055109263524 0.039695743312
          0.0014184187256 0.039695743312 0.14568522697 0.36151944984 0.017689132106 0.010214041634
          0.017689132106 -0.0049276850261 0.016287010997 0.010214041634 0.016287010997 0.35272678237
          0.1254579259 0.01607939993 -0.012552607703 0.01607939993 0.018412588554 0.023960418525
          -0.012552607703 0.023960418525 0.091373874089 0.29454138011 0.0050813704673 0.00509089183
          0.0050813704673 -0.057307017317 0.011894195443 0.00509089183 0.011894195443 0.15457073746
          0.38374091268 0.020160733871 0.0050634155481 0.020160733871 -0.013761490827 0.017046497232
          0.0050634155481 0.017046497232 0.35096777929 0.091876764482 -0.0020418571633 0.0065640388362
          -0.0020418571633 -0.017546448541 0.010750305099 0.0065640388362 0.010750305099 -0.014154459594
          0.3788522942 0.02106580764 0.0075476078216 0.02106580764 -0.009175849627 0.019006186157
          0.0075476078216 0.019006186157 0.35100830328 0.086942697258 -0.0046560275545 -0.0080940640454
          -0.0046560275545 -0.005269165739 -0.015522925413 -0.0080940640454 -0.015522925413 0.03607127849
          0.13773272345 0.00050692355817 -0.015249051484 0.00050692355817 -0.002772293725 0.0024881477678
          -0.015249051484 0.0024881477678 0.13564344953 0.13990622277 -0.0060265474629 -0.023315708695
          -0.0060265474629 -0.0090743983189 -0.0053657434316 -0.023315708695 -0.0053657434316 0.11840307216
          0.15023762518 0.0039786766269 -0.028277413574 0.0039786766269 -0.041522551376 -0.0025309405201
          -0.028277413574 -0.0025309405201 0.059921455553 0.30438274449 0.029567060146 0.025535642458
          0.029567060146 0.003989529014 0.014217137805 0.025535642458 0.014217137805 0.3241050719
          0.29554002592 0.021359424972 0.0092522377168 0.021359424972 0.014020133554 0.022920887253
          0.0092522377168 0.022920887253 0.3379717284 0.15130580478 0.0071415146569 -0.029973280976
          0.0071415146569 -0.022584728435 0.0070500316264 -0.029973280976 0.0070500316264 0.098289575806
          0.36383283258 0.029859752087 0.014559274742 0.029859752087 -0.0049761365061 0.011922651067
          0.014559274742 0.011922651067 0.34877230864 0.19103717665 0.0055612498388 0.00075775904002
          0.0055612498388 -0.052310414593 0.011052377027 0.00075775904002 0.011052377027 0.017616480438
          0.24686252619 -0.013591487282 0.019834715113 -0.013591487282 -0.015027400333 0.023336595257
          0.019834715113 0.023336595257 0.22200546126 0.16322611277 0.00070871182676 -0.017721561956
          0.00070871182676 -0.05098875687 0.0073088189536 -0.017721561956 0.0073088189536 0.025755934772
          -0.07358228541 0.055751065047 0.01178461493 0.055751065047 0.0085781559035 0.002478501131
          0.01178461493 0.002478501131 0.030395911148 0.38056686472 0.022146542052 0.0092045702205
          0.022146542052 -0.012519544324 0.016919953101 0.0092045702205 0.016919953101 0.35054568893
          0.16770412571 -0.0040835857309 -0.016383643275 -0.0040835857309 -0.045868579696 0.0059958625813
          -0.016383643275 0.0059958625813 0.024486194021 0.14719639502 0.011383209261 -0.005648520978
          0.011383209261 -0.030159471464 0.007475965468 -0.005648520978 0.007475965468 0.075875101157
          0.012774051135 0.0023865149514 0.011910697303 0.0023865149514 0.016036679785 0.013841589118
          0.011910697303 0.013841589118 0.094863946896 0.35908230859 0.029382972326 0.024395887052
          0.029382972326 -0.0059923463243 0.012749382756 0.024395887052 0.012749382756 0.31897085279
          0.1929921657 0.0059890996899 -0.013037480647 0.0059890996899 -0.030770050926 0.0011790178552
          -0.013037480647 0.0011790178552 0.085021051912 0.20535446941 0.0049960768294 -0.0077522953123
          0.0049960768294 -0.036487831113 -0.0043998501547 -0.0077522953123 -0.0043998501547 0.08214069503
          0.28351003663 0.0002092677173 0.0088135256309 0.0002092677173 0.015774856039 0.01657826947
          0.0088135256309 0.01657826947 0.35129996302 0.18883525842 9.9221569561e-06 -0.027288501846
          9.9221569561e-06 -0.024874171168 -0.005509888517 -0.027288501846 -0.005509888517 0.094984916438
          0.1600754091 0.0012821121768 -0.019441280515 0.0012821121768 -0.043353239751 0.0024871137993
          -0.019441280515 0.0024871137993 0.043458446216 0.38045831784 0.018100081783 0.0039805865605
          0.018100081783 -0.010404361913 0.017380585229 0.0039805865605 0.017380585229 0.3528535463
          0.12068010914 0.025945055184 -0.0017423981259 0.025945055184 0.0055864028207 -0.023798068749
          -0.0017423981259 -0.023798068749 0.074240200172 0.40331806866 0.020797272294 0.0056323849979
          0.020797272294 -0.040414440122 0.028205885381 0.0056323849979 0.028205885381 0.30713146469
          0.20149141804 0.0032242220391 -0.0033446273265 0.0032242220391 -0.050423027257 0.015781950901
          -0.0033446273265 0.015781950901 0.028414902795 0.031496241769 -0.042859989523 -0.022050288168
          -0.042859989523 -0.02219468504 0.0088832072337 -0.022050288168 0.0088832072337 0.043756489309
          0.082740755825 0.013604687448 -0.038900617406 0.013604687448 -0.01357655404 0.011669304533
          -0.038900617406 0.011669304533 0.050263923708 0.024559644193 0.013075912198 -0.029218112139
          0.013075912198 -0.00065620320646 0.0049168345323 -0.029218112139 0.0049168345323 0.023423314203
          -0.049691670146 -0.012940834131 0.0076314305784 -0.012940834131 0.0069006601224 -0.0022671932047
          0.0076314305784 -0.0022671932047 0.065734925693 0.35713686746 0.032416185046 0.010151626792
          0.032416185046 -0.003721847541 0.014285819062 0.010151626792 0.014285819062 0.35634852661
          0.36720440482 0.03073508328 0.0082053383773 0.03073508328 0.0019386639047 0.020225721712
          0.0082053383773 0.020225721712 0.3580936652 0.14031305334 0.0125316207 -0.0049826049979
          0.0125316207 0.0014578361758 0.0039095278694 -0.0049826049979 0.0039095278694 0.12382722265
          0.17263012787 -0.0031982384828 -0.011605029163 -0.0031982384828 -0.027026359913 -0.0019550233878
          -0.011605029163 -0.0019550233878 0.066152436148 0.097989841941 0.0024785057185 -0.041162920633
          0.0024785057185 0.012283608078 -0.001129894233 -0.041162920633 -0.001129894233 0.13190637198
          0.20512165167 0.0092959334036 0.010006153509 0.0092959334036 0.0095145721574 0.027859694082
          0.010006153509 0.027859694082 0.24072011389 0.073847146662 -0.0066303139666 -0.013602707001
          -0.0066303139666 0.0088012888679 0.0055231255431 -0.013602707001 0.0055231255431 0.11603738203
          0.063530800099 0.0095416817403 -0.0081191723177 0.0095416817403 0.034882767102 0.0072316721161
          -0.0081191723177 0.0072316721161 0.19567059453 0.13643633931 0.0031326975927 -0.018691901876
          0.0031326975927 -0.0074092989003 0.0023018773144 -0.018691901876 0.0023018773144 0.12911176045
          0.25434940727 0.018066650893 0.0037162108342 0.018066650893 -0.080414181165 0.022264341794
          0.0037162108342 0.022264341794 0.021946248987 0.2406504379 0.012023454097 0.023700195228
          0.012023454097 0.0046662585163 0.010635831959 0.023700195228 0.010635831959 0.25743473079
          0.36543020743 0.017703109199 0.0078441359113 0.017703109199 0.00068862222158 0.021065991131
          0.0078441359113 0.021065991131 0.36654853749 0.36369133368 0.027745235517 0.020448309659
          0.027745235517 -0.0036567246745 0.0098605691624 0.020448309659 0.0098605691624 0.34226610861
          0.13629250601 0.0027798133361 -0.011158411727 0.0027798133361 -0.045138136788 0.0058744350537
          -0.011158411727 0.0058744350537 -0.10177560561 0.38557942163 0.023390517708 0.011774738244
          0.023390517708 -0.019699344884 0.011306312559 0.011774738244 0.011306312559 0.34338842739
          0.20785599724 0.086218585064 0.13409724613 0.086218585064 -0.21599350271 0.036829846914
          0.13409724613 0.036829846914 0.26467612026 0.094299997895 0.0047207723106 -0.014300454936
          0.0047207723106 0.007684974293 0.022527305029 -0.014300454936 0.022527305029 0.10038396561
          0.12799329605 0.005023056966 -0.017150536836 0.005023056966 -0.003163899536 -0.0032517443702
          -0.017150536836 -0.0032517443702 0.13464119024 0.012520406536 -0.00034023565893 -0.0014023510302
          -0.00034023565893 -0.011425796011 0.011555882548 -0.0014023510302 0.011555882548 -0.0075530266234
          0.11499989293 -0.003143137604 -0.021620711109 -0.003143137604 -0.020630137635 -0.01190431154
          -0.021620711109 -0.01190431154 0.070373414063 0.16208187275 0.002694052311 -0.021718939487
          0.002694052311 -0.04246418499 0.0027003287314 -0.021718939487 0.0027003287314 0.014492265439
          0.35085643666 0.037564541477 0.031118947232 0.037564541477 -0.01244310036 0.004258165067
          0.031118947232 0.004258165067 0.31540623391 0.10389744528 0.0031482118107 -0.071132908461
          0.0031482118107 -0.0025984415564 -0.01855304816 -0.071132908461 -0.01855304816 0.029182176574
          -0.016907560313 -0.010327260819 -0.0077645960042 -0.010327260819 0.010357002315 -0.010322912736
          -0.0077645960042 -0.010322912736 0.041538853931 0.1674054771 -0.00049858192396 -0.029917124089
          -0.00049858192396 -0.012481758252 -0.0018187504705 -0.029917124089 -0.0018187504705 0.12338734905
          0.22111393178 -0.0067638437519 0.0034104435703 -0.0067638437519 -0.068683933615 0.015647456005
          0.0034104435703 0.015647456005 -0.036870516894 0.11196151215 -0.0014556999729 -0.016383346729
          -0.0014556999729 -0.018794818789 -0.013125831293 -0.016383346729 -0.013125831293 -0.016937358734
          0.38496428126 0.021102550506 0.010690615242 0.021102550506 -0.010125012488 0.017711787772
          0.010690615242 0.017711787772 0.35100791848 0.006480008768 0.0057641559467 -0.0033394619185
          0.0057641559467 0.014503876879 0.0010069484228 -0.0033394619185 0.0010069484228 0.06978343354
          0.1203650553 -0.0013977801932 -0.0092128079575 -0.0013977801932 -0.045980787941 -0.015653057321
          -0.0092128079575 -0.015653057321 -0.039216276047 -0.0098204197768 -0.0013625185221 -0.0092391470378
          -0.0013625185221 0.013290356493 -0.0011575990764 -0.0092391470378 -0.0011575990764 0.019214612786
          0.18678740589 0.020996288249 0.0045333677147 0.020996288249 0.0025518193716 0.015830789864
          0.0045333677147 0.015830789864 0.16532621875 0.15798485319 0.021746437417 -0.0021504011913
          0.021746437417 0.036845015358 0.008535758249 -0.0021504011913 0.008535758249 0.25130588528
          0.23401505987 0.024421615055 0.0088214425797 0.024421615055 0.010037837748 0.0098177585939
          0.0088214425797 0.0098177585939 0.25290184302 0.077198405762 0.0083869053746 0.00087530194988
          0.0083869053746 -0.021415564692 -0.0026039674248 0.00087530194988 -0.0026039674248 -0.017789220688
          0.12227318804 0.0023297312412 -6.3709459066e-05 0.0023297312412 -0.068550229884 0.0047120770324
          -6.3709459066e-05 0.0047120770324 -0.062724316549 0.20721737149 -0.00054076799321 -0.015586755179
          -0.00054076799321 -0.031100669335 -0.0013549924273 -0.015586755179 -0.0013549924273 0.087455341249
          0.21054693482 -0.00014817905038 0.027536116164 -0.00014817905038 -0.010636562066 0.026207010246
          0.027536116164 0.026207010246 0.14661713859 0.14727242494 0.0098960065767 -0.022870083634
          0.0098960065767 -0.032642328448 -0.0051421963487 -0.022870083634 -0.0051421963487 0.0096942988462
          0.13166034 0.0056567339479 0.0068181727033 0.0056567339479 -0.041960659505 -0.0028457763899
          0.0068181727033 -0.0028457763899 -0.057430185687 0.10147521715 0.0092039014959 -0.0017608280909
          0.0092039014959 -0.027356819925 0.0043905155188 -0.0017608280909 0.0043905155188 0.045000233373
          0.17943806407 -0.0076754831776 0.0064150211196 -0.0076754831776 0.02541064395 0.014292108526
          0.0064150211196 0.014292108526 0.24452158844 0.11755706799 0.0065091633735 -0.013640096966
          0.0065091633735 0.00085908929573 0.0019146081446 -0.013640096966 0.0019146081446 0.1355956863
          0.16176961624 0.0093036466374 -0.014271788428 0.0093036466374 -0.046040439343 0.022936767585
          -0.014271788428 0.022936767585 -0.061864105743 0.15341640546 0.021477245349 -0.0023782671516
          0.021477245349 -0.016820529597 -0.00036839682492 -0.0023782671516 -0.00036839682492 0.06512281254
          0.37789569246 0.020654292471 0.014125035927 0.020654292471 -0.031826719675 -0.00091147617216
          0.014125035927 -0.00091147617216 0.28333483598 0.38411416695 0.017657497627 0.0027747593338
          0.017657497627 -0.0094145029905 0.018322475036 0.0027747593338 0.018322475036 0.35281906126
          0.1334503511 0.012601763182 -0.028216383099 0.012601763182 -0.01484914584 0.0011788548111
          -0.028216383099 0.0011788548111 0.09889546659 -0.045590083923 0.012531362374 -0.021458009141
          0.012531362374 0.038909658642 0.017937273749 -0.021458009141 0.017937273749 0.081464788646
          0.11283534487 0.018580214798 -0.056679704459 0.018580214798 -0.01051899643 0.0026915348221
          -0.056679704459 0.0026915348221 0.12645231892 0.15564149455 -0.00065900077486 -0.035604381672
          -0.00065900077486 -0.0057881941557 -0.00052398535749 -0.035604381672 -0.00052398535749 0.12338835266
          0.078287395475 0.0034730523909 -0.0038050249292 0.0034730523909 0.023328830621 0.019890927696
          -0.0038050249292 0.019890927696 0.18210413465 -0.098495140048 -0.014535358439 -0.0095333090386
          -0.014535358439 0.027767765739 -0.0077944315985 -0.0095333090386 -0.0077944315985 0.034106011655
          -0.027595599044 0.0083848666865 -0.014811108047 0.0083848666865 0.035069953278 -0.0081394322436
          -0.014811108047 -0.0081394322436 0.0172478922 0.16184526588 -0.0002484341979 -0.034843703839
          -0.0002484341979 -0.016796639672 -0.00019514458169 -0.034843703839 -0.00019514458169 0.097659386524
          0.050979802461 -0.01099845554 -0.010143559578 -0.01099845554 0.0072166327576 -0.0017016882459
          -0.010143559578 -0.0017016882459 0.093042443188 0.21767520727 -0.0074589085438 0.013030941159
          -0.0074589085438 0.020015012055 0.02122726141 0.013030941159 0.02122726141 0.30361160215
          0.095254131241 0.00061055014064 -0.018765702213 0.00061055014064 -0.023594234887 -0.009783721119
          -0.018765702213 -0.009783721119 0.030118793239 -0.025901299447 0.0072392325423 0.0071477864543
          0.0072392325423 0.01793972561 0.012171997197 0.0071477864543 0.012171997197 0.08956845923
          0.26262327057 0.017829387936 0.019773627001 0.017829387936 -0.056656396289 0.01884892797
          0.019773627001 0.01884892797 0.10807400376 0.12054438822 0.013161156964 -0.042965413683
          0.013161156964 0.018579806348 0.0020466155 -0.042965413683 0.0020466155 0.10369236372
          0.21269373761 -0.012414604194 -0.035246157415 -0.012414604194 -0.073145092446 0.0093241851435
          -0.035246157415 0.0093241851435 0.029737840064 0.38212946993 0.020335995457 0.0048292359757
          0.020335995457 -0.015631890095 0.014209648851 0.0048292359757 0.014209648851 0.34786621959
          0.21698422682 0.0080062958816 -0.0089494515831 0.0080062958816 -0.082822075323 -0.0071650568972
          -0.0089494515831 -0.0071650568972 -0.032933377365 0.3418753151 0.018200581419 0.023423757671
          0.018200581419 -0.032770353152 0.008599517787 0.023423757671 0.008599517787 0.25168969366
          -0.054404644355 0.011770667416 -0.017393666727 0.011770667416 0.035536082771 -0.011333902032
          -0.017393666727 -0.011333902032 0.081703920196 0.13066077142 -0.021111004508 -0.023829795147
          -0.021111004508 -0.033034232817 -0.011236454428 -0.023829795147 -0.011236454428 0.11361478884
          0.33479282754 0.017665498685 0.035626846619 0.017665498685 -0.023826575541 0.011996186621
          0.035626846619 0.011996186621 0.29908515245 -0.028637277049 0.015462137022 -0.0033281166869
          0.015462137022 -2.8890186325e-05 -0.00053009143731 -0.0033281166869 -0.00053009143731 0.03844533072
          0.036717375211 -0.0015630790688 -0.016010711339 -0.0015630790688 -0.0078413136817 -0.01293030354
          -0.016010711339 -0.01293030354 -0.0017022987013 0.37105408136 0.022052076999 0.0069031279806
          0.022052076999 -0.0049228091933 0.020866482378 0.0069031279806 0.020866482378 0.36416671298
          0.046395086931 0.021615326471 -0.089478334931 0.021615326471 -0.026624349161 -0.0035557343708
          -0.089478334931 -0.0035557343708 0.071660218251 0.33864526723 0.022678665851 0.012216036328
          0.022678665851 0.0039077560718 0.010714077688 0.012216036328 0.010714077688 0.3620219665
          -0.068347366973 -0.0045775372785 0.0085593666332 -0.0045775372785 0.019514986338 0.0059261490642
          0.0085593666332 0.0059261490642 0.03762296396 0.054494605287 0.012243884182 -0.01158606738
          0.012243884182 0.0005853011847 -0.0011352454916 -0.01158606738 -0.0011352454916 0.091362242399
          0.036400615287 0.01763092128 0.052650369103 0.01763092128 0.0084028716733 0.034067085204
          0.052650369103 0.034067085204 0.23110591154 0.20927062095 0.043076796892 0.017832502513
          0.043076796892 -0.012914966459 -0.01492292399 0.017832502513 -0.01492292399 0.22846328467
          0.084605626995 0.010317219585 -0.02163158585 0.010317219585 0.014247890602 -0.00336853583
          -0.02163158585 -0.00336853583 0.19964549007 0.088926917083 -0.0034203638592 -0.034222221097
          -0.0034203638592 -0.013500059706 0.008893728327 -0.034222221097 0.008893728327 0.015553969773
          -0.077335551601 0.0041443307567 -0.014579280546 0.0041443307567 0.01099689839 -0.012257741787
          -0.014579280546 -0.012257741787 0.055936079427 0.021192472682 -0.003005234086 0.0015615477157
          -0.003005234086 -0.017530120126 0.0023145437944 0.0015615477157 0.0023145437944 0.020221705274
          0.18067580403 -0.00063769661631 -0.0075198061443 -0.00063769661631 -0.029744471087 -0.00027233131891
          -0.0075198061443 -0.00027233131891 0.077222905236 0.33668655125 0.026661983063 0.015306402895
          0.026661983063 -0.0023329449083 0.020212048296 0.015306402895 0.020212048296 0.34073474416
          0.17655335949 0.0041722670991 -0.0052163247194 0.0041722670991 -0.043996698727 0.0049402378472
          -0.0052163247194 0.0049402378472 0.032493621078 -0.011725002815 -0.0032561370656 0.001575511011
          -0.0032561370656 0.019528927873 -0.0034570126374 0.001575511011 -0.0034570126374 0.032705215133
          0.082070487571 -0.0033158931946 -0.0043423058795 -0.0033158931946 -0.00048493724796 0.024219422406
          -0.0043423058795 0.024219422406 0.10171967137 0.12690914421 0.0014656361119 0.0030620293747
          0.0014656361119 -0.049406552639 -0.0093562773184 0.0030620293747 -0.0093562773184 -0.063831174428
          0.19898772984 -0.0020419792004 -0.02412564315 -0.0020419792004 -0.053431415249 -0.015743033747
          -0.02412564315 -0.015743033747 0.058093942013 0.14993081194 -0.0053888836357 -0.0012461093417
          -0.0053888836357 -0.063897972965 0.018141045884 -0.0012461093417 0.018141045884 -0.026550904223
          0.11827772569 0.0025183421849 -0.013609973839 0.0025183421849 0.028990985547 0.00612322188
          -0.013609973839 0.00612322188 0.2324590167 0.1802712207 0.0043441962859 -0.0001565979908
          0.0043441962859 -0.057576532084 0.010100995747 -0.0001565979908 0.010100995747 -0.084820311373
          0.26898873041 -0.0033590971127 -0.016368493943 -0.0033590971127 -0.082932262077 -0.01742989225
          -0.016368493943 -0.01742989225 0.057847121934 0.19069888386 -0.010183351812 -0.0016962105209
          -0.010183351812 -0.05570308168 0.010071374887 -0.0016962105209 0.010071374887 0.023830475497
          0.15975169416 -0.0033751849651 -0.018605546497 -0.0033751849651 -0.0030548924049 0.0030899823454
          -0.018605546497 0.0030899823454 0.13619061805 0.16266427157 -0.0020729876706 -0.029442110529
          -0.0020729876706 -0.013235491579 0.0012058154609 -0.029442110529 0.0012058154609 0.12247336198
          0.38659240077 0.015746452316 0.013235217075 0.015746452316 -0.011283126 0.017563134258
          0.013235217075 0.017563134258 0.35801491144 0.064116665589 -0.027193734002 -0.022914970189
          -0.027193734002 -0.017402906781 -0.018895715427 -0.022914970189 -0.018895715427 0.038979413996
          0.14437622331 0.0016038717036 -0.020107284141 0.0016038717036 -0.042296826365 -0.0095755000767
          -0.020107284141 -0.0095755000767 -0.0050558631228 0.13480535612 0.0021753975163 0.0034693103794
          0.0021753975163 -0.052293342298 0.0040523261666 0.0034693103794 0.0040523261666 0.025005437865
          0.35254406752 0.018915089202 0.018014441645 0.018915089202 0.0026595378693 0.013565021936
          0.018014441645 0.013565021936 0.3406970116 0.07640420831 0.0056289038919 0.0026111293425
          0.0056289038919 -0.030828793456 0.0043074401548 0.0026111293425 0.0043074401548 -0.016837584364
          0.3863749258 0.019627778312 0.0062480314262 0.019627778312 -0.017429406657 0.012186998367
          0.0062480314262 0.012186998367 0.32012056798 0.33705325611 0.026674933864 0.037118988497
          0.026674933864 -0.0050147447408 -0.0079486917687 0.037118988497 -0.0079486917687 0.28490704874
          0.093959278315 0.025145420398 -0.033467583737 0.025145420398 0.019882958462 -0.025015312199
          -0.033467583737 -0.025015312199 0.12770236668 0.30511925804 -0.0015724814348 0.016251798475
          -0.0015724814348 -0.014666001871 0.0079232291163 0.016251798475 0.0079232291163 0.27988770085
          0.11125150289 0.0048784841078 -0.0011410150881 0.0048784841078 -0.041473357857 -0.0013346883432
          -0.0011410150881 -0.0013346883432 -0.041010570639 0.22067996407 -0.00074112678037 -0.0050128184118
          -0.00074112678037 -0.058259162131 0.0058929509871 -0.0050128184118 0.0058929509871 -0.029729065722
          0.30892967915 0.03063290965 0.0206601817 0.03063290965 0.0011848631334 0.0083063980899
          0.0206601817 0.0083063980899 0.33869933112 0.13216138447 -0.0021798457155 -0.028835801308
          -0.0021798457155 -0.024300205978 -0.032920721939 -0.028835801308 -0.032920721939 0.14915492182
          0.15508482357 0.0048034888432 -0.024060692233 0.0048034888432 -0.016134575479 -0.000308954146
          -0.024060692233 -0.000308954146 0.11643611926 0.17751961223 0.0046810179008 -0.028516446122
          0.0046810179008 -0.017595206591 0.0017402574518 -0.028516446122 0.0017402574518 0.11258120089
          0.28621424321 0.024842912841 0.021398127743 0.024842912841 9.4186331041e-05 0.015196599452
          0.021398127743 0.015196599452 0.31222294353 0.090605051918 -0.00063643151445 -0.014701458701
          -0.00063643151445 0.012358818477 -0.0040307314333 -0.014701458701 -0.0040307314333 0.13977688475
          0.34002243442 0.032766055274 0.037261135491 0.032766055274 -0.030760834111 0.0014880806267
          0.037261135491 0.0014880806267 0.23521449476 0.19516390173 0.0035513215032 -0.015186193217
          0.0035513215032 -0.018632669116 0.0020538748977 -0.015186193217 0.0020538748977 0.11804241695
          0.33497365474 0.019943828081 0.020234945591 0.019943828081 -0.0047763147403 0.018940368932
          0.020234945591 0.018940368932 0.31819295452 0.087106037968 -0.018561799734 -0.029082136547
          -0.018561799734 -0.014415017356 0.0092167139212 -0.029082136547 0.0092167139212 0.098035460686
          0.13908635157 -0.00084394781245 -0.016105350479 -0.00084394781245 -0.0015029960497 0.0035285773311
          -0.016105350479 0.0035285773311 0.13574682269 0.16866502771 -0.0028503039783 -0.038141374721
          -0.0028503039783 -0.01754671867 -0.0038302320617 -0.038141374721 -0.0038302320617 0.10681704821
          0.088385865142 0.029285340936 0.0094906039272 0.029285340936 -0.0085360177848 -0.00036803910007
          0.0094906039272 -0.00036803910007 -0.0097635895978 0.14767279297 0.0031378194801 0.010529071009
          0.0031378194801 -0.063833111125 -0.010572835532 0.010529071009 -0.010572835532 -0.065276590314
          0.32894713706 0.021951814961 0.021544262762 0.021951814961 -0.016110743502 0.017449318905
          0.021544262762 0.017449318905 0.28546865239 0.16534669234 0.002569065324 -0.017276371105
          0.002569065324 -0.011894793395 -0.00097770626665 -0.017276371105 -0.00097770626665 0.13600783531
          0.17491925928 0.001945406622 -0.017010562932 0.001945406622 -0.012839836407 -0.0019683230336
          -0.017010562932 -0.0019683230336 0.13505413718 0.3857832308 0.022756153272 0.011471407872
          0.022756153272 -0.017761954777 0.012416196062 0.011471407872 0.012416196062 0.34309922226
          0.15879624582 0.0018781642359 0.015516279501 0.0018781642359 -0.001603539564 0.01256278232
          0.015516279501 0.01256278232 0.14442031351 0.17581584037 0.00047810373006 -0.012634703749
          0.00047810373006 -0.084393882124 -0.015935477918 -0.012634703749 -0.015935477918 -0.088787630724
          0.19368201395 -0.0062723804897 0.0033763190186 -0.0062723804897 0.030845621154 0.020536764115
          0.0033763190186 0.020536764115 0.28521990608 0.30887194865 0.010238367163 0.0013533623652
          0.010238367163 -0.005596503098 0.0099135038216 0.0013533623652 0.0099135038216 0.2962508212
          0.37723769503 0.017832718382 0.0049330565314 0.017832718382 -0.010069396165 0.018871136322
          0.0049330565314 0.018871136322 0.34964750312 0.26545489495 0.016677839232 0.015669099656
          0.016677839232 0.020205415965 0.012334368408 0.015669099656 0.012334368408 0.33642253604
          0.25961608967 0.010123255009 0.0081589173717 0.010123255009 -0.075156416257 0.0012698782942
          0.0081589173717 0.0012698782942 0.0032215663016 0.11067810663 0.0067690194613 -0.034826790131
          0.0067690194613 -0.0024265495986 0.0035210739359 -0.034826790131 0.0035210739359 0.17068695273
          0.17005033962 0.0010327922301 -0.031766459491 0.0010327922301 -0.014267854013 0.00073782042894
          -0.031766459491 0.00073782042894 0.12212304675 0.37905387485 0.018215761192 0.003671152785
          0.018215761192 -0.01123901612 0.018267949677 0.003671152785 0.018267949677 0.35043343979
          0.13800988563 0.022656904128 -0.0049941124364 0.022656904128 -0.054137507267 0.032827995657
          -0.0049941124364 0.032827995657 0.17743628448 0.055005633808 0.014876553351 -0.017327471627
          0.014876553351 0.013188872051 0.00016100652356 -0.017327471627 0.00016100652356 0.11547843133
          0.28835420901 0.020922494268 0.021694760816 0.020922494268 0.0036935683545 0.021287880841
          0.021694760816 0.021287880841 0.26466760574 0.39596378437 0.022389604038 0.013943802928
          0.022389604038 -0.041740401585 0.016594985034 0.013943802928 0.016594985034 0.29836528949
          0.38567379576 0.019532228267 0.0041660339106 0.019532228267 -0.015591357725 0.014151647097
          0.0041660339106 0.014151647097 0.34768391142 0.10817546473 0.013124625239 -0.018862719132
          0.013124625239 -0.016897634406 0.0011291669532 -0.018862719132 0.0011291669532 0.05895114539
          0.1799200587 0.00013913884252 -0.033278271867 0.00013913884252 -0.020709802369 -0.0039398491134
          -0.033278271867 -0.0039398491134 0.12092691301 0.1838077151 -0.0021435560895 0.0019856147603
          -0.0021435560895 -0.064273810237 -0.013278969327 0.0019856147603 -0.013278969327 -0.052289676969
          0.063439388056 0.0011014453956 0.0024008176377 0.0011014453956 -0.041542519407 0.001195121072
          0.0024008176377 0.001195121072 -0.014218589347 0.36878334902 0.016183987465 0.015426463733
          0.016183987465 -0.041838992566 0.013023791375 0.015426463733 0.013023791375 0.23973098616
          -0.074763811115 -0.011879964061 -0.02498056431 -0.011879964061 0.017850220785 -0.0018415494089
          -0.02498056431 -0.0018415494089 0.060572117124 0.116686696 -0.015860760068 0.005911350879
          -0.015860760068 0.030083606457 0.013260928727 0.005911350879 0.013260928727 0.24467992355
          0.15296911164 -0.0035667210719 -0.027583488304 -0.0035667210719 -0.015063664947 -0.0043523924326
          -0.027583488304 -0.0043523924326 0.11208924643 0.10431711085 0.0038487693224 -0.025965479807
          0.0038487693224 0.017475860108 0.0020348433234 -0.025965479807 0.0020348433234 0.10838330766
          0.13341481609 -0.001702693271 -0.025062887062 -0.001702693271 -0.025042784462 0.0061295148176
          -0.025062887062 0.0061295148176 0.088384742664 0.0053535708365 -0.01246421891 0.0034247468368
          -0.01246421891 0.01556922676 0.014696558409 0.0034247468368 0.014696558409 0.099732864536
          0.11234741004 -0.0046708583541 -0.026103591857 -0.0046708583541 -0.033489534304 -0.0080336839952
          -0.026103591857 -0.0080336839952 -0.052730054793 0.18263661249 0.0056998635359 -0.013869284366
          0.0056998635359 -0.032410399299 0.0036384834244 -0.013869284366 0.0036384834244 0.071476641537
          0.088862664681 0.031635684481 -0.034699792104 0.031635684481 0.021167812614 -0.017201653935
          -0.034699792104 -0.017201653935 0.13148764415 0.39144100332 0.018913956687 0.0072628731595
          0.018913956687 -0.013310287582 0.022943664137 0.0072628731595 0.022943664137 0.34689959608
          0.10754239774 -0.0033064323964 0.015128587989 -0.0033064323964 -0.0088028211735 -0.010984958281
          0.015128587989 -0.010984958281 0.040683654604 0.26771127747 0.028048847298 0.042660000414
          0.028048847298 -0.033233864826 -0.0027441020323 0.042660000414 -0.0027441020323 0.23068180634
          0.38762209659 0.016143164182 0.011541914093 0.016143164182 -0.032302570085 0.020717589209
          0.011541914093 0.020717589209 0.31815140713 0.16974123645 -0.0011167332304 -0.026832552012
          -0.0011167332304 -0.016612472805 -0.0053084708035 -0.026832552012 -0.0053084708035 0.11941063625
          0.11187558265 0.002112409844 0.005087436733 0.002112409844 -0.027836510794 -0.011685768752
          0.005087436733 -0.011685768752 -0.01564289321 0.23501468066 0.020285784973 0.054908681726
          0.020285784973 -0.055376964413 0.033927922182 0.054908681726 0.033927922182 0.22280610085
          0.20361750329 0.011846437886 0.010080624796 0.011846437886 0.0021039848894 0.015330608515
          0.010080624796 0.015330608515 0.23740333045 0.28907307973 0.018848990998 0.0056821371173
          0.018848990998 -0.042291653408 0.013421049122 0.0056821371173 0.013421049122 0.18797673558
          0.12681065853 0.018619836831 0.0069010563201 0.018619836831 0.024769952288 0.011864427514
          0.0069010563201 0.011864427514 0.28013704132 0.29551779426 0.0069274635401 0.0072188058778
          0.0069274635401 -0.064545444739 0.01513284692 0.0072188058778 0.01513284692 0.16003634637
          0.18803290384 0.003088628024 -0.02092892226 0.003088628024 -0.016012223691 -0.0023353146638
          -0.02092892226 -0.0023353146638 0.11402745787 -0.02230278158 0.0057714549642 0.0028259781519
          0.0057714549642 0.031824937515 0.013114651881 0.0028259781519 0.013114651881 0.12676633655
          0.3586618118 0.039199085453 0.0033756440669 0.039199085453 -0.0014177327609 0.010021962551
          0.0033756440669 0.010021962551 0.33314241887 0.099840983359 0.0042263329127 -0.012145573872
          0.0042263329127 -0.032080092196 -0.0044437803395 -0.012145573872 -0.0044437803395 -0.050202037397
          0.37874288851 0.020758924488 0.0082435568528 0.020758924488 -0.011679458321 0.015728676046
          0.0082435568528 0.015728676046 0.34943489335 -0.032056721325 -0.033103195438 -0.022028251044
          -0.033103195438 -0.00492105756 0.0038220078945 -0.022028251044 0.0038220078945 0.067781626061
          0.17692533035 0.0030425924454 -0.032355757137 0.0030425924454 -0.018423175124 0.0028516275826
          -0.032355757137 0.0028516275826 0.13028945443 0.10336652367 0.018847781949 -0.05549652509
          0.018847781949 0.00064398784309 -0.0025693750684 -0.05549652509 -0.0025693750684 0.17676051004
          0.27402801662 0.011625187224 0.023899297005 0.011625187224 0.01485239012 0.006575433672
          0.023899297005 0.006575433672 0.34314563259 0.34480540976 0.011961166783 0.029249182205
          0.011961166783 -0.019701038171 0.024492765842 0.029249182205 0.024492765842 0.30908133461
          0.35065294615 0.023566510736 0.021641716876 0.023566510736 -0.010805186566 0.011008817516
          0.021641716876 0.011008817516 0.32343140613 0.37788588326 0.017948997769 0.0052968068429
          0.017948997769 -0.004651135298 0.022085801193 0.0052968068429 0.022085801193 0.35869107287
          0.23555417854 -0.0116233246 -0.0029932238249 -0.0116233246 -0.023513536225 -0.034286336414
          -0.0029932238249 -0.034286336414 0.14257013436 0.15913716615 -0.0024523697177 -0.050885036772
          -0.0024523697177 -0.028576273168 -0.01121112414 -0.050885036772 -0.01121112414 0.059277393531
          0.33682379432 0.01203393673 0.010805362307 0.01203393673 0.012555547528 0.014044823417
          0.010805362307 0.014044823417 0.36292578003 0.16326559464 0.0023013673259 -0.018101750207
          0.0023013673259 -0.0084134542823 0.00091935699672 -0.018101750207 0.00091935699672 0.13682189604
          0.16200120031 0.0053968739141 -0.019390072296 0.0053968739141 -0.010054897067 -0.007257247412
          -0.019390072296 -0.007257247412 0.14269975853 0.1808715804 -0.0063835155928 -0.015389555433
          -0.0063835155928 -0.011524981568 0.00078697170604 -0.015389555433 0.00078697170604 0.13401149665
          0.12118487008 0.029699168837 0.0062717633448 0.029699168837 0.0053276925664 -0.018213949777
          0.0062717633448 -0.018213949777 0.09792453218 0.18529498504 -0.001200557466 -0.030558666252
          -0.001200557466 -0.025923600708 -0.0049650935626 -0.030558666252 -0.0049650935626 0.11604454979
          0.20352191331 -0.0050301169392 -0.015497667988 -0.0050301169392 -0.046571906455 -0.0045696154592
          -0.015497667988 -0.0045696154592 -0.010773822018 0.13449910621 0.012477054282 -0.0084399897546
          0.012477054282 -0.029501045913 0.003028043033 -0.0084399897546 0.003028043033 -0.042226574273
          0.16870255091 0.001468535987 -0.026070963293 0.001468535987 -0.014828675373 -0.0017309443464
          -0.026070963293 -0.0017309443464 0.10498963018 -0.074258666459 0.0032756885977 -0.0098251673926
          0.0032756885977 0.010106595417 -0.0019540025072 -0.0098251673926 -0.0019540025072 0.050158208857
          0.16953666501 0.0049476714775 -0.017042838884 0.0049476714775 -0.01529362669 0.00021075150593
          -0.017042838884 0.00021075150593 0.13413920076 0.099486433349 -0.040842115978 -0.016771330926
          -0.040842115978 0.0062718825543 0.0025783576411 -0.016771330926 0.0025783576411 -0.039081867035
          0.37861250597 0.021397417499 0.0082630592704 0.021397417499 -0.010198638549 0.020737092705
          0.0082630592704 0.020737092705 0.34887241025 0.19176228528 0.016026620348 0.016874134361
          0.016026620348 -0.021082719361 0.014200883373 0.016874134361 0.014200883373 0.22723589906
          0.10057189526 0.017426991596 -0.033582974568 0.017426991596 0.021918808218 -0.0078513198881
          -0.033582974568 -0.0078513198881 0.19679112551 0.12661360885 0.01088345637 0.0086707775582
          0.01088345637 0.033518114362 0.020142930609 0.0086707775582 0.020142930609 0.24232381832
          -0.12592481304 -0.045710331246 -0.018359333428 -0.045710331246 -0.22804770897 0.081726838482
          -0.018359333428 0.081726838482 0.083495145593 -0.073459178292 -0.027848959784 -0.011572014251
          -0.027848959784 0.0123467286 0.0035408600886 -0.011572014251 0.0035408600886 0.088481271363
          -0.0633109824 -0.022205759636 0.0033783330139 -0.022205759636 0.020972608124 0.02067437522
          0.0033783330139 0.02067437522 0.053605239259 0.38288802358 0.020017323322 0.0058966143738
          0.020017323322 -0.02077826613 0.018977135546 0.0058966143738 0.018977135546 0.33629417866
          0.084006950834 0.0014968168368 0.0084105822629 0.0014968168368 -0.035396252439 0.0090531346696
          0.0084105822629 0.0090531346696 -0.02156845157 0.18018740617 0.0061985325797 -0.027695813417
          0.0061985325797 -0.032889511077 0.0091995647029 -0.027695813417 0.0091995647029 0.086757429853
          0.37098033618 0.031786662423 0.01272798564 0.031786662423 -0.00479323777 0.014643173713
          0.01272798564 0.014643173713 0.35662331369 0.16556995498 -0.0034585889286 -0.010819344882
          -0.0034585889286 -0.042755081241 -0.0081148528434 -0.010819344882 -0.0081148528434 0.083875524351
          -0.0051397117254 0.0069610838121 -0.039529629591 0.0069610838121 0.010492147476 -8.0874786938e-05
          -0.039529629591 -8.0874786938e-05 0.046085433505 0.1768279525 0.0070420943299 -0.019329874297
          0.0070420943299 -0.01414579156 0.001204024335 -0.019329874297 0.001204024335 0.13010904279
          0.35832101452 0.022585975694 0.018175623414 0.022585975694 -0.00087918541012 0.020622767012
          0.018175623414 0.020622767012 0.35239957586 0.040368765446 0.012439525683 -0.026934737383
          0.012439525683 -0.012813691455 0.010162789472 -0.026934737383 0.010162789472 0.042073923122
          0.35671689866 0.013278433865 0.023079895262 0.013278433865 -0.011015601621 0.02203036413
          0.023079895262 0.02203036413 0.31808122337 0.1152788085 -0.080290686913 -0.0094073671697
          -0.080290686913 -0.22530839541 0.07776080794 -0.0094073671697 0.07776080794 0.080583287424
          0.25888876826 0.026473603735 0.020018931779 0.026473603735 0.0049233796277 0.021363872391
          0.020018931779 0.021363872391 0.26459754782 0.10570921813 0.0011565770545 -0.02373993215
          0.0011565770545 -0.0089246231038 -0.010699369962 -0.02373993215 -0.010699369962 0.067513613253
          0.12536155314 0.010786970692 -0.01655315135 0.010786970692 0.017340803732 0.01402217594
          -0.01655315135 0.01402217594 0.096835731807 0.18286273276 0.024684094013 0.027761903328
          0.024684094013 0.0087456579552 0.00010733134629 0.027761903328 0.00010733134629 0.1828507778
          0.0066522443013 -0.0040763309233 -0.017780266569 -0.0040763309233 0.01528997148 0.00052427219095
          -0.017780266569 0.00052427219095 0.092600601979 0.16610834789 0.00097402202467 -0.03405449133
          0.00097402202467 -0.017318842977 -0.0013369301425 -0.03405449133 -0.0013369301425 0.11311026879
          0.31495564306 0.0045685789979 0.019045404786 0.0045685789979 -0.01912724915 0.025934776945
          0.019045404786 0.025934776945 0.26539720467 0 0 -0.12743300901
          0 0 0.0088370501611 -0.12743300901 0.0088370501611 -0.072709906389
          0.18182322156 0.0037023053833 -0.031619121555 0.0037023053833 -0.017954955798 -0.0016003768406
          -0.031619121555 -0.0016003768406 0.1225931886 0.26678104542 0.014500352399 -0.004917406377
          0.014500352399 -0.079475678796 0.021344439898 -0.004917406377 0.021344439898 0.064811512883
          0.1648282732 0.0034793941229 -0.013101737277 0.0034793941229 -0.069267022221 -0.0096715677919
          -0.013101737277 -0.0096715677919 -0.049257845798 0.3602771087 0.021408317472 0.0045875754565
          0.021408317472 -0.0014453680863 0.016020483199 0.0045875754565 0.016020483199 0.35709361481
          0.17892308123 0.00040235562139 -0.034604943858 0.00040235562139 -0.019625806369 -0.0041363574922
          -0.034604943858 -0.0041363574922 0.11942069452 0.17352563126 0.0038565748898 -0.033107366513
          0.0038565748898 -0.015786698455 0.00074460323772 -0.033107366513 0.00074460323772 0.12106915245
          0.14558574983 0.0018064008974 -0.028560025695 0.0018064008974 -0.013116320556 -0.0042722406802
          -0.028560025695 -0.0042722406802 0.093669685316 0.16573824068 0.0068275450829 -0.035073894731
          0.0068275450829 -0.022902333847 0.00068331172249 -0.035073894731 0.00068331172249 0.086164413867
          0.18668839821 -0.000884328342 -0.022327603816 -0.000884328342 -0.02276534457 -0.0007698519628
          -0.022327603816 -0.0007698519628 0.12082384561 0.17466209589 0.0050607798365 -0.012701136716
          0.0050607798365 -0.066910849476 0.015205924986 -0.012701136716 0.015205924986 -0.066916347642
          0.34440278958 0.020678923803 0.01917200649 0.020678923803 -0.0079681619242 0.0087299229249
          0.01917200649 0.0087299229249 0.32062176939 0.17846005495 0.0049894028465 -0.025409860974
          0.0049894028465 -0.021311719655 0.0055194604852 -0.025409860974 0.0055194604852 0.11113452102
          0.17112442642 0.0026779036293 -0.026787340275 0.0026779036293 -0.015950221872 -0.0023907638532
          -0.026787340275 -0.0023907638532 0.1121024567 -0.017702213578 0.0040205685817 0.0020388509926
          0.0040205685817 0.008083356474 -0.0066759471981 0.0020388509926 -0.0066759471981 0.0045296953644
          0.00015114666881 0.0015190397815 -0.0047247494349 0.0015190397815 0.01107443643 -0.00018141028221
          -0.0047247494349 -0.00018141028221 0.043524826155 0.098358704228 -0.022886668799 -0.048682145371
          -0.022886668799 -0.043038764928 0.023969981652 -0.048682145371 0.023969981652 0.10373178587
          0.36705787778 0.017210691584 0.013554791688 0.017210691584 -0.019267027562 0.028220061359
          0.013554791688 0.028220061359 0.28686906276 0.016640518251 0.004154753567 -0.00023824030682
          0.004154753567 0.011421539094 0.0026629597705 -0.00023824030682 0.0026629597705 -0.016241305381
          0.12495041352 0.0028436306762 -0.012737498476 0.0028436306762 -0.0046073674065 -0.00035295446283
          -0.012737498476 -0.00035295446283 0.12882512012 0.00023571177006 -0.001054813201 -0.0031816714108
          -0.001054813201 0.0046174728065 -0.0093485536814 -0.0031816714108 -0.0093485536814 0.063216517394
          0.16199364648 -0.0022016499927 -0.034441477396 -0.0022016499927 -0.016519402552 -0.0061747829438
          -0.034441477396 -0.0061747829438 0.10837804117 0.10293604885 0.00077356808301 -0.026500576659
          0.00077356808301 0.020370408075 0.0053755207003 -0.026500576659 0.0053755207003 0.11028442414
          0.19104612629 0.0031006158332 -0.020781420594 0.0031006158332 -0.031877186926 -0.012377311973
          -0.020781420594 -0.012377311973 0.090708667229 0.11206140156 -0.0047042054881 -0.029273168526
          -0.0047042054881 -0.033350704617 -0.0050986069308 -0.029273168526 -0.0050986069308 -0.011336781127
          0.26995301719 0.008841934862 0.023804718416 0.008841934862 -0.029308183113 0.025246944801
          0.023804718416 0.025246944801 0.22399501106 -0.095821517294 -0.011017662065 0.01123136131
          -0.011017662065 0.015438409721 0.0058524713083 0.01123136131 0.0058524713083 0.030504428542
          0.1032564384 -0.0032905140509 -0.007436167447 -0.0032905140509 0.010508695414 -0.0016689557408
          -0.007436167447 -0.0016689557408 0.11698741213 0.098870824091 0.011754378595 -0.031229715996
          0.011754378595 0.016968306845 0.0079310231446 -0.031229715996 0.0079310231446 0.13008922301
          0.18562868694 0.001988345632 -0.02178549087 0.001988345632 -0.024950593077 -0.0012092774916
          -0.02178549087 -0.0012092774916 0.10741887642 0.097181643138 0.025997741767 -0.038297184636
          0.025997741767 0.013588230338 0.025509760124 -0.038297184636 0.025509760124 0.077820111694
          0.25736146707 0.0042223262108 0.00033125217097 0.0042223262108 -0.06200005774 0.0085067393247
          0.00033125217097 0.0085067393247 0.0067443224503 0.22077614852 -0.0037056656641 0.0038243575408
          -0.0037056656641 -0.052626963714 0.022913509225 0.0038243575408 0.022913509225 -0.032341787545
          0.37599573964 0.022014800251 0.0030865489814 0.022014800251 -0.0071083378696 0.018933854791
          0.0030865489814 0.018933854791 0.35343783606 0.36675098593 0.023538376681 0.0050232059334
          0.023538376681 -0.0022300417778 0.014621041083 0.0050232059334 0.014621041083 0.35665233838
          0.13216874898 0.00035910618785 -0.022787214066 0.00035910618785 -0.014435654035 -0.0062806168773
          -0.022787214066 -0.0062806168773 0.10254852594 0.3444148392 0.018004723314 0.020809106357
          0.018004723314 0.0023157216009 0.0079464943141 0.020809106357 0.0079464943141 0.31767480439
          0.21066624932 -0.00047589861082 0.025715179662 -0.00047589861082 0.0091034808607 0.023516221036
          0.025715179662 0.023516221036 0.21353679305 0.37160789167 0.021387381595 0.011551052628
          0.021387381595 -0.0079556429333 0.016626561826 0.011551052628 0.016626561826 0.34483024648
          0.16422259804 -0.00074289854394 -0.017608712885 -0.00074289854394 -0.0086019978407 0.0042114301732
          -0.017608712885 0.0042114301732 0.13637260862 0.13309388441 0.017721854158 -0.038998814647
          0.017721854158 0.0073433561552 0.0061998564189 -0.038998814647 0.0061998564189 0.084923753274
          0.17005704632 -0.0018487922685 -0.028356753961 -0.0018487922685 -0.016843441344 0.0022163061832
          -0.028356753961 0.0022163061832 0.11850252232 0.065467173447 0.0024363408019 -0.026344046438
          0.0024363408019 0.011506304903 0.00013568250629 -0.026344046438 0.00013568250629 0.10813005609
          0.18442344562 0.00052536077614 0.0030353525024 0.00052536077614 -0.072130198012 0.013688554305
          0.0030353525024 0.013688554305 -0.073220990153 0.38645780802 0.014104223589 0.012037072227
          0.014104223589 -0.015735135456 0.023300576446 0.012037072227 0.023300576446 0.35085027681
          0.24321832195 0.030673218255 0.020036638566 0.030673218255 -0.047396646035 0.013712592484
          0.020036638566 0.013712592484 0.15057210974 0.17826569012 0.018235090155 -0.015520625963
          0.018235090155 -0.045237171952 -4.6648130269e-05 -0.015520625963 -4.6648130269e-05 -0.028865437738
          0.38718106403 0.017654869318 0.005959296111 0.017654869318 -0.037368348525 0.022459833753
          0.005959296111 0.022459833753 0.29173453099 0.063987015502 0.013879388463 -0.0017599359214
          0.013879388463 -0.014136557758 -0.0040108490003 -0.0017599359214 -0.0040108490003 0.034201700823
          0.15250809093 0.0066548730875 -0.0090061393283 0.0066548730875 -0.031066815949 -0.0020349786482
          -0.0090061393283 -0.0020349786482 0.079539781448 0.37108586094 0.028254780775 0.0081484570581
          0.028254780775 -0.0064875725516 0.017152452583 0.0081484570581 0.017152452583 0.35381018008
          0.050074018712 -0.00121749234 -0.010135816252 -0.00121749234 -0.027833931616 -6.0506079337e-07
          -0.010135816252 -6.0506079337e-07 0.0045243077574 0.029721729697 0.00045135117484 -0.0079077821186
          0.00045135117484 0.014771724256 -0.0044341094422 -0.0079077821186 -0.0044341094422 0.095515606031
          0.37584557979 0.019212211742 0.013907062901 0.019212211742 -0.0097710295394 0.013823273929
          0.013907062901 0.013823273929 0.33271005726 0.03325816827 -0.0010952806514 -0.014694033165
          -0.0010952806514 0.0012262938126 -0.0081703131692 -0.014694033165 -0.0081703131692 0.047672954316
          0.0029176544826 -0.0092209854612 -0.0010908532406 -0.0092209854612 0.010135478809 -0.0056292177156
          -0.0010908532406 -0.0056292177156 0.06099716609 0.32908321777 -0.0052921333625 0.027030012214
          -0.0052921333625 0.0042807456359 0.025930434417 0.027030012214 0.025930434417 0.32540416788
          0.11134506761 0.016103029092 -0.026010610553 0.016103029092 0.010253377105 -0.0079089903902
          -0.026010610553 -0.0079089903902 0.12528917112 0.3901206044 0.022448833778 0.0036220616117
          0.022448833778 -0.020051859138 0.012748788371 0.0036220616117 0.012748788371 0.32060298922
          0.15379526733 0.0049593509015 -0.030378472671 0.0049593509015 -0.012714473678 0.00021182319435
          -0.030378472671 0.00021182319435 0.10708590736 0.17375985648 0.0036511062344 -0.0034326682675
          0.0036511062344 -0.084032370866 -0.014777752655 -0.0034326682675 -0.014777752655 -0.091331248718
          0.080651314356 -0.0016863933759 -0.015913954149 -0.0016863933759 -0.0093996569371 -0.0071396708309
          -0.015913954149 -0.0071396708309 0.052198786063 0.11328429694 0.029607245298 -0.084688356311
          0.029607245298 -0.021516755273 -0.0047962904171 -0.084688356311 -0.0047962904171 0.02852400605
          0.10390939529 0.013558241114 -0.028226700822 0.013558241114 0.0052557481309 0.011417110136
          -0.028226700822 0.011417110136 0.090400591145 0.032577488279 0.0028847119471 -0.014790530336
          0.0028847119471 0.0038898339407 0.0033460127303 -0.014790530336 0.0033460127303 0.051771375393
          0.35457610056 0.021408035133 0.0099169180889 0.021408035133 0.0021725427015 0.014798777233
          0.0099169180889 0.014798777233 0.35853308097 0.37000078613 0.022777345349 0.0166891881
          0.022777345349 -0.012138536489 0.018478431382 0.0166891881 0.018478431382 0.3513086542
          0.11417551925 0.0046563280491 -0.04340986702 0.0046563280491 0.010169142362 0.001944153155
          -0.04340986702 0.001944153155 0.10544380544 0.3852753254 -0.023471634769 0.04504796511
          -0.023471634769 -0.088361708718 0.0090931665669 0.04504796511 0.0090931665669 0.18297822328
          -0.0031662651633 0.0092392178416 0.0033023643535 0.0092392178416 0.0042314053511 0.0059050886164
          0.0033023643535 0.0059050886164 0.049146225711 0.19890497579 0.00013398743541 -0.017381047867
          0.00013398743541 -0.024616404505 0.0062774581061 -0.017381047867 0.0062774581061 0.1048927073
          0.36902455187 0.025223637695 0.010037666742 0.025223637695 -0.0058063282248 0.017617223659
          0.010037666742 0.017617223659 0.35175237983 -0.028588220892 0.0027057552222 -0.0072943576928
          0.0027057552222 0.0091582692593 -0.008341715071 -0.0072943576928 -0.008341715071 0.02083073103
          0.0040222708808 -0.0068860081013 -0.0086192284271 -0.0068860081013 0.017827607625 -0.011247808273
          -0.0086192284271 -0.011247808273 0.061470598947 0.031613758827 0.012629076079 0.010944904843
          0.012629076079 0.013784495103 -0.0021663468421 0.010944904843 -0.0021663468421 0.096001718779
          0.090389718314 -0.0070099310685 -0.040252535478 -0.0070099310685 0.0010293143691 -0.020768119935
          -0.040252535478 -0.020768119935 0.10513001869 0.1718533919 0.0060446442224 -0.0025006211099
          0.0060446442224 -0.04923865377 0.023119087469 -0.0025006211099 0.023119087469 0.06626236622
          0.39156679158 0.026942280482 0.011017565044 0.026942280482 -0.031355820136 0.0074149000576
          0.011017565044 0.0074149000576 0.31702478649 0.16475357029 -1.2927250305e-05 -0.018477897073
          -1.2927250305e-05 -0.0093859926945 0.0021738069049 -0.018477897073 0.0021738069049 0.13739817698
          0.15864822429 0.021141709777 -0.017167199189 0.021141709777 -0.033391722313 0.0012093278396
          -0.017167199189 0.0012093278396 0.087880883577 0.17362710224 0.00034083026306 -0.031170029294
          0.00034083026306 -0.014801482778 -0.00051036924271 -0.031170029294 -0.00051036924271 0.12346031788
          0.16230161892 0.019730808714 0.0011179401122 0.019730808714 -0.00042054207287 -0.005222499918
          0.0011179401122 -0.005222499918 0.22187441452 0.12109330786 -0.005003536845 -0.0093676260851
          -0.005003536845 -0.041673905247 -0.015896047195 -0.0093676260851 -0.015896047195 -0.027074037234
          0.11155562253 0.0088748502335 -0.018154399255 0.0088748502335 -0.028591286497 0.0024751119638
          -0.018154399255 0.0024751119638 0.058805980474 0.34320526472 0.018903996014 0.02099633277
          0.018903996014 0.0063262254529 0.013059637485 0.02099633277 0.013059637485 0.34226069137
          0.16990184328 0.0010862185746 -0.032989621775 0.0010862185746 -0.012368531577 -0.003160943186
          -0.032989621775 -0.003160943186 0.12186026067 0.13021166493 0.0048444499771 -0.02907490799
          0.0048444499771 -0.017931546073 -0.0064666249619 -0.02907490799 -0.0064666249619 0.063859694123
          0.38447790384 0.02077342389 0.0063565351071 0.02077342389 -0.014018568888 0.013014003197
          0.0063565351071 0.013014003197 0.3427076273 -0.093374629068 0.0031744728969 0.0045894450789
          0.0031744728969 0.011126737484 -0.0024932920741 0.0045894450789 -0.0024932920741 0.048715424732
          0.16820679536 0.0069992570839 -0.012757544745 0.0069992570839 -0.032480250076 0.001603496594
          -0.012757544745 0.001603496594 0.036606845454 0.18298989189 -0.0020619524739 -0.0061949400465
          -0.0020619524739 -0.062033374482 0.009382844498 -0.0061949400465 0.009382844498 -0.082834783965
          0.12571829576 -0.002120842882 -0.034231510716 -0.002120842882 -0.027367299034 0.012461123079
          -0.034231510716 0.012461123079 0.044671575417 0.26429875106 0.034789437305 0.025456452236
          0.034789437305 -0.019134939479 0.013793289644 0.025456452236 0.013793289644 0.26894971083
          0.37936698905 0.006333879326 0.017452721161 0.006333879326 -0.02342460209 0.021671315808
          0.017452721161 0.021671315808 0.31942058906 0.094546210678 -0.016225293889 0.013812918728
          -0.016225293889 0.016568707585 0.022825216859 0.013812918728 0.022825216859 0.15528144583
          0.32396323968 0.0094263738552 0.016020237153 0.0094263738552 0.0066346900121 0.018199019017
          0.016020237153 0.018199019017 0.34038470732 0.15525807939 -0.008373222967 -0.033787127484
          -0.008373222967 -0.05004971607 -0.02376424762 -0.033787127484 -0.02376424762 0.011439384985
          0.19828271527 -0.0038542240212 -0.015189789364 -0.0038542240212 -0.02418423202 -0.0068119339779
          -0.015189789364 -0.0068119339779 0.11747270081 0.11096872849 0.0084958023493 0.0090989589674
          0.0084958023493 0.0079868471707 0.016684511668 0.0090989589674 0.016684511668 0.12697714883
          0.14745057149 -0.0074029719582 -0.03311307952 -0.0074029719582 -0.027710295862 -0.0052510786763
          -0.03311307952 -0.0052510786763 0.052577476533 0.37551457414 0.021084180598 0.010835950133
          0.021084180598 -0.0087247631325 0.02079147034 0.010835950133 0.02079147034 0.35644450049
          0.37645465519 0.022035242869 0.0061990322634 0.022035242869 -0.0073621952236 0.021775393195
          0.0061990322634 0.021775393195 0.35869543917 0.066337116277 -0.0015745218625 0.00049487172937
          -0.0015745218625 0.0086849869631 0.0089559066276 0.00049487172937 0.0089559066276 0.02339980389
          0.088127947942 0.0080992274769 -0.030572975826 0.0080992274769 0.019750188795 0.0051616908304
          -0.030572975826 0.0051616908304 0.15641304415 0.35312727165 0.0045568788812 0.011688091265
          0.0045568788812 0.0036905009209 0.022861146044 0.011688091265 0.022861146044 0.34387545892
          0.25828021467 0.019633902698 -0.0073352680216 0.019633902698 -0.073826634469 0.0078327925714
          -0.0073352680216 0.0078327925714 0.027087176167 0.16285008509 -0.0033528202868 -0.020384231255
          -0.0033528202868 -0.013191556703 0.00017099006305 -0.020384231255 0.00017099006305 0.13486067803
          0.38931069436 0.029432351296 0.01367207943 0.029432351296 -0.032435412332 0.0013301915851
          0.01367207943 0.0013301915851 0.33304179215 -0.023661621595 0.0066154900702 0.0095863363999
          0.0066154900702 0.034820335101 0.014971634245 0.0095863363999 0.014971634245 0.10322159318
          0.16269963354 0.010143143786 -0.027497718193 0.010143143786 -0.012382163016 0.0018725381523
          -0.027497718193 0.0018725381523 0.12464189806 0.37149192538 0.012597961283 0.0082994937181
          0.012597961283 -0.0037205506908 0.01948453334 0.0082994937181 0.01948453334 0.36446419914
          0.15606333495 0.0041931558569 0.0057283669665 0.0041931558569 -0.040968369218 0.0059171673515
          0.0057283669665 0.0059171673515 -0.010055142356 0.25284969678 0.0029178606674 0.011084953075
          0.0029178606674 0.011388597023 0.011894969314 0.011084953075 0.011894969314 0.30963127459
          0.30473744732 -0.0038854019904 0.020454560594 -0.0038854019904 -0.025770723019 0.029409142207
          0.020454560594 0.029409142207 0.23905821866 0.3799205958 0.020962801891 0.0060980813211
          0.020962801891 -0.011748536203 0.021843826981 0.0060980813211 0.021843826981 0.35399661387
          0.3430307618 0.007251000626 0.0089842810389 0.007251000626 0.0073838568303 0.022589606528
          0.0089842810389 0.022589606528 0.35971629697 0.088524766083 0.013919769858 -0.020203660862
          0.013919769858 0.0027361683181 -0.0045046498856 -0.020203660862 -0.0045046498856 0.082630768409
          0.13321073389 -0.00044404356069 -0.020654729804 -0.00044404356069 -0.024937371153 0.00022005769149
          -0.020654729804 0.00022005769149 0.059104576113 0.090516535748 -0.013283784848 -0.058321544364
          -0.013283784848 -0.013010989854 0.0075847775421 -0.058321544364 0.0075847775421 0.13105964081
          0.25371986373 -0.0094165235062 -0.026070318051 -0.0094165235062 -0.034334656222 0.053314597823
          -0.026070318051 0.053314597823 0.11522450847 0.055695770629 0.0062900662743 -0.018249169259
          0.0062900662743 0.0096395736978 0.005107376572 -0.018249169259 0.005107376572 0.032585492985
          -0.042930431934 0.0033157622438 0.0089376937637 0.0033157622438 0.019305553801 0.005130008248
          0.0089376937637 0.005130008248 0.030012122657 0.1029588885 0.018520672656 -0.051756610293
          0.018520672656 0.0004745633543 -0.00017840122494 -0.051756610293 -0.00017840122494 0.1464481588
          0.33616898353 0.017187641333 0.0047517426398 0.017187641333 0.011287298003 0.022101832773
          0.0047517426398 0.022101832773 0.36220851905 0.30658091682 0.011704375249 0.018840471443
          0.011704375249 0.010060362051 0.015972221815 0.018840471443 0.015972221815 0.32099951439
          0.13287421701 -0.0068141768439 -0.0025407828235 -0.0068141768439 -0.044825599189 0.0064304620334
          -0.0025407828235 0.0064304620334 -0.034862633444 -0.0082464223151 -0.0064017403249 -0.010967557032
          -0.0064017403249 0.011476264564 -0.0058461547503 -0.010967557032 -0.0058461547503 0.010310772412
          0.2798441176 0.015307058028 0.017272779923 0.015307058028 -0.023532350082 0.022224616658
          0.017272779923 0.022224616658 0.17546333732 0.26912265012 -0.041867197401 0.013522746135
          -0.041867197401 -0.047835946024 0.024744309347 0.013522746135 0.024744309347 0.075549444298
          0.08061709638 -0.0157303522 -0.034204510479 -0.0157303522 -0.036472348063 -0.0027763258229
          -0.034204510479 -0.0027763258229 0.048567602314 0.11270875189 -0.021414280522 0.0054273221733
          -0.021414280522 0.024319423326 0.024446841881 0.0054273221733 0.024446841881 0.19167897434
          0.3033351574 0.0054289925481 0.001001697465 0.0054289925481 -0.044065576261 0.022349872098
          0.001001697465 0.022349872098 0.16767544201 0.18611995886 -0.0020741071931 -0.029358670595
          -0.0020741071931 -0.026470732276 -0.0073626200645 -0.029358670595 -0.0073626200645 0.11692745101
          -0.075354780053 -0.0002295739016 -0.0020107273583 -0.0002295739016 0.033727881483 0.0019110446529
          -0.0020107273583 0.0019110446529 0.084982986276 0.37388504077 0.011684205238 0.010440623406
          0.011684205238 -0.0048524988451 0.02268747353 0.010440623406 0.02268747353 0.35546430357
          -0.0050397095307 -0.016050689532 -0.0086563348495 -0.016050689532 0.0019846072476 -0.011916587924
          -0.0086563348495 -0.011916587924 0.065540679839 0.32658341006 0.017346840868 0.016355003317
          0.017346840868 -0.022498975104 0.024438064595 0.016355003317 0.024438064595 0.24930039606
          0.33677906852 0.025534871789 0.01467268962 0.025534871789 0.0034018142209 0.021742889601
          0.01467268962 0.021742889601 0.34028463959 0.10481034501 -0.0019086366066 0.0016323851263
          -0.0019086366066 -0.038897600659 -0.0027911653046 0.0016323851263 -0.0027911653046 -0.032604170385
          0.25451729491 0.025114336919 0.021737008489 0.025114336919 -0.050516503977 0.014419263937
          0.021737008489 0.014419263937 0.15042122539 0.18837984895 0.0027262536835 -0.030365525693
          0.0027262536835 -0.032367132629 0.0128116891 -0.030365525693 0.0128116891 0.081145497333
          0.17618413074 0.014331432243 0.010865143753 0.014331432243 -0.041814962239 -0.0027786278778
          0.010865143753 -0.0027786278778 0.016214960855 0.10233408101 0.045260959878 -0.12191624742
          0.045260959878 0.071786380965 0.031717630705 -0.12191624742 0.031717630705 -0.10176929657
          0.37593343936 0.020055078065 0.0070302916932 0.020055078065 -0.0083488577562 0.017967340119
          0.0070302916932 0.017967340119 0.34761200816 0.38009282809 0.01957362933 0.016042649256
          0.01957362933 -0.0064559898846 0.020016670782 0.016042649256 0.020016670782 0.34915457022
          0.39025780898 0.02509543992 0.013315475686 0.02509543992 -0.0310942564 -0.00099054481344
          0.013315475686 -0.00099054481344 0.28247467722 0.34678707635 0.0057608177076 0.01218827908
          0.0057608177076 0.0064997070813 0.022119390076 0.01218827908 0.022119390076 0.36201445957
          0.38404910939 0.019368333945 0.014749394707 0.019368333945 -0.01447664882 0.019915890734
          0.014749394707 0.019915890734 0.34213113757 0.37171325404 0.025987861713 0.0063208038995
          0.025987861713 -0.00584288986 0.016683270624 0.0063208038995 0.016683270624 0.35683143149
          0.3715313854 0.020278349351 0.0095150821007 0.020278349351 -0.0048987104172 0.014078928988
          0.0095150821007 0.014078928988 0.35472773896 0.13218537365 0.010200480714 -0.031253022241
          0.010200480714 -0.018050023455 -0.00551638639 -0.031253022241 -0.00551638639 0.09224418946
          0.3748163663 0.022708497996 0.016253380908 0.022708497996 -0.020563011888 0.010204919063
          0.016253380908 0.010204919063 0.33598188502 0.16196915643 -0.0074965763508 -0.016574410496
          -0.0074965763508 -0.014597517924 -0.00040973500955 -0.016574410496 -0.00040973500955 0.13419229014
          0.19213815206 -0.0018035957486 -0.0086238508192 -0.0018035957486 -0.043669096257 0.0082004543958
          -0.0086238508192 0.0082004543958 0.026717554706 0.092126275225 -0.001390672042 -0.019263447382
          -0.001390672042 -0.0080254360761 -0.0059795227354 -0.019263447382 -0.0059795227354 0.003029945778
          0.14792848164 -0.0015147819693 -0.029875187933 -0.0015147819693 -0.039911569102 -0.0028676534061
          -0.029875187933 -0.0028676534061 0.011913463469 0.077865070557 0.0094033267152 -0.024479810146
          0.0094033267152 -0.011217382343 0.004074139731 -0.024479810146 0.004074139731 0.028749562877
          0.11121843958 0.0048963917909 -0.0011623300925 0.0048963917909 -0.041421608054 -0.0012980501903
          -0.0011623300925 -0.0012980501903 -0.041014064509 0.37287628152 0.017271549237 0.0067956071037
          0.017271549237 -0.0088167306798 0.019520834201 0.0067956071037 0.019520834201 0.35283718071
          0.15476224312 0.0050137035394 -0.016026904839 0.0050137035394 -0.048443298589 0.0029372018457
          -0.016026904839 0.0029372018457 -0.021119194851 0.14449928135 0.0143889622 0.0090837383036
          0.0143889622 -0.044976266936 0.0085713016946 0.0090837383036 0.0085713016946 -0.01345941961
          0.1859459367 0.00015324875875 -0.024795178288 0.00015324875875 -0.024703088791 -0.0055616443859
          -0.024795178288 -0.0055616443859 0.11331575513 0.2092971777 0.0067379337086 -0.019238145664
          0.0067379337086 -0.05604135142 0.0080348348839 -0.019238145664 0.0080348348839 0.030091359964
          0.19106600904 0.00084032974942 -0.018612470236 0.00084032974942 -0.017528641218 -0.0030875528275
          -0.018612470236 -0.0030875528275 0.11550411884 0.23132171306 -0.00029559904721 0.009929603699
          -0.00029559904721 -0.047492278578 0.019523980268 0.009929603699 0.019523980268 0.098707102183
          0.18837731846 -0.012099325154 -0.0060282067658 -0.012099325154 -0.00046636987759 0.0069233191278
          -0.0060282067658 0.0069233191278 -0.047221582923 0.085950205847 0.029916010131 -0.029567799231
          0.029916010131 -0.1130968548 0.0028328924408 -0.029567799231 0.0028328924408 0.20429003116
          0.1222789004 0.0079098860762 -0.027492356858 0.0079098860762 -0.0046132711804 -0.004481634373
          -0.027492356858 -0.004481634373 0.11090388198 0.10798397907 0.0054878506922 -0.0066357292124
          0.0054878506922 -0.01459480347 -0.0059969729765 -0.0066357292124 -0.0059969729765 0.036205792133
          0.070832368406 0.13796342828 0.082428360813 0.13796342828 -0.14603158586 0.056234647198
          0.082428360813 0.056234647198 0.24519293947 0.38650321194 0.022659514275 0.016389731278
          0.022659514275 -0.024330761828 0.0093584287158 0.016389731278 0.0093584287158 0.31184715598
          0.081609928915 0.010054992325 -0.034490405194 0.010054992325 0.0062889066997 0.003717642832
          -0.034490405194 0.003717642832 0.13866111452 0.37256848674 0.02167242 0.0098584249284
          0.02167242 -0.0073698588654 0.013946386579 0.0098584249284 0.013946386579 0.35114731243
          0.33718420833 0.014445137719 0.0089725335259 0.014445137719 0.003283279325 0.0074217855732
          0.0089725335259 0.0074217855732 0.34726289217 0.37856499059 0.022521290462 0.0033056306386
          0.022521290462 -0.0079177337386 0.019246563028 0.0033056306386 0.019246563028 0.35478954806
          0.38214049407 0.016623653512 0.018040977907 0.016623653512 -0.012301668822 0.02178588776
          0.018040977907 0.02178588776 0.34788823251 0.16702973472 -1.1937793372e-05 -0.013399638103
          -1.1937793372e-05 -0.054570085197 0.0011717953493 -0.013399638103 0.0011717953493 -0.079001322003
          0.38563359445 0.022415231041 0.0055588304606 0.022415231041 -0.01328365849 0.021972546679
          0.0055588304606 0.021972546679 0.34593486993 0.15811190124 3.8007730132e-05 -0.026065314645
          3.8007730132e-05 -0.015676610736 -0.0011943568248 -0.026065314645 -0.0011943568248 0.108681982
          0.15293216585 0.0019520200552 -0.02704847166 0.0019520200552 -0.019997880417 -0.003619619764
          -0.02704847166 -0.003619619764 0.060080404212 0.13377661137 0.0082738877246 -0.034588811005
          0.0082738877246 -0.0036230613379 -0.014974528363 -0.034588811005 -0.014974528363 0.077089206335
          0.099248530243 0.021903772756 -0.03470577705 0.021903772756 0.018378506153 -0.017547167094
          -0.03470577705 -0.017547167094 0.21153053878 0.095609385523 -0.011978411669 -0.059433691763
          -0.011978411669 -0.030456664964 0.0044692862701 -0.059433691763 0.0044692862701 0.13085193019
          0.15742565823 0.0066020113823 -0.026909262404 0.0066020113823 -0.0097327713649 -0.0011921830995
          -0.026909262404 -0.0011921830995 0.11869403212 0.1895250215 0.003911263409 -0.023892323811
          0.003911263409 -0.02007938656 -0.0032729320802 -0.023892323811 -0.0032729320802 0.11809377054
          0.39215964304 0.02183653649 0.0081203205461 0.02183653649 -0.021144168006 0.010942591329
          0.0081203205461 0.010942591329 0.33962290702 0.36295477267 0.016096017538 0.022862288061
          0.016096017538 -0.012319418192 0.012273842464 0.022862288061 0.012273842464 0.32838245763
          0.063206365989 -0.0027149655123 -0.002344108818 -0.0027149655123 -0.025406781295 0.006677747076
          -0.002344108818 0.006677747076 -0.017055116847 0.20723184341 -0.05006569641 -0.026109481471
          -0.05006569641 0.030781725906 0.051472419016 -0.026109481471 0.051472419016 0.2805699168
          0.19104499122 0.010117485147 0.016692885024 0.010117485147 0.014950935415 0.016455522665
          0.016692885024 0.016455522665 0.24148367105 0.20495536014 0.031964471523 0.021266837057
          0.031964471523 0.00025269975819 0.0036966994607 0.021266837057 0.0036966994607 0.2279147511
          0.28404858607 -0.0017626500951 0.0063348132868 -0.0017626500951 -0.064899396396 0.012462374519
          0.0063348132868 0.012462374519 0.079900822943 0.3601327776 0.027422005785 0.029434075055
          0.027422005785 -0.0024499987448 0.0038991933196 0.029434075055 0.0038991933196 0.34053202533
          0.21588656993 0.0091065203854 -0.010937812291 0.0091065203854 -0.07745123463 0.022735515096
          -0.010937812291 0.022735515096 -0.016064047454 0.063034733533 -0.0091145612957 -0.013201497483
          -0.0091145612957 -0.00056806003315 -0.00047514505566 -0.013201497483 -0.00047514505566 0.035466609415
          0.37847402539 0.016658957064 0.01611320022 0.016658957064 -0.029189183791 0.028935352643
          0.01611320022 0.028935352643 0.31167544352 0.28873200731 0.021233651969 0.021686038868
          0.021233651969 0.00096670624743 0.017732311994 0.021686038868 0.017732311994 0.31023483973
          0.044914169469 0.014897770195 -0.032283785974 0.014897770195 0.0016810428113 0.0057866862276
          -0.032283785974 0.0057866862276 0.070954305038 0.37443617571 0.026037613859 0.023194820312
          0.026037613859 -0.051851446007 -0.0023848245278 0.023194820312 -0.0023848245278 0.2558149751
          0.15393817592 0.012698163113 0.015117201759 0.012698163113 -0.020045990024 0.013359284534
          0.015117201759 0.013359284534 0.14438903759 0.086142445314 -0.0061832671951 -0.042056156226
          -0.0061832671951 -0.045734113412 0.031606379141 -0.042056156226 0.031606379141 0.0077516470079
          0.32294784041 0.017441316974 0.0082908789225 0.017441316974 0.0094687529965 0.0078476279775
          0.0082908789225 0.0078476279775 0.36243976562 0.31733733017 0.041805621756 0.01671716787
          0.041805621756 0.0083418040272 0.01174710838 0.01671716787 0.01174710838 0.35970631237
          0.19495476291 0.0061066848492 -0.0086760571022 0.0061066848492 -0.041508449367 -0.0024464853125
          -0.0086760571022 -0.0024464853125 0.010777437025 0.13712763495 0.0049672774321 -0.012711542803
          0.0049672774321 -0.006818190643 0.0052902294998 -0.012711542803 0.0052902294998 0.10717386037
          0.37878724519 0.017193605649 0.0086334803912 0.017193605649 -0.03956769678 0.020434064839
          0.0086334803912 0.020434064839 0.26624641289 0.28605448378 0.071626453891 0.066004456904
          0.071626453891 -0.12876747842 0.058898414007 0.066004456904 0.058898414007 0.12791748779
          0.29630137766 0.018843210858 0.0027205111125 0.018843210858 0.0013477691458 0.011934952767
          0.0027205111125 0.011934952767 0.27252083326 0.39649136124 0.019536142215 0.007627668943
          0.019536142215 -0.027084849658 0.025478832443 0.007627668943 0.025478832443 0.32997772833
          0.16467990397 -0.01363238916 0.003190421693 -0.01363238916 -0.059195497853 -0.01772650362
          0.003190421693 -0.01772650362 -0.05128926993 0.12081668957 0.013334066447 -0.020732972479
          0.013334066447 0.014256215745 0.0088852072426 -0.020732972479 0.0088852072426 0.10948314511
          0.16983797427 0.0027128867775 -0.016879181422 0.0027128867775 -0.010712464227 -0.00024216492213
          -0.016879181422 -0.00024216492213 0.13417981854 0.13201747631 -0.0087568998473 -0.044825537109
          -0.0087568998473 -0.022869735735 -0.004478487156 -0.044825537109 -0.004478487156 0.14132394375
          0.11809390618 0.022583289159 -0.037942052211 0.022583289159 0.0009411443391 -0.0024112870498
          -0.037942052211 -0.0024112870498 0.16932588165 0.026054528214 0.0081542561672 -0.0092957631172
          0.0081542561672 0.0033249418559 -0.0029433974644 -0.0092957631172 -0.0029433974644 0.059434108903
          0.23379889073 -0.0058009068383 0.0034904296274 -0.0058009068383 -0.045802725683 0.013918077757
          0.0034904296274 0.013918077757 0.077830690509 0.19137162449 0.018389964832 0.010186136723
          0.018389964832 0.0057083173552 0.016080327094 0.010186136723 0.016080327094 0.26012194507
          0.13081451689 -0.004245934364 -0.028783113738 -0.004245934364 0.0019889408847 0.0008661156184
          -0.028783113738 0.0008661156184 0.11406156124 0.25164974857 0.012860964615 0.0058469359437
          0.012860964615 -0.067796022641 0.013548306117 0.0058469359437 0.013548306117 0.027524039499
          0.32932674202 0.02362956011 0.013287758235 0.02362956011 0.0055812361546 0.017701469527
          0.013287758235 0.017701469527 0.34693662065 0.36855160895 0.029043778429 0.020464443932
          0.029043778429 -0.010698217478 0.013051786331 0.020464443932 0.013051786331 0.34190943997
          0.37164230605 0.027429966396 0.015140980848 0.027429966396 -0.018174726603 0.011923901519
          0.015140980848 0.011923901519 0.34250723351 0.37349368416 0.022287596021 0.014832003337
          0.022287596021 -0.012429230963 0.020467157983 0.014832003337 0.020467157983 0.34398390824
          0.38559382337 0.021593405423 0.015557542316 0.021593405423 -0.011854719951 0.020879863108
          0.015557542316 0.020879863108 0.34087155466 0.16136885419 0.013877949625 -0.02169750059
          0.013877949625 -0.014514532169 -0.0024036381073 -0.02169750059 -0.0024036381073 0.13818004416
          0.10220857289 0.014093963268 -0.0058282520627 0.014093963268 -0.039034751357 0.014602348982
          -0.0058282520627 0.014602348982 0.04311863961 0.14994623032 0.0015456255556 -0.010995493706
          0.0015456255556 -0.038880863705 -0.0086708689162 -0.010995493706 -0.0086708689162 0.015387034261
          0.37091892435 0.018863122719 0.006098869887 0.018863122719 -0.0022037184401 0.020745455047
          0.006098869887 0.020745455047 0.36517864053 0.046990993054 -0.0096974704219 0.0028653397535
          -0.0096974704219 -0.0043309678833 0.0079068959036 0.0028653397535 0.0079068959036 0.016151162723
          0.062632698109 0.07208958378 -0.045557633684 0.07208958378 -0.028775207645 -0.0091537688442
          -0.045557633684 -0.0091537688442 0.020334330594 0.29692527886 -0.0016264222658 0.0067491917893
          -0.0016264222658 -0.038686296197 0.0070863829798 0.0067491917893 0.0070863829798 0.15564511549
          0.020296657414 0.0033338139671 -0.0060722494358 0.0033338139671 0.0057805961305 -0.0013050609517
          -0.0060722494358 -0.0013050609517 0.05780265371 0.10363336747 0.019923115531 0.0014152602353
          0.019923115531 0.021869872399 0.0042075235529 0.0014152602353 0.0042075235529 0.20004542202
          0.35960838359 0.018151520255 0.004762247452 0.018151520255 -0.0017135628394 0.016434212196
          0.004762247452 0.016434212196 0.35714838011 0.11519374058 -0.0043537355351 -0.027134318878
          -0.0043537355351 -0.010688337656 0.0015610103006 -0.027134318878 0.0015610103006 0.076593125147
          -0.0067350944127 -0.0064975814781 -0.0025055862007 -0.0064975814781 0.0058434774763 -0.010953901522
          -0.0025055862007 -0.010953901522 0.090223077825 0.31619649868 0.044418216928 0.027016427591
          0.044418216928 -0.0020948094166 0.0069421658373 0.027016427591 0.0069421658373 0.32091846594
          0.3720881396 0.0217368437 0.0190442034 0.0217368437 -0.011064297342 0.016925287298
          0.0190442034 0.016925287298 0.3311301882 0.38706904335 0.011850583968 0.018199308249
          0.011850583968 -0.01391808947 0.0247155115 0.018199308249 0.0247155115 0.34386787784
          0.20633604969 0.002010665181 -0.0072499249832 0.002010665181 0.016896409215 0.012272270392
          -0.0072499249832 0.012272270392 0.24608220826 0.079047095276 0.016957242208 -0.035773583729
          0.016957242208 -0.0055904723211 0.016953981248 -0.035773583729 0.016953981248 0.053599169885
          0.17169062489 -0.00097340671751 -0.0035957829439 -0.00097340671751 -0.064002423016 -0.004183450899
          -0.0035957829439 -0.004183450899 -0.024469660423 0.37387018441 0.019045417196 0.0078682148388
          0.019045417196 -0.0084477609192 0.017449739688 0.0078682148388 0.017449739688 0.35078636137
          0.37410536947 0.019963628926 0.0080300972948 0.019963628926 -0.0070215172199 0.017523381762
          0.0080300972948 0.017523381762 0.35076417749 0.37391946062 0.020138454331 0.0082580001762
          0.020138454331 -0.0068779190173 0.017514998522 0.0082580001762 0.017514998522 0.35062248343
          0.18699795966 0.0012933941989 -0.016353357843 0.0012933941989 -0.023647688117 0.0013810902584
          -0.016353357843 0.0013810902584 0.096104861571 0.3925605924 0.020999587648 0.0081051344238
          0.020999587648 -0.018276847713 0.023004785062 0.0081051344238 0.023004785062 0.33247754382
          0.13118503763 -0.0021616521325 -0.029143160568 -0.0021616521325 -0.0038444588569 -0.0036953955258
          -0.029143160568 -0.0036953955258 0.12373122138 0.37397111827 0.018834245508 0.0076668873253
          0.018834245508 -0.0087568642164 0.017392290152 0.0076668873253 0.017392290152 0.35088281935
          0.16341007654 0.0029172602391 -0.036245318031 0.0029172602391 -0.016200527163 0.00096710586687
          -0.036245318031 0.00096710586687 0.11065544232 0.34595749602 0.0038854870778 0.015887671525
          0.0038854870778 -0.03711061682 0.01736698753 0.015887671525 0.01736698753 0.29098425863
          0.28757356622 0.025353588745 0.025911123364 0.025353588745 -0.0070631816149 0.013169222959
          0.025911123364 0.013169222959 0.25926789682 0.062063030666 0.016324861567 -0.021164652494
          0.016324861567 0.029524908924 -0.00315729542 -0.021164652494 -0.00315729542 0.19896703346
          0.17833796449 0.0051727256154 -0.032111143245 0.0051727256154 -0.01767497222 0.00052218242849
          -0.032111143245 0.00052218242849 0.12600728628 0.37951617513 0.019118407562 0.014673789223
          0.019118407562 -0.017057247102 0.016870255898 0.014673789223 0.016870255898 0.33248144513
          0.18594802914 0.0046991395056 -0.02680922425 0.0046991395056 -0.017848749911 0.0036396381339
          -0.02680922425 0.0036396381339 0.10532357658 -0.050106088094 -0.0049052579633 0.01291128496
          -0.0049052579633 0.012239444816 0.0023169243258 0.01291128496 0.0023169243258 0.071180311869
          0.26731634499 0.040926360272 0.027751212622 0.040926360272 0.0057166893956 0.0091050215657
          0.027751212622 0.0091050215657 0.28766665191 0.37959868949 0.013728724126 0.014992178631
          0.013728724126 -0.036910773495 0.029859640459 0.014992178631 0.029859640459 0.25885415442
          -0.023099206396 -0.017770183426 0.02029946351 -0.017770183426 0 0
          0.02029946351 0 0 0.071461400398 0.018352617631 -0.0059223057358
          0.018352617631 0.004068952023 0.014154988225 -0.0059223057358 0.014154988225 0.006215953513
          0.20246488576 0.0036469319089 -0.019637246605 0.0036469319089 -0.03546075065 0.013359297907
          -0.019637246605 0.013359297907 0.04764332666 0.0070863092211 -0.011577397126 -0.010902024109
          -0.011577397126 0.014238089331 0.0024014238821 -0.010902024109 0.0024014238821 0.071797653935
          0.097316829039 0.015115982604 0.0020604381074 0.015115982604 0.030678547937 0.028176867315
          0.0020604381074 0.028176867315 0.15723508484 0.11813021971 -0.0018230542644 -0.0073920037457
          -0.0018230542644 -0.047419236147 -0.0032128494844 -0.0073920037457 -0.0032128494844 -0.0287167331
          0.13459269564 -0.0040626500018 -0.013112289816 -0.0040626500018 0.0045794308212 0.0073250288152
          -0.013112289816 0.0073250288152 0.13745171245 0.10387834013 0.023751791244 -0.067666783095
          0.023751791244 0.0045777585601 0.012191464247 -0.067666783095 0.012191464247 0.11352595964
          0.35963727855 0.026712006785 0.016165811946 0.026712006785 -0.029650878105 0.0081617394202
          0.016165811946 0.0081617394202 0.26792902681 0.13782060532 0.011876498121 -0.015301243595
          0.011876498121 0.020610349704 0.013345283899 -0.015301243595 0.013345283899 0.078555959327
          0.37092468761 0.025365597978 0.023493546416 0.025365597978 -0.0076867607811 0.018397264391
          0.023493546416 0.018397264391 0.33890784682 0.02897602694 -0.0032256108955 -0.020658860274
          -0.0032256108955 -0.0047131528033 -0.0022467303131 -0.020658860274 -0.0022467303131 0.028144464334
          0.18901828701 0.005247979364 -0.004447494413 0.005247979364 -0.04148751089 0.0034446606183
          -0.004447494413 0.0034446606183 0.025923292959 0.33950142514 0.014273425117 0.015587490739
          0.014273425117 0.0010861248205 0.020347519105 0.015587490739 0.020347519105 0.34024019354
          0.22339540719 -0.0030695675173 0.013616662966 -0.0030695675173 -0.03938133806 0.01463820692
          0.013616662966 0.01463820692 0.11135309522 0.12346313337 0.011080246073 -0.0096064572148
          0.011080246073 -0.045981680073 0.010231018334 -0.0096064572148 0.010231018334 -0.010289681379
          0.37249253656 0.021820868593 0.0018520003214 0.021820868593 -0.0061817739795 0.018316760548
          0.0018520003214 0.018316760548 0.35571084241 0.1213265479 0.0025104158599 -0.037381478142
          0.0025104158599 -0.014706097154 -0.00052618029076 -0.037381478142 -0.00052618029076 0.057568567927
          0.37333170897 0.022392281207 0.0081990749974 0.022392281207 -0.0081776947588 0.017625265385
          0.0081990749974 0.017625265385 0.35159055905 0.063343042505 -0.012509373572 -0.018757414251
          -0.012509373572 -0.005972277162 -0.0068477983557 -0.018757414251 -0.0068477983557 0.015298981581
          0.28227576195 0.012811684283 0.033545215087 0.012811684283 0.0024703627948 0.015276888081
          0.033545215087 0.015276888081 0.28300854821 0.37590925887 0.018890876257 0.014427231069
          0.018890876257 -0.011878689499 0.015810130807 0.014427231069 0.015810130807 0.34627444984
          -0.025680012411 -0.0077364533555 -0.011380292473 -0.0077364533555 0.0066182249974 0.012387284721
          -0.011380292473 0.012387284721 0.025654607663 0.30089668015 0.032218677189 0.013566157127
          0.032218677189 0.0086373638963 0.011739089254 0.013566157127 0.011739089254 0.35956045217
          0.19504736646 -0.002437798144 -0.022129293577 -0.002437798144 -0.027691285332 0.0044010223073
          -0.022129293577 0.0044010223073 0.10022911611 0.39054311464 0.017194823355 0.014620975928
          0.017194823355 -0.035070589729 0.010757741843 0.014620975928 0.010757741843 0.28246371301
          0.023130763778 -0.0065861082213 -0.010809790074 -0.0065861082213 -0.014920740415 0.016601157124
          -0.010809790074 0.016601157124 0.041889708177 0.074552212635 -0.001562814207 -0.036962444645
          -0.001562814207 -0.0043896435319 0.00081865839242 -0.036962444645 0.00081865839242 0.022630265681
          0.1908948589 0.0029314446838 -0.010228872651 0.0029314446838 -0.048727533511 0.00053132097216
          -0.010228872651 0.00053132097216 -0.030806852984 0.10435642163 0.023188319051 -0.048285958956
          0.023188319051 0.0090770234889 -0.0045759196784 -0.048285958956 -0.0045759196784 0.14700551974
          0.17459215622 0.0013764416991 -0.031258121791 0.0013764416991 -0.01887701794 8.8963643147e-05
          -0.031258121791 8.8963643147e-05 0.1075668935 0.1657767047 -0.012200083269 -0.023007542482
          -0.012200083269 -0.028179677115 0.027375020693 -0.023007542482 0.027375020693 0.14486868225
          0.18060250102 0.0049543978149 -0.02985073581 0.0049543978149 -0.022745108249 0.0026110161364
          -0.02985073581 0.0026110161364 0.11414250512 -0.05378004871 0.0069351050405 -0.0032802268913
          0.0069351050405 0.025172653284 0.013067838933 -0.0032802268913 0.013067838933 0.073579691606
          0.13528068378 0.003658769093 0.0012609095741 0.003658769093 -0.044975239527 0.0095145123976
          0.0012609095741 0.0095145123976 -0.010506240742 0.38117379359 0.027084062508 0.023648760534
          0.027084062508 -0.026031964208 0.0072706867916 0.023648760534 0.0072706867916 0.32502408885
          0.044423941697 0.0081929849387 -0.0033462853267 0.0081929849387 0.00027473732594 -0.00089300497516
          -0.0033462853267 -0.00089300497516 0.059024624294 0.17930939128 0.0071714508687 -0.024213259088
          0.0071714508687 -0.030974031091 0.01164921428 -0.024213259088 0.01164921428 0.06153823906
          0.15330399106 0.0015175184381 -0.029369541245 0.0015175184381 -0.034454515477 0.013304302816
          -0.029369541245 0.013304302816 0.047438117706 0.13793885234 0.0067359585194 -0.020988752418
          0.0067359585194 -0.0043673767827 -0.0027805087918 -0.020988752418 -0.0027805087918 0.12081867939
          0.11260379591 0.0021787391747 -0.028015416787 0.0021787391747 0.011506033756 -0.020801923263
          -0.028015416787 -0.020801923263 0.10751330271 0.01661646799 -0.006327083766 -0.0019739035225
          -0.006327083766 0.015962678983 -0.0069284320894 -0.0019739035225 -0.0069284320894 0.090303581005
          0.24495826636 -0.0090035263396 0.023424497677 -0.0090035263396 -0.02414308588 0.011632484037
          0.023424497677 0.011632484037 0.22005427779 -0.073378467766 -0.023816513422 0.011923138253
          -0.023816513422 0.028327375024 0.0039736829406 0.011923138253 0.0039736829406 0.079852059434
          0.34651613875 0.021431753838 0.0061885620339 0.021431753838 0.0027771182367 0.015695140403
          0.0061885620339 0.015695140403 0.35810492003 0.14690450261 0.0078198891563 -0.00015146981152
          0.0078198891563 -0.013031526681 -0.0013480226898 -0.00015146981152 -0.0013480226898 0.074663534509
          0.040637405298 0.0023528405521 -0.014632255115 0.0023528405521 0.0071808108099 0.013900085515
          -0.014632255115 0.013900085515 0.037684352148 0.37311286842 0.024987581274 0.017001939115
          0.024987581274 -0.01109710354 0.0098699406585 0.017001939115 0.0098699406585 0.33771874834
          0.2795235123 -0.010802028424 -0.0058844136912 -0.010802028424 -0.045856408525 0.016477644768
          -0.0058844136912 0.016477644768 0.12207212344 0.37104920009 0.031731334472 0.011990655117
          0.031731334472 -0.059794757237 0.021576469304 0.011990655117 0.021576469304 0.23489188992
          0.33009172041 0.024221358196 0.011892363869 0.024221358196 0.010076990511 0.0063964191344
          0.011892363869 0.0063964191344 0.34650467585 0.38484627044 0.021134646399 0.0054164788101
          0.021134646399 -0.015186584968 0.013585262474 0.0054164788101 0.013585262474 0.34364211862
          0.34573284643 0.0067657344332 0.015243058121 0.0067657344332 -0.015840398493 0.018862818973
          0.015243058121 0.018862818973 0.31405394369 0.19119325726 0.0049400315675 -0.019818042114
          0.0049400315675 -0.019687168277 -0.0017418679214 -0.019818042114 -0.0017418679214 0.12886346772
          0.16664688524 -0.0060112309356 -0.020182138908 -0.0060112309356 -0.014316270049 -0.0022527627044
          -0.020182138908 -0.0022527627044 0.13442002241 0.077956228338 -0.010387036151 -0.018585603179
          -0.010387036151 -0.015349621941 -0.0062352204604 -0.018585603179 -0.0062352204604 0.06972865618
          0.16516552031 -0.002421980915 -0.029060042052 -0.002421980915 -0.016562241064 -0.0059322466989
          -0.029060042052 -0.0059322466989 0.11097459028 0.35500539944 0.027954902845 0.017118459161
          0.027954902845 -0.01753202487 0.019320826731 0.017118459161 0.019320826731 0.32318700056
          0.10706924737 0.0052301743963 -0.041566962821 0.0052301743963 0.016196021102 0.011892879579
          -0.041566962821 0.011892879579 0.16578699843 0.11396202056 0.0074707429304 -0.048573804989
          0.0074707429304 0.01226127709 -0.005292407854 -0.048573804989 -0.005292407854 0.12525064059
          0.34469795638 0.025676205183 0.013687129877 0.025676205183 -0.024464430335 0.018481004451
          0.013687129877 0.018481004451 0.28666272153 0.38129993155 0.014228865652 0.011427749509
          0.014228865652 -0.0051552122902 0.021329879362 0.011427749509 0.021329879362 0.35715951463
          0.19887732877 0.025984905986 0.025644392587 0.025984905986 -0.016803373756 -0.0066915770868
          0.025644392587 -0.0066915770868 0.26353230388 0.10665108659 0.010352762287 -0.014741542497
          0.010352762287 0.0059483651061 0.0080893641295 -0.014741542497 0.0080893641295 0.11165176328
          0.17466222712 0.0035909390545 -0.018299883494 0.0035909390545 -0.01483417812 -0.003767811289
          -0.018299883494 -0.003767811289 0.13271523575 0.3068635629 -0.0023796904161 0.022533501105
          -0.0023796904161 -0.034549045496 0.021609628553 0.022533501105 0.021609628553 0.23235873056
          0.17923405512 0.021357374318 0.01093682646 0.021357374318 0.0049178987582 0.0077654314355
          0.01093682646 0.0077654314355 0.22007715357 0.3872745329 0.016444982233 0.0045884427273
          0.016444982233 -0.014297964266 0.01389176033 0.0045884427273 0.01389176033 0.34887550208
          0.2252296712 0.011039941596 -0.01092903425 0.011039941596 -0.053317143749 0.029862728458
          -0.01092903425 0.029862728458 0.051012412446 0.35901931407 0.016798888932 0.021949038629
          0.016798888932 -0.0092567742644 0.015077847135 0.021949038629 0.015077847135 0.33711740359
          -0.030985767621 0.011884898119 0.0016222018743 0.011884898119 0.0097211587085 0.013128911698
          0.0016222018743 0.013128911698 0.075818788036 0.39084684406 0.024555423842 0.0088257520013
          0.024555423842 -0.022473096653 0.010538007762 0.0088257520013 0.010538007762 0.33950325462
          0.35647576727 0.013978040844 0.01805981167 0.013978040844 -0.0044038778364 0.018468860338
          0.01805981167 0.018468860338 0.34799464297 0.16028939919 0.013005884325 -0.015217263112
          0.013005884325 -0.0002624008593 -0.0057550955152 -0.015217263112 -0.0057550955152 0.08918400585
          0.1542596279 0.00099151174918 -0.029111622523 0.00099151174918 -0.024583347643 0.0013079702373
          -0.029111622523 0.0013079702373 0.078580564402 0.28941290235 0.0040697049163 0.020094167869
          0.0040697049163 0.017239621927 0.016250903432 0.020094167869 0.016250903432 0.31685015484
          0.039454841886 -0.004182875621 -0.013398331249 -0.004182875621 -0.0092164742572 -0.0049448277446
          -0.013398331249 -0.0049448277446 0.032273190958 0.068879735727 0.0051414399459 -0.014957745895
          0.0051414399459 0.0014863983367 -0.0058909041819 -0.014957745895 -0.0058909041819 0.057649372137
          0.15037987639 0.0061087998103 -0.0085434028051 0.0061087998103 -0.032253997964 0.00041918421157
          -0.0085434028051 0.00041918421157 0.033982726692 0.34894570385 0.01334750847 0.020385764975
          0.01334750847 -0.0011238633113 0.014060165497 0.020385764975 0.014060165497 0.34121948496
          0.0088197586309 0.0089991532745 0.0045527361428 0.0089991532745 0.028718635 0.020334506614
          0.0045527361428 0.020334506614 0.15182630296 0.096843474432 -0.0078942469348 -0.019882205596
          -0.0078942469348 -0.014221009134 -0.0036914021847 -0.019882205596 -0.0036914021847 0.035349323751
          0.18968446502 0.0034736372447 -0.036515564067 0.0034736372447 -0.029994403513 -0.003910976888
          -0.036515564067 -0.003910976888 0.11928865509 0.32538093496 0.036002496847 0.027860127451
          0.036002496847 -0.011622588743 0.0052346000248 0.027860127451 0.0052346000248 0.31711309136
          0.36258407715 0.020053713486 0.0071481896989 0.020053713486 -0.002840523894 0.015872861697
          0.0071481896989 0.015872861697 0.35880953058 0.077271206508 -0.032606153788 -0.018589211422
          -0.032606153788 0.00045800207413 -0.014653638058 -0.018589211422 -0.014653638058 0.16146012551
          0.15296170865 -0.0057610320924 -0.0018722702363 -0.0057610320924 -0.063363318961 0.0049640211675
          -0.0018722702363 0.0049640211675 -0.044964382921 0.13641123683 0.01277927765 -0.010112679088
          0.01277927765 0.015807921894 -0.01731016024 -0.010112679088 -0.01731016024 0.10826041785
          0.06368071157 0.0022387856815 -0.017925545063 0.0022387856815 -0.0087851692887 0.0006179399355
          -0.017925545063 0.0006179399355 0.026726464867 0.19853575291 0.0025127264414 -0.013716666508
          0.0025127264414 -0.027999238458 -0.0040986865215 -0.013716666508 -0.0040986865215 0.10201260148
          0.038203267151 -0.22191502042 -0.051327015056 -0.22191502042 -0.10601663046 -0.11238031846
          -0.051327015056 -0.11238031846 0.15775964679 0.15461278738 -0.010773346785 -0.019423834482
          -0.010773346785 -0.011130744185 0.0081941792894 -0.019423834482 0.0081941792894 0.16406182406
          0.22528011728 0.062979179232 0.020372769794 0.062979179232 0.051995431474 0.03549224757
          0.020372769794 0.03549224757 0.11172098025 0.15624401599 0.00034721491097 -0.02614152575
          0.00034721491097 -0.050434673834 0.00014451288257 -0.02614152575 0.00014451288257 -0.0060539304463
          0.16357373912 0.0037131639684 -0.0173627439 0.0037131639684 -0.013368667003 -0.0017831339523
          -0.0173627439 -0.0017831339523 0.13534935191 -0.0073118053268 -0.0014409844314 0.0044888941045
          -0.0014409844314 0.0061900320688 0.0047332694722 0.0044888941045 0.0047332694722 0.032688041114
          0.16822212968 0.0055067800072 -0.0073411980484 0.0055067800072 -0.039648572824 0.0024568828882
          -0.0073411980484 0.0024568828882 0.03122722287 0.019967975125 -0.018744530503 -0.0049700781133
          -0.018744530503 0.016496791273 -0.0091769635018 -0.0049700781133 -0.0091769635018 0.062863502999
          0.2256230011 0.033526964408 0.0032752013594 0.033526964408 0.01763141037 0.01410647176
          0.0032752013594 0.01410647176 0.2627784514 -0.046763274546 -0.0065801003627 -0.024085169521
          -0.0065801003627 0.016250293529 0.0028900668331 -0.024085169521 0.0028900668331 0.068040814257
          0.33164190364 0.018446850109 0.003511474655 0.018446850109 -0.059460196262 0.0074188308178
          0.003511474655 0.0074188308178 0.15579698265 0.33534013261 0.011396504234 -0.00094521040246
          0.011396504234 -0.071894908116 0.016290540038 -0.00094521040246 0.016290540038 0.16116222549
          0.30737169813 0.014850509279 0.013775291732 0.014850509279 -0.063356669513 0.0072950445462
          0.013775291732 0.0072950445462 0.12730199471 0.39300880165 0.022571702218 0.0077304811649
          0.022571702218 -0.020973711138 0.012793237865 0.0077304811649 0.012793237865 0.34481652177
          0.057192389036 -0.0032920320034 -0.030337329485 -0.0032920320034 -0.0010026812084 -0.0019758879975
          -0.030337329485 -0.0019758879975 0.06067273121 0.15640380438 0.0067330363017 -0.010047237613
          0.0067330363017 -0.031123449694 -0.0043617456828 -0.010047237613 -0.0043617456828 0.063238929214
          0.25866605897 0.0029577282292 0.024223536236 0.0029577282292 -0.012405920675 0.028307340016
          0.024223536236 0.028307340016 0.26509883333 0.11276418067 0.0040205986546 -0.022005684707
          0.0040205986546 0.019140667182 0.012831923502 -0.022005684707 0.012831923502 0.095031842231
          0.13256383171 -0.026746752703 -0.042647324353 -0.026746752703 -0.042607382315 -0.01313017175
          -0.042647324353 -0.01313017175 0.063435376832 -0.021188146798 0.0010494649877 0.011577098788
          0.0010494649877 0.0044688961258 0.0020082928892 0.011577098788 0.0020082928892 0.029141064317
          0.37670600676 0.024498913269 0.0059817053096 0.024498913269 -0.0068768381606 0.016389946416
          0.0059817053096 0.016389946416 0.35267360571 0.11458769287 0.0055950627694 -0.010283655615
          0.0055950627694 -0.041298744368 -0.0041867158354 -0.010283655615 -0.0041867158354 -0.061485760527
          -0.048414505267 0.0051852957252 -0.006308132695 0.0051852957252 0.031641412381 0.0066131667303
          -0.006308132695 0.0066131667303 0.028244344403 0.13595572915 0.005844888667 -0.0048663663299
          0.005844888667 -0.03653757029 -0.0064432617404 -0.0048663663299 -0.0064432617404 0.010414148258
          0.39339339727 0.020190315738 0.0080020721843 0.020190315738 -0.030933890103 0.01850204339
          0.0080020721843 0.01850204339 0.32027414071 0.34682010324 0.023847060757 0.0077644576497
          0.023847060757 0.0091521089825 0.018346866779 0.0077644576497 0.018346866779 0.36038717584
          0.35067681792 0.025141449089 0.013753196957 0.025141449089 0.00030621062615 0.011160602283
          0.013753196957 0.011160602283 0.35129029621 0.3311045631 0.0029099581521 0.0074673382111
          0.0029099581521 -0.066946469317 0.01070565112 0.0074673382111 0.01070565112 0.15461288787
          0.38484844391 0.021315107186 0.0061695842554 0.021315107186 -0.014551248738 0.022990763416
          0.0061695842554 0.022990763416 0.34555613966 0.037968373038 -0.0012688480071 -0.014962115604
          -0.0012688480071 -0.0088049998385 -0.011086562972 -0.014962115604 -0.011086562972 0.044471033525
          0.33041050774 0.016749517668 0.011299109024 0.016749517668 0.0035672051188 0.0074468691891
          0.011299109024 0.0074468691891 0.36364990431 0.14406358757 -0.008049979473 -0.024929409615
          -0.008049979473 -0.055623758549 -0.014357242411 -0.024929409615 -0.014357242411 -0.0026434438842
          0.24824667936 0.009313628605 0.025494746703 0.009313628605 -0.0101487715 0.013772029013
          0.025494746703 0.013772029013 0.22237253879 0.098818369155 0.00034184242075 -0.023820389081
          0.00034184242075 -0.013835161667 0.0039886082534 -0.023820389081 0.0039886082534 0.053819966767
          0.16657793542 0.0042980333164 -0.034874604399 0.0042980333164 -0.010579084542 -0.0017674480597
          -0.034874604399 -0.0017674480597 0.12496077574 0.38751106124 0.023214520979 0.0098798525107
          0.023214520979 -0.010382516456 0.021930776644 0.0098798525107 0.021930776644 0.35275537505
          0.07136374161 0.0092136475273 0.011681806672 0.0092136475273 -0.03308269287 0.083301214801
          0.011681806672 0.083301214801 0.10532254347 0.17034869278 -0.0046126757378 -0.033911843392
          -0.0046126757378 -0.025576664988 -0.0047298274271 -0.033911843392 -0.0047298274271 0.11618181961
          0.33301409982 0.0020732103164 0.028197954159 0.0020732103164 1.3238244776e-05 0.01662477872
          0.028197954159 0.01662477872 0.31180782241 0.11987488277 0.0031906844808 -0.017366970274
          0.0031906844808 -0.0068126168228 0.0031540146978 -0.017366970274 0.0031540146978 0.12047899482
          0.050036694552 -0.0013732012932 -0.023908657474 -0.0013732012932 0.0024252437088 -0.0043835155423
          -0.023908657474 -0.0043835155423 0.026363317253 0.06323012057 0.0066302031365 -0.0081080289806
          0.0066302031365 -0.011698269918 -0.0020059765236 -0.0081080289806 -0.0020059765236 0.095619129712
          0.2026084184 0.024591582671 -0.069523398652 0.024591582671 -0.052010358971 -0.035737382893
          -0.069523398652 -0.035737382893 -0.01153388725 0.39390646372 0.026027965581 0.010701616188
          0.026027965581 -0.064293847109 0.01529861902 0.010701616188 0.01529861902 0.27527394867
          0.090799370257 -0.008650148768 -0.012371660318 -0.008650148768 0.0064705547876 0.0051081790936
          -0.012371660318 0.0051081790936 0.13609721026 0.38179001197 0.013150802581 0.019138976135
          0.013150802581 -0.018880049387 0.026662399519 0.019138976135 0.026662399519 0.33588669121
          0.37148657778 0.023846117853 0.0025655095874 0.023846117853 -0.0057944549689 0.019892199892
          0.0025655095874 0.019892199892 0.35475516692 -0.088735920765 -0.00030196892005 -0.012817381171
          -0.00030196892005 0.032395725754 0.0078102198753 -0.012817381171 0.0078102198753 0.021224016323
          0.18087823728 -0.00012334122262 0.0052252150847 -0.00012334122262 0.027857698004 0.024240611698
          0.0052252150847 0.024240611698 0.28446508963 0.38290857507 0.016741885078 0.0059770045145
          0.016741885078 -0.010507494075 0.016196954596 0.0059770045145 0.016196954596 0.35737227544
          -0.0019785002959 -0.0055265583028 -0.0061024005377 -0.0055265583028 -0.00049231620996 0.01197579666
          -0.0061024005377 0.01197579666 0.034982869023 0.17709239624 -0.0055435597791 0.0051258190278
          -0.0055435597791 -0.032643997561 0.02109105688 0.0051258190278 0.02109105688 0.069163187984
          0.1840170647 0.0019517467726 -0.020143705081 0.0019517467726 -0.0088760111803 0.0029927493579
          -0.020143705081 0.0029927493579 0.1353585177 0.33455652379 0.014959440753 0.0083102190323
          0.014959440753 0.010679208025 0.017463056517 0.0083102190323 0.017463056517 0.36020065797
          0.36097371133 0.016029161 0.018845447254 0.016029161 -0.01183520556 0.019151881458
          0.018845447254 0.019151881458 0.33336536203 0.15377514883 -0.0065793645945 -0.027099264924
          -0.0065793645945 -0.025905810141 -0.01638033175 -0.027099264924 -0.01638033175 0.089774777833
          0.080618996324 0.011952892841 -0.027045582482 0.011952892841 0.02128734903 0.0048874374239
          -0.027045582482 0.0048874374239 0.16299560968 0.065358435404 0.026547556313 0.0034826896969
          0.026547556313 0.023073802967 -0.0040357451827 0.0034826896969 -0.0040357451827 0.14996299032
          0.059006751477 0.0042767661433 0.0047472448258 0.0042767661433 0.001990526426 0.0060992890941
          0.0047472448258 0.0060992890941 0.040206160557 0.12680843677 0.010269393278 -0.0050962804599
          0.010269393278 0.018937611623 0.0051054162574 -0.0050962804599 0.0051054162574 0.060630589716
          0.36032575225 0.0213377702 0.0046434315269 0.0213377702 -0.0021988287356 0.016939419489
          0.0046434315269 0.016939419489 0.35598935225 0.20860066665 -0.0077642980296 0.011674222334
          -0.0077642980296 -0.018601917791 0.0092432242255 0.011674222334 0.0092432242255 0.2183415788
          0.16317048664 0.0057134396871 -0.031951340959 0.0057134396871 -0.025424643426 -0.00014007982908
          -0.031951340959 -0.00014007982908 0.10546408072 0.19623760662 0.0020520610834 -0.015134389242
          0.0020520610834 -0.028932619642 0.0058031213258 -0.015134389242 0.0058031213258 0.10641977717
          0.016015539202 -0.0043146965455 -0.005120357078 -0.0043146965455 0.022146821547 0.0044063631806
          -0.005120357078 0.0044063631806 0.073878072346 0.39137610417 0.025668869528 0.011281693828
          0.025668869528 -0.033626464232 0.0077448446014 0.011281693828 0.0077448446014 0.31698879271
          0.17858477568 0.0083743690682 -0.02570809953 0.0083743690682 -0.018886613283 0.0006524465993
          -0.02570809953 0.0006524465993 0.11158268878 0.20608412025 0.016214947116 0.012789828667
          0.016214947116 -0.052503812173 0.01105558146 0.012789828667 0.01105558146 0.092941639584
          0.20265345842 0.0099032053137 0.0057941175462 0.0099032053137 0.030125424607 0.014665604921
          0.0057941175462 0.014665604921 0.24328660192 0.23172029142 -0.0094193553655 0.01387570537
          -0.0094193553655 -0.018003083863 -0.037714732872 0.01387570537 -0.037714732872 0.074146257551
          -0.017949739142 -0.0075566588412 -0.026893520543 -0.0075566588412 0.00305269597 -0.0090742224577
          -0.026893520543 -0.0090742224577 0.025118978026 0.27394613624 0.020062073599 0.0074965678676
          0.020062073599 -0.058833045183 0.013471620862 0.0074965678676 0.013471620862 0.093124122088
          -0.033937686568 0.0026545941245 0.01699999966 0.0026545941245 0.025379112275 -0.0085396535491
          0.01699999966 -0.0085396535491 0.030782517549 0.18646188892 -0.0019261955916 -0.018957175373
          -0.0019261955916 -0.017693926351 -0.00041371267982 -0.018957175373 -0.00041371267982 0.13077709057
          0.39200240149 0.02022337366 0.0077501889272 0.02022337366 -0.01964012127 0.018055235739
          0.0077501889272 0.018055235739 0.33786541739 0.36932586767 0.019089005134 0.0095080432817
          0.019089005134 -0.0052915966153 0.017347983382 0.0095080432817 0.017347983382 0.35041233781
          0.13941754291 0.0096066897574 -0.033125530634 0.0096066897574 -0.023390561562 0.0037472328728
          -0.033125530634 0.0037472328728 0.099038790407 0.020779032395 0.0048537672851 -0.044642336474
          0.0048537672851 0.010825269251 0.011591738368 -0.044642336474 0.011591738368 0.032560536519
          0.20387949184 0.0028791196476 -0.0099650703284 0.0028791196476 -0.028527126347 -0.0016594950095
          -0.0099650703284 -0.0016594950095 0.092121619219 0.36686893425 0.021154671337 0.0042244420501
          0.021154671337 -0.0019138615344 0.015931114233 0.0042244420501 0.015931114233 0.35709128894
          -0.087470185311 -0.0038773232392 0.0054706029349 -0.0038773232392 0.020217382611 0.0014269116337
          0.0054706029349 0.0014269116337 0.034506890539 0.1330918124 0.00078497653924 -0.023807218354
          0.00078497653924 -0.014441509165 -0.0077132495186 -0.023807218354 -0.0077132495186 0.084088220495
          0.11360467831 0.0048969590539 -0.052506989024 0.0048969590539 2.9610055902e-05 0.0081079308082
          -0.052506989024 0.0081079308082 0.1196324722 0.097043287739 0.0064375811154 -0.030425012782
          0.0064375811154 -0.0021829451668 0.0094604525253 -0.030425012782 0.0094604525253 0.10403318966
          0.14908031618 0.0061651343872 -0.017069831771 0.0061651343872 0.0064249664479 0.0017837765061
          -0.017069831771 0.0017837765061 0.22809554965 -0.031988909002 -0.0076198484253 0.016706062527
          -0.0076198484253 0.028894980286 0.014465318177 0.016706062527 0.014465318177 0.087951655565
          0.20766987268 0.0042244571605 -0.017752710157 0.0042244571605 -0.028754531699 -0.0026581142237
          -0.017752710157 -0.0026581142237 0.10154323411 0.11303145085 -0.0018915943124 -0.012580643876
          -0.0018915943124 -0.0013059060911 0.0018123755998 -0.012580643876 0.0018123755998 0.10583442626
          0.34240398013 0.019234347639 0.011948233209 0.019234347639 0.0029479589012 0.012493051792
          0.011948233209 0.012493051792 0.34241208822 0.30510003814 0.0038033157136 0.014702073591
          0.0038033157136 0.0093914297491 0.014577218406 0.014702073591 0.014577218406 0.34811166948
          0.35130536911 0.0064041610191 0.015843373267 0.0064041610191 -0.0014668291822 0.021560424577
          0.015843373267 0.021560424577 0.34085316386 0.17366263198 0.00030976222966 -0.035016794656
          0.00030976222966 -0.015601063927 0.0018833860306 -0.035016794656 0.0018833860306 0.12488191461
          0.13221684513 0.00015863660141 -0.0065731761653 0.00015863660141 -0.014026157006 -0.014128118936
          -0.0065731761653 -0.014128118936 0.042476967976 0.082210262681 -0.00023234448475 0.011880518749
          -0.00023234448475 -0.011514355081 0.0064441803107 0.011880518749 0.0064441803107 -0.015357793614
          0.085453573874 0.030929181909 -0.049009914594 0.030929181909 -0.0043184232289 -0.013855782734
          -0.049009914594 -0.013855782734 0.044605212399 0.11898542965 0.0088903572436 -0.045718310115
          0.0088903572436 0.0094751820996 -0.0075206105216 -0.045718310115 -0.0075206105216 0.10041210124
          0.15944522655 -0.0033844692612 -0.027731301748 -0.0033844692612 -0.016826791917 -0.0019283948862
          -0.027731301748 -0.0019283948862 0.096012939524 0.15441721698 -0.012465890225 -0.027515790865
          -0.012465890225 -0.04159582726 -0.00087926331343 -0.027515790865 -0.00087926331343 -0.0074184851502
          0.35789840475 0.026940223698 0.021850352962 0.026940223698 -0.0046622846584 0.013146247641
          0.021850352962 0.013146247641 0.33734860021 0.13306085615 -0.001118672544 0.0034896618693
          -0.001118672544 -0.039028852442 -0.0049079212447 0.0034896618693 -0.0049079212447 -0.019503460368
          0.18691764342 0.010709986041 -0.0094599987821 0.010709986041 -0.042066909565 0.0092733154402
          -0.0094599987821 0.0092733154402 -0.042460812692 0.39341204626 0.015318680386 0.01139209103
          0.015318680386 -0.024314119237 0.020633885536 0.01139209103 0.020633885536 0.32523439216
          0.14977933268 0.00043769469498 -0.021828980232 0.00043769469498 -0.027749897492 -0.0011112937661
          -0.021828980232 -0.0011112937661 0.069970767164 0.12875262089 0.030047420328 -0.046475915389
          0.030047420328 -0.012044911907 -0.0077204955734 -0.046475915389 -0.0077204955734 0.15366682749
          0.13116357402 -0.0084175776094 -0.029695174525 -0.0084175776094 -0.0085400778366 0.0034314667718
          -0.029695174525 0.0034314667718 0.092205773894 0.18421981782 0.022976698759 0.012507323339
          0.022976698759 0.0018651416839 0.0095600256288 0.012507323339 0.0095600256288 0.22011080002
          0.17695700203 0.015157690191 -0.0072810647128 0.015157690191 0.016736705568 0.0090735182864
          -0.0072810647128 0.0090735182864 0.05419655602 0.10439663586 0.023884990907 -0.046556150974
          0.023884990907 0.0052567780732 -0.0012396025519 -0.046556150974 -0.0012396025519 0.13692663519
          0.21001744455 -0.058722141214 0.043722592711 -0.058722141214 -0.14845713887 -0.067681338634
          0.043722592711 -0.067681338634 0.12034617833 -0.083298391855 -0.0041280485191 0.0060313546611
          -0.0041280485191 0.020320807514 0.013675491274 0.0060313546611 0.013675491274 0.048483409499
          0.15826780659 0.0015163036793 -0.013622080122 0.0015163036793 -0.0077459761208 0.0038684731405
          -0.013622080122 0.0038684731405 0.13779312642 0.066484862248 0.001089227491 -0.0223841352
          0.001089227491 -0.021843297202 -0.0098386182264 -0.0223841352 -0.0098386182264 -0.030487691885
          0.17513720258 0.0096815159883 0.0048181457664 0.0096815159883 -0.079161056615 -0.017451241188
          0.0048181457664 -0.017451241188 -0.069501949731 0.1678231322 -0.003154149267 0.0030780820206
          -0.003154149267 -0.064303130372 0.024824492622 0.0030780820206 0.024824492622 -0.051069107452
          -0.0096531380845 -0.006169970729 0.0052516502783 -0.006169970729 0.012541165014 -0.0012465189158
          0.0052516502783 -0.0012465189158 0.046378753211 0.36684031403 0.02794487665 0.025399105178
          0.02794487665 -0.0096557662445 0.011959095297 0.025399105178 0.011959095297 0.32417845978
          0.37176765214 0.018737487899 0.019977382387 0.018737487899 -0.032385026319 0.019618168322
          0.019977382387 0.019618168322 0.31389394235 0.29878643936 0.012661081873 0.010459736442
          0.012661081873 -0.042781400539 0.022764509961 0.010459736442 0.022764509961 0.15169637633
          0.37457509898 0.0081960036142 0.023645023766 0.0081960036142 -0.010943756642 0.022372680847
          0.023645023766 0.022372680847 0.33907661832 0.016474242258 -0.03207122124 0.046794390892
          -0.03207122124 -0.11540505259 0.021342802784 0.046794390892 0.021342802784 0.25103908317
          0.17597152618 0.0089455607381 -0.024341405421 0.0089455607381 -0.038028054244 0.017958916669
          -0.024341405421 0.017958916669 -0.02053993378 0.10660345128 0.0076294236293 -0.010312882016
          0.0076294236293 0.017090497117 -0.00026899650831 -0.010312882016 -0.00026899650831 0.10994212858
          0.35456036828 0.022205970436 0.015553788169 0.022205970436 -0.0052521880776 0.019235038812
          0.015553788169 0.019235038812 0.34053027513 0.37563439209 0.015904270281 0.015463961946
          0.015904270281 -0.013683411951 0.022900315352 0.015463961946 0.022900315352 0.35163774122
          0.26017505841 0.017319949376 0.014686577284 0.017319949376 0.02792546997 0.013807189789
          0.014686577284 0.013807189789 0.31792495054 0.10200743253 0.013610490797 -0.0042751363489
          0.013610490797 -0.011910504566 0.0066434144557 -0.0042751363489 0.0066434144557 0.031579894024
          -0.023409526389 0.018131692734 -0.010585483943 0.018131692734 0.024192253445 0.003601943506
          -0.010585483943 0.003601943506 0.068708864818 0.1655232143 0.00034785963246 -0.029751949193
          0.00034785963246 -0.017657690561 -0.00033941001026 -0.029751949193 -0.00033941001026 0.12392095703
          0.37518820613 0.018568476462 0.006491480869 0.018568476462 -0.0088944309826 0.01957254994
          0.006491480869 0.01957254994 0.35281580567 0.1658972461 -0.021324216305 -0.016147644575
          -0.021324216305 -0.048424776454 -0.02451141561 -0.016147644575 -0.02451141561 -0.053756453532
          0.34841254355 0.02805703046 0.017614392513 0.02805703046 -0.0085745612639 0.010597372838
          0.017614392513 0.010597372838 0.34408505839 0.15951743681 0.0065073969582 -0.02665474357
          0.0065073969582 -0.012459477657 0.0017470943597 -0.02665474357 0.0017470943597 0.12470926659
          0.32693494657 0.010981479743 0.033676555899 0.010981479743 -0.0090927774711 0.01589185942
          0.033676555899 0.01589185942 0.30011210777 0.38078613524 0.015988636736 0.015088034298
          0.015988636736 -0.012599245688 0.020399116623 0.015088034298 0.020399116623 0.34148033952
          0.22134126935 0.039735167668 0.011294542761 0.039735167668 0.012309191388 0.0060271043244
          0.011294542761 0.0060271043244 0.25717183458 0.30956286073 0.020345442855 0.040397270441
          0.020345442855 -0.06496679483 -0.015505592554 0.040397270441 -0.015505592554 0.22050904499
          0.31959459375 0.017872328027 0.024738384926 0.017872328027 0.0011226955353 0.017403331992
          0.024738384926 0.017403331992 0.30244944937 0.014104850469 0.00075622897973 0.010271996364
          0.00075622897973 0.0073216157427 0.012785713851 0.010271996364 0.012785713851 0.043131966309
          0.12760488748 0.012950091865 -0.018679370168 0.012950091865 0.022865005577 -0.011269309676
          -0.018679370168 -0.011269309676 0.092577581369 0.38146095755 0.019775849737 0.0042494396042
          0.019775849737 -0.012201721811 0.015433062657 0.0042494396042 0.015433062657 0.34743810029
          0.11881761821 0.025313489224 -0.062072253154 0.025313489224 0.0011645858168 -0.019506347753
          -0.062072253154 -0.019506347753 0.090624252229 0.16836310861 0.0085719437237 0.016788819202
          0.0085719437237 0.029638618003 0.0093258460668 0.016788819202 0.0093258460668 0.24826341829
          0.37061434869 0.020897760682 0.0078676349623 0.020897760682 -0.0081767656006 0.01651826417
          0.0078676349623 0.01651826417 0.35258925436 0.19122054061 -0.004970715968 0.018979120895
          -0.004970715968 -0.0098755663211 0.02646894443 0.018979120895 0.02646894443 0.14901191494
          0.3841418471 0.023537418405 0.0073717617784 0.023537418405 -0.016609369188 0.016279785849
          0.0073717617784 0.016279785849 0.34179093149 0.37802832437 0.010389597087 0.023444446355
          0.010389597087 -0.0084569371256 0.018682264087 0.023444446355 0.018682264087 0.347453333
          0.19174268088 0.0077798910751 0.0025285712462 0.0077798910751 0.011630132532 0.0047504508994
          0.0025285712462 0.0047504508994 0.21520714851 0.23826092631 0.010957728595 0.026239220208
          0.010957728595 0.0053210521233 0.017520798494 0.026239220208 0.017520798494 0.2840189079
          0.018782817389 -0.004973687048 -0.025163041948 -0.004973687048 0.011411677108 0.0024529930379
          -0.025163041948 0.0024529930379 -0.0080541016378 0.36676839518 0.028061578063 0.019185240931
          0.028061578063 -0.0092895371876 0.012412259617 0.019185240931 0.012412259617 0.34099396443
          0.17777210682 0.029754811179 0.0095175208912 0.029754811179 0.0099288152444 0.0084015824297
          0.0095175208912 0.0084015824297 0.25210925773 0.15538486934 0.014870173542 0.016425898514
          0.014870173542 -0.014772662008 0.020751269325 0.016425898514 0.020751269325 0.088507183588
          0.37454648027 0.023896813256 0.019058234881 0.023896813256 -0.017618275525 0.011934221495
          0.019058234881 0.011934221495 0.32035089078 0.10019249416 -0.0016225800487 -0.0097302086041
          -0.0016225800487 -0.023621005444 0.00033575137977 -0.0097302086041 0.00033575137977 -0.045598244735
          0.3732289834 0.024464925783 0.0078007301835 0.024464925783 -0.0082847931949 0.014307653918
          0.0078007301835 0.014307653918 0.35168809119 0.11523726772 0.015196946981 -0.01178319112
          0.015196946981 -0.0082218934268 7.9646578727e-05 -0.01178319112 7.9646578727e-05 0.1352266181
          -0.017266396134 -0.010723530109 -0.004059042225 -0.010723530109 0.010608803965 -0.0022473458382
          -0.004059042225 -0.0022473458382 0.026289733504 0.19432350762 0.0017886526919 -0.014523982049
          0.0017886526919 -0.02026451053 0.0029100233585 -0.014523982049 0.0029100233585 0.12047007342
          0.37649097225 0.020598424346 0.0026764726497 0.020598424346 -0.0088265327247 0.019689993675
          0.0026764726497 0.019689993675 0.35551205696 0.052148425788 0.0043234533958 0.0056965005666
          0.0043234533958 0.0014932319109 -0.0061696281313 0.0056965005666 -0.0061696281313 0.06760887783
          0.17385622877 0.0035847685229 -0.019296504171 0.0035847685229 -0.012926145085 0.0015101336537
          -0.019296504171 0.0015101336537 0.13013934625 0.18824352976 0.0019700319869 -0.027433613923
          0.0019700319869 -0.025260842751 0.0023113095914 -0.027433613923 0.0023113095914 0.080577638257
          0.38579669828 0.020441610671 0.012947109658 0.020441610671 -0.016719544184 0.022640840508
          0.012947109658 0.022640840508 0.32994677198 0.14519903158 0.029791599258 -0.026927299755
          0.029791599258 -0.075136405098 -0.00019715017547 -0.026927299755 -0.00019715017547 0.17664128606
          0.17742204391 -0.0011285780076 -0.038574052364 -0.0011285780076 -0.021140962959 -0.0059965009034
          -0.038574052364 -0.0059965009034 0.11910602066 0.12426376021 -0.0038218920283 -0.00033344721224
          -0.0038218920283 -0.047470405124 -0.0033145126474 -0.00033344721224 -0.0033145126474 -0.040876678323
          0.15084738643 -0.0048515233725 0.0020989581252 -0.0048515233725 -0.053636193749 0.0096819050501
          0.0020989581252 0.0096819050501 -0.068268314621 0.1239835677 -0.0029585116973 0.0092068577175
          -0.0029585116973 -0.045648162182 0.0068049382261 0.0092068577175 0.0068049382261 -0.017355399159
          0.20858908089 -0.00076032444485 -0.00524930689 -0.00076032444485 -0.046977468805 -0.0068280621744
          -0.00524930689 -0.0068280621744 0.08453895126 0.1894806772 -0.0033904820752 -0.01547418449
          -0.0033904820752 -0.046926165371 -0.0085731467925 -0.01547418449 -0.0085731467925 0.079343529949
          0.19306103508 0.0062371251508 -0.014826944634 0.0062371251508 -0.040177140041 -0.012966445933
          -0.014826944634 -0.012966445933 0.070413862957 0.11434221831 0.0060747498809 -0.032959517803
          0.0060747498809 -0.04098325722 0.0014278863386 -0.032959517803 0.0014278863386 0.005533851344
          0.37406989805 0.021066742347 0.017241367359 0.021066742347 -0.012379101914 0.021763524998
          0.017241367359 0.021763524998 0.33790436997 0.33156445754 0.042671053238 0.033051307147
          0.042671053238 -0.062318328082 0.015445115378 0.033051307147 0.015445115378 0.19975415407
          0.29351258592 -0.0056216967901 0.014881540254 -0.0056216967901 -0.027116971957 -0.016898422536
          0.014881540254 -0.016898422536 0.028079844495 0.26303244199 0.0021939125102 0.0017489363942
          0.0021939125102 -0.039727817434 0.010863045342 0.0017489363942 0.010863045342 0.10978763224
          0.17318279284 0.0046356065334 -0.022634577461 0.0046356065334 -0.029859077689 -0.0036122762438
          -0.022634577461 -0.0036122762438 0.068058356693 0.3971039372 0.017961576259 0.0088187963409
          0.017961576259 -0.028821010617 0.026316536131 0.0088187963409 0.026316536131 0.3306429791
          -0.074639732061 0.012843100345 -0.0093971691953 0.012843100345 0.012649992843 0.0011632337393
          -0.0093971691953 0.0011632337393 0.02907909232 -0.047774052602 -0.0053450583439 -0.014775775597
          -0.0053450583439 0.013602706994 -0.0042183660491 -0.014775775597 -0.0042183660491 0.028592644445
          0.20916100202 0.044557952032 0.01665372716 0.044557952032 0.012070531701 0.0022666909573
          0.01665372716 0.0022666909573 0.2564204408 0.16020549742 0.00067879235488 -0.006066862413
          0.00067879235488 -0.027961641906 -0.00033752570598 -0.006066862413 -0.00033752570598 -0.043344585895
          0.072644099071 -0.011749761526 -0.069451313098 -0.011749761526 0.0016206868108 -0.022063286645
          -0.069451313098 -0.022063286645 0.079859798281 0.38141695128 0.019916769071 0.0095125908503
          0.019916769071 -0.012540161879 0.021262410962 0.0095125908503 0.021262410962 0.34934497657
          0.16203302243 0.0028800225519 -0.032720457542 0.0028800225519 -0.028726301634 0.0049735669872
          -0.032720457542 0.0049735669872 0.079065502901 0.14854457403 0.0034976523974 -0.02768889171
          0.0034976523974 -0.010792291577 -0.0038268170833 -0.02768889171 -0.0038268170833 0.13020754563
          0.36667354355 0.02085825201 0.016640895105 0.02085825201 -0.0043178730707 0.02050819017
          0.016640895105 0.02050819017 0.35434545827 0.33145000071 0.017539182033 0.023921382888
          0.017539182033 0.0040522096913 0.021175131952 0.023921382888 0.021175131952 0.31434375425
          0.10857530729 0.019390112735 -0.038217948647 0.019390112735 0.011076505658 0.02505586846
          -0.038217948647 0.02505586846 0.077794429848 0.18277775482 -0.00088150607501 -0.033677926684
          -0.00088150607501 -0.022899250616 -0.0012556167645 -0.033677926684 -0.0012556167645 0.1207918106
          0.16004855683 0.0010602760449 -0.0308946456 0.0010602760449 -0.017589076618 -0.0046623430352
          -0.0308946456 -0.0046623430352 0.10471429216 0.18915429232 0.0069968402289 -0.015839855984
          0.0069968402289 -0.020541830358 0.0022015483211 -0.015839855984 0.0022015483211 0.1187494687
          0.11585893082 0.011795541336 -0.02174262465 0.011795541336 -0.023820533839 0.00090379288035
          -0.02174262465 0.00090379288035 0.039899594452 0.36819972188 0.02767896099 0.0099583330162
          0.02767896099 -0.0080243795344 0.016355663976 0.0099583330162 0.016355663976 0.35218537345
          -0.08620653175 0.0036778631519 -0.03772968405 0.0036778631519 0.011736900396 -0.0017299200575
          -0.03772968405 -0.0017299200575 0.048197633731 0.36748864535 0.017313983076 0.0059255602275
          0.017313983076 -0.005863976937 0.0175435085 0.0059255602275 0.0175435085 0.35624354654
          0.20090127142 0.004893381718 -0.016974935555 0.004893381718 -0.028854515841 0.0059773235393
          -0.016974935555 0.0059773235393 0.10732581739 0.17517921492 -0.0028156053619 -0.031220967007
          -0.0028156053619 -0.019947698942 -0.0052088423053 -0.031220967007 -0.0052088423053 0.12253396742
          -0.096196355965 -0.0017576582851 0.0041709476815 -0.0017576582851 0.020105375958 0.00096340437129
          0.0041709476815 0.00096340437129 0.023490595058 -0.013507948455 0.0030445082884 -0.0063246492589
          0.0030445082884 0.00021694350559 -0.00043338828469 -0.0063246492589 -0.00043338828469 0.019393284081
          0.1319134201 0.012271038838 0.0150326885 0.012271038838 0.029985728981 -0.0046923027406
          0.0150326885 -0.0046923027406 0.27764202108 0.17437410227 0.001727671281 -0.032738254218
          0.001727671281 -0.01823874437 -0.00213324082 -0.032738254218 -0.00213324082 0.12196051871
          0.38214673953 0.013777371471 0.01865698987 0.013777371471 -0.022702534211 0.026300524298
          0.01865698987 0.026300524298 0.3364901965 0.21314844757 0.00023839728591 -0.010016539685
          0.00023839728591 -0.038688001973 -0.0029033034566 -0.010016539685 -0.0029033034566 0.080932768873
          0.41086907467 0.019446814253 0.10296832938 0.019446814253 -0.09794039303 -0.022867216132
          0.10296832938 -0.022867216132 0.20436829282 0.17664528994 0.0010744483612 -0.031736747517
          0.0010744483612 -0.017652162827 -0.00029167607189 -0.031736747517 -0.00029167607189 0.12352478417
          0.17686365553 -0.0022976629549 -0.01802745723 -0.0022976629549 -0.013766490776 0.0026304024248
          -0.01802745723 0.0026304024248 0.13264712977 0.35933490176 0.024709418032 0.019625078688
          0.024709418032 -0.0056952475355 0.020500805501 0.019625078688 0.020500805501 0.34357183657
          0.11643689884 -0.0044343272293 -0.023018439214 -0.0044343272293 -0.013855936702 -0.0081595315554
          -0.023018439214 -0.0081595315554 0.061006341187 0.081318485963 -0.0011682934468 0.0070539213968
          -0.0011682934468 -0.014306365474 0.027192465984 0.0070539213968 0.027192465984 -0.019737445029
          0.35025077711 0.0044463723787 0.023450820813 0.0044463723787 -0.014140185196 0.016899986066
          0.023450820813 0.016899986066 0.32053595515 0.38805271174 0.0223037856 0.0067281362307
          0.0223037856 -0.013256248217 0.027022370987 0.0067281362307 0.027022370987 0.3544245964
          0.1885246808 0.0016188450839 -0.022163096163 0.0016188450839 -0.025055405223 -3.1796753165e-05
          -0.022163096163 -3.1796753165e-05 0.1169819822 0.070685095453 -0.012107665189 -0.00036712311187
          -0.012107665189 -0.0074440824745 -0.0080553829884 -0.00036712311187 -0.0080553829884 -0.014595033336
          0.18856364601 -0.01293142059 -0.012167729522 -0.01293142059 -0.037419903098 0.031139856965
          -0.012167729522 0.031139856965 0.044263816035 0.15466970508 0.0094709478598 0.004806677696
          0.0094709478598 -0.060766634523 0.0086208817917 0.004806677696 0.0086208817917 -0.0073922585575
          0.29476026722 0.033325009595 0.011167670803 0.033325009595 0.020829686012 0.011890684276
          0.011167670803 0.011890684276 0.35862934092 0.1068733297 0.0045942146001 -0.013072328285
          0.0045942146001 -0.0055479532724 -0.0043295910308 -0.013072328285 -0.0043295910308 0.12292729524
          0.14941099202 0.012894523489 -0.002353877845 0.012894523489 -0.038679859601 0.021038071228
          -0.002353877845 0.021038071228 0.079901462424 0.39083992103 0.02573850486 0.012573083681
          0.02573850486 -0.03074938335 -0.0018241928209 0.012573083681 -0.0018241928209 0.28342098091
          0.21311966906 -0.0008346004776 0.020070470479 -0.0008346004776 -0.0044065218475 0.024383261423
          0.020070470479 0.024383261423 0.22652373771 0.09562736546 0.001682424819 -0.016563005672
          0.001682424819 0.0012826682901 -0.0011722775068 -0.016563005672 -0.0011722775068 0.091074381298
          0.013510410377 -0.0080917694442 -0.018484824002 -0.0080917694442 0.021506083865 -0.00070680834898
          -0.018484824002 -0.00070680834898 0.088967011649 0.15997759252 0.0037748489081 -0.028588913844
          0.0037748489081 -0.016347019523 -1.5618331306e-05 -0.028588913844 -1.5618331306e-05 0.1063444219
          0.35055584465 0.022730494978 0.024746250919 0.022730494978 -0.020796515624 0.022913111246
          0.024746250919 0.022913111246 0.32013644865 0.35615015558 0.0042737808034 0.028300418402
          0.0042737808034 -0.014668726679 0.027649703824 0.028300418402 0.027649703824 0.31157306418
          0.13472066827 0.012367921392 -0.017558234106 0.012367921392 0.021109490298 -0.014818536095
          -0.017558234106 -0.014818536095 0.083526715942 0.12435495818 0.018314435779 -0.022931853136
          0.018314435779 0.015553600837 0.016435195307 -0.022931853136 0.016435195307 0.094044344263
          0.11738120223 0.023401730213 -0.0381603736 0.023401730213 0.0014709285883 -0.0051211076333
          -0.0381603736 -0.0051211076333 0.1752228409 0.16849583287 0.018670076489 0.0030161780327
          0.018670076489 0.022346748919 0.024496253811 0.0030161780327 0.024496253811 0.23401948257
          0.074485678522 -0.0082612431403 0.0019397146422 -0.0082612431403 0.010012289593 0.014266729521
          0.0019397146422 0.014266729521 0.10655624718 0.17347363853 0.0046687240886 -0.035157128686
          0.0046687240886 -0.015940935824 0.003592104706 -0.035157128686 0.003592104706 0.12811918316
          0.22947658666 -0.0039551925273 0.0058462127484 -0.0039551925273 -0.050898564123 0.021884687545
          0.0058462127484 0.021884687545 0.11807147499 0.3527463099 0.022250926454 0.027338902921
          0.022250926454 -0.0084254644359 0.012372620003 0.027338902921 0.012372620003 0.32466743424
          0.10309096073 0.0096884958989 -0.0044212245571 0.0096884958989 -0.019178421535 0.011779355841
          -0.0044212245571 0.011779355841 0.037107053608 0.36357168464 0.027651114564 0.020369417659
          0.027651114564 -0.052880668319 0.016576597086 0.020369417659 0.016576597086 0.26283579823
          0.11082357558 0.021656918481 -0.027310509136 0.021656918481 -0.038453085617 -0.013470471909
          -0.027310509136 -0.013470471909 -0.0021042422661 0.048621139157 0.0044898551456 -0.0098926592637
          0.0044898551456 -0.020324718786 0.0070896799564 -0.0098926592637 0.0070896799564 0.0092162205239
          0.28125771882 0.02311705475 -0.00063247123575 0.02311705475 -0.046083967156 0.01053251066
          -0.00063247123575 0.01053251066 0.11799110366 -0.029304115119 0.010631174593 0.010841586059
          0.010631174593 0.014003998959 -0.0094695006465 0.010841586059 -0.0094695006465 0.0607278018
          0.31787374249 0.043519453383 0.019175137198 0.043519453383 0.0063771657981 0.0091695881228
          0.019175137198 0.0091695881228 0.35634632203 -0.11032623385 -0.00061186333965 0.033594989677
          -0.00061186333965 0.010365179608 -0.0022067864233 0.033594989677 -0.0022067864233 0.07150665126
          0.33513349425 0.024898668808 0.026408162017 0.024898668808 -0.0022203247027 0.021717053042
          0.026408162017 0.021717053042 0.31963780195 0.052591269506 -0.0039420140802 -0.008734533262
          -0.0039420140802 -0.017201496889 0.005684501687 -0.008734533262 0.005684501687 0.011023691898
          0.3422784152 -0.00095804039074 0.012451060047 -0.00095804039074 -0.0022089664097 0.02406909915
          0.012451060047 0.02406909915 0.36026023042 0.38508915976 0.020289445016 0.0080571276775
          0.020289445016 -0.025591062554 0.0130479491 0.0080571276775 0.0130479491 0.3285588789
          0.11756354528 0.014332557304 -0.045608662712 0.014332557304 0.015716446159 0.0021302265703
          -0.045608662712 0.0021302265703 0.092160124884 0.045286975399 -0.0033685848674 0.0011792868738
          -0.0033685848674 -0.021261239875 0.00071181201538 0.0011792868738 0.00071181201538 0.018815546987
          0.2329503046 0.023110409255 0.010589888789 0.023110409255 0.0087311992509 0.012051261351
          0.010589888789 0.012051261351 0.24997472155 0.11031053542 0.021622792822 -0.05529304898
          0.021622792822 0.0087071218164 0.009932109404 -0.05529304898 0.009932109404 0.090957554324
          0.19879986643 0.0057418979804 -0.01341908235 0.0057418979804 -0.027321646637 -0.0077688448275
          -0.01341908235 -0.0077688448275 0.10269415513 0.099000042851 0.021319279612 -0.048798753541
          0.021319279612 0.0087857544955 0.0087741901635 -0.048798753541 0.0087741901635 0.10768021947
          -0.006817922975 0.012397337934 0.0089602257039 0.012397337934 0.0099970634186 0.0033793018994
          0.0089602257039 0.0033793018994 0.041039556104 0.027598423219 -0.012768257602 -0.051691103824
          -0.012768257602 -3.469446952e-18 -8.6736173799e-18 -0.051691103824 -8.6736173799e-18 -1.3877787808e-17
          0.11080429119 -0.003275033912 -0.020220196112 -0.003275033912 -0.03458703485 -0.010865173233
          -0.020220196112 -0.010865173233 -0.023808828085 0.11007874817 0.010235967093 -0.030861110617
          0.010235967093 -0.00024403538625 -0.013869818836 -0.030861110617 -0.013869818836 0.12305066251
          0.25617075005 5.1627916213e-05 -0.0058471215486 5.1627916213e-05 -0.089606398609 0.00088892278626
          -0.0058471215486 0.00088892278626 0.015235067 0.33775742767 0.023476540865 0.0091855804982
          0.023476540865 0.004738551286 0.022745287836 0.0091855804982 0.022745287836 0.36549098756
          0.15435175581 -0.0029532263035 -0.017557122196 -0.0029532263035 -0.0086587334966 0.0025676900036
          -0.017557122196 0.0025676900036 0.13626919003 0.11805994601 -0.0075862634489 -0.020533161133
          -0.0075862634489 -0.0072288171025 -0.0015545458404 -0.020533161133 -0.0015545458404 0.12054634767
          -0.010075861984 -0.0055278970718 -0.0012397588395 -0.0055278970718 0.010403284087 -0.0055557795298
          -0.0012397588395 -0.0055557795298 0.02113761554 0.13322834651 0.0077616130392 -0.041041930313
          0.0077616130392 -0.014393437389 0.0033973059008 -0.041041930313 0.0033973059008 0.050505681709
          0.37949388472 0.018658126726 0.011277348464 0.018658126726 -0.010499221315 0.020366383828
          0.011277348464 0.020366383828 0.34909974593 0.36999658878 0.022464931654 0.012812536631
          0.022464931654 -0.0097954297253 0.015056971359 0.012812536631 0.015056971359 0.34595152438
          0.085914313621 -0.010435316403 -0.034592031391 -0.010435316403 -0.031479110887 0.011701875966
          -0.034592031391 0.011701875966 0.033986645106 0.40326000993 0.015861562829 0.015465203395
          0.015861562829 -0.026214452367 0.029183755671 0.015465203395 0.029183755671 0.33481128489
          0.39959219943 0.020800262199 0.008369902127 0.020800262199 -0.015387006451 0.02497070823
          0.008369902127 0.02497070823 0.35457689388 -0.082918939938 -0.010291503892 0.00018428957936
          -0.010291503892 0.019588535097 0.0083914222992 0.00018428957936 0.0083914222992 0.032768183218
          0.33952212689 0.023564545543 0.013556599155 0.023564545543 0.0047428632605 0.022909700894
          0.013556599155 0.022909700894 0.33894266137 0.39265062027 0.017042787636 0.016120452811
          0.017042787636 -0.025178036067 0.021198316607 0.016120452811 0.021198316607 0.33534755902
          0.36666299231 0.027230852533 0.0179181078 0.027230852533 -0.012002334506 0.013091862131
          0.0179181078 0.013091862131 0.33624456314 0.18406224994 0.016475132475 0.012899667844
          0.016475132475 0.016651401183 0.0018195097732 0.012899667844 0.0018195097732 0.2474123104
          0.15628697196 0.0089910622186 -0.00019269962032 0.0089910622186 0.01688792599 0.010445653074
          -0.00019269962032 0.010445653074 0.30680231299 0.22332353735 0.013905283208 0.0047208373632
          0.013905283208 -0.054758300585 -0.01237964241 0.0047208373632 -0.01237964241 0.044756165584
          0.016012346907 0.020196989186 -0.0033949375366 0.020196989186 0.031428709044 -0.00288212282
          -0.0033949375366 -0.00288212282 0.13541029897 0.34931404468 0.01257866012 0.0075687137711
          0.01257866012 0.0018597933556 0.02257714829 0.0075687137711 0.02257714829 0.35853696505
          0.38064692731 0.02018990322 0.012693221037 0.02018990322 -0.011403773837 0.020782257012
          0.012693221037 0.020782257012 0.35282980035 0.17797496294 -0.00036196279922 -0.031126670369
          -0.00036196279922 -0.021130448374 0.0012941973193 -0.031126670369 0.0012941973193 0.11034750177
          0.0047408362683 0.0065096101232 -0.0072215790462 0.0065096101232 -0.0015648842212 -0.0015300486965
          -0.0072215790462 -0.0015300486965 0.019277863451 -0.091364341791 -0.0016022548673 0.0074160067492
          -0.0016022548673 0.029243273825 -0.010288587176 0.0074160067492 -0.010288587176 0.035384023066
          0.0081643228635 -0.00020051912641 -0.012913900084 -0.00020051912641 0.039684042849 0.013050549638
          -0.012913900084 0.013050549638 0.15086486996 0.31874281066 -0.0057420066139 0.010407121755
          -0.0057420066139 -0.059588559956 0.033022919693 0.010407121755 0.033022919693 0.15171740327
          0.022661872008 0.087290530993 -0.07989335096 0.087290530993 0.066765944257 0.02695031723
          -0.07989335096 0.02695031723 0.0540480449 0.120163275 0.016980147207 -0.045962846453
          0.016980147207 0.0088795924119 0.0016268055864 -0.045962846453 0.0016268055864 0.092206241862
          0.068985703646 -0.0016687377188 -0.0075315551925 -0.0016687377188 -0.018125689488 -0.016968238746
          -0.0075315551925 -0.016968238746 0.015294113194 0.081178639295 0.0052573707372 -0.015042241823
          0.0052573707372 -0.0030305329787 -0.013269224947 -0.015042241823 -0.013269224947 0.061587260496
          0.10535271741 -0.011807599356 -0.0091187717482 -0.011807599356 -0.025916921248 0.017224895141
          -0.0091187717482 0.017224895141 0.0022093433919 0.37263765375 0.010442857592 0.015024011589
          0.010442857592 -0.0053333031092 0.019085962977 0.015024011589 0.019085962977 0.35977615443
          0.32720087747 0.023289274392 0.01740444434 0.023289274392 -0.010283325109 0.01604051732
          0.01740444434 0.01604051732 0.35075427506 0.1736634872 0.0032591664104 0.014809721714
          0.0032591664104 0.030199020753 0.018773453253 0.014809721714 0.018773453253 0.24309398876
          0.10532832784 0.025544933191 -0.083751762362 0.025544933191 0.0024158777301 0.027182168768
          -0.083751762362 0.027182168768 0.014117375422 0.14192879619 -0.0027761737113 -0.016848149093
          -0.0027761737113 -0.018849438106 0.016147267692 -0.016848149093 0.016147267692 0.16549603757
          0.15117404648 -0.012997197334 -0.018155403469 -0.012997197334 -0.066753620442 0.019105107723
          -0.018155403469 0.019105107723 0.15332558925 0.19400668499 0.024746191475 0.0072098445388
          0.024746191475 0.0037218839327 0.017300811825 0.0072098445388 0.017300811825 0.16631031207
          0.061064122205 -0.0011933829075 0.02398891419 -0.0011933829075 -0.01847800783 0.015433105584
          0.02398891419 0.015433105584 -0.001660121389 -0.092990329881 0.0059975585226 0.0048817003777
          0.0059975585226 0.017649591918 0.012667253459 0.0048817003777 0.012667253459 0.037024499957
          0.10784662492 0.029860862898 -0.076024333415 0.029860862898 0.010723657198 0.0076236078237
          -0.076024333415 0.0076236078237 0.090064707788 0.1768443826 0.0013120650236 -0.032335572913
          0.0013120650236 -0.016600638946 -0.0018091257723 -0.032335572913 -0.0018091257723 0.11979575447
          0.3911118104 0.020539972667 0.011873562283 0.020539972667 -0.022160864249 0.014607764559
          0.011873562283 0.014607764559 0.31836682995 0.14100244094 0.0053814631909 -0.032125329301
          0.0053814631909 -0.017068657885 0.0070148965906 -0.032125329301 0.0070148965906 0.079421808572
          0.052012745456 -0.0040197260774 -0.021261656507 -0.0040197260774 -0.0061679614734 0.0058557934913
          -0.021261656507 0.0058557934913 0.081620984536 0.3780671935 0.020221090109 0.0072630997227
          0.020221090109 -0.0094894215435 0.018034305575 0.0072630997227 0.018034305575 0.35164979344
          0.021737248533 0.0015573155692 -0.02258518089 0.0015573155692 0.0018043278345 -0.0073066552075
          -0.02258518089 -0.0073066552075 0.044969256299 0.13860107294 0.0033281500348 0.0038799860245
          0.0033281500348 -0.050698101494 -0.0065493433301 0.0038799860245 -0.0065493433301 0.035255818699
          0.18024857141 -0.003661550295 0.012550695716 -0.003661550295 -0.024997771549 0.040455223403
          0.012550695716 0.040455223403 0.19861403633 0.10362321306 -0.0018421807565 -0.029901391542
          -0.0018421807565 -0.0019535497969 -0.0028436761766 -0.029901391542 -0.0028436761766 0.078845302795
          0.17834966701 -0.0022669914056 -0.030587552071 -0.0022669914056 -0.015893383152 -0.0022249398749
          -0.030587552071 -0.0022249398749 0.11863590566 0.2789633421 0.038040811589 0.049919863359
          0.038040811589 -0.044013045012 -0.003511005382 0.049919863359 -0.003511005382 0.25407111512
          0.14150532891 -0.0037129199568 -0.0077001634905 -0.0037129199568 -0.031775877246 -0.0060191950665
          -0.0077001634905 -0.0060191950665 0.043292029233 0.15531256918 0.00077551417509 -0.017767411232
          0.00077551417509 -0.041050758759 0.0036995686197 -0.017767411232 0.0036995686197 -0.0097160539686
          0.054532703149 0.0047201014426 0.010297313269 0.0047201014426 0.0099829329446 0.0017754591824
          0.010297313269 0.0017754591824 0.1207213926 0.32202871996 0.029361431618 0.030569858182
          0.029361431618 -0.042514461307 -0.00076986295045 0.030569858182 -0.00076986295045 0.25740955654
          0.037726122835 0.001822812622 -0.040217982769 0.001822812622 -2.5122321356e-05 0.0070221064289
          -0.040217982769 0.0070221064289 0.049979333973 0.067214351596 0.00060623922739 -0.010090923805
          0.00060623922739 0.0072354044076 0.0025068417029 -0.010090923805 0.0025068417029 0.11931080021
          0.37733029861 0.020440978925 0.01032178566 0.020440978925 -0.0099918280921 0.019677119108
          0.01032178566 0.019677119108 0.35165794652 0.33090636016 0.0059259890026 0.037784701422
          0.0059259890026 -0.0010510167619 0.014169992201 0.037784701422 0.014169992201 0.31271858259
          0.056781082229 -0.0042009970045 -0.0073611029299 -0.0042009970045 -0.0080093323991 -0.0015438465338
          -0.0073611029299 -0.0015438465338 -0.012406457635 0.32851780267 0.016012535723 0.01135153751
          0.016012535723 0.0062204602508 0.015432188182 0.01135153751 0.015432188182 0.34474253357
          0.15959793605 -0.0042313567957 -0.030403651189 -0.0042313567957 -0.012214149567 -5.3377647241e-05
          -0.030403651189 -5.3377647241e-05 0.11873075282 0.34649549893 0.017126223874 0.010504605356
          0.017126223874 -0.053032529803 0.01720261407 0.010504605356 0.01720261407 0.2266470496
          0.0052929597138 0.0082459621171 0.020021002496 0.0082459621171 0.009194221381 0.016072757266
          0.020021002496 0.016072757266 0.072569350674 0.3697820612 0.02104806099 0.0052268718898
          0.02104806099 0.0013303002291 0.019755188115 0.0052268718898 0.019755188115 0.3546423574
          0.14752694123 0.012189770425 0.00557631545 0.012189770425 -0.038950837654 -0.00023276488324
          0.00557631545 -0.00023276488324 -0.01949147026 0.37727649083 0.018499706329 0.0054712645588
          0.018499706329 -0.0055986734611 0.019851814483 0.0054712645588 0.019851814483 0.36145327025
          0.088188985918 0.00660730349 -0.019511210738 0.00660730349 0.0018366240148 -0.012336608018
          -0.019511210738 -0.012336608018 0.14222553374 0.38089291583 0.021393762944 0.010363526287
          0.021393762944 -0.0098793031894 0.019242938689 0.010363526287 0.019242938689 0.3524168164
          -0.049585904873 -0.0034489567942 -0.0033985355063 -0.0034489567942 0.0116428087 0.00015566336641
          -0.0033985355063 0.00015566336641 0.018246064034 0.17377193788 0.004053564311 0.0022350644065
          0.004053564311 -0.055094207268 -0.0030658858398 0.0022350644065 -0.0030658858398 -0.044032434536
          0.3868303211 0.016855613194 0.004343050335 0.016855613194 -0.012688727343 0.018370205182
          0.004343050335 0.018370205182 0.35782878803 0.38132947227 0.024097432367 0.011667115281
          0.024097432367 -0.016390969779 0.013209758273 0.011667115281 0.013209758273 0.34719138073
          0.11120130423 0.031833619159 -0.005736198884 0.031833619159 -0.032768595811 0.011156283696
          -0.005736198884 0.011156283696 -0.0067351830068 0.39000898468 0.017602805796 0.010796278657
          0.017602805796 -0.020383900244 0.023147604337 0.010796278657 0.023147604337 0.34279251185
          -0.027941038811 0.00041045954626 -0.013558924465 0.00041045954626 0.011053262952 -0.0033303541426
          -0.013558924465 -0.0033303541426 0.015990590536 -0.020206286714 0.0051453053005 -0.010203984432
          0.0051453053005 0.01101326191 -0.0052199596209 -0.010203984432 -0.0052199596209 0.019162769322
          -0.0073687138072 -0.0030665968317 0.00096868702093 -0.0030665968317 0.011328462781 -0.0011699879995
          0.00096868702093 -0.0011699879995 0.018631420924 -0.087628389628 0.0042743171303 0.020835314705
          0.0042743171303 0.028038288834 0.010437343678 0.020835314705 0.010437343678 0.010973235003
          0.38148781816 0.019233004992 0.012148716537 0.019233004992 -0.0083425009168 0.018167012963
          0.012148716537 0.018167012963 0.35262420743 0.38106383816 0.020245603603 0.010443203663
          0.020245603603 -0.010001228722 0.020023406759 0.010443203663 0.020023406759 0.3522330092
          0.11674044685 0.013920803317 -0.018809909122 0.013920803317 -0.031793579153 0.0015279677669
          -0.018809909122 0.0015279677669 0.04648350965 0.2144446476 0.022520240043 0.0099218123944
          0.022520240043 -0.0061506032888 0.022542264987 0.0099218123944 0.022542264987 0.21856745362
          0.079672077756 -0.014281058542 -0.055087451658 -0.014281058542 -0.0067106950031 -0.027965877219
          -0.055087451658 -0.027965877219 0.10915930754 0.38857714774 0.021676745373 0.0091264987091
          0.021676745373 -0.021149321877 0.017435862075 0.0091264987091 0.017435862075 0.34317387072
          0.18110507759 0.028781391104 -0.00046319823431 0.028781391104 0.018508856628 0.0016715344472
          -0.00046319823431 0.0016715344472 0.24914916945 0.16247403022 0.0033438749401 -0.023261787148
          0.0033438749401 -0.037572701093 0.012839687337 -0.023261787148 0.012839687337 0.020646902038
          0.054338872816 0.014672570868 -0.01134631077 0.014672570868 0.0074540876563 0.0064470232161
          -0.01134631077 0.0064470232161 0.021843110395 0.1315914559 -7.556895221e-05 -0.010324950747
          -7.556895221e-05 -0.039154124756 0.0062252812387 -0.010324950747 0.0062252812387 -0.0012885853181
          0.1400100401 -0.015389937218 0.00084632884585 -0.015389937218 -0.070445379771 0.0043749639495
          0.00084632884585 0.0043749639495 -0.063392324397 0.027598423219 -0.012768257602 -0.051691103824
          -0.012768257602 0 0 -0.051691103824 0 0
          0.27476362631 0.0091100560302 -0.011343123694 0.0091100560302 -0.056745897242 0.0072101974643
          -0.011343123694 0.0072101974643 0.09327785978 0.36413711578 0.023087582807 0.0072968062684
          0.023087582807 -0.0022572609227 0.014913508659 0.0072968062684 0.014913508659 0.35912966161
          0.09676065346 0.00069588237501 -0.024689548835 0.00069588237501 0.0021422834488 0.00049004845386
          -0.024689548835 0.00049004845386 0.11019684775 0.016512656454 0.0061816879154 -0.012420648693
          0.0061816879154 0.023419503686 0.0088459440502 -0.012420648693 0.0088459440502 0.12190380236
          -0.0047977418666 0.0081139732982 -0.0077104563145 0.0081139732982 0.011446788493 -0.011933685043
          -0.0077104563145 -0.011933685043 0.020583524651 -0.0025677565591 0.00025223493087 -0.022049805665
          0.00025223493087 -0.0033825348157 0.0051234217858 -0.022049805665 0.0051234217858 0.0057985620739
          0.18257570795 -0.0024410797355 -0.0053554604519 -0.0024410797355 -0.068766450935 0.0027888029
          -0.0053554604519 0.0027888029 -0.034836486493 0.093219515634 0.026678411945 -0.013189890762
          0.026678411945 0.025980627204 0.0035508528867 -0.013189890762 0.0035508528867 0.19164678411
          0.20592015673 0.015942954505 0.036481944111 0.015942954505 -0.018525351839 -0.0027640542078
          0.036481944111 -0.0027640542078 0.25679365784 0.0055713016665 -0.010243802165 -0.028989253519
          -0.010243802165 0.018969245684 0.006716657846 -0.028989253519 0.006716657846 0.05599434978
          0.26580015036 0.015892086368 0.024457232371 0.015892086368 0.014097702997 0.023558824421
          0.024457232371 0.023558824421 0.26621653807 0.079229309532 0.014616177252 -0.011543922687
          0.014616177252 -0.02603019818 0.00014073514484 -0.011543922687 0.00014073514484 0.004424994896
          0.38396248909 0.01758399346 0.014422041079 0.01758399346 -0.012060906033 0.021927877931
          0.014422041079 0.021927877931 0.34806003266 0.090291754039 0.0010776841405 -0.0058957323545
          0.0010776841405 0.0023418257584 0.0021766900354 -0.0058957323545 0.0021766900354 0.11431980553
          0.30352217031 -7.135610933e-05 0.032886452998 -7.135610933e-05 -0.061421642602 0.030905900298
          0.032886452998 0.030905900298 0.16846462319 0.38792806704 0.022990956874 0.0080402115472
          0.022990956874 -0.016797546113 0.014838685214 0.0080402115472 0.014838685214 0.34284128433
          0.25230425233 0.026721312641 0.034009722927 0.026721312641 0.0091289074639 -0.0080280921272
          0.034009722927 -0.0080280921272 0.27148695404 0.35511097122 0.015376628877 0.017139955206
          0.015376628877 0.00084990246566 0.016452989298 0.017139955206 0.016452989298 0.3496659389
          0.39712935028 0.047405834548 0.014078608895 0.047405834548 -0.069697135831 0.013676327863
          0.014078608895 0.013676327863 0.20522375147 0.35289019179 0.024478914756 0.013536584849
          0.024478914756 -0.02948807669 0.024298746164 0.013536584849 0.024298746164 0.24955860267
          0.21038743515 0.018346293885 -0.017481563807 0.018346293885 -0.034546980904 0.011643627801
          -0.017481563807 0.011643627801 0.079738695785 0.37149154343 0.043897702869 0.013449365923
          0.043897702869 -0.015591725476 0.0024029762311 0.013449365923 0.0024029762311 0.32803677767
          0.017632734232 -0.014428612023 -0.0014864999193 -0.014428612023 -0.0062305249693 -0.017388570003
          -0.0014864999193 -0.017388570003 0.0069885148537 0.38011527128 0.009024179045 0.010078055326
          0.009024179045 -0.0080635264375 0.018794686158 0.010078055326 0.018794686158 0.36172728851
          0.081499139563 -0.0032028395966 -0.0085919321921 -0.0032028395966 -0.042736910715 0.0014808468618
          -0.0085919321921 0.0014808468618 0.0050553142995 0.36103615052 0.030415645746 0.029228990524
          0.030415645746 -0.040112590153 0.0073663001542 0.029228990524 0.0073663001542 0.2167898022
          0.3048172239 0.022112620245 0.014662178171 0.022112620245 -0.0067295872276 0.020106500622
          0.014662178171 0.020106500622 0.26762864987 0.17879941865 0.021758481994 0.011826520657
          0.021758481994 0.0058500002065 0.0069910413638 0.011826520657 0.0069910413638 0.21825763578
          0.06689250224 -0.0019468465747 -0.0036419924122 -0.0019468465747 0.0057816421957 0.010592374125
          -0.0036419924122 0.010592374125 0.077935830772 0.14158085363 0.009167737168 -0.003895887378
          0.009167737168 -0.040218570601 0.0044553255723 -0.003895887378 0.0044553255723 -0.01128867535
          0.12284413245 0.00095069737257 -0.013939691177 0.00095069737257 0.0015033248679 -0.0021586590766
          -0.013939691177 -0.0021586590766 0.10610096829 0.17748448283 0.00066731509493 -0.017428908658
          0.00066731509493 -0.016425417567 -0.0037366885304 -0.017428908658 -0.0037366885304 0.13279545027
          0.16888583026 0.0058371529334 -0.022599675027 0.0058371529334 -0.041382408105 -0.0042050681279
          -0.022599675027 -0.0042050681279 0.023577084656 0.18055253297 0.00023223517705 -0.035068041571
          0.00023223517705 -0.014835176726 0.00068329728306 -0.035068041571 0.00068329728306 0.12002373028
          0.13363524913 0.013519126035 -0.0063172989206 0.013519126035 0.015173504165 0.0004431507395
          -0.0063172989206 0.0004431507395 0.23044234208 0.1218091995 0.011530236393 0.0060548047827
          0.011530236393 0.036062467352 0.016866480137 0.0060548047827 0.016866480137 0.24416853726
          0.16839014926 -0.00086671983251 -0.011851391603 -0.00086671983251 -0.016163832824 -0.0025988058746
          -0.011851391603 -0.0025988058746 0.13646975696 0.1777456934 0.01360233052 0.0074655488377
          0.01360233052 -0.048109689144 -0.00059170110234 0.0074655488377 -0.00059170110234 -0.074407106174
          0.13134197619 0.0038600902298 -0.021828292964 0.0038600902298 0.0020835144575 0.0051590664784
          -0.021828292964 0.0051590664784 0.11970859037 0.04950687701 0.032385381143 -0.012540730449
          0.032385381143 0 0 -0.012540730449 0 0
          0.16865173724 0.0040164551417 -0.033934860545 0.0040164551417 -0.017335456389 0.0014783722067
          -0.033934860545 0.0014783722067 0.12167058998 0.22739305173 0.017440463611 0.053838605121
          0.017440463611 -0.11368987238 -0.011208030647 0.053838605121 -0.011208030647 0.22708835414
          0.10590549014 -0.0014398598795 -0.016188439722 -0.0014398598795 0.0011974821654 -0.00187803632
          -0.016188439722 -0.00187803632 0.11714100986 0.35992964838 0.027231757375 0.014397212742
          0.027231757375 -0.00053640022996 0.01602083683 0.014397212742 0.01602083683 0.35159867783
          0.37770435572 0.017812643822 0.015888577874 0.017812643822 -0.022945428447 0.02064482694
          0.015888577874 0.02064482694 0.32094494212 0.37288791624 0.023788044832 0.011962170146
          0.023788044832 -0.010412276862 0.015328225833 0.011962170146 0.015328225833 0.34922709852
          0.10792254828 -0.011407035498 -0.045329500829 -0.011407035498 -0.00081868582479 -0.030910972857
          -0.045329500829 -0.030910972857 0.062586006283 0.37431271252 0.027474799232 0.0033176978099
          0.027474799232 -0.0096892687499 0.021980479931 0.0033176978099 0.021980479931 0.35361178874
          0.16218434432 0.015176434245 -0.030069756962 0.015176434245 -0.033286214979 0.005069933105
          -0.030069756962 0.005069933105 0.062824153124 0.18154783977 -0.0040111050606 -0.027553435425
          -0.0040111050606 -0.012868615851 -0.0052394546358 -0.027553435425 -0.0052394546358 0.11630840544
          0.3756637835 0.020606214278 0.010799442561 0.020606214278 -0.0071961565879 0.020841594078
          0.010799442561 0.020841594078 0.35464984313 0.38146275183 0.019206699373 0.010333388551
          0.019206699373 -0.014854486152 0.022585805604 0.010333388551 0.022585805604 0.34885917122
          0.17022360543 0.0024133891757 -0.027819440216 0.0024133891757 -0.018170614633 0.00065969304502
          -0.027819440216 0.00065969304502 0.1244821627 0.36135609748 0.023060682852 0.022483938474
          0.023060682852 -0.012380567288 0.020994395706 0.022483938474 0.020994395706 0.33908133066
          0.095367121419 0.011132075169 -0.02195620213 0.011132075169 0.024383640724 0.00091256208768
          -0.02195620213 0.00091256208768 0.11139988188 0.097653779957 -0.007707100644 -0.025495850994
          -0.007707100644 0.00094690578632 -0.0078037072036 -0.025495850994 -0.0078037072036 0.10081528152
          0.37226282784 0.021511130969 0.009648741909 0.021511130969 -0.008865019049 0.018968875748
          0.009648741909 0.018968875748 0.35025781644 0.37811283942 0.025250393054 0.013293784779
          0.025250393054 -0.0079297364449 0.016120847178 0.013293784779 0.016120847178 0.35350841231
          0.16711532772 -0.0012435859651 -0.0055616446183 -0.0012435859651 -0.060944236676 0.01114749589
          -0.0055616446183 0.01114749589 -0.063696125619 -0.075948236751 -0.024397076425 -0.016829975991
          -0.024397076425 0.028751420392 0.010782579277 -0.016829975991 0.010782579277 0.077374313935
          -0.033311261813 -0.02619337683 0.0039607938132 -0.02619337683 0.0081257094497 -0.00088967665547
          0.0039607938132 -0.00088967665547 0.061240530166 -0.0088159714687 0.048844561488 -0.080152340194
          0.048844561488 0.085333775779 0.038987215802 -0.080152340194 0.038987215802 0.056374847169
          0.18089989476 -0.0026720139716 -0.029825910624 -0.0026720139716 -0.018929316761 -0.0018650435882
          -0.029825910624 -0.0018650435882 0.11406770262 0.31976667033 0.0138415689 0.013642576697
          0.0138415689 0.013580732715 0.025567846021 0.013642576697 0.025567846021 0.35478333627
          0.1477500197 0.0064828055262 -0.021933509707 0.0064828055262 -0.016896092612 0.0089097443452
          -0.021933509707 0.0089097443452 0.087379293197 0.17637873538 -0.00062199414048 -0.032906438201
          -0.00062199414048 -0.029577716281 -0.0043932497711 -0.032906438201 -0.0043932497711 0.099784872075
          0.36901490743 0.021800148794 0.010183557913 0.021800148794 -0.0079374127339 0.016179411581
          0.010183557913 0.016179411581 0.34966457102 0.052323812565 -0.0024220499835 -0.0053561520096
          -0.0024220499835 0.0055075380901 0.0027826927173 -0.0053561520096 0.0027826927173 0.094888717213
          0.13516196958 2.8150224611e-05 -0.021162317459 2.8150224611e-05 -0.019969191253 -0.00014896167353
          -0.021162317459 -0.00014896167353 0.032600170907 0.2274154213 0.0026534863812 -0.065405260755
          0.0026534863812 -0.081561989125 -0.00039559175453 -0.065405260755 -0.00039559175453 -0.041895101936
          0.11653365963 0.016511371137 -0.028449963622 0.016511371137 -5.7093363779e-05 0.0011423848731
          -0.028449963622 0.0011423848731 0.088094568167 0.27744252866 0.0098842799458 0.014372748693
          0.0098842799458 -0.033108715559 0.009770900015 0.014372748693 0.009770900015 0.18503158793
          0.19842607785 0.020632355183 -0.00022474907827 0.020632355183 -0.036297319469 0.0017115979718
          -0.00022474907827 0.0017115979718 0.098407434638 0.33283954669 0.020604969374 0.014122597837
          0.020604969374 0.0096110203829 0.011281218632 0.014122597837 0.011281218632 0.36139787528
          0.38754405094 0.021961660039 0.0079284373337 0.021961660039 -0.014882639926 0.01458895984
          0.0079284373337 0.01458895984 0.34280928269 0.14897614245 0.0037924995204 -0.011657012599
          0.0037924995204 -0.039484117613 0.009719260206 -0.011657012599 0.009719260206 0.071994230447
          0.37570206817 0.01317541266 0.011778453572 0.01317541266 -0.0074889800717 0.016577033994
          0.011778453572 0.016577033994 0.3631812614 0.016172166328 0.0068101814963 -0.020046985087
          0.0068101814963 0.00569526967 -0.00087837615839 -0.020046985087 -0.00087837615839 0.052610716056
          0.20804228501 0.0016825434602 -0.016767125125 0.0016825434602 -0.038596422546 -0.0037677025922
          -0.016767125125 -0.0037677025922 0.10299104241 0.35261728087 0.0071230492361 0.013092733549
          0.0071230492361 -0.0018145346435 0.02323175894 0.013092733549 0.02323175894 0.3474764156
          0.14625793178 -0.0033305337769 -0.015348559597 -0.0033305337769 -0.0064959623366 -0.0010080204334
          -0.015348559597 -0.0010080204334 0.12988110861 0.18150293322 -0.015050107494 -0.012739683694
          -0.015050107494 -0.058397167853 0.016651715381 -0.012739683694 0.016651715381 -0.015514157137
          0.24245433489 0.021383695564 0.023422177399 0.021383695564 -0.023517584724 0.012715797472
          0.023422177399 0.012715797472 0.26876786736 0.38581154312 0.054031675156 0.011900257879
          0.054031675156 -0.083836768355 -0.0070147333833 0.011900257879 -0.0070147333833 0.26170964718
          0.1468433583 0.0099886916907 0.0093474738519 0.0099886916907 -0.043878744749 0.0039976383099
          0.0093474738519 0.0039976383099 -0.011303349842 0.095159830262 0.0017304349653 -0.0027367502823
          0.0017304349653 -0.040966845431 0.0012397676775 -0.0027367502823 0.0012397676775 -0.020731477545
          0.096424871103 0.0048677500418 -0.065283510748 0.0048677500418 -0.023959417255 0.0013554796436
          -0.065283510748 0.0013554796436 0.11386870667 0.3599955497 0.014121829299 0.0092528329458
          0.014121829299 -0.052758509407 0.025031911619 0.0092528329458 0.025031911619 0.16822933117
          0.13814624695 0.0046967540098 -0.016367931846 0.0046967540098 -0.052440545286 0.005990532615
          -0.016367931846 0.005990532615 -0.051703377293 0.37398409119 0.022666027978 0.0034471165106
          0.022666027978 -0.010566762743 0.022124280219 0.0034471165106 0.022124280219 0.36030825685
          0.33742004748 0.030662295057 0.026201511712 0.030662295057 -0.003359765235 0.011217048608
          0.026201511712 0.011217048608 0.31957090678 0.104590932 -0.010457322282 0.0010950288713
          -0.010457322282 0.011847083327 0.015523148098 0.0010950288713 0.015523148098 0.17138390563
          0.034032789894 0.00025672953935 0.0054159791662 0.00025672953935 -0.0007596314119 0.008269202658
          0.0054159791662 0.008269202658 -0.0091032091309 0.18935165448 0.0064127183043 -0.018664422909
          0.0064127183043 -0.015187545216 0.0013172063197 -0.018664422909 0.0013172063197 0.13057793377
          0.1000714098 0.0013356812189 0.0036571959592 0.0013356812189 0.035181893754 0.017725977127
          0.0036571959592 0.017725977127 0.21865802631 0.29818459451 0.009418584646 0.002941357216
          0.009418584646 -0.026581079677 0.011380291349 0.002941357216 0.011380291349 0.22556499683
          0.2535476296 0.01847430737 0.021876328409 0.01847430737 -0.038350620284 0.020664988683
          0.021876328409 0.020664988683 0.15562035673 0.17516242066 0.025191446065 -0.011078792573
          0.025191446065 -0.078119581035 -0.0036464561389 -0.011078792573 -0.0036464561389 -0.011674245115
          0.2348437264 0.024738772827 -0.0068765761642 0.024738772827 -0.0043894136697 0.023881845303
          -0.0068765761642 0.023881845303 0.18995218767 0.38000446917 0.023711594475 0.012282672624
          0.023711594475 -0.010790035324 0.019162063142 0.012282672624 0.019162063142 0.35056121001
          0.27035036026 -0.00034478661731 0.0012811258922 -0.00034478661731 0.014737449517 0.017302507771
          0.0012811258922 0.017302507771 0.29781566383 0.38103655376 0.017670270034 0.013117408448
          0.017670270034 -0.013461901478 0.021569652165 0.013117408448 0.021569652165 0.35214282696
          0.18442849318 -0.0028622080029 -0.009859841015 -0.0028622080029 -0.060369157196 -0.016922303877
          -0.009859841015 -0.016922303877 -0.025374943344 0.12064908393 0.013859191858 -0.022317215859
          0.013859191858 -0.032260834351 0.004816085612 -0.022317215859 0.004816085612 -0.04928418945
          0.16130860568 0.006247556767 -0.01240631826 0.006247556767 -0.024157523409 0.002540888528
          -0.01240631826 0.002540888528 0.067458447671 -0.006242470762 -0.0099765739358 -0.020352555915
          -0.0099765739358 -0.0079102862729 -0.0054105727349 -0.020352555915 -0.0054105727349 0.030806502443
          0.35959933851 0.028901788944 0.012789907219 0.028901788944 0.00045510770019 0.012753050985
          0.012789907219 0.012753050985 0.35753763181 0.36733586555 0.018023648091 0.0034715380762
          0.018023648091 -0.0015221729126 0.016670062408 0.0034715380762 0.016670062408 0.35629355181
          0.38415523827 0.02615098225 0.017253185895 0.02615098225 -0.024278895813 0.0047382211623
          0.017253185895 0.0047382211623 0.33107419965 0.17401598767 0.0015477974228 0.0021366243808
          0.0015477974228 -0.058867438492 0.014505747356 0.0021366243808 0.014505747356 -0.053981532011
          0.14755787325 0.0031373289703 -0.010383849947 0.0031373289703 -0.010514089063 -0.00019507605578
          -0.010383849947 -0.00019507605578 0.13242757347 0.36516530197 0.01256719313 0.0088700081266
          0.01256719313 -0.033700722624 0.010041522506 0.0088700081266 0.010041522506 0.25890057846
          0.18204986417 -0.00051434695328 -0.0250788252 -0.00051434695328 -0.023994154497 -0.0075318829303
          -0.0250788252 -0.0075318829303 0.11035770719 0.38597130699 0.022003074433 0.0047017101957
          0.022003074433 -0.010524063195 0.021388987923 0.0047017101957 0.021388987923 0.35388803356
          0.086351811566 -0.023951774938 -0.0491911836 -0.023951774938 -0.025596939499 -0.0046162871631
          -0.0491911836 -0.0046162871631 0.049698821956 0.15372795402 0.018800175236 0.0094150115221
          0.018800175236 -0.072206127622 0.0093598909408 0.0094150115221 0.0093598909408 -0.013461067034
          0.38102889598 0.02217190833 0.0097900215412 0.02217190833 -0.011609219105 0.020834222392
          0.0097900215412 0.020834222392 0.35099470931 -0.020132783152 0.011082974068 -0.013170999417
          0.011082974068 0.010209230092 0.0041536875757 -0.013170999417 0.0041536875757 0.02986302997
          0.011161834116 0.014831139925 -0.0061004099033 0.014831139925 0.015954185873 -0.0021343047608
          -0.0061004099033 -0.0021343047608 0.11452803596 0.1888143231 -0.0052659391469 0.0024531948176
          -0.0052659391469 -0.066168173625 0.0057439884053 0.0024531948176 0.0057439884053 -0.026709102046
          0.071429457481 -0.011067623852 0.0032837522254 -0.011067623852 -0.034335951503 -0.0093687469385
          0.0032837522254 -0.0093687469385 -0.030232818184 0.3109458272 -0.0081454132726 0.0066589649214
          -0.0081454132726 0.01550825213 0.014440038385 0.0066589649214 0.014440038385 0.35018505535
          0.12299932401 0.00064577216715 -0.032657580083 0.00064577216715 -0.0073515065473 -0.0044453315937
          -0.032657580083 -0.0044453315937 0.11585983556 -0.0016105416429 0.0038335824377 -0.006680710453
          0.0038335824377 0.014008151378 -0.0087638850801 -0.006680710453 -0.0087638850801 0.0847397146
          0.17282442779 0.0055426655956 -0.01442777612 0.0055426655956 -0.055895086851 0.0097584148491
          -0.01442777612 0.0097584148491 -0.012615484331 -0.012036985001 -0.0082495676636 -0.00063457502335
          -0.0082495676636 0.0029487378946 0.0076041697885 -0.00063457502335 0.0076041697885 0.052540851605
          0.14928775747 0.011326988248 -0.011713138017 0.011326988248 -0.050014551129 0.0041378022536
          -0.011713138017 0.0041378022536 0.014639301945 0.19747149995 -2.0545302596e-05 -0.01399508853
          -2.0545302596e-05 -0.01907416389 0.00068688030692 -0.01399508853 0.00068688030692 0.11529614937
          0.3926996358 0.011058212042 0.018947019868 0.011058212042 -0.024686166838 0.029995817678
          0.018947019868 0.029995817678 0.33000724224 0.16087237626 -0.0054767360505 -0.018148715092
          -0.0054767360505 -0.039681532595 -0.00068975015791 -0.018148715092 -0.00068975015791 0.069793964638
          0.17598475967 0.020054717133 0.011794505538 0.020054717133 0.024015061742 0.021338651153
          0.011794505538 0.021338651153 0.24921353659 0.090648957956 0.0026987522178 -0.017640409755
          0.0026987522178 0.023632592091 0.0016584844332 -0.017640409755 0.0016584844332 0.10541715475
          0.10906230859 -0.0036468466859 -0.017707393248 -0.0036468466859 0.0051371693102 -0.003209095218
          -0.017707393248 -0.003209095218 0.11218434427 0.12487976897 0.001145053717 -0.016476847295
          0.001145053717 -0.00019221630644 -0.0030134413067 -0.016476847295 -0.0030134413067 0.1122754493
          0.21682419074 0.0071228642838 -0.0069628571254 0.0071228642838 -0.066072958708 0.021967255692
          -0.0069628571254 0.021967255692 -0.042334266575 0.13071296319 0.0063348209469 -0.046173008759
          0.0063348209469 -0.029449745239 0.00038836308285 -0.046173008759 0.00038836308285 0.025518446405
          -0.058298364989 -0.033228844296 -0.10929938073 -0.033228844296 0.011262672308 -0.055772794567
          -0.10929938073 -0.055772794567 0.073921594985 0.14063502678 0.0010384858045 -0.012600948403
          0.0010384858045 -0.0090009266833 0.0048834729279 -0.012600948403 0.0048834729279 0.15162841771
          0.13241803547 -0.012558182749 -0.041724879002 -0.012558182749 0.00613813037 -0.028150759589
          -0.041724879002 -0.028150759589 0.041216733148 0.16998161884 -0.0051184333645 -0.03373404303
          -0.0051184333645 -0.026612698001 0.00019402081394 -0.03373404303 0.00019402081394 0.12281872892
          0.16264802518 0.0050821670984 -0.016765840908 0.0050821670984 -0.057550420135 -0.00044099801165
          -0.016765840908 -0.00044099801165 -0.070779003205 0.23868659235 0.011949386091 0.021196425181
          0.011949386091 0.0070568589049 0.009792024371 0.021196425181 0.009792024371 0.31563739247
          0.056143940923 0.0090795816986 -0.013394078365 0.0090795816986 -0.0050965659609 -0.0026866480794
          -0.013394078365 -0.0026866480794 0.040163824782 0.22318763833 0.02413915628 -0.0011449553944
          0.02413915628 0.0088541341231 -0.0084184362404 -0.0011449553944 -0.0084184362404 0.25585394204
          0.1253259599 0.0042823046612 -0.0064984742463 0.0042823046612 -0.059349161543 -0.0016268892118
          -0.0064984742463 -0.0016268892118 -0.052194067923 0.14560920391 -0.0070211255514 -0.039363802019
          -0.0070211255514 -0.031373633164 -0.0034129433797 -0.039363802019 -0.0034129433797 0.055650043141
          0.14099502464 0.0043020835531 -0.0049789916196 0.0043020835531 -0.032550857643 0.00057668226155
          -0.0049789916196 0.00057668226155 0.049090085757 0.36605529908 0.021268101818 -0.00028077701928
          0.021268101818 -0.029887463794 0.018718338461 -0.00028077701928 0.018718338461 0.24895945219
          0.21451485729 0.016153971254 0.00043709887047 0.016153971254 -0.021603037374 0.010755940415
          0.00043709887047 0.010755940415 0.217533557 0.10526453619 0.0022501076046 0.0070100099525
          0.0022501076046 -0.02028820595 -0.0013219695811 0.0070100099525 -0.0013219695811 0.10912716787
          0.11741685 0.014906112976 -0.015021972956 0.014906112976 0.021646203286 -0.0026791883417
          -0.015021972956 -0.0026791883417 0.11030486002 0.37573553745 0.010504822544 0.023304395933
          0.010504822544 -0.012825706793 0.023202387932 0.023304395933 0.023202387932 0.33688778595
          0.17262668996 0.00022356738059 -0.032428813208 0.00022356738059 -0.014716150549 -0.0010553150684
          -0.032428813208 -0.0010553150684 0.1234703958 0.041149700622 0.014459924615 -0.01669219491
          0.014459924615 -0.0012801850614 0.0050634390887 -0.01669219491 0.0050634390887 0.10026051732
          0.36759716932 0.018068348131 0.0040360790575 0.018068348131 -0.0020590935442 0.016345583265
          0.0040360790575 0.016345583265 0.35718767742 0.18091554507 0.0099356147166 0.00070463397456
          0.0099356147166 -0.045251834179 0.0051032852365 0.00070463397456 0.0051032852365 0.02515920626
          0.14471116187 -0.0040290614037 0.005136773888 -0.0040290614037 -0.042765886798 0.0078616555715
          0.005136773888 0.0078616555715 -0.042128332126 0.10113746319 0.005002101395 -0.033851755264
          0.005002101395 0.0056914403717 -0.011103585948 -0.033851755264 -0.011103585948 0.15264804184
          0.23348392694 -0.009369830906 0.017652288625 -0.009369830906 -0.030354565898 0.019359382177
          0.017652288625 0.019359382177 0.11335901386 0.32610483251 -0.0017960085104 0.0032572397589
          -0.0017960085104 -0.065919056303 0.012659450699 0.0032572397589 0.012659450699 0.12630332476
          0.063756984539 -0.0085652962073 -0.023474402208 -0.0085652962073 -0.0072541680625 -0.0036157126721
          -0.023474402208 -0.0036157126721 0.025879714637 0.16211600011 0.011057618911 -0.0034495299171
          0.011057618911 -0.040083517803 0.020004403564 -0.0034495299171 0.020004403564 0.045954004137
          0.36505293538 0.02258021803 0.023608068578 0.02258021803 -0.040295381696 0.0087623263689
          0.023608068578 0.0087623263689 0.26767327189 0.070391196801 -0.0070040854956 0.0085005907727
          -0.0070040854956 0.014408821746 0.020222128956 0.0085005907727 0.020222128956 0.1093246044
          0.38676440129 0.019412037827 0.013162729745 0.019412037827 -0.015785670114 0.022435530229
          0.013162729745 0.022435530229 0.32999122122 0.38230511775 0.024465898259 0.014686667709
          0.024465898259 -0.014741711977 0.013708049507 0.014686667709 0.013708049507 0.34292214084
          0.18450441764 -8.3715174393e-05 -0.027262991456 -8.3715174393e-05 -0.017020466802 -0.0012659505365
          -0.027262991456 -0.0012659505365 0.12675549387 0.37406149084 0.02199650062 0.0081255732547
          0.02199650062 -0.0094447062189 0.017938699172 0.0081255732547 0.017938699172 0.3510082684
          0.11725593534 -0.0050106064695 -0.034542211572 -0.0050106064695 -0.0095811925826 -0.0086939987627
          -0.034542211572 -0.0086939987627 0.095452378558 0.16783084331 0.01225843699 0.018435806535
          0.01225843699 -0.0093250806177 0.00055537282722 0.018435806535 0.00055537282722 0.13335309268
          0.079128831991 0.0072364338472 -0.02321512203 0.0072364338472 0.02275866083 0.00074954996182
          -0.02321512203 0.00074954996182 0.13317883043 0.37982006362 0.017869914647 0.0046331046395
          0.017869914647 -0.008146154494 0.019365204193 0.0046331046395 0.019365204193 0.35579289352
          0.17613152787 0.00072625166971 -0.029626150063 0.00072625166971 -0.017618702583 -0.004591598545
          -0.029626150063 -0.004591598545 0.11569268403 0.034290833941 -0.0015058898776 -0.022969046659
          -0.0015058898776 -0.0074116464901 -0.0074987368355 -0.022969046659 -0.0074987368355 0.029544445128
          0.3626387187 0.012519092517 0.021043569768 0.012519092517 -0.0035303420973 0.017405854874
          0.021043569768 0.017405854874 0.34241867454 0.17002801944 0.00082510170813 -0.0071081769996
          0.00082510170813 -0.048971493332 0.00044231591704 -0.0071081769996 0.00044231591704 0.045481870605
          0.28710283454 0.060238686357 0.064613773191 0.060238686357 -0.046400897286 0.053347318331
          0.064613773191 0.053347318331 0.1194382323 0.059952998048 -0.030575093686 -0.0051551492874
          -0.030575093686 -0.023350674996 -0.17818454515 -0.0051551492874 -0.17818454515 0.24965051491
          0.19207590511 0.0035015333323 -0.020442309777 0.0035015333323 -0.028313610678 -0.0041493379025
          -0.020442309777 -0.0041493379025 0.091062770095 0.37579607585 0.013990994694 0.015783850196
          0.013990994694 -0.013097676689 0.021804438432 0.015783850196 0.021804438432 0.34559745736
          0.20171780647 0.0054342021422 -0.02017392974 0.0054342021422 -0.027437039871 -0.0023699373632
          -0.02017392974 -0.0023699373632 0.11687358388 0.37748088383 0.021334445972 0.011218039772
          0.021334445972 -0.012324752802 0.014229037375 0.011218039772 0.014229037375 0.34244145226
          0.13664626828 -0.0042714049447 -0.010292628554 -0.0042714049447 -0.045651131937 0.0078892636709
          -0.010292628554 0.0078892636709 0.0044062626695 0.35605839107 0.020814959654 0.01053377184
          0.020814959654 -0.0053800215654 0.014414064522 0.01053377184 0.014414064522 0.35484436184
          0.12709003382 0.0014185460712 -0.031300132164 0.0014185460712 -0.010678686706 -0.011705294842
          -0.031300132164 -0.011705294842 0.041141657075 0.13601744795 0.012330515003 -0.0064873945304
          0.012330515003 -0.034908664232 0.0097288628615 -0.0064873945304 0.0097288628615 -0.010464007995
          0.37546142482 0.012232378032 0.013268462908 0.012232378032 -0.0054124118479 0.021947372912
          0.013268462908 0.021947372912 0.35657952573 0.12803747774 0.01566687161 -0.0080911242608
          0.01566687161 -0.056980387611 0.00031351585706 -0.0080911242608 0.00031351585706 -0.041633162211
          0.23086868543 0.04068913941 0.013680226324 0.04068913941 -0.00042374764905 0.020672739713
          0.013680226324 0.020672739713 0.2600644698 0.0061398362705 -0.0063772758296 -0.0096698665521
          -0.0063772758296 0.00018595632543 -0.0010945991684 -0.0096698665521 -0.0010945991684 0.033280520032
          0.21409012737 0.011500330751 0.017163252179 0.011500330751 -0.054784286188 -0.011779936538
          0.017163252179 -0.011779936538 0.039606901855 0.0070766057068 -0.011505119147 -0.009206305829
          -0.011505119147 0.013799772565 -0.0049581172194 -0.009206305829 -0.0049581172194 0.053171806405
          0.38729212804 0.026981477498 0.0069729683926 0.026981477498 -0.022822767755 0.01212185689
          0.0069729683926 0.01212185689 0.34573175287 0.36543408066 0.017348758139 0.013415897993
          0.017348758139 -0.0077342559312 0.02147609056 0.013415897993 0.02147609056 0.35509846328
          -0.025122400708 0.0050188949029 -0.0020737684629 0.0050188949029 -0.0083575599293 -0.0012055636406
          -0.0020737684629 -0.0012055636406 0.0074733026876 0.13929188542 -0.010544996101 -0.014010802472
          -0.010544996101 -0.042670569786 0.013312674823 -0.014010802472 0.013312674823 -0.017683148884
          0.11668158706 -0.014202124703 0.0087496781509 -0.014202124703 -0.042556444893 0.012995223516
          0.0087496781509 0.012995223516 -0.017933516541 -0.068624766691 -0.0016018471796 -0.0068890043207
          -0.0016018471796 0.021871969607 0.010066424154 -0.0068890043207 0.010066424154 0.1051714938
          0.19256283991 0.0034778173527 -0.012703087018 0.0034778173527 -0.039987030013 0.012096332481
          -0.012703087018 0.012096332481 0.04743679145 0.080282065736 0.0023868299581 0.0097992042637
          0.0023868299581 -0.038530078634 0.00070833525007 0.0097992042637 0.00070833525007 -0.0024038238667
          0.28289146149 -0.0095053991937 -0.008313656689 -0.0095053991937 -0.046161529496 0.012703561093
          -0.008313656689 0.012703561093 0.11380447111 0.13452038608 0.0053523609585 -0.019170448607
          0.0053523609585 -0.0066514230756 0.0046591083393 -0.019170448607 0.0046591083393 0.13650330893
          0.38589644161 0.018419655088 0.003834962403 0.018419655088 -0.014433809578 0.016263448009
          0.003834962403 0.016263448009 0.34812867974 0.17931360911 0.0059807440929 -0.025957515484
          0.0059807440929 -0.027342038884 0.0045247531134 -0.025957515484 0.0045247531134 0.087957224277
          0.28638442111 0.024433718823 0.015428420552 0.024433718823 0.017786852238 0.0071221888034
          0.015428420552 0.0071221888034 0.33427306268 0.064877309872 0.0162262258 -0.01215336627
          0.0162262258 0.010139658832 0.0073422339662 -0.01215336627 0.0073422339662 0.075448364696
          0.37816111961 0.020142208568 0.020191423995 0.020142208568 -0.011243434517 0.022956504982
          0.020191423995 0.022956504982 0.3472047218 0.027569536852 -0.0026448038951 -0.008565079016
          -0.0026448038951 -0.000366884963 -0.0083207071966 -0.008565079016 -0.0083207071966 0.0059236621807
          0.18449662935 0.0053985713351 -0.010369478124 0.0053985713351 -0.068344249157 0.0024206229112
          -0.010369478124 0.0024206229112 -0.028083269198 0.29747018827 0.00032947053408 0.033344818994
          0.00032947053408 -0.017884525526 0.024588035098 0.033344818994 0.024588035098 0.27331894747
          0.33108329683 0.022454323416 0.014880869689 0.022454323416 0.014017162255 0.023162698679
          0.014880869689 0.023162698679 0.33873550783 0.26413887867 0.023288347942 0.024804434905
          0.023288347942 -0.008447881204 0.016785035052 0.024804434905 0.016785035052 0.26877612918
          0.083444077259 0.0079734194728 -0.018813605122 0.0079734194728 -0.013798486216 0.0089181693085
          -0.018813605122 0.0089181693085 0.034464844917 0.2280579573 0.013866938266 0.0072383981026
          0.013866938266 -0.054321647711 0.0051525458956 0.0072383981026 0.0051525458956 0.073944668612
          0.18052277361 -0.01123213177 0.0056560835613 -0.01123213177 0.01832108707 0.020014109719
          0.0056560835613 0.020014109719 0.24449499973 0.19119124169 0.019683835144 -0.0082019224736
          0.019683835144 -0.026865095414 0.023774095866 -0.0082019224736 0.023774095866 0.14548901453
          0.12983103596 0.0079862610835 -0.0032277591195 0.0079862610835 0.019492487768 0.0062967537279
          -0.0032277591195 0.0062967537279 0.055994249687 0.12843591606 0.01039710756 -0.0023159911682
          0.01039710756 0.032309417625 0.010644411909 -0.0023159911682 0.010644411909 0.05746425035
          0.30450687648 0.0057896418918 0.010807381659 0.0057896418918 -0.044095140005 0.024600439184
          0.010807381659 0.024600439184 0.24554429419 0.15639371009 -0.0089622839057 -0.0084636268619
          -0.0089622839057 -0.059295816011 -0.0029296438029 -0.0084636268619 -0.0029296438029 -0.06583927689
          0.1367584785 -0.0044897908728 -0.0022101913231 -0.0044897908728 -0.050772744071 -0.010574321996
          -0.0022101913231 -0.010574321996 -0.037889260973 0.11464725442 0.0082490885919 0.012128918913
          0.0082490885919 0.006929061114 0.021175514136 0.012128918913 0.021175514136 0.10896185491
          0.3943215729 0.019259123384 0.0091114375634 0.019259123384 -0.026690657343 0.014871424044
          0.0091114375634 0.014871424044 0.31965811033 0.14646297865 -0.0095620562639 -0.03284125112
          -0.0095620562639 -0.019931678661 -0.0041234758591 -0.03284125112 -0.0041234758591 0.1026033832
          0.38094932742 0.02034263181 0.0047052383212 0.02034263181 -0.010802633121 0.017168693436
          0.0047052383212 0.017168693436 0.35190481588 0.37220951894 0.020548684045 0.014749192662
          0.020548684045 -0.013401636917 0.017355920047 0.014749192662 0.017355920047 0.32867975076
          0.29951414025 0.030146352411 0.0092053517324 0.030146352411 0.019158627798 0.014677625892
          0.0092053517324 0.014677625892 0.35239350596 0.17148408606 0.0001018627697 -0.031784096907
          0.0001018627697 -0.013490852237 0.0022695509246 -0.031784096907 0.0022695509246 0.12875461882
          0.35570852658 0.028340557359 0.016982868036 0.028340557359 0.0012897751719 0.011503003302
          0.016982868036 0.011503003302 0.35057627024 0.20043672654 0.00079382863096 -0.01985094544
          0.00079382863096 -0.045397678317 0.00045122069551 -0.01985094544 0.00045122069551 0.079912380784
          0.119308638 0.015565833398 -0.029166263068 0.015565833398 -0.02536945479 0.010002143729
          -0.029166263068 0.010002143729 0.16688278002 0.17534366314 -8.9346544366e-05 -0.032260833206
          -8.9346544366e-05 -0.015227334322 -0.0016661426915 -0.032260833206 -0.0016661426915 0.12032625061
          0.18485508201 0.026163000361 0.0031436398892 0.026163000361 0.023540140061 0.008933079742
          0.0031436398892 0.008933079742 0.25233299594 0.17738990288 -0.0013142528592 -0.027252879436
          -0.0013142528592 -0.022379492461 -0.001436991309 -0.027252879436 -0.001436991309 0.11885319541
          0.065083674938 -0.016683642436 -0.0076443192568 -0.016683642436 -0.031461069718 -0.030240594077
          -0.0076443192568 -0.030240594077 -0.02138750404 0.37549768071 0.023281589066 0.0089478390223
          0.023281589066 -0.0084411654856 0.018633690917 0.0089478390223 0.018633690917 0.35146768797
          0.38406034421 0.014523180835 0.017491241996 0.014523180835 -0.010626215231 0.021913021383
          0.017491241996 0.021913021383 0.35141048603 0.38304949848 0.015887036154 0.018629228229
          0.015887036154 -0.0074706681798 0.025210810716 0.018629228229 0.025210810716 0.35480533432
          0.34685927888 0.0051299302378 0.01180158366 0.0051299302378 -0.0015097389922 0.019073648344
          0.01180158366 0.019073648344 0.36103302365 0.066957490631 -0.012318455279 0.015125883341
          -0.012318455279 -0.0058468813015 0.023076983976 0.015125883341 0.023076983976 0.070785995332
          0.13309015932 -0.0038553895581 -0.022994963907 -0.0038553895581 -0.012111032349 -5.5339036103e-05
          -0.022994963907 -5.5339036103e-05 0.089236098218 0.34562946741 0.012760319592 0.010823960097
          0.012760319592 -0.055466415349 0.026687242831 0.010823960097 0.026687242831 0.22969698932
          0.12038219096 0.00051909957213 -0.014224272378 0.00051909957213 0.0022232284396 0.0025277314468
          -0.014224272378 0.0025277314468 0.13558324788 0.37873130733 0.018911276356 0.016584672921
          0.018911276356 -0.011137216725 0.020459672222 0.016584672921 0.020459672222 0.34154185491
          0.17231501107 -0.0080412511607 -0.031898627306 -0.0080412511607 -0.028750179437 -0.0043181332258
          -0.031898627306 -0.0043181332258 0.075940340557 0.33120856777 0.0061363070939 0.017812187276
          0.0061363070939 0.013501623877 0.017254317921 0.017812187276 0.017254317921 0.35421439407
          0.11063664598 0.0071510539488 -0.035396331852 0.0071510539488 0.010087003558 0.0055910161982
          -0.035396331852 0.0055910161982 0.16349311794 0.07568636755 0.027990773638 -0.016334336719
          0.027990773638 -0.012209844824 -0.016031166415 -0.016334336719 -0.016031166415 -0.020907745779
          0.14925865887 -0.0051140747435 -0.0030238924957 -0.0051140747435 -0.060408869209 0.004899004862
          -0.0030238924957 0.004899004862 -0.068309225237 0.24901194678 0.028638486939 0.023547599392
          0.028638486939 0.02391995858 0.0072873333037 0.023547599392 0.0072873333037 0.33268528379
          0.033460589476 0.05777510009 -0.17587345907 0.05777510009 0.06951259467 0.041513318407
          -0.17587345907 0.041513318407 -0.099555531978 0.076782284946 0.020598318847 -0.018941805256
          0.020598318847 -0.015216661848 0.0096895988534 -0.018941805256 0.0096895988534 0.055939774078
          0.064429837043 -0.011982501566 -0.021731083645 -0.011982501566 0.0092382590386 -0.014858513547
          -0.021731083645 -0.014858513547 0.023779001529 0.090577394711 0.0081037024125 0.0016891214696
          0.0081037024125 -0.031157502317 0.0025925381719 0.0016891214696 0.0025925381719 -0.01943084325
          0.37990332085 0.014605782592 0.0044462941223 0.014605782592 -0.0039584201597 0.019846889952
          0.0044462941223 0.019846889952 0.35913579116 0.2569034489 0.011619118218 0.024958873219
          0.011619118218 -0.030072646703 0.013739178893 0.024958873219 0.013739178893 0.26860810142
          0.15251025381 0.00084315987366 -0.022947614598 0.00084315987366 -0.023018171681 -0.0018573505364
          -0.022947614598 -0.0018573505364 0.10668521031 0.1892616388 -0.003772142866 -0.020640674034
          -0.003772142866 -0.045006417961 -0.0037716183996 -0.020640674034 -0.0037716183996 0.069290642568
          0.07284331773 0.011534161665 0.020019526421 0.011534161665 0.0042721550449 0.01160862545
          0.020019526421 0.01160862545 0.07741014939 0.33231417692 0.013851738758 0.010594944239
          0.013851738758 -0.0031757040842 0.020173361685 0.010594944239 0.020173361685 0.34021296646
          0.1768408214 0.0035708820482 -0.034430022388 0.0035708820482 -0.02159771895 -0.00049350865694
          -0.034430022388 -0.00049350865694 0.12089941334 0.37101760445 0.028287742477 0.013251126015
          0.028287742477 -0.0071632292723 0.016897820644 0.013251126015 0.016897820644 0.35599117363
          0.37085072462 0.021986537953 0.013754538816 0.021986537953 -0.030544943767 0.017796766504
          0.013754538816 0.017796766504 0.27808391302 0.37371942106 0.025772080463 0.016069440908
          0.025772080463 -0.018110495209 0.016461886607 0.016069440908 0.016461886607 0.33931896494
          -0.0046176214359 -0.00080991815794 -0.014469745982 -0.00080991815794 0.015311813402 -0.00030198466834
          -0.014469745982 -0.00030198466834 0.097544792487 0.077832953791 -0.0037702562507 -0.021857291628
          -0.0037702562507 0.0018254051338 0.0029147099605 -0.021857291628 0.0029147099605 0.061216526828
          0.12762765678 0.012716692565 -0.022430747165 0.012716692565 -0.037374168511 -0.0013891589549
          -0.022430747165 -0.0013891589549 -0.0077300050986 0.35045327076 0.0004265786218 0.017465755624
          0.0004265786218 -0.034765202488 0.018759972414 0.017465755624 0.018759972414 0.27001233095
          0.099225972219 0.0006226998261 -0.016634664331 0.0006226998261 -0.017717155221 -0.016783761369
          -0.016634664331 -0.016783761369 0.0068362939065 0.19082702708 0.0084482430188 -0.0086708958764
          0.0084482430188 -0.04731920496 -0.0066351458873 -0.0086708958764 -0.0066351458873 0.010135679031
          0.38293251825 0.017205416857 0.0027341070934 0.017205416857 -0.010467054387 0.019413600134
          0.0027341070934 0.019413600134 0.35225697762 0.36596530956 0.012912612798 0.0076880785763
          0.012912612798 0.0021808283756 0.013474097039 0.0076880785763 0.013474097039 0.35930194658
          0.025468656714 0.0026193836741 -0.0047549688855 0.0026193836741 0.019330876095 0.0044455215004
          -0.0047549688855 0.0044455215004 0.10498652893 0.13030100467 -0.042893592064 -0.061788325461
          -0.042893592064 -0.020942122037 -0.0046370205876 -0.061788325461 -0.0046370205876 0.12405075402
          0.15371008591 0.024919805159 -0.03130068673 0.024919805159 -0.012302852384 -0.014878538155
          -0.03130068673 -0.014878538155 0.17150048563 0.34735246705 0.037853742224 0.020146341441
          0.037853742224 -0.061488199594 0.024361406361 0.020146341441 0.024361406361 0.17155763323
          0.097263253529 0.014290021763 0.00080858799161 0.014290021763 0.029034447952 0.020015990092
          0.00080858799161 0.020015990092 0.13917211408 0.10001814591 -0.0037981474329 -0.018462541147
          -0.0037981474329 -0.017069181317 -0.0058033240004 -0.018462541147 -0.0058033240004 0.055690382139
          0.39252888306 0.015101203474 0.0080498083777 0.015101203474 -0.022814218593 0.026566213849
          0.0080498083777 0.026566213849 0.34568844944 0.38608312583 0.020914922104 0.013850565525
          0.020914922104 -0.015912860203 0.022157837717 0.013850565525 0.022157837717 0.34011138242
          0.16092046491 -0.0048607545465 -0.020116359311 -0.0048607545465 -0.0077363752004 0.00034014493654
          -0.020116359311 0.00034014493654 0.13482373511 0.3814458863 0.020239051045 0.006522339374
          0.020239051045 -0.010645219159 0.020566614839 0.006522339374 0.020566614839 0.35323788147
          0.050042557123 -0.010979908983 -0.0093334251658 -0.010979908983 0.011271272353 -0.00081131610861
          -0.0093334251658 -0.00081131610861 0.089884203293 0.07516225822 -0.0090530502749 -0.028755584163
          -0.0090530502749 0.0031734566271 -0.0064327892701 -0.028755584163 -0.0064327892701 0.044964129672
          0.1785203211 -0.0031567542467 -0.01637758483 -0.0031567542467 -0.013485545599 0.0057720167714
          -0.01637758483 0.0057720167714 0.13653952006 0.19232520522 -0.0052870517381 -0.015909032294
          -0.0052870517381 -0.020910327363 -0.0064682590554 -0.015909032294 -0.0064682590554 0.11745963705
          0.13286000447 -0.031652257053 -0.063779462991 -0.031652257053 0 0
          -0.063779462991 0 0 0.030007742048 -0.0081320250508 -0.0043940505498
          -0.0081320250508 -0.00011262537165 0.0056804232777 -0.0043940505498 0.0056804232777 0.010328526007
          0.12715990839 0.023697173818 -0.041141386443 0.023697173818 -0.0024040695016 -0.0064858797596
          -0.041141386443 -0.0064858797596 0.17571323504 0.10614522393 0.008246057102 0.012709029067
          0.008246057102 -0.015987068339 0.019403677723 0.012709029067 0.019403677723 -0.01029566893
          0.15322767423 -0.0010879802433 -0.02625099438 -0.0010879802433 -0.0080122719831 -0.000632564339
          -0.02625099438 -0.000632564339 0.12208756598 0.15811667294 0.0078956875279 -0.025737601116
          0.0078956875279 -0.027233308166 0.0032629788098 -0.025737601116 0.0032629788098 0.093429493718
          0.35555229985 0.017117615034 0.013459538369 0.017117615034 0.0014643881172 0.012466111336
          0.013459538369 0.012466111336 0.35793709683 0.14340518507 0.0074820638825 -0.012295743004
          0.0074820638825 -0.046916489424 0.0020587773622 -0.012295743004 0.0020587773622 -0.012888171366
          0.18178394735 0.0016864827455 0.038368281038 0.0016864827455 -0.049661798051 -0.024922806736
          0.038368281038 -0.024922806736 0.22326755478 0.13288669903 0.0031045616198 -0.016166202107
          0.0031045616198 -0.003199015506 -0.0036018366323 -0.016166202107 -0.0036018366323 0.13093465961
          0.30013581428 0.028507181054 0.01821592778 0.028507181054 0.021474921086 0.016841795313
          0.01821592778 0.016841795313 0.33329982784 0.37913137024 0.023503909021 0.0041523036712
          0.023503909021 -0.00737696725 0.022235080122 0.0041523036712 0.022235080122 0.3540713377
          0.19044971882 0.0043752800306 -0.010385043292 0.0043752800306 -0.038757517103 0.0047586176741
          -0.010385043292 0.0047586176741 0.070088495892 0.36853198142 0.030093837465 0.0088967454922
          0.030093837465 0.001987504274 0.019399519712 0.0088967454922 0.019399519712 0.35752502756
          0.078780077069 -0.0076068552777 -0.0032659595885 -0.0076068552777 -0.011303696002 0.0084437750572
          -0.0032659595885 0.0084437750572 0.019429499468 0.3390749956 0.036216425009 0.028695411431
          0.036216425009 0.0051819883593 0.015308436768 0.028695411431 0.015308436768 0.32151646658
          0.36590127295 0.01738177946 0.013840730137 0.01738177946 -0.0077678500718 0.021995761562
          0.013840730137 0.021995761562 0.34881169929 0.11946348254 0.0096818708387 -0.014968537167
          0.0096818708387 0.020604980838 0.0065762591559 -0.014968537167 0.0065762591559 0.098501933588
          0.39018080907 0.013873738938 0.0094140035321 0.013873738938 -0.011229815816 0.019006710623
          0.0094140035321 0.019006710623 0.36175590556 0.13889104372 0.006660089685 -0.0070165209351
          0.006660089685 -0.041222704368 0.0023525721107 -0.0070165209351 0.0023525721107 -0.042365383733
          0.34325788599 0.018505843495 0.021844734619 0.018505843495 -0.03949695115 0.0197171537
          0.021844734619 0.0197171537 0.23414138075 0.18000395043 0.0028239287017 -0.024833230527
          0.0028239287017 -0.015612986852 -0.00054114264046 -0.024833230527 -0.00054114264046 0.12695107609
          0.34150810477 0.034464029216 0.030762779732 0.034464029216 -0.049893421614 0.015712031821
          0.030762779732 0.015712031821 0.2413939597 0.31428478072 0.01506071863 0.0073380267119
          0.01506071863 -0.042470785358 0.0047754937147 0.0073380267119 0.0047754937147 0.18187775375
          0.37763684319 0.015271077929 0.018635523665 0.015271077929 -0.013509078205 0.024303662147
          0.018635523665 0.024303662147 0.34655180749 0.35304010559 0.01818074493 0.010122144558
          0.01818074493 0.0059824812329 0.011884012401 0.010122144558 0.011884012401 0.36255785356
          0.35436687911 0.020078145885 0.010590919679 0.020078145885 0.0029865548615 0.010737888825
          0.010590919679 0.010737888825 0.36214553359 0.014250237993 -0.0047342456917 -6.9437755343e-05
          -0.0047342456917 -0.023860623479 0.0010745770455 -6.9437755343e-05 0.0010745770455 0.002757446224
          0.11093118352 0.024114461598 -0.050227191988 0.024114461598 0.013050740765 0.024648390709
          -0.050227191988 0.024648390709 0.075459591851 0.1730175283 0.0012648360403 -0.036428884456
          0.0012648360403 -0.024402796428 0.0070567384052 -0.036428884456 0.0070567384052 0.093372011112
          0.10320530208 0.0079442570384 -0.029348542344 0.0079442570384 -0.013007151835 0.0076980017921
          -0.029348542344 0.0076980017921 0.059727436928 0.37214763381 0.035666941372 -7.8070540743e-06
          0.035666941372 -0.057306860348 0.018152843044 -7.8070540743e-06 0.018152843044 0.23115217271
          0.38891262067 0.018116538377 0.0095306446869 0.018116538377 -0.016473169072 0.023752475021
          0.0095306446869 0.023752475021 0.34561072331 0.36851201666 0.014777662364 0.011072193838
          0.014777662364 -0.047498214936 0.016102322085 0.011072193838 0.016102322085 0.18537469621
          0.11957780778 0.012275169437 -0.022641954908 0.012275169437 0.016864620742 0.0060470318903
          -0.022641954908 0.0060470318903 0.10695593472 0.15802647995 0.035569225101 -0.021607422769
          0.035569225101 0.007572791932 0.022326649185 -0.021607422769 0.022326649185 0.0779121537
          0.28404742654 0.014314206076 0.043409389438 0.014314206076 -0.063901159776 -0.010573040513
          0.043409389438 -0.010573040513 0.25058547139 0.089495236285 0.0098698578616 -0.023792171924
          0.0098698578616 -0.041055452284 0.0083192118318 -0.023792171924 0.0083192118318 0.17847906815
          0.10449191439 0.012861288207 -0.031890055912 0.012861288207 0.014191707335 0.00059094990836
          -0.031890055912 0.00059094990836 0.11280717466 0.19610176829 0.0023918875364 -0.016281301763
          0.0023918875364 -0.032410055957 0.011217028991 -0.016281301763 0.011217028991 0.089938578483
          0.36872199082 0.01030504908 0.012330512193 0.01030504908 -0.043510503097 0.024573541665
          0.012330512193 0.024573541665 0.23737606122 0.36455246862 0.023044981569 0.024228032385
          0.023044981569 -0.066692211465 0.0035725561454 0.024228032385 0.0035725561454 0.21839541949
          -0.077455510685 0.0010976078404 -0.015735782108 0.0010976078404 0.029488715023 0.0098499300821
          -0.015735782108 0.0098499300821 0.054478136196 0.15761996023 0.016425034965 -0.011789616453
          0.016425034965 -0.014205984357 0.0021282344708 -0.011789616453 0.0021282344708 0.073573152714
          0.036220098476 0.0028635903134 -0.015822235394 0.0028635903134 0.00023355619283 0.010685905167
          -0.015822235394 0.010685905167 0.085499951656 0.07185142384 -0.0051570597239 -0.0055397339494
          -0.0051570597239 0.013616690097 -0.0099855667519 -0.0055397339494 -0.0099855667519 0.094296324413
          0.20126059665 0.0069988165486 -0.0007095836202 0.0069988165486 0.0038736391742 0.013762808741
          -0.0007095836202 0.013762808741 0.20652651708 0.057809697383 -0.0028829660102 -0.030841493154
          -0.0028829660102 -0.0062754193114 -0.0016678315731 -0.030841493154 -0.0016678315731 0.061010107671
          -0.015985735795 0.0096499153089 0.0056714757543 0.0096499153089 0.011529190951 0.0017600820112
          0.0056714757543 0.0017600820112 0.12047863933 0.34541852215 0.018043339437 0.034438886022
          0.018043339437 -0.040046234168 -0.0004435969715 0.034438886022 -0.0004435969715 0.25644303531
          0.205282806 0.0011021730001 -0.027412553049 0.0011021730001 -0.032863394253 -0.013056709072
          -0.027412553049 -0.013056709072 0.096064866352 0.21751573781 0.043096619114 0.018007015899
          0.043096619114 0.029221072743 0.00049917721992 0.018007015899 0.00049917721992 0.31295831876
          0.38442695168 0.022461253241 0.01198849256 0.022461253241 -0.012643583605 0.020011642304
          0.01198849256 0.020011642304 0.35232476819 0.046169797765 0.0061295594759 0.0084958072281
          0.0061295594759 -0.030303941645 0.0095928482455 0.0084958072281 0.0095928482455 0.005333948787
          0.19027356222 0.0076490028099 0.0066482401729 0.0076490028099 -0.058818639001 0.013735675625
          0.0066482401729 0.013735675625 0.015331902113 0.084288549347 0.0085880849403 0.0016724604361
          0.0085880849403 -0.010105654681 0.0020082014195 0.0016724604361 0.0020082014195 0.068857872137
          0.0082644096773 0.009757014635 -0.0087999868949 0.009757014635 0.031121056127 0.036151641549
          -0.0087999868949 0.036151641549 0.14072333741 0.30796104733 0.0050141001762 0.015345230478
          0.0050141001762 -0.026642386613 0.017447677946 0.015345230478 0.017447677946 0.17489083256
          0.14463506111 0.0016108468673 0.0023341436222 0.0016108468673 -0.051212191831 0.00083973335173
          0.0023341436222 0.00083973335173 -0.056378138215 0.38211961888 0.024145792029 0.0044787640908
          0.024145792029 -0.0083069623689 0.019776721918 0.0044787640908 0.019776721918 0.35512332458
          0.18508240415 0.0030742169004 -0.030502099767 0.0030742169004 -0.024620823805 0.0073771104224
          -0.030502099767 0.0073771104224 0.0956231546 0.18124403044 0.0014006911493 -0.015303040157
          0.0014006911493 -0.018742209402 0.00041023566523 -0.015303040157 0.00041023566523 0.12830349919
          0.38155801207 0.01742090453 0.010774321185 0.01742090453 -0.044156290653 0.020972682237
          0.010774321185 0.020972682237 0.26787194001 0.12500802251 -0.0089747289293 -0.031686957265
          -0.0089747289293 0.00023868906653 0.0036516789605 -0.031686957265 0.0036516789605 0.12523608089
          0.19174839522 -0.0054533080772 -0.020046232435 -0.0054533080772 -0.053950588595 0.0050594065584
          -0.020046232435 0.0050594065584 -0.013339469118 -0.0085618386157 0.012036522647 -0.0040430525098
          0.012036522647 0.016503569103 0.011222208752 -0.0040430525098 0.011222208752 0.078488792747
          0.32666944457 0.027111680909 0.011668542958 0.027111680909 0.0088884409801 0.012223183767
          0.011668542958 0.012223183767 0.35328925999 0.13136378928 0.0013179346502 -0.04226918154
          0.0013179346502 0.0060655739425 -0.029695786241 -0.04226918154 -0.029695786241 0.054492864513
          0.10219372547 0.014710136318 0.013003145004 0.014710136318 -0.029032640528 0.0027391977796
          0.013003145004 0.0027391977796 0.076358398156 -0.059668817145 -0.0098446541291 -0.0093853873978
          -0.0098446541291 0.028830194197 0.014393101273 -0.0093853873978 0.014393101273 0.099313724405
          0.30956303377 0.008462878573 0.017039538721 0.008462878573 -0.012959443995 0.027648341015
          0.017039538721 0.027648341015 0.26465891228 0.21144778071 0.0045607850289 -0.013748792605
          0.0045607850289 -0.043389331553 -0.0015658863654 -0.013748792605 -0.0015658863654 0.071334658641
          0.16318872912 0.0034873649807 -0.035376007995 0.0034873649807 -0.017556807053 -0.002731343596
          -0.035376007995 -0.002731343596 0.11375508387 0.36421098285 0.015106843689 0.0084602051312
          0.015106843689 -0.024834989446 0.017272243618 0.0084602051312 0.017272243618 0.28967820146
          0.10612956438 0.00289964175 -0.0089902239234 0.00289964175 -0.014234981775 0.0052785602002
          -0.0089902239234 0.0052785602002 0.070262917508 0.17223236982 0.012864776241 -0.0013214318744
          0.012864776241 -0.019661748883 -0.0071468210393 -0.0013214318744 -0.0071468210393 0.10220626178
          0.3876285925 0.019239982675 0.0096008288532 0.019239982675 -0.015779284272 0.022889947787
          0.0096008288532 0.022889947787 0.3423437925 -0.034117182039 0.0051314963722 0.016510073437
          0.0051314963722 -0.0018010655434 0.0031792134378 0.016510073437 0.0031792134378 0.032957720928
          0.10951822465 0.010738534483 -0.03503412438 0.010738534483 0.014115266221 0.0065961363096
          -0.03503412438 0.0065961363096 0.093561193145 -0.0022190250973 0.0016716261514 0.0039545464417
          0.0016716261514 -0.0068336610486 0.012633952712 0.0039545464417 0.012633952712 0.010154539933
          0.14217664073 0.016140284591 -0.031929142261 0.016140284591 -0.0059263446587 -0.00087621601339
          -0.031929142261 -0.00087621601339 0.093532829676 0.096179828334 0.005217552513 -0.035009875608
          0.005217552513 -0.030447946884 -0.017694168411 -0.035009875608 -0.017694168411 -0.0035129118233
          0.081549301534 0.0019671983035 -0.024092453415 0.0019671983035 0.0017153836483 0.0035737723326
          -0.024092453415 0.0035737723326 0.072684260248 0.080835163493 0.012266762869 -0.037349170579
          0.012266762869 0.014967159015 0.0075121405561 -0.037349170579 0.0075121405561 0.15975263598
          0.38934378786 0.024138144413 0.012633513089 0.024138144413 -0.02763624702 0.014891026391
          0.012633513089 0.014891026391 0.31985268359 0.29032654142 0.018765032549 0.016747157887
          0.018765032549 0.0037860159147 0.0230899931 0.016747157887 0.0230899931 0.32030817016
          0.088479254 0.027294813751 0.007641199677 0.027294813751 -0.022667722349 0.0077098370091
          0.007641199677 0.0077098370091 0.0094934927287 0.12984751948 -0.02991669733 -0.02138332106
          -0.02991669733 -0.017070744185 -0.025946309643 -0.02138332106 -0.025946309643 0.12150466638
          -0.10371840044 0.018635996342 0.03600491812 0.018635996342 0.0091679517244 -0.010285316145
          0.03600491812 -0.010285316145 0.068404696733 0.046796496793 -0.0016813915245 0.0029514853043
          -0.0016813915245 -0.011297874287 0.0085425171628 0.0029514853043 0.0085425171628 0.044759235094
          0.20778520924 -0.0021044270622 0.0042743757185 -0.0021044270622 -0.057995820582 0.011908244335
          0.0042743757185 0.011908244335 0.025757705887 -0.015904865652 0.00064821761984 -0.013298497191
          0.00064821761984 0.014810398049 -0.0015608686693 -0.013298497191 -0.0015608686693 0.044605342911
          0.19910490392 -0.0061773265881 -0.021756676222 -0.0061773265881 -0.043188173573 -0.012146684829
          -0.021756676222 -0.012146684829 0.049951997352 0.37537468785 0.0083318751466 0.023338373795
          0.0083318751466 -0.015189145381 0.02002015977 0.023338373795 0.02002015977 0.33795445842
          0.064954356387 -0.012776732159 0.013147859765 -0.012776732159 0.020312611168 0.01040279578
          0.013147859765 0.01040279578 0.10014172009 0.18807919513 0.0088898329762 -0.010564903655
          0.0088898329762 -0.042774090622 0.0044945714982 -0.010564903655 0.0044945714982 0.070155165061
          0.13943760638 0.0049602456082 -0.027044279911 0.0049602456082 -0.012563140923 -0.0028054905573
          -0.027044279911 -0.0028054905573 0.12285475796 0.37495011988 0.017926428003 0.019707517295
          0.017926428003 -0.018015423263 0.013765359652 0.019707517295 0.013765359652 0.30707971208
          0.2550774541 0.030399176982 0.015937729843 0.030399176982 -0.056712429213 0.017905864845
          0.015937729843 0.017905864845 0.068366758296 0.099423956176 0.0092077713986 0.005898843833
          0.0092077713986 0.032526047532 -0.0011363365197 0.005898843833 -0.0011363365197 0.21814788129
          0.3629488566 0.023803064458 0.016373008881 0.023803064458 -0.019915452005 0.014112066844
          0.016373008881 0.014112066844 0.30786878573 0.12260552733 0.026571928679 -0.048420826025
          0.026571928679 0.00086689639608 -0.0002139427518 -0.048420826025 -0.0002139427518 0.14633786176
          0.12126442928 0.027116157229 -0.05231483987 0.027116157229 0.0034721893989 -0.0019025461534
          -0.05231483987 -0.0019025461534 0.13881204582 0.094148353128 -0.003809729078 -0.0099741113797
          -0.003809729078 0.0095344478649 0.0045865860216 -0.0099741113797 0.0045865860216 0.11693818051
          0.33977641474 0.021960310441 0.0099072565644 0.021960310441 -0.0083215871171 0.011214134461
          0.0099072565644 0.011214134461 0.30658083366 0.3417013242 0.014746810181 0.019407411071
          0.014746810181 -0.003385020453 0.010574994573 0.019407411071 0.010574994573 0.34262597348
          0.33825124008 0.0080320551318 0.030549838263 0.0080320551318 -0.012133624737 0.019496719613
          0.030549838263 0.019496719613 0.31279219898 0.083702610127 0.007385822179 -0.0037408444753
          0.007385822179 -0.0015978419352 -0.00081615776945 -0.0037408444753 -0.00081615776945 0.0087476816245
          0.13748845222 -0.0041663040511 -0.0027160697749 -0.0041663040511 0.0089374945223 -0.00093042545127
          -0.0027160697749 -0.00093042545127 0.14808400052 0.32465969413 0.013640099319 0.019663751522
          0.013640099319 -0.021537800531 0.012180325376 0.019663751522 0.012180325376 0.28489046312
          0.35081824647 0.003080991958 0.025530530976 0.003080991958 -0.027139742155 0.035117274181
          0.025530530976 0.035117274181 0.29504555731 0.37915450229 0.018562193921 0.010489695185
          0.018562193921 -0.011484102087 0.020072317796 0.010489695185 0.020072317796 0.35227858055
          0.37630216302 0.02381827566 0.0062055665198 0.02381827566 -0.0066179730347 0.019049861013
          0.0062055665198 0.019049861013 0.3562552824 0.37356654781 0.025636317811 0.0083569352805
          0.025636317811 -0.0034668491317 0.016575497986 0.0083569352805 0.016575497986 0.35116287842
          0.15788070223 -0.0010752429406 -0.021350733884 -0.0010752429406 -0.010347741172 -0.0023740768991
          -0.021350733884 -0.0023740768991 0.12070750591 0.066708619371 0.0046883867573 -0.029387738272
          0.0046883867573 -0.018924457929 -0.014988319381 -0.029387738272 -0.014988319381 0.027725746622
          0.025348507566 0.010512257185 -0.045514613816 0.010512257185 -0.019501784571 -0.010332071988
          -0.045514613816 -0.010332071988 0.044881073437 0.17298454896 -0.0015484652299 -0.026438515736
          -0.0015484652299 -0.023978012482 0.00022751570473 -0.026438515736 0.00022751570473 0.089046865654
          0.14964173522 -0.0065775024097 -0.030754595602 -0.0065775024097 -0.010505152702 0.0019871202537
          -0.030754595602 0.0019871202537 0.12071141827 0.16939878926 0.011193354057 -0.021205834212
          0.011193354057 -0.019157264549 -0.00240620075 -0.021205834212 -0.00240620075 0.1379411306
          0.38695935687 0.031752751084 0.02711066068 0.031752751084 -0.077532456261 0.019340956075
          0.02711066068 0.019340956075 0.1894981204 0.17097467442 0.0021747604309 -0.0306504498
          0.0021747604309 -0.016648311894 0.0022315104487 -0.0306504498 0.0022315104487 0.13019774323
          0.35279362492 0.018051561382 0.019913332204 0.018051561382 -0.03467786266 0.019675071685
          0.019913332204 0.019675071685 0.27491982342 0.1316294564 0.011353285805 -0.014518275209
          0.011353285805 0.0162050336 -0.015023564709 -0.014518275209 -0.015023564709 0.086188625635
          0.37159653259 0.011887153545 0.02609888221 0.011887153545 -0.02901148966 0.028900166622
          0.02609888221 0.028900166622 0.28625610867 0.011485444008 0.0081409840634 -0.010348151707
          0.0081409840634 0.0082372403319 -0.00040421328733 -0.010348151707 -0.00040421328733 0.052286821435
          0.36829677091 0.0097940417569 0.021482319051 0.0097940417569 -0.0078451019837 0.025517982752
          0.021482319051 0.025517982752 0.34130356307 0.34592723708 0.029428485727 0.022069009091
          0.029428485727 -0.016378915458 0.010271548581 0.022069009091 0.010271548581 0.32263848494
          0.18074551786 -0.00055783639865 0.0060141500744 -0.00055783639865 -0.067561782284 -0.0071591913474
          0.0060141500744 -0.0071591913474 -0.088583053611 0.16362406494 -0.00030849505345 -0.032634969043
          -0.00030849505345 -0.028291400357 -0.0088814569252 -0.032634969043 -0.0088814569252 0.10438377813
          0.1617166388 0.0028717842211 -0.0074537560279 0.0028717842211 -0.058435247359 0.0053139880353
          -0.0074537560279 0.0053139880353 -0.01811157077 0.36861697163 0.025281648606 0.016125566728
          0.025281648606 -0.016549372178 0.015086959006 0.016125566728 0.015086959006 0.33702623483
          0.14343727285 -0.0010351200957 -0.034243416006 -0.0010351200957 -0.014483203475 -0.0056979509548
          -0.034243416006 -0.0056979509548 0.11102875825 0.1323712285 -0.0029435084058 -0.00019432766455
          -0.0029435084058 -0.039240003578 -0.0047115472128 -0.00019432766455 -0.0047115472128 -0.045620699594
          0.17277828093 0.00066769808302 -0.003299808379 0.00066769808302 -0.037966488692 0.0085947291306
          -0.003299808379 0.0085947291306 0.058507760037 0.36046877688 0.019548974304 0.024333424739
          0.019548974304 -0.0097718801943 0.0089321897687 0.024333424739 0.0089321897687 0.32261398209
          0.099828140122 -0.024344162828 -0.049851989483 -0.024344162828 0.0034804620028 -0.02539572822
          -0.049851989483 -0.02539572822 0.068432976236 0.16010959285 -0.0024116968179 -0.019452190518
          -0.0024116968179 -0.0019628314006 -0.0020031955572 -0.019452190518 -0.0020031955572 0.13292057976
          0.17256616006 0.0046616002464 -0.021536581886 0.0046616002464 -0.032648917478 -0.0049096952401
          -0.021536581886 -0.0049096952401 0.043800395107 0.38453145913 0.0062661567926 0.017423065402
          0.0062661567926 -0.031581037942 0.03046843916 0.017423065402 0.03046843916 0.29110792162
          0.096921369432 0.014384825422 -0.034845171992 0.014384825422 0.0097376684266 -0.0021505737765
          -0.034845171992 -0.0021505737765 0.13154085373 0.18335499796 0.0038200265933 0.0089145626072
          0.0038200265933 -0.067142858287 0.0041173594312 0.0089145626072 0.0041173594312 -0.072587109355
          0.16297810343 0.025014956577 -0.0028563841222 0.025014956577 -0.025213569409 0.039258189517
          -0.0028563841222 0.039258189517 0.11602210853 0.1311038979 -0.004787358896 -0.025863565039
          -0.004787358896 -0.011638231815 -0.0043314762128 -0.025863565039 -0.0043314762128 0.094527325512
          0.37929813261 0.017566192667 0.013235650268 0.017566192667 -0.010679144886 0.018482520283
          0.013235650268 0.018482520283 0.3562225855 0.32340279607 0.0095752051667 0.024158346312
          0.0095752051667 -0.0094879181078 0.011314231331 0.024158346312 0.011314231331 0.27823299467
          0.37227608074 0.021064444125 0.024033258142 0.021064444125 -0.031322898017 0.014654664231
          0.024033258142 0.014654664231 0.28792003834 0.050733420307 0.083821202362 0.0067170835742
          0.083821202362 -0.076391091358 0.068188235403 0.0067170835742 0.068188235403 0.12943567037
          0.064427321128 0.0019309826447 -0.0098274253085 0.0019309826447 -0.0053896364975 0.0039635734423
          -0.0098274253085 0.0039635734423 -0.017843456167 -0.058498443902 -0.0025457621677 -0.0052807084806
          -0.0025457621677 0.012272270143 -0.00044131752337 -0.0052807084806 -0.00044131752337 0.087374129408
          0.14090930758 0.015563611679 -0.0069827841222 0.015563611679 -0.0058098832917 0.017336703484
          -0.0069827841222 0.017336703484 0.22770225054 0.383637613 0.017239748475 0.0096086244783
          0.017239748475 -0.011911031213 0.019920451433 0.0096086244783 0.019920451433 0.3557337063
          0.0091034900583 -0.012050345873 -0.013713298276 -0.012050345873 0.01020817549 0.008712429303
          -0.013713298276 0.008712429303 0.078635167363 0.36026978435 0.021109556886 0.0096139174222
          0.021109556886 0.0024288196994 0.024732316168 0.0096139174222 0.024732316168 0.36100991292
          0.062072321658 0.0014709215271 -0.013841351569 0.0014709215271 -0.024750793009 -0.0088791350155
          -0.013841351569 -0.0088791350155 -0.034076947216 0.32389598535 -0.0059085367113 0.062277580849
          -0.0059085367113 -0.045308135518 -0.012688145539 0.062277580849 -0.012688145539 0.18404793024
          0.1006359788 -0.037073659658 0.014928073437 -0.037073659658 -0.026923100573 0.02266412416
          0.014928073437 0.02266412416 -0.018954552789 0.37179854061 0.019415695458 0.0064423421767
          0.019415695458 -0.0066631306316 0.018036417971 0.0064423421767 0.018036417971 0.35409791198
          0.35377338666 0.011933943478 0.0096560595769 0.011933943478 0.0057999984441 0.017586139405
          0.0096560595769 0.017586139405 0.35165322188 0.066919686423 0.0071566012144 -0.0054637967649
          0.0071566012144 -0.00018463578586 0.0022610000645 -0.0054637967649 0.0022610000645 0.03550583629
          0.37895426238 0.019447778043 0.0083215321975 0.019447778043 -0.0095088928282 0.018281868416
          0.0083215321975 0.018281868416 0.35406094753 0.16801348251 -0.00055684259293 0.0017079402176
          -0.00055684259293 -0.071907217205 0.0083728685898 0.0017079402176 0.0083728685898 -0.067728851179
          0.33556965179 0.016007961223 0.019530896869 0.016007961223 -0.027246889542 0.021597531788
          0.019530896869 0.021597531788 0.28205342686 0.3772184604 0.020295526785 0.0076994069125
          0.020295526785 -0.0049442513894 0.01933750807 0.0076994069125 0.01933750807 0.36102152801
          -0.04249645862 -0.013333955178 -0.0087676228981 -0.013333955178 0.023878120728 0.0025052732414
          -0.0087676228981 0.0025052732414 0.027710112615 -0.016039242056 -0.017434140499 0.0044822840844
          -0.017434140499 0.014190865665 0.0041858993313 0.0044822840844 0.0041858993313 0.062545515757
          0.38938642678 0.01807763664 0.0084047646628 0.01807763664 -0.013476982179 0.014914123908
          0.0084047646628 0.014914123908 0.34839948457 -0.04712685772 0.014526327654 -0.0061926752078
          0.014526327654 0.014954792887 -0.0015868237688 -0.0061926752078 -0.0015868237688 0.045503080517
          0.00082322524526 0.0016660549189 -0.0041159411365 0.0016660549189 0.0086303476569 0.0097556621042
          -0.0041159411365 0.0097556621042 0.031105267092 0.15230233634 0.01163779226 -0.0060970769477
          0.01163779226 -0.045157766025 -0.0074618220646 -0.0060970769477 -0.0074618220646 -0.065475699385
          0.017755257407 -0.0038143615439 -0.017940959895 -0.0038143615439 0.015054894533 -0.00087483750363
          -0.017940959895 -0.00087483750363 0.09530895629 0.017436665583 0.0013585579012 -0.0077660077086
          0.0013585579012 -0.0096661133679 -0.00032610101821 -0.0077660077086 -0.00032610101821 0.011101635167
          0.096523906527 0.0049564969603 -0.034719083046 0.0049564969603 -0.0031898917946 0.0047863691609
          -0.034719083046 0.0047863691609 0.086351661288 0.36983406327 0.018945988546 0.0056024212779
          0.018945988546 -0.0033721800627 0.018126968873 0.0056024212779 0.018126968873 0.35663437685
          0.13330074612 0.0013080567231 -0.021991123922 0.0013080567231 -0.011646330739 0.0044335963083
          -0.021991123922 0.0044335963083 0.11604887483 0.11751699893 0.026103029331 -0.02494269206
          0.026103029331 0.020504101622 -0.0031871826983 -0.02494269206 -0.0031871826983 0.20118693827
          0.37768489575 0.032791766046 0.022430949001 0.032791766046 -0.033519095268 0.0069713620197
          0.022430949001 0.0069713620197 0.31239610083 0.19315444829 0.013142041631 0.0028941773573
          0.013142041631 -0.050821983982 0.0091465231472 0.0028941773573 0.0091465231472 0.02841336607
          0.20110167098 0.028575163847 0.01236671988 0.028575163847 -0.02022478133 0.0046141403616
          0.01236671988 0.0046141403616 0.23536063867 0.19278181904 0.0046045957672 -0.017260411347
          0.0046045957672 -0.024276200653 -0.0007119538464 -0.017260411347 -0.0007119538464 0.1188206057
          0.1882870943 0.0026855163088 -0.015676843142 0.0026855163088 -0.01867271026 -0.0029200195436
          -0.015676843142 -0.0029200195436 0.11662753357 0.37329763021 0.019760757139 0.0079568076569
          0.019760757139 -0.0095249998777 0.018271333885 0.0079568076569 0.018271333885 0.35481711899
          0.070288010662 0.0069963568009 -0.017188561088 0.0069963568009 0.021410582607 -0.00098179847398
          -0.017188561088 -0.00098179847398 0.19849859337 0.0053988901376 0.005435451629 -0.010773626637
          0.005435451629 0.022718089932 -0.0037305985274 -0.010773626637 -0.0037305985274 0.08607185416
          0.35521319259 0.027185223909 0.017885691517 0.027185223909 -0.018375398816 0.015007219656
          0.017885691517 0.015007219656 0.31905653814 0.097629104122 0.0076727989127 -0.026878923287
          0.0076727989127 -0.0056965526816 0.0016559213826 -0.026878923287 0.0016559213826 0.087328691936
          0.36706793678 0.01717328241 0.015624605329 0.01717328241 -0.013860436189 0.017926654165
          0.015624605329 0.017926654165 0.30986558707 0.27960845123 0.054338255073 0.0082716820678
          0.054338255073 0.0092991240567 0.012283393196 0.0082716820678 0.012283393196 0.3588213785
          0.35593887615 0.028117087214 0.023427716755 0.028117087214 -0.025723872445 0.0077176747672
          0.023427716755 0.0077176747672 0.32556953203 0.36991721313 0.0075114936368 0.016033172865
          0.0075114936368 -0.0083962568218 0.020227963042 0.016033172865 0.020227963042 0.35943295134
          0.13772473619 0.0023712524668 -0.0029508290283 0.0023712524668 -0.051649927262 -0.014837182104
          -0.0029508290283 -0.014837182104 -0.010600656284 0.35788218466 0.024967683191 0.014353449999
          0.024967683191 -0.0033475652548 0.011640092398 0.014353449999 0.011640092398 0.34985380631
          0.37640348049 0.019481562127 0.008167134067 0.019481562127 -0.008137733924 0.019052207173
          0.008167134067 0.019052207173 0.353090221 0.1309953409 -0.007156080333 -0.027093863097
          -0.007156080333 -0.0034919656713 -0.0022183339306 -0.027093863097 -0.0022183339306 0.10411414139
          0.13498515443 -0.0086885305831 -0.018883009192 -0.0086885305831 -0.0066663942442 0.00086936285587
          -0.018883009192 0.00086936285587 0.13717808661 0.20604035512 -0.0063800767056 -0.002127183536
          -0.0063800767056 -0.011852880689 0.029017167807 -0.002127183536 0.029017167807 0.21091927124
          0.17049959858 0.0035185757812 -0.027761905303 0.0035185757812 -0.013732442922 0.0023752606894
          -0.027761905303 0.0023752606894 0.11977470968 0.10234134701 -0.0057028260822 -0.019378266719
          -0.0057028260822 -0.022242866617 -0.0026732526193 -0.019378266719 -0.0026732526193 0.062991582835
          0.13198426897 -0.012202435411 -0.020586303066 -0.012202435411 -0.023488158417 -0.0096020605835
          -0.020586303066 -0.0096020605835 0.094545125845 0.11658566894 0.0028188300153 -0.041797333877
          0.0028188300153 -0.018380381132 -0.043519027047 -0.041797333877 -0.043519027047 0.059905204083
          0.1805703261 0.001557076034 -0.034312094384 0.001557076034 -0.018850098573 -0.0023925926524
          -0.034312094384 -0.0023925926524 0.11781472621 0.36148309241 0.018083397208 0.0086680230653
          0.018083397208 -0.0054279519123 0.017042804492 0.0086680230653 0.017042804492 0.35487690443
          0.38752582917 0.022203828788 0.0076429746792 0.022203828788 -0.017379599914 0.016330266072
          0.0076429746792 0.016330266072 0.34417633758 0.14136890063 -0.00038281853857 0.010717005439
          -0.00038281853857 -0.043828018747 0.0044188321137 0.010717005439 0.0044188321137 -0.073880524671
          0.061927079069 -0.017704644904 -0.00083358723738 -0.017704644904 -0.023561189378 0.012699870685
          -0.00083358723738 0.012699870685 -0.0099952874615 0.12661191092 0.0035071357759 -0.0076098385246
          0.0035071357759 -0.035323525974 0.0088725394873 -0.0076098385246 0.0088725394873 -0.010593040593
          0.086690119576 0.0029176006124 -0.012807521822 0.0029176006124 -0.045676001421 0.023264327998
          -0.012807521822 0.023264327998 0.10204875652 0.12880349715 -0.0035449921989 0.0018336193094
          -0.0035449921989 -0.045037574394 0.018268496133 0.0018336193094 0.018268496133 -0.035485381867
          0.34435450498 0.023861023729 0.016338255711 0.023861023729 -0.013488432667 0.014505693305
          0.016338255711 0.014505693305 0.28192696131 0.055836940761 -0.0014539341532 -0.002245366392
          -0.0014539341532 0.0058343133859 -0.012065389581 -0.002245366392 -0.012065389581 0.087139138716
          0.17403665349 -0.019645413949 0.019807662394 -0.019645413949 -0.03590967877 0.012019739902
          0.019807662394 0.012019739902 0.017762579039 0.08076570288 0.0032343157411 -0.084982340981
          0.0032343157411 -0.0027810551545 -0.074507094507 -0.084982340981 -0.074507094507 0.05146152714
          0.11529695084 -0.0072797063637 -0.015772031483 -0.0072797063637 0.00047890070977 0.002100345906
          -0.015772031483 0.002100345906 0.1338524503 0.12993021681 -0.0039584534686 -0.01171141594
          -0.0039584534686 -0.0069086543642 0.00085129959601 -0.01171141594 0.00085129959601 0.13356209986
          0.26420740045 -0.00026909148067 0.0057742186106 -0.00026909148067 -0.055334135389 0.0028560321688
          0.0057742186106 0.0028560321688 0.00053430407979 0.12401954177 0.0068526509495 -0.01873567255
          0.0068526509495 -0.041170465722 0.008504211058 -0.01873567255 0.008504211058 -0.012100979807
          0.13758850787 0.0035595454041 -0.0043604477111 0.0035595454041 -0.062014018291 -0.0027088568497
          -0.0043604477111 -0.0027088568497 -0.00091598712295 0.38191089315 0.010855052012 0.0075654331579
          0.010855052012 -0.061337618472 0.0013803833605 0.0075654331579 0.0013803833605 0.27892524841
          0.081889545782 0.0014812597356 0.0043541768653 0.0014812597356 -0.031587285515 0.0081891714668
          0.0043541768653 0.0081891714668 -0.034381047628 0.16794958219 -8.9245784209e-05 -0.02998374182
          -8.9245784209e-05 -0.014350892973 0.0022776314437 -0.02998374182 0.0022776314437 0.12112502309
          0.0034629783574 0.0035347871037 -0.021832819564 0.0035347871037 0.0073045136112 0.014844613988
          -0.021832819564 0.014844613988 0.032654060481 0.19872434361 0.00069041754503 -0.0186068386
          0.00069041754503 -0.038642396593 -0.0039015291296 -0.0186068386 -0.0039015291296 0.10269236039
          0.10331425641 -0.01397990808 -0.022964388372 -0.01397990808 -0.00068147047569 0.0017259381021
          -0.022964388372 0.0017259381021 0.11468769335 -0.087747667081 -0.0060288205487 -0.012458008861
          -0.0060288205487 0.0086827004634 0.0026342201793 -0.012458008861 0.0026342201793 0.092478998177
          0.18264533222 0.01576163572 0.0044134549618 0.01576163572 -0.034505330011 0.019761316458
          0.0044134549618 0.019761316458 0.032582431188 0.15665988102 0.002569149028 -0.018970261858
          0.002569149028 -0.0054614335511 0.0015314506842 -0.018970261858 0.0015314506842 0.13424395379
          0.21555207667 0.01314254607 -0.015307381642 0.01314254607 -0.047858861865 -0.0028731292685
          -0.015307381642 -0.0028731292685 0.053645522576 0.15811628387 0.0059094129619 -0.0029536920986
          0.0059094129619 -0.038413215557 0.016300154603 -0.0029536920986 0.016300154603 0.035482339498
          0.18290182532 0.015336332173 0.0014223804532 0.015336332173 -0.046634206295 0.00356658309
          0.0014223804532 0.00356658309 0.032593948892 0.20030574141 0.014677173192 -0.016932927067
          0.014677173192 -0.055101045224 0.0023224911941 -0.016932927067 0.0023224911941 0.049136544794
          0.28664183153 -0.0033443878664 0.017028399688 -0.0033443878664 -0.019246250919 0.032122315264
          0.017028399688 0.032122315264 0.23945161386 0.3741679179 0.020264564303 0.007625895735
          0.020264564303 -0.0096967215904 0.018212307972 0.007625895735 0.018212307972 0.35169142888
          0.10275033067 -0.0037946746222 -0.011659779583 -0.0037946746222 -0.037352974112 0.0010935974996
          -0.011659779583 0.0010935974996 -0.03958439135 0.11910180281 0.019366957484 0.013382560027
          0.019366957484 0.01350021728 0.013701008581 0.013382560027 0.013701008581 0.16044927019
          0.12305669162 0.013978149288 0.009675027378 0.013978149288 0.016336587992 0.018750353852
          0.009675027378 0.018750353852 0.16392491612 0.29592067882 0.010237957941 0.0081788699637
          0.010237957941 -0.037414131197 0.023911819747 0.0081788699637 0.023911819747 0.15115676782
          0.0023553275403 -0.0040757430168 -0.0158945897 -0.0040757430168 0.0067432780402 0.00128826037
          -0.0158945897 0.00128826037 0.0078443037335 0.14245720698 0.020948810069 -0.024278549505
          0.020948810069 0.00016964289482 0.031984043193 -0.024278549505 0.031984043193 0.098638751005
          0.29280105562 0.020492894687 0.013748106808 0.020492894687 0.009372291404 0.025362777571
          0.013748106808 0.025362777571 0.30413865407 0.21153694216 0.016778081816 0.0034250436431
          0.016778081816 -0.040982626959 0.015976924043 0.0034250436431 0.015976924043 0.13221932726
          0.070959669261 -0.004620243551 0.0097860954053 -0.004620243551 -0.022149896216 -0.0039424249723
          0.0097860954053 -0.0039424249723 -0.031214409253 0.35920339381 0.01789715933 0.0037788309872
          0.01789715933 -0.069974401073 0.029629013646 0.0037788309872 0.029629013646 0.15002775131
          0.19254473008 0.0060355148671 -0.017849662665 0.0060355148671 -0.030769434699 0.0022163615939
          -0.017849662665 0.0022163615939 0.086588391071 0.36526291855 0.026116565962 0.0060212746901
          0.026116565962 -0.0018448068104 0.014537785012 0.0060212746901 0.014537785012 0.35893465039
          -0.013134280706 -0.0067093742295 -0.041485131564 -0.0067093742295 0.0095825730639 -0.018521942091
          -0.041485131564 -0.018521942091 0.027717036667 0.37697491931 0.022033894873 0.0013931295862
          0.022033894873 -0.0062177517884 0.018214907422 0.0013931295862 0.018214907422 0.35561883826
          0.081698446818 0.0072274878559 -0.0088176428447 0.0072274878559 -0.031608074768 -0.004770953625
          -0.0088176428447 -0.004770953625 -0.017260775697 0.046021937479 -0.0097812763144 -0.028169148452
          -0.0097812763144 0.0027001297169 -0.012551880037 -0.028169148452 -0.012551880037 0.015858915594
          0.052818255355 0.020603382398 -0.040455279923 0.020603382398 -0.010352903764 0.016513737611
          -0.040455279923 0.016513737611 0.08955532324 0.15156793862 0.0087516329554 2.0336330492e-05
          0.0087516329554 -0.037317300146 0.0053420515079 2.0336330492e-05 0.0053420515079 -0.012408879805
          -0.0073225280483 0.0049732938393 -0.013508771324 0.0049732938393 0.0087005749747 0.011956796441
          -0.013508771324 0.011956796441 0.042542525354 0.17371850914 4.7820490868e-05 -0.032450158188
          4.7820490868e-05 -0.022536165872 -0.0014105101208 -0.032450158188 -0.0014105101208 0.1218684794
          0.37503984914 0.018224657028 0.013475170567 0.018224657028 -0.0048766336737 0.017490786107
          0.013475170567 0.017490786107 0.35926224074 0.38237854323 0.022298001756 0.0038540165802
          0.022298001756 -0.0096643046409 0.021518005061 0.0038540165802 0.021518005061 0.35612311544
          0.11251224729 0.0028033863771 -0.020156149928 0.0028033863771 -0.043815464849 0.0080001187565
          -0.020156149928 0.0080001187565 -0.042751135497 0.35646406667 0.0053790801752 0.024499876829
          0.0053790801752 -0.0075061991404 0.028283875143 0.024499876829 0.028283875143 0.32699363528
          -0.04963490076 -0.00077224268734 -0.0003275487952 -0.00077224268734 0.0045322880551 0.0018282000425
          -0.0003275487952 0.0018282000425 0.055028097607 -0.010640229402 -0.0052221055935 -0.0033276969159
          -0.0052221055935 0.019754344394 -0.0033348069883 -0.0033276969159 -0.0033348069883 0.093821160229
          0.38800728149 0.021998330317 0.0072533613582 0.021998330317 -0.0096858443151 0.023637148289
          0.0072533613582 0.023637148289 0.35685851236 0.033761502328 -0.0090410885464 -0.042201746705
          -0.0090410885464 -0.0054119684254 0.0018690804821 -0.042201746705 0.0018690804821 0.033554935715
          0.1823444622 0.073275996711 -0.024186453538 0.073275996711 -0.042117599019 -0.035977869666
          -0.024186453538 -0.035977869666 -0.023562572868 0.1937667923 0.0050047541214 -0.012935984701
          0.0050047541214 -0.020012499942 -0.00038541388341 -0.012935984701 -0.00038541388341 0.11449138467
          0.15590514899 0.0044780939518 -0.017104762951 0.0044780939518 -0.028699771057 0.00072246442473
          -0.017104762951 0.00072246442473 0.071818319124 0.076896917393 0.033405924599 0.010633958917
          0.033405924599 -0.019165983308 0.0087400501122 0.010633958917 0.0087400501122 0.0021102015295
          0.1514340856 -0.0018690805398 -0.028615567165 -0.0018690805398 -0.011816499806 -0.0036363587344
          -0.028615567165 -0.0036363587344 0.11820820547 0.17716279808 -0.013659752681 0.0070296056026
          -0.013659752681 0.0072422617705 -0.037654558815 0.0070296056026 -0.037654558815 0.10495541209
          0.085743025272 0.0093698577829 -0.034771148986 0.0093698577829 0.0089448164506 -0.0084214260899
          -0.034771148986 -0.0084214260899 0.15389810473 0.1100684688 0.012228667913 -0.014354163862
          0.012228667913 0.0079752219708 -0.0055608316236 -0.014354163862 -0.0055608316236 0.11525906338
          0.38380203985 0.0074109840935 0.02368100422 0.0074109840935 -0.021651796421 0.029587342917
          0.02368100422 0.029587342917 0.3342418298 0.13691637085 -0.0064800953723 -0.027528979097
          -0.0064800953723 -0.0082882182144 -0.0064492085762 -0.027528979097 -0.0064492085762 0.11269668839
          0.38260526841 0.023597788999 0.01423751526 0.023597788999 -0.012816096556 0.012936917776
          0.01423751526 0.012936917776 0.33627041803 0.37045735721 0.02281358513 0.01863672197
          0.02281358513 -0.012458911058 0.020592069088 0.01863672197 0.020592069088 0.33768800276
          0.29265134698 -0.0046143791209 0.022740124006 -0.0046143791209 0.0077300215678 0.019604200888
          0.022740124006 0.019604200888 0.31568322035 0.27016821913 0.0080951253303 0.013554758782
          0.0080951253303 0.00087538139409 0.008948274679 0.013554758782 0.008948274679 0.25878255448
          -0.030277313952 -0.019370104343 0.0097026368444 -0.019370104343 0.022892303413 0.0096713076952
          0.0097026368444 0.0096713076952 0.062546942233 0.11853465708 -0.0059843681275 -0.0061649931281
          -0.0059843681275 0.0003307274891 -0.0069729150012 -0.0061649931281 -0.0069729150012 0.13043818469
          0.394790247 0.019014232329 0.012254233105 0.019014232329 -0.018125694883 0.023211626566
          0.012254233105 0.023211626566 0.32575469987 0.26607296324 0.0068958074076 0.061805048023
          0.0068958074076 -0.043373341059 -0.010304042613 0.061805048023 -0.010304042613 0.18481809416
          0.37576241292 0.0082396417162 0.015179905484 0.0082396417162 -0.030290606978 0.031965053405
          0.015179905484 0.031965053405 0.30544252303 0.0024630165839 -0.0021765187691 -0.018281508487
          -0.0021765187691 0.022693689869 0.0058061108321 -0.018281508487 0.0058061108321 0.08211412508
          0.16602516523 -0.0035896440613 -0.015894833786 -0.0035896440613 -0.052767453165 -0.018407310894
          -0.015894833786 -0.018407310894 -0.037004078089 0.37844924583 0.021915242037 0.0090826583686
          0.021915242037 -0.010151432202 0.019759634279 0.0090826583686 0.019759634279 0.3513166067
          -0.041780226607 -0.021748550716 0.012735462475 -0.021748550716 0.022686277774 0.0088009248093
          0.012735462475 0.0088009248093 0.069594499837 0.081477729413 -0.0015153234599 0.0032863833577
          -0.0015153234599 -0.028047797821 -0.0030326248897 0.0032863833577 -0.0030326248897 -0.028676551355
          0.36365191638 -0.00073018313732 0.008182966509 -0.00073018313732 -0.040574031602 0.031939286146
          0.008182966509 0.031939286146 0.24397659134 -0.028280857815 -0.015714605603 0.0035799304659
          -0.015714605603 0.01368519467 -0.0098216786122 0.0035799304659 -0.0098216786122 0.021148093866
          0.16898494523 0.0010991186004 -0.018081638057 0.0010991186004 -0.013304213413 -0.002153495833
          -0.018081638057 -0.002153495833 0.13277127964 0.032082035268 -0.042765239021 -0.018094388121
          -0.042765239021 0.037179774244 0.026483509273 -0.018094388121 0.026483509273 0.10230550719
          0.020673056846 -0.013793910428 -0.034170491743 -0.013793910428 0.011639432467 0.0063713475063
          -0.034170491743 0.0063713475063 0.098499613243 0.13285075185 0.00048787831986 -0.004935761463
          0.00048787831986 -0.039326289934 0.011466061252 -0.004935761463 0.011466061252 0.0029043952078
          0.38580386039 0.020439966459 0.012581190961 0.020439966459 -0.016719666016 0.022655856779
          0.012581190961 0.022655856779 0.33910975871 0.25931141891 0.08509735926 0.041903346999
          0.08509735926 -0.10164590144 0.027522172668 0.041903346999 0.027522172668 0.16204621813
          0.38480543656 0.019861227717 0.0047186213022 0.019861227717 -0.015556827018 0.014023333419
          0.0047186213022 0.014023333419 0.34324566837 0.10722531907 0.0077757819731 -0.030642184715
          0.0077757819731 0.023598451358 -0.0025339466446 -0.030642184715 -0.0025339466446 0.10161493887
          0.10289904618 0.01546777733 -0.04940320306 0.01546777733 0.012767358619 0.0086697757301
          -0.04940320306 0.0086697757301 0.10392578903 0.37312220663 0.020168715503 0.0080895028225
          0.020168715503 -0.009296606659 0.017179574069 0.0080895028225 0.017179574069 0.35077324977
          0.16171073272 0.0059752515089 -0.017631216552 0.0059752515089 -0.006267518554 -0.0065805458436
          -0.017631216552 -0.0065805458436 0.13558522854 0.18102769688 0.011115426454 0.013979146765
          0.011115426454 -0.03816482055 0.011198575578 0.013979146765 0.011198575578 0.018143401971
          0.11881258988 0.023004861234 0.0078461283827 0.023004861234 0.012316538851 0.0063677085583
          0.0078461283827 0.0063677085583 0.20269819618 0.20290426421 0.004527051754 -0.011336149045
          0.004527051754 -0.030550191599 0.0012671553608 -0.011336149045 0.0012671553608 0.090682288318
          0.093222865628 -0.0049567441821 -0.055804996304 -0.0049567441821 -0.03705959478 0.010683254335
          -0.055804996304 0.010683254335 0.10870712346 0.37228696696 0.019963437004 0.015780596722
          0.019963437004 -0.0095840128192 0.014610838866 0.015780596722 0.014610838866 0.335773592
          0.38587954759 0.022999895252 0.0073107713664 0.022999895252 -0.017689137261 0.012072829953
          0.0073107713664 0.012072829953 0.32746161455 0.18818532191 0.013799917759 0.012903343152
          0.013799917759 0.0078946889599 0.0072676292684 0.012903343152 0.0072676292684 0.24458095807
          0.28869485014 -0.0023912746509 0.0159797623 -0.0023912746509 -0.029212548795 0.015968702088
          0.0159797623 0.015968702088 0.21640636395 0.28697583604 0.0085155906109 -0.012617665741
          0.0085155906109 -0.072881488914 0.01760028825 -0.012617665741 0.01760028825 0.087279443154
          -0.016771295484 -1.0841284914e-05 0.0013961567828 -1.0841284914e-05 -0.0045742698171 -0.0018812499943
          0.0013961567828 -0.0018812499943 0.018557678707 0.37823903288 0.02132179425 0.0031778736791
          0.02132179425 -0.0083749096454 0.02044253125 0.0031778736791 0.02044253125 0.3518462984
          0.39142650905 0.024915303631 0.016579060375 0.024915303631 -0.03026592534 0.012405714516
          0.016579060375 0.012405714516 0.31145804389 0.33522209898 0.017097438281 0.025587227299
          0.017097438281 -0.0014345292951 0.017579520918 0.025587227299 0.017579520918 0.31873234377
          0.37435751721 0.022141003028 0.020525488259 0.022141003028 -0.028765485206 0.020433302529
          0.020525488259 0.020433302529 0.31405950828 0.17505558808 -0.0029543076189 -0.030290196667
          -0.0029543076189 -0.020770476899 -0.0037522641796 -0.030290196667 -0.0037522641796 0.12733494383
          0.32932009615 0.023951395 0.031566691907 0.023951395 -0.029655361337 0.011222300532
          0.031566691907 0.011222300532 0.25705608379 0.37110863096 0.016577323995 0.018132826085
          0.016577323995 -0.034103642655 0.011329628976 0.018132826085 0.011329628976 0.28204387911
          0.20067846667 -0.0025404915191 -0.013647317293 -0.0025404915191 -0.089911620526 0.027098502577
          -0.013647317293 0.027098502577 -0.049532136273 0.027795122809 -0.0060913432253 0.0046413388176
          -0.0060913432253 0.020106288323 0.0069576314019 0.0046413388176 0.0069576314019 0.097015216264
          0.18912438689 0.01672933386 -0.012260746045 0.01672933386 -0.030684923094 0.0034836778456
          -0.012260746045 0.0034836778456 0.035622761987 0.17205239827 -0.0057836759359 -0.026656309832
          -0.0057836759359 -0.01945021048 -0.0031009269482 -0.026656309832 -0.0031009269482 0.11781651985
          0.35678050156 0.01229339379 0.014969446888 0.01229339379 -0.03853323437 0.023928725424
          0.014969446888 0.023928725424 0.26646513627 0.10957469675 0.011060140359 -0.04060633961
          0.011060140359 0.014530067953 0.0025082442237 -0.04060633961 0.0025082442237 0.12161442742
          0.37005605735 0.018667592961 0.012718184801 0.018667592961 -0.0066527318659 0.01753326271
          0.012718184801 0.01753326271 0.34817208798 0.18272332535 -0.00084553419696 -0.035934861495
          -0.00084553419696 -0.022914911178 0.0011272989912 -0.035934861495 0.0011272989912 0.1251343215
          0.35049574303 0.0070781135003 0.01771790206 0.0070781135003 -0.00094566545917 0.017553904948
          0.01771790206 0.017553904948 0.34204217568 0.37247561439 0.022318986329 0.008641784474
          0.022318986329 -0.0094719972076 0.01809712855 0.008641784474 0.01809712855 0.35265237979
          0.15009688596 0.01124668075 -0.033065683147 0.01124668075 -0.011692923527 0.0025762477154
          -0.033065683147 0.0025762477154 0.1114981886 0.16732731861 0.00076778592486 -0.010543753553
          0.00076778592486 -0.043318529392 0.001322320352 -0.010543753553 0.001322320352 -0.0070201936307
          0.12913848878 -0.0024360969611 -0.039279396233 -0.0024360969611 0.0067350699232 0.0054630367776
          -0.039279396233 0.0054630367776 0.078044758812 0.32127536848 0.017565140541 0.015874046953
          0.017565140541 -0.020927687738 0.025788704951 0.015874046953 0.025788704951 0.26702847025
          -0.046417515903 -0.015716713032 -0.016212507158 -0.015716713032 0.0049444007864 -0.0027245550251
          -0.016212507158 -0.0027245550251 0.09230470455 0.15257338699 -0.0065511371633 -0.023853619521
          -0.0065511371633 -0.056393799526 -0.0045429310592 -0.023853619521 -0.0045429310592 -0.04269585604
          0.1807163962 0.0041280069478 -0.023741638568 0.0041280069478 -0.015557894872 -0.00031320623799
          -0.023741638568 -0.00031320623799 0.12794472459 0.36120374097 0.020169770826 0.0055189042477
          0.020169770826 -0.00066972329378 0.015732570103 0.0055189042477 0.015732570103 0.35679022373
          0.36570769554 0.030278990253 0.02614974446 0.030278990253 -0.010211985831 0.0074713600014
          0.02614974446 0.0074713600014 0.3166211393 0.13001589014 -0.00058314646996 -0.023431491865
          -0.00058314646996 -0.0017184710499 -0.0016981193829 -0.023431491865 -0.0016981193829 0.11796941432
          -0.10704368209 -0.01848260271 0.0023833117543 -0.01848260271 0.0078310039895 0.0020321951863
          0.0023833117543 0.0020321951863 0.035875735388 -0.048324069178 -0.0069774452836 -0.010957607716
          -0.0069774452836 0.015032435833 0.0043194104846 -0.010957607716 0.0043194104846 0.022415850205
          0.10484743024 0.0035293115747 0.014157484089 0.0035293115747 -0.035274244175 0.0098735039743
          0.014157484089 0.0098735039743 -0.037111588271 0.12982846774 5.4226712323e-05 -0.00026392393728
          5.4226712323e-05 -0.041611298746 -0.0048618404445 -0.00026392393728 -0.0048618404445 -0.069879771583
          0.0013289411252 -0.0040886774067 0.0073943976467 -0.0040886774067 0.0062934229197 0.0085564591665
          0.0073943976467 0.0085564591665 -0.010877579777 0.17758650858 0.0018303695529 -0.030693503441
          0.0018303695529 -0.018098123489 -0.00096565526317 -0.030693503441 -0.00096565526317 0.12246547914
          0.077487018964 0.021602810214 -0.026707205483 0.021602810214 -0.014844679045 0.0063275317425
          -0.026707205483 0.0063275317425 0.071751766028 0.16201233883 -0.0028206777139 0.0013217174021
          -0.0028206777139 -0.048664127536 0.0089085850235 0.0013217174021 0.0089085850235 -0.035216509055
          0.1180659418 0.027129733076 -0.027584404713 0.027129733076 0.012713376468 -0.011956018681
          -0.027584404713 -0.011956018681 0.21239088029 0.39563610663 0.014077694246 0.01644316631
          0.014077694246 -0.020875754292 0.023588814204 0.01644316631 0.023588814204 0.34644574073
          0.39024749488 0.026535713059 0.014785216501 0.026535713059 -0.029838006117 0.011253879937
          0.014785216501 0.011253879937 0.29078434837 0.048847660642 -0.0048808235558 -0.02354086327
          -0.0048808235558 -0.0079194685281 -0.0032979659718 -0.02354086327 -0.0032979659718 0.026249669171
          0.10163593795 -0.0039505451073 -0.027547410888 -0.0039505451073 -0.01761105003 -9.8448129254e-05
          -0.027547410888 -9.8448129254e-05 0.064433982309 0.37811444907 0.018276500005 0.025083970621
          0.018276500005 -0.051634097268 0.0043276325501 0.025083970621 0.0043276325501 0.2552226676
          0.16713448912 -0.000299999138 -0.030352397151 -0.000299999138 -0.012441049496 -0.00064412125803
          -0.030352397151 -0.00064412125803 0.12661956562 0.35810503573 0.0042510012651 0.014892686707
          0.0042510012651 -4.9065650051e-05 0.020267784357 0.014892686707 0.020267784357 0.3623314086
          -0.026934118086 0.0062930237197 0.0045827334356 0.0062930237197 -0.0025538877313 0.0078426462853
          0.0045827334356 0.0078426462853 0.025137901001 0.36077934244 0.10066065262 0.16578468796
          0.10066065262 -0.13379498997 0.052141205692 0.16578468796 0.052141205692 0.24949837709
          0.3712063534 0.020033983709 0.014354645314 0.020033983709 -0.0060438680923 0.023132174488
          0.014354645314 0.023132174488 0.35289910849 -0.01190750699 -0.0050259536914 -0.020401526991
          -0.0050259536914 0.02409301518 -0.0021289516321 -0.020401526991 -0.0021289516321 0.092947309576
          0.36426286119 0.010144125063 0.014360722424 0.010144125063 -0.0047346135484 0.020041700181
          0.014360722424 0.020041700181 0.35902779284 0.17442458678 -0.0014940499696 -0.003750141767
          -0.0014940499696 -0.072522386338 0.033622154576 -0.003750141767 0.033622154576 -0.10736414832
          0.18962364114 -0.00024911858577 -0.013689401072 -0.00024911858577 -0.05118338276 -0.0097816178802
          -0.013689401072 -0.0097816178802 0.070911742652 0.2660637021 0.011932724493 0.019257277078
          0.011932724493 0.0036478230604 0.020500654705 0.019257277078 0.020500654705 0.29495333142
          0.17539998624 0.0076127630601 0.0048709683983 0.0076127630601 -0.063097684389 -0.0053558733828
          0.0048709683983 -0.0053558733828 -0.065955493231 0.081129264416 0.0095130054931 -0.027681864264
          0.0095130054931 0.02924948953 0.0051679684096 -0.027681864264 0.0051679684096 0.19561605877
          0.11146343138 0.0036495052633 -0.0086681390685 0.0036495052633 -0.04174988143 0.0036428397809
          -0.0086681390685 0.0036428397809 -0.038557216669 0.25467638701 0.031668108673 -0.0055463001399
          0.031668108673 -0.06346519425 0.011733198217 -0.0055463001399 0.011733198217 0.028128040762
          0.37991956124 0.020532124525 0.0091340927138 0.020532124525 -0.0096121159289 0.017785807526
          0.0091340927138 0.017785807526 0.35099599654 0.38219244745 0.016678008561 0.0026589537474
          0.016678008561 -0.0086289147096 0.018421050888 0.0026589537474 0.018421050888 0.35264758759
          0.16305540878 6.9572078398e-06 -0.016396936974 6.9572078398e-06 -0.0090245581921 0.0034583704351
          -0.016396936974 0.0034583704351 0.13512547907 0.12464045318 0.020963570443 -0.015970293946
          0.020963570443 0.010944595012 -0.0011943751002 -0.015970293946 -0.0011943751002 0.20037316228
          0.20181539877 0.001721075334 -0.015940652054 0.001721075334 -0.025867747243 0.0030014057665
          -0.015940652054 0.0030014057665 0.094227995562 0.13697052876 -0.00093147114916 -0.010090875214
          -0.00093147114916 -0.04211726237 -0.020300885081 -0.010090875214 -0.020300885081 -0.039007566273
          0.21131548619 0.017706026772 -0.014675930887 0.017706026772 -0.082236863824 0.013190378001
          -0.014675930887 0.013190378001 -0.038075286316 0.13160806697 0.0092206172401 -0.014943844323
          0.0092206172401 0.025682437174 -0.017454685774 -0.014943844323 -0.017454685774 0.084925102965
          0.11606099893 -0.0090362677729 -0.027330511532 -0.0090362677729 -0.0077403709131 0.0068118781096
          -0.027330511532 0.0068118781096 0.10490336021 0.11801558365 0.0042914512633 -0.052416799717
          0.0042914512633 -0.012334645104 -0.010569597678 -0.052416799717 -0.010569597678 0.088027830926
          0.1940116209 0.0024358656346 -0.018593218159 0.0024358656346 -0.024657211553 -0.0059527558329
          -0.018593218159 -0.0059527558329 0.10656258243 0.29675977829 -0.084750037531 0.12843367756
          -0.084750037531 -0.083666045321 -0.067334183575 0.12843367756 -0.067334183575 0.20884110756
          0.36665436117 -0.0027199314439 -0.0071236752367 -0.0027199314439 -0.017818915338 0.043882365389
          -0.0071236752367 0.043882365389 0.30901572634 0.126988974 0.0051074979257 -0.0047273141879
          0.0051074979257 0.021905653928 -0.001174599983 -0.0047273141879 -0.001174599983 0.22201083435
          0.029529230703 0.016429664211 -0.0084845388643 0.016429664211 -0.0021362539155 -0.0080959109016
          -0.0084845388643 -0.0080959109016 0.0031110528351 0.39187482921 0.023456928121 0.011014174994
          0.023456928121 -0.032056945717 0.003447150783 0.011014174994 0.003447150783 0.31569590088
          -0.030806386299 -0.0080429524181 -0.031314257221 -0.0080429524181 -0.006887910352 -0.016175042767
          -0.031314257221 -0.016175042767 0.028696241332 0.37631426729 0.017721090742 0.015985100583
          0.017721090742 -0.011600264419 0.018556177198 0.015985100583 0.018556177198 0.34487108354
          0.38291100964 0.020670851171 0.0057165170715 0.020670851171 -0.015873596792 0.014766069878
          0.0057165170715 0.014766069878 0.33764478606 0.38606993775 0.019639689757 0.011618787557
          0.019639689757 -0.013976708811 0.013890905632 0.011618787557 0.013890905632 0.34286039106
          0.38856039517 0.02374183981 0.0089415819042 0.02374183981 -0.023285966722 0.015078553185
          0.0089415819042 0.015078553185 0.32931398204 0.17744600835 0.018479871575 -0.0060635152469
          0.018479871575 -0.057575821364 0.0064664398564 -0.0060635152469 0.0064664398564 -0.014555462108
          -0.047021842616 0.00063964402076 -0.016929346988 0.00063964402076 0.025150187482 -0.0080761848519
          -0.016929346988 -0.0080761848519 0.048285855774 0.37981289519 0.01795610474 0.016751355682
          0.01795610474 -0.017177581043 0.022901394904 0.016751355682 0.022901394904 0.34174265785
          0.37224631977 0.022924520986 0.011225133367 0.022924520986 -0.0045901888787 0.019970556769
          0.011225133367 0.019970556769 0.35765803492 0.31578751665 0.025673694513 0.032635566891
          0.025673694513 -0.015690824816 0.012021136811 0.032635566891 0.012021136811 0.31909636586
          0.39674038453 0.016153463337 0.013343663472 0.016153463337 -0.04027702372 0.01723502934
          0.013343663472 0.01723502934 0.29218381254 0.16878103862 0.0014277312145 -0.00023649783676
          0.0014277312145 -0.068908601504 0.007377063815 -0.00023649783676 0.007377063815 -0.081571649937
          0.37819889801 0.014213000867 0.017402321254 0.014213000867 -0.0079830651072 0.019375220532
          0.017402321254 0.019375220532 0.35889195074 0.29746869823 0.017502186395 0.0156738307
          0.017502186395 -0.010252188502 0.022976342436 0.0156738307 0.022976342436 0.27532836908
          0.17315735253 0.001030456797 -0.033701398734 0.001030456797 -0.012975540121 0.0011922502793
          -0.033701398734 0.0011922502793 0.12184192621 0.052351875214 0.0018246295878 -0.0093580590243
          0.0018246295878 0.0029984508567 -0.0075898809146 -0.0093580590243 -0.0075898809146 0.092384372868
          0.059436980125 0.001907789833 -0.027843676718 0.001907789833 0.0027297971172 -0.0028190442132
          -0.027843676718 -0.0028190442132 0.048346747872 0.17663099583 0.0021671669357 -0.033739256794
          0.0021671669357 -0.015175875708 -0.00010817064901 -0.033739256794 -0.00010817064901 0.1197600275
          0.1695656146 0.011921210818 -0.028056000365 0.011921210818 -0.041877272245 -0.0041048099981
          -0.028056000365 -0.0041048099981 -0.010242262254 0.32589445011 0.011954103419 0.028089898766
          0.011954103419 -0.028885796288 0.024434544991 0.028089898766 0.024434544991 0.28389271227
          0.073583946761 -0.0068099417262 -0.021580426248 -0.0068099417262 0.00051968076313 -0.01042632198
          -0.021580426248 -0.01042632198 0.046667255044 0.14699562904 0.0019459048296 -0.029857715497
          0.0019459048296 -0.008114681728 -0.0025825883065 -0.029857715497 -0.0025825883065 0.11512063185
          0.17853481629 -0.0052438525718 -0.010143750938 -0.0052438525718 -0.040659425422 -0.0056115842073
          -0.010143750938 -0.0056115842073 0.073020863015 0.090736128743 -0.0089710108464 -0.028054895239
          -0.0089710108464 -0.0039876063384 -0.00066922449597 -0.028054895239 -0.00066922449597 0.092490351827
          0.38358658158 0.024778909067 0.018147561976 0.024778909067 -0.025273991069 0.0045128080943
          0.018147561976 0.0045128080943 0.3321208255 0.15177334379 0.0070862216735 -0.0097256886716
          0.0070862216735 -0.035425253093 0.012084236909 -0.0097256886716 0.012084236909 0.047055989357
          0.024001023643 0.00090325618996 0.0040212828086 0.00090325618996 0.0072382448288 -0.006454073367
          0.0040212828086 -0.006454073367 0.069466893634 0.12144127092 0.0080026981829 -0.039699341468
          0.0080026981829 -0.020465302514 0.0013210688372 -0.039699341468 0.0013210688372 0.040943175688
          0.32624748449 0.025876454835 0.016400934319 0.025876454835 -0.024235512019 0.012102965167
          0.016400934319 0.012102965167 0.29043639357 0.08305383942 0.014321726071 -0.03808981534
          0.014321726071 -0.013413393811 0.014338875879 -0.03808981534 0.014338875879 0.06736219468
          0.32940259062 0.016055605661 0.012853028545 0.016055605661 -0.0027169641039 0.012607607765
          0.012853028545 0.012607607765 0.3463513184 0.17170176882 0.0034555774499 -0.030562682168
          0.0034555774499 -0.015496523146 -0.00018658942186 -0.030562682168 -0.00018658942186 0.12339206647
          0.34339767235 0.019103612909 0.008479681958 0.019103612909 -0.037488723315 0.013687232541
          0.008479681958 0.013687232541 0.29175206778 0.39302811311 0.024460363391 0.011683947752
          0.024460363391 -0.033135553357 0.0027572534571 0.011683947752 0.0027572534571 0.31525500438
          0.39785281708 0.014745828545 0.02042218296 0.014745828545 -0.022334024359 0.030989522416
          0.02042218296 0.030989522416 0.330416153 0.32702696481 0.017633208063 0.01705101585
          0.017633208063 -0.0033534065482 0.0093148238798 0.01705101585 0.0093148238798 0.33955317971
          -0.0439730905 -0.0066832924824 -0.010363927835 -0.0066832924824 0.019952713165 -0.0047144238991
          -0.010363927835 -0.0047144238991 0.089716822816 0.31901270516 0.036091571086 0.031036998044
          0.036091571086 0.0010814553635 0.0093115206949 0.031036998044 0.0093115206949 0.31686516028
          0.39382865801 0.017326463763 0.011099413834 0.017326463763 -0.019771352305 0.025373489711
          0.011099413834 0.025373489711 0.33769359071 0.23316931262 -0.00027984398762 -0.0014548888139
          -0.00027984398762 -0.0075848382683 0.016440067069 -0.0014548888139 0.016440067069 0.17638405617
          0.20119684589 -0.0014093664149 -0.024131313599 -0.0014093664149 -0.038284881182 -0.0074324322167
          -0.024131313599 -0.0074324322167 0.099706729742 0.12273436672 0.012806038576 0.00033749182199
          0.012806038576 -0.05256742237 0.040153463257 0.00033749182199 0.040153463257 0.15514593263
          0.062781966758 0.0064059219292 -0.0074779099939 0.0064059219292 -0.0088760155688 0.00029216704344
          -0.0074779099939 0.00029216704344 0.096072908507 0.17492604096 0.00090075476041 -0.034746632953
          0.00090075476041 -0.016112215742 -0.00080501286679 -0.034746632953 -0.00080501286679 0.11977545944
          0.16370106866 0.0032269397036 -0.0062083695085 0.0032269397036 -0.061483589378 -0.0042298900565
          -0.0062083695085 -0.0042298900565 -0.021833232216 0.18374397465 -0.0015699148204 -0.020640971938
          -0.0015699148204 -0.021844256046 0.0043436558458 -0.020640971938 0.0043436558458 0.10094938737
          -0.0052245601321 0.0072431555749 -0.0022132528575 0.0072431555749 0.010976369131 -0.010024221477
          -0.0022132528575 -0.010024221477 0.01608246202 0.086750926529 -0.00405342799 -0.0063093619982
          -0.00405342799 -0.025313596843 -0.0046367130781 -0.0063093619982 -0.0046367130781 -0.018600583426
          0.10921881132 0.00040885208604 -0.017199465278 0.00040885208604 -0.044264758912 0.011069751502
          -0.017199465278 0.011069751502 -0.044744527294 0.11739311072 0.015716952615 -0.0029003375798
          0.015716952615 0.023032151171 0.02620097249 -0.0029003375798 0.02620097249 0.23822745625
          0.11204376558 -0.0054238027374 -0.032932685736 -0.0054238027374 -0.010455446934 0.0034610031761
          -0.032932685736 0.0034610031761 0.049446534691 0.17977943803 -0.0034499048728 0.033352083212
          -0.0034499048728 -0.047858698073 0.03377087153 0.033352083212 0.03377087153 0.21523600538
          0.17284492127 0.0046343132307 0.0082749748825 0.0046343132307 -0.066948649811 -0.00032221785623
          0.0082749748825 -0.00032221785623 -0.0522221146 0.099379533651 -0.027367762509 0.049427712535
          -0.027367762509 -0.017210452634 -0.028717527271 0.049427712535 -0.028717527271 0.092108873035
          0.10527231562 -0.0092626463998 -0.035310606209 -0.0092626463998 -0.021638579298 0.010735868786
          -0.035310606209 0.010735868786 -0.063137336138 0.093987733707 -0.012208190707 -0.054816103245
          -0.012208190707 0.0012742092736 -0.0011306164006 -0.054816103245 -0.0011306164006 0.11893497589
          0.19166950113 0.024982488258 0.0058825141922 0.024982488258 0.0052137720361 0.027365835885
          0.0058825141922 0.027365835885 0.23414258367 0.12308025004 -0.006775165538 -0.013147577239
          -0.006775165538 -0.0026268871007 -0.0017068394008 -0.013147577239 -0.0017068394008 0.13363437022
          0.11560822628 -0.0079830773764 -0.029840353929 -0.0079830773764 -0.0020461049297 -0.0030429568821
          -0.029840353929 -0.0030429568821 0.083906945817 0.080260226154 0.023843919942 -0.023379139446
          0.023843919942 0.013863617198 -0.012939144863 -0.023379139446 -0.012939144863 0.14537138591
          0.13654937855 -0.011169383306 -0.028071640433 -0.011169383306 -0.034200056235 -0.0013408207379
          -0.028071640433 -0.0013408207379 -0.0035555563169 0.18111273673 0.0017528014577 -0.037602637966
          0.0017528014577 -0.018922154237 -0.0046101516932 -0.037602637966 -0.0046101516932 0.1065288539
          0.33211669577 0.0050041128742 0.018943835219 0.0050041128742 -0.035184650438 0.022981115507
          0.018943835219 0.022981115507 0.24143592957 0.041028175912 -0.0034039657897 0.00089670231143
          -0.0034039657897 -0.0075328509328 -0.0073660751943 0.00089670231143 -0.0073660751943 -0.0045836889803
          0.13344195414 -0.006317830034 -0.027281213161 -0.006317830034 -0.017486172116 -0.0063189714139
          -0.027281213161 -0.0063189714139 0.059144655091 0.2048648112 0.0083791587469 0.007365554988
          0.0083791587469 -0.075991558229 0.0054051409712 0.007365554988 0.0054051409712 -0.022220983237
          0.38635460904 0.022682424676 0.0092192070225 0.022682424676 -0.028777705102 0.020003534291
          0.0092192070225 0.020003534291 0.32453806001 0.12730510269 0.013955340297 -0.011048223228
          0.013955340297 0.018695460151 -0.0044256592189 -0.011048223228 -0.0044256592189 0.12364077994
          0.38018056138 0.0043882074812 0.017958391714 0.0043882074812 -0.02988118337 0.025250694143
          0.017958391714 0.025250694143 0.3126378159 0.28328460274 -0.0317578066 -0.087934130059
          -0.0317578066 0 0 -0.087934130059 0 0
          0.11354047906 0.0095842390784 -0.014734039008 0.0095842390784 0.020603494231 0.0066158640334
          -0.014734039008 0.0066158640334 0.108902313 0.016860688516 -0.0066830315186 0.0044607375737
          -0.0066830315186 0.016803740186 0.013160313431 0.0044607375737 0.013160313431 0.097293064473
          0.16232759814 -0.0010264915335 -0.0055070537001 -0.0010264915335 -0.042110333928 -0.0034848328011
          -0.0055070537001 -0.0034848328011 0.017764038466 0.0040123257281 -0.0059216086876 0.056387314632
          -0.0059216086876 0.016586342212 0.0083747131021 0.056387314632 0.0083747131021 0.056722191285
          0.17004724284 0.010859914351 -0.027490881224 0.010859914351 -0.015274251596 0.0019747661507
          -0.027490881224 0.0019747661507 0.12720053212 0.1731547559 0.0050073733799 -0.018838769423
          0.0050073733799 -0.015067407419 -0.0014638148583 -0.018838769423 -0.0014638148583 0.13546662552
          0.28009571853 0.01200772995 0.007039373708 0.01200772995 -0.017718476849 0.017489901269
          0.007039373708 0.017489901269 0.22949285379 0.37740765555 0.016465997624 0.016496169705
          0.016465997624 -0.011606805631 0.019938767108 0.016496169705 0.019938767108 0.34243046686
          0.35429378641 0.009450684299 0.019040404539 0.009450684299 -0.052861984291 0.016074518762
          0.019040404539 0.016074518762 0.22882592982 0.12554411366 0.0077552594726 -0.037188102671
          0.0077552594726 0.00033704959264 -0.027750941162 -0.037188102671 -0.027750941162 0.11958483109
          0.20193053962 0.005830606603 -0.01653162636 0.005830606603 -0.035249962434 0.0063330396259
          -0.01653162636 0.0063330396259 0.10847495396 0.30478894659 0.028207813563 0.035753283976
          0.028207813563 -0.0019715501911 0.0067357884373 0.035753283976 0.0067357884373 0.27352062361
          0.35996714616 0.027649536317 0.014697970517 0.027649536317 -0.0020951374954 0.014938660057
          0.014697970517 0.014938660057 0.35084812751 0.32947885477 -0.0016116662213 0.025239362398
          -0.0016116662213 0.00090662935844 0.023056442551 0.025239362398 0.023056442551 0.32845727965
          0.011408438946 -0.00011723796557 -0.0050869998767 -0.00011723796557 -0.005283092187 0.0025414084023
          -0.0050869998767 0.0025414084023 -0.0043880289122 0.097821841401 0.01476781589 -0.042299425994
          0.01476781589 -0.041832682396 0.016261919649 -0.042299425994 0.016261919649 0.053800971668
          0.21693939951 0.041624466654 0.015226463644 0.041624466654 -0.017182442484 -0.02716494811
          0.015226463644 -0.02716494811 0.19364304491 -0.045566928259 0.0016672510483 0.013223888155
          0.0016672510483 0.010718228952 -0.0014927083721 0.013223888155 -0.0014927083721 0.021755883092
          0.095166899573 -0.0018164069001 -0.037549889806 -0.0018164069001 -0.0049515477021 -0.0029371325038
          -0.037549889806 -0.0029371325038 0.11203880215 -0.038002382673 -0.0091219914904 -0.023699112344
          -0.0091219914904 0.010999192069 -0.005714777055 -0.023699112344 -0.005714777055 0.05601358849
          0.3503640433 0.024594127438 0.027467418432 0.024594127438 -0.029152188843 0.01741515163
          0.027467418432 0.01741515163 0.2994730327 0.33753759845 0.023621609003 0.043188994076
          0.023621609003 -0.041623600762 0.014118932791 0.043188994076 0.014118932791 0.22477417604
          0.34916962574 0.013274407236 0.018176679221 0.013274407236 -0.0038339622841 0.019307580743
          0.018176679221 0.019307580743 0.34308151608 0.15840653308 0.0049132247622 -0.031943190315
          0.0049132247622 -0.023321220279 -0.0026422730843 -0.031943190315 -0.0026422730843 0.063926731411
          0.31381762108 0.028242344449 0.037214257235 0.028242344449 -0.022028953158 0.00029099156266
          0.037214257235 0.00029099156266 0.2649556118 0.2451101099 0.011183571864 -0.0024368051668
          0.011183571864 0.015117050285 0.021355969165 -0.0024368051668 0.021355969165 0.23859818118
          0.11116063463 0.0041121127426 0.00043294651363 0.0041121127426 -0.042777804999 0.0061215965529
          0.00043294651363 0.0061215965529 -0.061711889201 0.38239332008 0.019461125029 0.0058877620383
          0.019461125029 -0.015880312329 0.012980191099 0.0058877620383 0.012980191099 0.34278364197
          0.11272322718 0.019427580168 -0.032891916156 0.019427580168 0.0088234291344 -0.009178881569
          -0.032891916156 -0.009178881569 0.1347792285 0.18016790158 -0.0022396414954 -0.023997899101
          -0.0022396414954 -0.013121543313 -7.4090932626e-05 -0.023997899101 -7.4090932626e-05 0.13550847418
          0.040260988895 -0.012178736198 0.0097720403357 -0.012178736198 0.021764010625 0.019633719783
          0.0097720403357 0.019633719783 0.15678399597 0.26611226934 0.019890931901 0.002621333851
          0.019890931901 0.0094384789591 0.025136690567 0.002621333851 0.025136690567 0.29950756968
          0.38161090607 0.017594444715 0.0025053131239 0.017594444715 -0.0092627615544 0.018246214969
          0.0025053131239 0.018246214969 0.35282153666 0.064749612216 -0.0029750595633 -0.0125497367
          -0.0029750595633 -0.029236566978 0.0019715063829 -0.0125497367 0.0019715063829 -0.024441422924
          0.37436114822 0.021579443723 0.00718034836 0.021579443723 -0.0079437221747 0.016296766398
          0.00718034836 0.016296766398 0.351348755 0.37943184236 0.022290719399 0.011696882918
          0.022290719399 -0.011238752348 0.017435099711 0.011696882918 0.017435099711 0.34998625243
          0.17802215671 0.0039644390897 -0.033804707712 0.0039644390897 -0.014996514216 -0.0018430198829
          -0.033804707712 -0.0018430198829 0.11917398872 0.087578935394 0.02044880544 -0.0093918416772
          0.02044880544 -0.034299890375 0.0057392200047 -0.0093918416772 0.0057392200047 0.0045105887791
          0.38668235634 0.010105421135 0.021143572862 0.010105421135 -0.023239319739 0.028149127311
          0.021143572862 0.028149127311 0.33221960486 0.17097609913 0.0098519220221 -0.0032179739235
          0.0098519220221 -0.069950390914 -0.00090308647516 -0.0032179739235 -0.00090308647516 -0.056483170876
          0.38731341595 0.020999085099 0.0090714652228 0.020999085099 -0.01461647524 0.022092759271
          0.0090714652228 0.022092759271 0.34635617226 0.085352311483 -0.0078252297057 -0.013816141022
          -0.0078252297057 -0.0073146399958 -0.0052588670674 -0.013816141022 -0.0052588670674 0.066829699662
          0.012698672586 0.0025955417523 -0.0087025657582 0.0025955417523 -0.0096653074016 -0.017723637074
          -0.0087025657582 -0.017723637074 0.022523741134 0.1794478096 0.0048311316401 -0.028775295381
          0.0048311316401 -0.027833841784 0.0050498251162 -0.028775295381 0.0050498251162 0.10168398474
          0.37306206313 0.023668797033 0.012731324909 0.023668797033 -0.010549098585 0.016128375181
          0.012731324909 0.016128375181 0.34456626047 0.17590753666 0.0020370008009 -0.032825368064
          0.0020370008009 -0.016401157486 -6.9479369101e-05 -0.032825368064 -6.9479369101e-05 0.12092374078
          0.032933497624 -0.0020712515614 -0.029815628303 -0.0020712515614 -0.0076149297981 -0.010810088255
          -0.029815628303 -0.010810088255 0.0015686371572 0.11749554368 0.017110939353 -0.025915688876
          0.017110939353 -0.018851607645 0.0028850082918 -0.025915688876 0.0028850082918 0.069656523769
          -0.0056897782803 0.0027741057558 -0.0082884411732 0.0027741057558 0.010466817582 0.00050723884747
          -0.0082884411732 0.00050723884747 0.042910551105 0.37470131934 0.023063781448 0.0078064080998
          0.023063781448 -0.0089212488807 0.019121407011 0.0078064080998 0.019121407011 0.35327676568
          0.079794966346 -0.00820919329 -0.017419397653 -0.00820919329 -0.00060681698924 -0.001178003288
          -0.017419397653 -0.001178003288 0.10119893119 0.37666371927 0.018738090587 0.011036144798
          0.018738090587 -0.0077448721591 0.021482445286 0.011036144798 0.021482445286 0.35394659223
          0.31742790994 0.0094370535038 0.010087752848 0.0094370535038 0.0057132507832 0.017802809592
          0.010087752848 0.017802809592 0.35206059362 0.38804260763 0.02054781301 0.0068645928074
          0.02054781301 -0.015360003754 0.013293317051 0.0068645928074 0.013293317051 0.34429577395
          0.38199810307 0.016741143749 0.0048826385254 0.016741143749 -0.0081135507213 0.021204744588
          0.0048826385254 0.021204744588 0.35792813612 0.13081291576 0.010829260887 -0.039030172082
          0.010829260887 -0.048823833312 -0.022106336494 -0.039030172082 -0.022106336494 -0.012160120757
          0.35272466937 0.01865475935 0.013706295331 0.01865475935 -0.033108835307 0.013477369614
          0.013706295331 0.013477369614 0.25078542305 0.15001099291 0.0064611716933 -0.03171373155
          0.0064611716933 -0.017259496367 0.00242601907 -0.03171373155 0.00242601907 0.12463802189
          0.38013919707 0.020531064678 0.0059515297676 0.020531064678 -0.0092939550654 0.017820538025
          0.0059515297676 0.017820538025 0.35500612268 0.14243336961 -0.0067565952156 -0.020407397371
          -0.0067565952156 -0.0066363329353 -0.0043474862435 -0.020407397371 -0.0043474862435 0.10625544595
          0.37977128626 0.017228354034 0.016917198354 0.017228354034 -0.011996081029 0.022465127887
          0.016917198354 0.022465127887 0.34769000477 0.22331921427 0.026610082407 0.0050343282127
          0.026610082407 0.010541439244 0.016609833777 0.0050343282127 0.016609833777 0.28961784533
          0.09868252216 -0.005208393894 0.0066771517028 -0.005208393894 -0.030003788533 -0.00079699616839
          0.0066771517028 -0.00079699616839 -0.044186254587 0.38534093483 0.021730318236 0.014070816461
          0.021730318236 -0.01232734376 0.014288704053 0.014070816461 0.014288704053 0.34316356
          0.18131193097 -0.01287926054 0.00049234903777 -0.01287926054 -0.052926877431 0.0025541726532
          0.00049234903777 0.0025541726532 -0.07727388916 0.37898488151 0.020052987249 0.0095436061916
          0.020052987249 -0.0061084050501 0.017463057885 0.0095436061916 0.017463057885 0.35089225376
          0.10494635571 0.034469834573 -0.07412322262 0.034469834573 -0.01844856059 0.022218688824
          -0.07412322262 0.022218688824 0.029332239411 0.32602497477 0.0042299168716 0.024017635691
          0.0042299168716 -0.015340599286 0.038341632618 0.024017635691 0.038341632618 0.29579267404
          0.3289959405 0.027763966067 0.013684512487 0.027763966067 0.00033539616797 0.0098348260276
          0.013684512487 0.0098348260276 0.34090037667 0.087457811096 0.016034649161 -0.048233819982
          0.016034649161 -0.045153261761 -0.0064238082681 -0.048233819982 -0.0064238082681 0.041960230283
          0.10221463516 0.002528941239 -0.030011098797 0.002528941239 -0.0091747115065 -0.0082092236177
          -0.030011098797 -0.0082092236177 0.056262354152 0.38142854218 0.014207908632 0.011957351172
          0.014207908632 -0.010531700704 0.020910264356 0.011957351172 0.020910264356 0.35931969383
          0.14961363747 -0.0066294198024 -0.031863510331 -0.0066294198024 -0.0090278253017 -0.0081944594866
          -0.031863510331 -0.0081944594866 0.11898620486 0.38750295247 0.010233832611 0.013608513263
          0.010233832611 -0.0082424635086 0.019850021201 0.013608513263 0.019850021201 0.35976722967
          0.1355471793 0.01728793067 -0.027032644573 0.01728793067 -0.033014291607 0.0039420982979
          -0.027032644573 0.0039420982979 0.063918683051 0.3448415943 0.022346130736 0.020092188428
          0.022346130736 -0.0089896262075 0.01383082105 0.020092188428 0.01383082105 0.32220132642
          0.37354424132 0.010647178388 0.013350537628 0.010647178388 -0.003913434122 0.020074231561
          0.013350537628 0.020074231561 0.36245500228 0.37014776178 0.019783934098 0.0095002200184
          0.019783934098 -0.0048689186894 0.01712437956 0.0095002200184 0.01712437956 0.34993527707
          0.1579991474 0.010605877684 -0.0099104707836 0.010605877684 -0.044744673901 0.0038547988825
          -0.0099104707836 0.0038547988825 -0.072896771596 0.17290805199 0.0032056897743 -0.032190260405
          0.0032056897743 -0.016162056629 0.00067230439551 -0.032190260405 0.00067230439551 0.12283900239
          0.14271824522 0.035534271504 -0.023118953753 0.035534271504 -0.015391636758 -0.037149185635
          -0.023118953753 -0.037149185635 0.19424494887 0.37372876232 0.019999329621 0.0080041901065
          0.019999329621 -0.0052732775739 0.018810759891 0.0080041901065 0.018810759891 0.35068779403
          0.35970878599 0.019455899806 0.0049379182839 0.019455899806 0.0013075529483 0.016606146168
          0.0049379182839 0.016606146168 0.35713593018 0.099975716835 0.0082025729679 -0.030859024746
          0.0082025729679 0.015015500025 0.0068233393181 -0.030859024746 0.0068233393181 0.15484471086
          0.3565697261 0.017844383229 0.0060292898912 0.017844383229 0.00083914658328 0.015979937495
          0.0060292898912 0.015979937495 0.36067885306 0.35711642362 0.0054749219602 0.025635745439
          0.0054749219602 -0.014179166548 0.0153712791 0.025635745439 0.0153712791 0.30338870077
          -0.0013900607058 -0.0063219535656 0.0075459483984 -0.0063219535656 0.0058786668591 -0.0097272795651
          0.0075459483984 -0.0097272795651 0.022438895428 0.27569210702 0.017993057529 0.034492032233
          0.017993057529 -0.02319788492 0.012651368301 0.034492032233 0.012651368301 0.22915244832
          0.21401959976 0.033282091183 0.01337604133 0.033282091183 -0.01392954323 -0.0033352740348
          0.01337604133 -0.0033352740348 0.2323745992 0.18398239867 0.0013706625104 -0.015670709863
          0.0013706625104 -0.032252858317 -0.00050871988617 -0.015670709863 -0.00050871988617 0.063503486152
          0.39364512388 0.016514080968 0.0091921274083 0.016514080968 -0.02302297458 0.022715046985
          0.0091921274083 0.022715046985 0.33280770128 0.38683847036 0.018303600873 0.0075803934108
          0.018303600873 -0.0086991174645 0.020885316244 0.0075803934108 0.020885316244 0.35538330386
          0.33819955454 0.017271312879 0.029964331969 0.017271312879 -0.020969363485 0.010302848169
          0.029964331969 0.010302848169 0.27853258155 0.33254719639 0.0087238834526 0.013768171304
          0.0087238834526 0.012372561199 0.011417111331 0.013768171304 0.011417111331 0.34617385969
          0.13261355535 0.011715660827 -0.022420180807 0.011715660827 0.023249869001 0.0070656005421
          -0.022420180807 0.0070656005421 0.082709034472 -0.038203883199 -0.0067028194078 0.013983110148
          -0.0067028194078 0.018269881337 0.014560379293 0.013983110148 0.014560379293 0.013657694987
          0.37320847405 0.020142085284 0.012043718803 0.020142085284 -0.0085219267181 0.015095858742
          0.012043718803 0.015095858742 0.34644013412 -0.089731168084 0.0029969216951 -0.016403934087
          0.0029969216951 0.026167760073 -0.011904309929 -0.016403934087 -0.011904309929 0.026897357958
          0.15441221794 0.017590670682 -0.0070482217157 0.017590670682 -0.030151767035 0.0050583737764
          -0.0070482217157 0.0050583737764 0.08127455551 0.37639599633 0.029454579461 0.022888014753
          0.029454579461 -0.024649858006 0.0038380119233 0.022888014753 0.0038380119233 0.33057756165
          0.17685323343 0.0010779518177 -0.031496244523 0.0010779518177 -0.016159952588 -0.00092896121689
          -0.031496244523 -0.00092896121689 0.12246559809 0.33267886538 0.0054228839778 0.022728977421
          0.0054228839778 -0.015127266961 0.038025289512 0.022728977421 0.038025289512 0.28288777739
          0.21725943942 0.007590520078 0.0034127252502 0.007590520078 0.0050388454908 0.0024178421729
          0.0034127252502 0.0024178421729 0.20916042889 0.37428960202 0.024767707506 0.014045501618
          0.024767707506 -0.013417430603 0.0091010637849 0.014045501618 0.0091010637849 0.33715869639
          0.39312097946 0.019088937992 0.010520075121 0.019088937992 -0.020588484983 0.018634049715
          0.010520075121 0.018634049715 0.33925558512 0.15761952734 -0.0030820757114 -0.039866924626
          -0.0030820757114 -0.014947079077 -0.0032756196389 -0.039866924626 -0.0032756196389 0.064079409577
          0.1523636005 0.012361121001 -0.0085182331992 0.012361121001 -0.071635094757 0.015656354633
          -0.0085182331992 0.015656354633 -0.062577451581 0.12903706996 -0.0045268422552 -0.016777940886
          -0.0045268422552 -0.042124636038 -0.0037188389107 -0.016777940886 -0.0037188389107 -0.070950811223
          0.17432393171 -0.00022903334498 -0.028520900612 -0.00022903334498 -0.016875416757 -0.0015067723697
          -0.028520900612 -0.0015067723697 0.12693766671 0.18004246067 0.0027911489324 -0.031338040231
          0.0027911489324 -0.016962289497 -0.0020546592602 -0.031338040231 -0.0020546592602 0.12162256855
          0.18329831015 0.011590601708 0.0067278951437 0.011590601708 -0.039115758738 0.01518838558
          0.0067278951437 0.01518838558 0.015433279232 -0.056462424077 0.003317257765 0.0037364548317
          0.003317257765 0.017940235791 0.0011096217417 0.0037364548317 0.0011096217417 0.085686806536
          0.16665111274 0.004608397628 -0.030199450036 0.004608397628 -0.025191509827 -4.3344387518e-05
          -0.030199450036 -4.3344387518e-05 0.10272373581 0.10211983447 -0.019653548058 -0.036249671284
          -0.019653548058 -0.0074112859173 -0.036651884549 -0.036249671284 -0.036651884549 0.116182166
          0.087129389401 0.018580227613 -0.030543749918 0.018580227613 -0.032058593512 0.00093654766675
          -0.030543749918 0.00093654766675 0.049250048527 0.37674302041 0.019465389506 0.0071670532955
          0.019465389506 -0.008809973248 0.018297123748 0.0071670532955 0.018297123748 0.35507843308
          0.030354675147 0.00029210656812 -0.01405919007 0.00029210656812 0.010107292789 0.003098587843
          -0.01405919007 0.003098587843 0.11947217159 0.11574451001 0.011608812055 -0.010426686191
          0.011608812055 0.021209299984 -0.0045645602458 -0.010426686191 -0.0045645602458 0.1051181526
          0.2553571935 -0.028036180404 -0.0011701883545 -0.028036180404 -0.055953330026 0.028925309656
          -0.0011701883545 0.028925309656 0.074744392886 0.035774459849 -0.0083147519857 -0.0070241650326
          -0.0083147519857 0.0012421103594 -0.0064561382035 -0.0070241650326 -0.0064561382035 0.09981687357
          0.23838363217 0.0041310910632 0.0078746940588 0.0041310910632 -0.04912771589 0.0097759706729
          0.0078746940588 0.0097759706729 0.083076965988 0.19100838964 0.0042552651417 -0.020237415967
          0.0042552651417 -0.027338253226 -0.0071457781052 -0.020237415967 -0.0071457781052 0.11587079896
          0.076385835072 0.011532487864 -0.02597191579 0.011532487864 0.02427097691 0.017007627908
          -0.02597191579 0.017007627908 0.13681744746 0.19032916941 0.0044165883064 -0.025490463824
          0.0044165883064 -0.027189232821 -0.0075645716295 -0.025490463824 -0.0075645716295 0.051595774724
          0.27986140767 -0.0006531547851 0.0049112548294 -0.0006531547851 0.0067536549452 0.020409986574
          0.0049112548294 0.020409986574 0.30734507378 0.022446982602 0.0021992289792 0.010483302741
          0.0021992289792 -0.018048270608 0.0031774718069 0.010483302741 0.0031774718069 0.0081211543926
          0.10718576015 0.027233319589 -0.072215062273 0.027233319589 0.007709977197 0.0034651213919
          -0.072215062273 0.0034651213919 0.090653102808 0.17892395299 0.0064890420596 -0.018237784124
          0.0064890420596 -0.069160977636 0.0096338572975 -0.018237784124 0.0096338572975 -0.083831838997
          0.11362222914 0.027699756914 -0.021689331706 0.027699756914 0.032023454721 -0.0032100655131
          -0.021689331706 -0.0032100655131 0.19861051296 0.17581824644 0.009975856719 -0.011797318528
          0.009975856719 -0.070487614548 0.0072756509831 -0.011797318528 0.0072756509831 -0.083668900795
          0.38812534909 0.017807354062 0.016127538804 0.017807354062 -0.010689039681 0.024108147509
          0.016127538804 0.024108147509 0.34953678443 0.38741330857 0.022293403555 0.0065666059597
          0.022293403555 -0.018034134917 0.021666751312 0.0065666059597 0.021666751312 0.34649374562
          0.26683082903 0.0027426868558 0.004518878838 0.0027426868558 -0.04941433331 0.011497772
          0.004518878838 0.011497772 0.076623096818 -0.095583107302 -0.0054128836296 0.0034940468345
          -0.0054128836296 0.026076136395 -0.010385544326 0.0034940468345 -0.010385544326 0.023993731243
          0.1541999154 -0.00058798195171 -0.010173720346 -0.00058798195171 -0.03867252537 0.0049692630873
          -0.010173720346 0.0049692630873 0.034520849346 0.34422911571 0.0047646907442 0.021678321355
          0.0047646907442 -0.029336540313 0.026877657857 0.021678321355 0.026877657857 0.28990855189
          0.11204622413 0.0079766828141 0.0091911343963 0.0079766828141 -0.05495957366 0.0038055075886
          0.0091911343963 0.0038055075886 -0.01759115641 0.34366303366 0.0063825144971 0.0032328627838
          0.0063825144971 -0.039086153624 0.0259284134 0.0032328627838 0.0259284134 0.25778214464
          0.1430084298 -0.011238522445 0.01190552109 -0.011238522445 0.0067831699837 0.019545596018
          0.01190552109 0.019545596018 0.19067390676 0.14951830477 0.011152351259 -0.011483441665
          0.011152351259 0.021017097478 -0.0051345162895 -0.011483441665 -0.0051345162895 0.086757925044
          0.14261247189 0.0037407310908 -0.027581543115 0.0037407310908 -0.057773118781 0.0050326986284
          -0.027581543115 0.0050326986284 -0.0074408306619 0.38481339725 0.020452309561 0.0057985815934
          0.020452309561 -0.018873313636 0.022536332674 0.0057985815934 0.022536332674 0.34608099791
          -0.038888405015 0.00059557709554 -0.0054361928219 0.00059557709554 0.017765782425 0.01611316486
          -0.0054361928219 0.01611316486 0.096978285076 0.3799258183 0.017746372358 0.0083448575399
          0.017746372358 -0.013396594601 0.018588575994 0.0083448575399 0.018588575994 0.34829631316
          0.18081205364 0.0022852632129 -0.03217769816 0.0022852632129 -0.017779968588 -0.0016862836062
          -0.03217769816 -0.0016862836062 0.12250937433 0.08192012296 0.01138626843 -0.040511779536
          0.01138626843 0.021261569238 0.004343288059 -0.040511779536 0.004343288059 0.15167483831
          0.19331136302 0.024496118482 0.016943170939 0.024496118482 -0.008715810392 0.0012065617433
          0.016943170939 0.0012065617433 0.19400586792 0.18706518658 0.0017762414887 -0.015118798193
          0.0017762414887 -0.033465693004 0.0034439179591 -0.015118798193 0.0034439179591 0.072935512834
          0.37964335833 0.013707245431 0.0072255120484 0.013707245431 -0.0049214437828 0.019664834179
          0.0072255120484 0.019664834179 0.36452686626 0.26753969789 0.01335096815 0.022734475373
          0.01335096815 0.0046097741861 0.019935147319 0.022734475373 0.019935147319 0.26506638184
          0.17882654838 0.013839038209 0.0058419458047 0.013839038209 -0.07717087851 0.0054480471862
          0.0058419458047 0.0054480471862 -0.074536479359 0.1911890528 -0.0030513246253 -0.023437150601
          -0.0030513246253 -0.05076186439 0.0045734482333 -0.023437150601 0.0045734482333 -0.017128199063
          0.37518724049 0.021277075773 0.0037762398073 0.021277075773 -0.0062458210091 0.018020014088
          0.0037762398073 0.018020014088 0.35502577493 0.38063418761 0.022528840637 0.0050023079494
          0.022528840637 -0.0074125122393 0.01868323581 0.0050023079494 0.01868323581 0.3536356781
          0.11452035971 0.0061910290393 -0.041970464542 0.0061910290393 0.015812960222 -0.0044891103114
          -0.041970464542 -0.0044891103114 0.11157370054 0.19346773529 -0.011578123143 0.0063999173823
          -0.011578123143 0.019136201232 0.012833372392 0.0063999173823 0.012833372392 0.29570695241
          0.37325973772 0.012148419107 0.019159604317 0.012148419107 -0.029904791146 0.02706535955
          0.019159604317 0.02706535955 0.27306728466 0.35306717699 0.015298691939 0.0093413616141
          0.015298691939 -0.0029405948416 0.022852020292 0.0093413616141 0.022852020292 0.35345879311
          0.16418281074 0.00936888313 -0.034369315997 0.00936888313 -0.017687566532 0.0029231059953
          -0.034369315997 0.0029231059953 0.098615759798 0.1202633568 0.011956405766 -0.015280795258
          0.011956405766 0.019389420392 0.0054771242572 -0.015280795258 0.0054771242572 0.098618029149
          0.23148048479 0.011099260512 -0.002863548297 0.011099260512 -0.039763661059 0.021509981099
          -0.002863548297 0.021509981099 0.09901651731 0.33128745847 0.034232218052 0.033631989456
          0.034232218052 -0.0058347150835 0.0093954887109 0.033631989456 0.0093954887109 0.31420821232
          0.21771606139 0.019719386843 0.019706216233 0.019719386843 -0.022571683185 0.015469892458
          0.019706216233 0.015469892458 0.27674057261 0.10989875656 0.012055694548 -0.013726229154
          0.012055694548 0.0099201113989 -0.0090930379045 -0.013726229154 -0.0090930379045 0.12114211033
          -0.12117954535 -0.017397890017 0.032060975262 -0.017397890017 -0.00034273273972 -0.0018739154679
          0.032060975262 -0.0018739154679 0.071769666349 0.052218182531 0.0036022582745 -0.027298331429
          0.0036022582745 0.0047976506394 -0.0059242900079 -0.027298331429 -0.0059242900079 0.051900598925
          0.088602172585 -0.01088820162 0.0085277282628 -0.01088820162 -0.02590509201 0.017808860192
          0.0085277282628 0.017808860192 0.022313313118 0.0049772923371 -0.011555498387 -0.0060921977269
          -0.011555498387 -0.0011091286765 0.0015848859036 -0.0060921977269 0.0015848859036 0.017131314332
          0.37237736727 0.013065859621 0.008920699432 0.013065859621 0.00061373030568 0.023767998493
          0.008920699432 0.023767998493 0.35854946145 0.37134671648 0.019816644235 0.0089595746378
          0.019816644235 -0.0010844615506 0.022213605212 0.0089595746378 0.022213605212 0.35858772681
          0.15655941255 3.3342055818e-05 -0.022714998526 3.3342055818e-05 -0.02192963364 0.0030799148379
          -0.022714998526 0.0030799148379 0.064361436368 0.098497504642 0.023518714286 -0.048775127978
          0.023518714286 -0.017444025397 0.012667807878 -0.048775127978 0.012667807878 0.070828012208
          0.1209731151 0.0013948451721 -0.018797278273 0.0013948451721 -0.038704045817 -0.0079596797001
          -0.018797278273 -0.0079596797001 -0.016790729959 0.09814671458 0.020826881157 -0.049092294394
          0.020826881157 -0.011644375826 -0.025912400412 -0.049092294394 -0.025912400412 0.11992786475
          0.17948386347 -0.0016138244276 -0.032978466019 -0.0016138244276 -0.015641863426 -0.0020356391304
          -0.032978466019 -0.0020356391304 0.12076123022 0.35001464514 0.021136218353 0.014761549954
          0.021136218353 -0.021675808223 0.017504143759 0.014761549954 0.017504143759 0.28687660252
          0.08890180924 0.022931802415 0.0068786537315 0.022931802415 -0.014037694864 -0.00060628214056
          0.0068786537315 -0.00060628214056 0.076070764052 0.34606344938 0.021856327455 0.015423137656
          0.021856327455 -0.036784257294 0.021415122471 0.015423137656 0.021415122471 0.28623166346
          -0.049623367725 -0.001083563866 -0.00051192674369 -0.001083563866 0.01264512387 0.0049234030926
          -0.00051192674369 0.0049234030926 0.045802748879 0.11319866977 0.011981051361 -0.028285903698
          0.011981051361 -5.3000424877e-05 0.0021190683308 -0.028285903698 0.0021190683308 0.11694185812
          0.16819357727 0.0017648217908 -0.037505554699 0.0017648217908 -0.013111443859 0.0046503684493
          -0.037505554699 0.0046503684493 0.12843693839 0.016915793186 -0.0064327118237 0.0048303843149
          -0.0064327118237 0.013898340746 0.0058974521676 0.0048303843149 0.0058974521676 0.079992920985
          0.25387990528 0.023552034808 0.012135981061 0.023552034808 -0.021946787113 0.0046490621031
          0.012135981061 0.0046490621031 0.20884892297 0.053930069558 -0.0055369098843 -0.0085313178602
          -0.0055369098843 0.013204354457 0.010936740452 -0.0085313178602 0.010936740452 0.044632587995
          0.21098777436 -0.0057388454251 0.010958616545 -0.0057388454251 -0.019975547215 0.0049429529314
          0.010958616545 0.0049429529314 0.21414540054 0.17534538036 -0.0056613695554 -0.0065178939599
          -0.0056613695554 -0.035076047914 -0.00072120752063 -0.0065178939599 -0.00072120752063 0.072357284588
          0.38363268401 0.011267881996 0.0092828992098 0.011267881996 -0.012077212405 0.018815024328
          0.0092828992098 0.018815024328 0.36185592895 0.35488291333 0.018428450973 0.01645779314
          0.018428450973 -0.012046998958 0.022333704795 0.01645779314 0.022333704795 0.33894847729
          0.092236024597 -0.0087201065604 -0.02502540218 -0.0087201065604 -0.01495013489 -0.0082833473647
          -0.02502540218 -0.0082833473647 0.092616415466 0.13395703467 0.018577932697 -0.034019132171
          0.018577932697 0.0078827521083 0.0067332497575 -0.034019132171 0.0067332497575 0.050977970288
          0.24258379193 0.025725249384 0.021844739686 0.025725249384 0.0025380180563 0.0094320961788
          0.021844739686 0.0094320961788 0.26571367755 0.094906767259 0.0092656299655 -0.030572184304
          0.0092656299655 -0.0037917007354 -0.0091509855962 -0.030572184304 -0.0091509855962 0.040393868052
          0.30409807311 0.009976211277 0.024816033203 0.009976211277 0.012193877318 0.0092898887203
          0.024816033203 0.0092898887203 0.34184750839 -0.094215272982 0.007174001416 -0.012408577332
          0.007174001416 0.028988324522 0.0044292838668 -0.012408577332 0.0044292838668 0.034575037226
          0.13115484038 0.018252301252 -0.036604705773 0.018252301252 0.017297274252 0.012524379192
          -0.036604705773 0.012524379192 0.086791299647 0.26065220959 0.0061663882983 0.020588483213
          0.0061663882983 0.0094442108718 0.016067250842 0.020588483213 0.016067250842 0.32119256692
          0.13492260351 0.00065961055546 -0.0059572784691 0.00065961055546 -0.063461953393 0.00078214398767
          -0.0059572784691 0.00078214398767 -0.055566020235 0.12347971673 0.03707609035 -0.02535180853
          0.03707609035 -0.014825977472 0.0079734757023 -0.02535180853 0.0079734757023 0.090986764825
          0.16967471437 0.0034618896858 -0.028420626219 0.0034618896858 -0.019951037906 0.0014144663173
          -0.028420626219 0.0014144663173 0.12452024103 0.14231849197 0.0086892943821 -0.02809705562
          0.0086892943821 -0.0089454896256 -0.0033442173457 -0.02809705562 -0.0033442173457 0.12559347559
          0.00859507884 -0.0044706100109 -0.016337325063 -0.0044706100109 0.0069772373987 0.0024144774745
          -0.016337325063 0.0024144774745 0.093104444381 0.10949438963 0.0030937517353 -0.033565547427
          0.0030937517353 0.0013634396122 -0.004283293174 -0.033565547427 -0.004283293174 0.060153357577
          0.18587785945 0.0047669088374 -0.013863807871 0.0047669088374 -0.024563617117 -0.0071262515385
          -0.013863807871 -0.0071262515385 0.10385608862 0.11077357508 0.00036263271484 -0.045837149587
          0.00036263271484 0.0068214191766 -0.0028736609174 -0.045837149587 -0.0028736609174 0.10519757617
          -0.0075210644933 -0.010912844186 -0.023637275499 -0.010912844186 0.020459086846 0.0057581700422
          -0.023637275499 0.0057581700422 0.025954649585 0.16263911135 0.0074853685806 -0.033160262695
          0.0074853685806 -0.015045633641 0.0029882775063 -0.033160262695 0.0029882775063 0.12095836331
          0.12679219454 0.0023979414226 -0.019849335228 0.0023979414226 -0.028632099232 -0.0025122885114
          -0.019849335228 -0.0025122885114 0.036889642694 0.37535830884 0.01668438952 0.0097100382329
          0.01668438952 -0.026430471814 0.025964290046 0.0097100382329 0.025964290046 0.2877818198
          0.13530657828 0.0012915296054 -0.013416480322 0.0012915296054 -0.036726983441 -0.0019407966133
          -0.013416480322 -0.0019407966133 -0.039683439994 0.10071998896 0.023552031715 -0.042850119109
          0.023552031715 0.013838027488 0.0032482698861 -0.042850119109 0.0032482698861 0.15347562204
          0.19044472173 0.015594586694 0.00098368716429 0.015594586694 -0.059104112683 -0.0094458477797
          0.00098368716429 -0.0094458477797 -0.010794380909 0.0055258608967 0.019470001921 -0.0070644234987
          0.019470001921 0.022980871863 0.0076700932569 -0.0070644234987 0.0076700932569 0.040732639604
          0.092152321096 -0.00039929603723 -0.023676797262 -0.00039929603723 -0.016687877656 0.0014152995916
          -0.023676797262 0.0014152995916 0.065561944454 0.25111580029 0.0047320396957 0.037206712811
          0.0047320396957 -0.0054128668444 0.017956168752 0.037206712811 0.017956168752 0.25279450168
          0.184884206 0.0080851047832 -0.014031317569 0.0080851047832 -0.043439439371 -0.002031400164
          -0.014031317569 -0.002031400164 0.035560291373 0.20583005731 0.0020421269139 -0.014519672273
          0.0020421269139 -0.031597760035 0.0023052960044 -0.014519672273 0.0023052960044 0.094030293714
          0.36918473029 0.020138701612 0.0071254984708 0.020138701612 -0.0043903617787 0.016428818418
          0.0071254984708 0.016428818418 0.35409273955 -0.025078502365 0.00279365989 -0.0074604625094
          0.00279365989 0.0079902649769 0.010375408776 -0.0074604625094 0.010375408776 0.015380294166
          0.35404122842 0.025328689994 0.017471246701 0.025328689994 -0.015506775041 0.012458737422
          0.017471246701 0.012458737422 0.32291156394 0.26799708371 0.02316415346 0.025273083479
          0.02316415346 -0.02436051879 0.012495894695 0.025273083479 0.012495894695 0.28940192578
          0.38762486154 0.021835465338 0.0067714779966 0.021835465338 -0.017500146003 0.012754323564
          0.0067714779966 0.012754323564 0.34464808104 0.20799233056 0.0073619654682 -0.0099225697525
          0.0073619654682 -0.04971058048 0.0067281674081 -0.0099225697525 0.0067281674081 0.033196085833
          0.19704579532 0.0021457989127 -0.017353386541 0.0021457989127 -0.036248003454 -0.0027907545688
          -0.017353386541 -0.0027907545688 0.078593576293 0.087379042123 0.016199670264 -0.051931501659
          0.016199670264 0.011451348109 0.024088259803 -0.051931501659 0.024088259803 0.075336412387
          0.39115833783 0.017306269384 0.015132611057 0.017306269384 -0.023178285284 0.024470713179
          0.015132611057 0.024470713179 0.34621896386 0.36540080728 0.023844267922 0.021179751242
          0.023844267922 -0.037283902075 0.00039867176722 0.021179751242 0.00039867176722 0.28449031842
          0.020126795393 0.0078842465941 -2.0728420526e-06 0.0078842465941 0.0010942635065 -0.0023406959099
          -2.0728420526e-06 -0.0023406959099 0.027475454409 0.095986744111 0.0074620822041 0.0073090606097
          0.0074620822041 -0.03494920448 0.010979641529 0.0073090606097 0.010979641529 0.00052327202293
          0.10955612934 0.024927334185 -0.06092524079 0.024927334185 -0.0013245137174 0.017501431199
          -0.06092524079 0.017501431199 0.11472952247 0.076507042318 0.0013459457649 -0.018633681575
          0.0013459457649 -0.016723076016 0.0045719668364 -0.018633681575 0.0045719668364 0.032204219372
          0.10327672769 0.028534114017 -0.016877674 0.028534114017 0.014263071886 0.029154152118
          -0.016877674 0.029154152118 0.08015519827 0.37759301861 0.01923998192 0.0090273995461
          0.01923998192 -0.0072167127604 0.019528575353 0.0090273995461 0.019528575353 0.35630073934
          -0.014380641844 0.0027902541384 -0.0014257751442 0.0027902541384 0.034474718172 0.014243939293
          -0.0014257751442 0.014243939293 0.10185895492 0.092202174523 0.0046371589087 -0.039239857269
          0.0046371589087 0.015879834037 0.010897762925 -0.039239857269 0.010897762925 0.14626719808
          0.37686608929 0.020235422074 0.013125492023 0.020235422074 -0.0088222258253 0.019326391542
          0.013125492023 0.019326391542 0.34999221308 0.1756473543 0.0030014476409 -0.030886812797
          0.0030014476409 -0.031781698521 -5.0827085031e-05 -0.030886812797 -5.0827085031e-05 0.070999262573
          0.13709444375 0.00082430718513 -0.028864322474 0.00082430718513 -0.038474412824 0.012217187399
          -0.028864322474 0.012217187399 0.020451639415 0.17744947569 0.00054344694773 -0.025220641178
          0.00054344694773 -0.028092936756 -0.0012520987069 -0.025220641178 -0.0012520987069 0.072616481429
          0.14041066608 0.0020444464315 0.0035018414062 0.0020444464315 -0.057398047917 0.008261900212
          0.0035018414062 0.008261900212 -0.056100505681 0.35443130685 0.019462786536 0.019771043774
          0.019462786536 -0.026822750978 0.019566177514 0.019771043774 0.019566177514 0.28984577211
          0.04524710257 0.011620815197 -0.022779135005 0.011620815197 0.003429766502 0.00021583210688
          -0.022779135005 0.00021583210688 0.088550789174 0.038759094973 0.0041835871149 -0.015792626518
          0.0041835871149 0.0190298527 -0.0036030552916 -0.015792626518 -0.0036030552916 0.086825966619
          -0.0065928513472 0.0021613968318 -0.010063285818 0.0021613968318 0.016578565501 -0.0066311966694
          -0.010063285818 -0.0066311966694 0.066576407511 0.18980628198 0.016186429529 0.0036579596138
          0.016186429529 -0.077180447536 0.008697070387 0.0036579596138 0.008697070387 0.022070060958
          0.15404321439 0.002781882004 -0.024557509864 0.002781882004 -0.013340934453 -0.002727231703
          -0.024557509864 -0.002727231703 0.10722029315 0.15936522144 -0.0024987767948 -0.024504411468
          -0.0024987767948 -0.016454697256 -7.9605081088e-05 -0.024504411468 -7.9605081088e-05 0.10456922822
          0.11271734118 0.01177816629 -0.01498626613 0.01177816629 0.022698877153 0.0008029084476
          -0.01498626613 0.0008029084476 0.11412007862 0.11421900296 0.018734387422 -0.031035819746
          0.018734387422 0.014514498226 -0.0029252828553 -0.031035819746 -0.0029252828553 0.16014251214
          0.33931296634 0.020859102911 0.025796802729 0.020859102911 -0.0079726507636 0.018597363347
          0.025796802729 0.018597363347 0.28745302456 0.13073419496 0.014198963108 -0.034003439506
          0.014198963108 -0.00034649596325 -0.0023680759629 -0.034003439506 -0.0023680759629 0.19122924766
          0.17296070079 -0.0025662125162 -0.0094703827416 -0.0025662125162 -0.04080642547 0.0018088042566
          -0.0094703827416 0.0018088042566 -0.0040620671127 0.34267922216 0.01006677925 0.039502005338
          0.01006677925 -0.0070680990161 0.022259791245 0.039502005338 0.022259791245 0.3159477045
          0.33906046717 0.067117269608 0.1262422092 0.067117269608 -0.17745395639 -0.021261664232
          0.1262422092 -0.021261664232 0.16566405946 0.093535107191 0.004698687301 -0.01698786788
          0.004698687301 -0.01028469915 -0.013350588193 -0.01698786788 -0.013350588193 0.00065447887973
          0.38568576855 0.020926758193 0.0098474331211 0.020926758193 -0.018505757983 0.023342921004
          0.0098474331211 0.023342921004 0.35011418677 0.15054508854 0.0013326323583 -0.0037476860929
          0.0013326323583 -0.031999145456 0.025165532874 -0.0037476860929 0.025165532874 0.0069169072222
          0.094081458579 -0.015930431735 -0.043732643491 -0.015930431735 -0.0087606838469 -0.03240919542
          -0.043732643491 -0.03240919542 0.11082528556 -0.09247065472 -0.0030081617212 0.0041358579777
          -0.0030081617212 0.0246798735 -0.0017083291463 0.0041358579777 -0.0017083291463 0.036608217997
          0.36136116773 0.0044849223266 0.028447930544 0.0044849223266 -0.019202322732 0.032298119514
          0.028447930544 0.032298119514 0.32828596746 0.38278563494 0.018191164812 0.0034470777213
          0.018191164812 -0.014001341584 0.017232853083 0.0034470777213 0.017232853083 0.34773317774
          0.063390593551 -0.0013062310136 0.0098867976418 -0.0013062310136 -0.0083753406804 -0.0018491359406
          0.0098867976418 -0.0018491359406 -0.013775859659 0.22776642439 -0.0027987505929 0.012430490328
          -0.0027987505929 -0.021313415326 0.019278012405 0.012430490328 0.019278012405 0.15214254464
          0.28582465558 0.018088542334 0.015924484586 0.018088542334 -0.049602407675 0.014892723885
          0.015924484586 0.014892723885 0.2203061982 0.27417634962 0.024820762494 0.013793879229
          0.024820762494 -0.0070392439573 0.012949533823 0.013793879229 0.012949533823 0.24983208223
          0.12672613531 -0.022535802115 -0.0090057892691 -0.022535802115 0.023167480326 0.019127801784
          -0.0090057892691 0.019127801784 0.22609834978 0.37934212046 0.017145053006 0.011501412517
          0.017145053006 -0.010666581974 0.018189702089 0.011501412517 0.018189702089 0.35356838356
          0.17185866245 0.0021047299949 -0.030861898139 0.0021047299949 -0.016549553439 -0.0022636311207
          -0.030861898139 -0.0022636311207 0.12112173925 0.13944555016 0.018856493328 -0.035286996167
          0.018856493328 -0.0010594240964 0.022284856793 -0.035286996167 0.022284856793 0.077136816694
          0.21210590632 0.030683949749 0.012711937456 0.030683949749 0.014805516475 0.021559345075
          0.012711937456 0.021559345075 0.29731710572 -0.074144227327 -0.0068436430198 -0.061224151856
          -0.0068436430198 4.3368086899e-19 2.602085214e-18 -0.061224151856 2.602085214e-18 0
          0.36731146764 0.016390001129 0.018152948418 0.016390001129 -0.0047668763208 0.023939407851
          0.018152948418 0.023939407851 0.34002938714 0.18719645542 -0.0011333098225 -0.019959221807
          -0.0011333098225 -0.017649036447 -0.0022644328003 -0.019959221807 -0.0022644328003 0.13317759906
          0.3584235795 0.015518627335 0.011665661225 0.015518627335 -0.060963101737 0.010420330694
          0.011665661225 0.010420330694 0.18533711232 0.043704518672 0.001063070416 -0.023872304026
          0.001063070416 0.010943093161 0.0035677806798 -0.023872304026 0.0035677806798 0.10991436479
          0.27485369241 0.022929994224 0.0067162204066 0.022929994224 -0.07126231975 0.03143339997
          0.0067162204066 0.03143339997 0.074378995473 0.16440341562 0.00039600790599 -0.018726469817
          0.00039600790599 -0.083136236458 -0.0039532848039 -0.018726469817 -0.0039532848039 -0.056148308662
          0.22786991383 -0.004448829855 -0.0070434382077 -0.004448829855 -0.055734559747 0.017051619728
          -0.0070434382077 0.017051619728 0.072873606382 0.382418486 0.021686211567 0.010435495751
          0.021686211567 -0.0088392903696 0.018802488525 0.010435495751 0.018802488525 0.35121459492
          0.16962851787 0.0060356562462 -0.010023833257 0.0060356562462 -0.05318162878 -0.011835484481
          -0.010023833257 -0.011835484481 -0.043302351507 0.37591522461 0.020930354307 0.015781533244
          0.020930354307 -0.030173470965 0.0052195727533 0.015781533244 0.0052195727533 0.31472539522
          0.38073599828 0.020298967949 0.01180674067 0.020298967949 -0.011738993105 0.022133027251
          0.01180674067 0.022133027251 0.34899104981 0.25565434025 -0.0056080508488 -0.0081536879697
          -0.0056080508488 -0.056205779418 0.011787785649 -0.0081536879697 0.011787785649 0.018648170857
          0.16867201658 0.0032523827886 -0.0012486148112 0.0032523827886 -0.049991849229 -0.0073401116181
          -0.0012486148112 -0.0073401116181 -0.070704215631 0.078839439655 -0.0039425315304 -0.024957971938
          -0.0039425315304 -0.029907393788 -0.011549980895 -0.024957971938 -0.011549980895 0.020427136746
          -0.057133765262 -0.0093079012218 0.0056091898782 -0.0093079012218 0.010442488133 -0.0057323203993
          0.0056091898782 -0.0057323203993 0.076154198253 0.20445411466 0.027591628729 0.019695048655
          0.027591628729 -0.035091029666 -0.0062431961784 0.019695048655 -0.0062431961784 0.22805965102
          0.11514399952 -0.0031552486797 -0.022957115664 -0.0031552486797 -0.013605130261 -0.0046198118691
          -0.022957115664 -0.0046198118691 0.069552891344 0.37222533616 0.027346393218 0.0092342786927
          0.027346393218 -0.014629111261 0.015586167919 0.0092342786927 0.015586167919 0.34718784644
          0.38201907779 0.02311535325 0.010292431845 0.02311535325 -0.018422232638 0.022134841003
          0.010292431845 0.022134841003 0.3444954686 0.38804593609 0.020336669704 0.0066008512132
          0.020336669704 -0.014871072523 0.021699521825 0.0066008512132 0.021699521825 0.35613620206
          0.14977640241 0.0070621362897 -0.003848005053 0.0070621362897 -0.023240628725 0.0047034123988
          -0.003848005053 0.0047034123988 0.07694606356 0.12209013657 -0.002920070244 -0.027633711018
          -0.002920070244 -0.022424545881 -0.006205871852 -0.027633711018 -0.006205871852 -0.0109686275
          0.09484692889 0.0081345762534 -0.030860432286 0.0081345762534 -0.015351827142 -0.0032663567623
          -0.030860432286 -0.0032663567623 0.052086092543 0.14101525854 -0.0049465659209 -0.026065805153
          -0.0049465659209 -0.010293210312 -0.001175826434 -0.026065805153 -0.001175826434 0.10455789176
          0.37815424908 0.0044706725358 0.020971676011 0.0044706725358 -0.026149806857 0.027129279135
          0.020971676011 0.027129279135 0.30922915825 0.38161199269 0.019299029155 0.011615381879
          0.019299029155 -0.010703085269 0.019156213407 0.011615381879 0.019156213407 0.35423870333
          0.34873529098 0.016554625841 0.014656254601 0.016554625841 -0.057447641344 -0.018539660954
          0.014656254601 -0.018539660954 0.23267328717 0.13584130841 -0.13634447639 -0.038347474426
          -0.13634447639 -0.10012749852 -0.12341953598 -0.038347474426 -0.12341953598 0.1201614415
          0.10443949869 0.02753654519 -0.0074390274394 0.02753654519 0.021478826155 0.0039648179184
          -0.0074390274394 0.0039648179184 0.25045127271 -0.0074376954224 0.011604572522 -0.01368686366
          0.011604572522 -0.0062224788755 0.0021292191203 -0.01368686366 0.0021292191203 0.0076698039472
          0.35877706219 0.019193225576 0.020892138199 0.019193225576 -0.018786614309 0.020192902993
          0.020892138199 0.020192902993 0.32153716125 0.16422163287 0.0048684008943 -0.033594322349
          0.0048684008943 -0.025741415047 0.0071230832827 -0.033594322349 0.0071230832827 0.10340192265
          -0.011529384374 -0.0019060508597 -0.0071592313482 -0.0019060508597 0.013260484378 0.00085822498401
          -0.0071592313482 0.00085822498401 0.029509777375 -0.065310398532 0.010930455014 -0.0017594938536
          0.010930455014 0.027226826997 -0.0021300023231 -0.0017594938536 -0.0021300023231 0.043913680732
          -0.0025342424725 -0.026294032999 0.024073710241 -0.026294032999 0.0023958017348 -0.0097357997963
          0.024073710241 -0.0097357997963 0.060930438213 -0.0029199560887 0.010060056634 -0.02027503198
          0.010060056634 0.0065089901963 0.0070024348449 -0.02027503198 0.0070024348449 0.029467356497
          0.10764571548 -0.0012289117209 -0.0094564358568 -0.0012289117209 -0.025421051922 -8.6268837605e-05
          -0.0094564358568 -8.6268837605e-05 -0.068731157321 0.063964430793 -0.0021363720788 -0.0067591312692
          -0.0021363720788 -0.024997698394 0.004359361405 -0.0067591312692 0.004359361405 -0.025323998223
          0.17741715182 0.0034718235097 -0.032256886547 0.0034718235097 -0.021583212377 -0.00077964063999
          -0.032256886547 -0.00077964063999 0.12606279736 0.36257962604 0.0052465506405 0.020471001935
          0.0052465506405 -0.026410606653 0.027619700699 0.020471001935 0.027619700699 0.32099512555
          0.17885408347 0.0070184593559 -0.0072536567677 0.0070184593559 -0.042834839211 0.0093504444953
          -0.0072536567677 0.0093504444953 0.045619827304 0.18435876511 0.005542029845 -0.01573787308
          0.005542029845 -0.013776589825 -0.00282746974 -0.01573787308 -0.00282746974 0.13310739193
          0.15263182254 0.0011319104624 -0.0046100185677 0.0011319104624 -0.066562437527 0.012827211434
          -0.0046100185677 0.012827211434 -0.071178200443 0.13236883815 -0.014707468877 0.0034318811604
          -0.014707468877 -0.057293646935 -0.0070555246825 0.0034318811604 -0.0070555246825 -0.063482509713
          0.020267917378 0.0013643259832 0.0077603602783 0.0013643259832 0.032143878684 0.015388356621
          0.0077603602783 0.015388356621 0.07086872154 0.14923411261 0.0058036859255 -0.02977707874
          0.0058036859255 -0.018753221817 0.0038435953421 -0.02977707874 0.0038435953421 0.094276589362
          0.22657969876 0.0022865796453 0.0086445776384 0.0022865796453 -0.0033206328882 0.020537756759
          0.0086445776384 0.020537756759 0.23216001542 0.1682043754 0.00082557369052 -0.027232796616
          0.00082557369052 -0.0105612773 -0.0045057541342 -0.027232796616 -0.0045057541342 0.12733818838
          -0.024988988282 -0.0085830255776 -0.0092562926095 -0.0085830255776 0.024175478805 -0.0044864780965
          -0.0092562926095 -0.0044864780965 0.012409569147 0.12058929142 -0.0062459918818 -0.065342908825
          -0.0062459918818 -0.041555835789 0.0079796387755 -0.065342908825 0.0079796387755 0.014164404491
          0.36176011861 0.0056016781988 0.014665943432 0.0056016781988 -0.0075279092348 0.023056145925
          0.014665943432 0.023056145925 0.3601011401 0.18070595581 0.0041244072784 -0.028817502608
          0.0041244072784 -0.018043801989 -0.0033384531426 -0.028817502608 -0.0033384531426 0.12210816515
          0.19658622068 0.0024225473746 -0.030674845708 0.0024225473746 -0.029345075785 -0.0051483631642
          -0.030674845708 -0.0051483631642 0.11604109579 0.30147566798 0.036502301608 0.036941133251
          0.036502301608 -0.0043876852579 0.00012319093605 0.036941133251 0.00012319093605 0.27381645359
          0.18030181292 0.0048567732388 0.0041446794798 0.0048567732388 -0.074229186396 0.018872633945
          0.0041446794798 0.018872633945 -0.096285380987 0.10634691826 -0.0032561769942 -0.018333797869
          -0.0032561769942 0.0082135526239 0.0047112064028 -0.018333797869 0.0047112064028 0.11661643506
          0.23816432274 0.0007768125465 -0.0028846874774 0.0007768125465 -0.059529154445 0.023267400244
          -0.0028846874774 0.023267400244 0.071940340781 0.37091180135 0.020566550931 0.01446343947
          0.020566550931 -0.00028186641014 0.015785078375 0.01446343947 0.015785078375 0.34691339357
          0.043573753351 0.0097497084982 0.004746659614 0.0097497084982 -0.0098016555724 -0.0096757460555
          0.004746659614 -0.0096757460555 0.025900583299 0.14238155409 0.0069940236686 -0.018847694864
          0.0069940236686 -0.0048712811851 0.00024241278825 -0.018847694864 0.00024241278825 0.13504085956
          0.37668736857 0.018894150483 0.010994143708 0.018894150483 -0.0067338359199 0.021285805999
          0.010994143708 0.021285805999 0.35367612784 0.3217172084 0.01100585991 0.018806804634
          0.01100585991 0.0026431296395 0.010267030555 0.018806804634 0.010267030555 0.34448942675
          0.093135751247 -0.006286206336 -0.01305666157 -0.006286206336 -0.0053149711805 -0.0022432848831
          -0.01305666157 -0.0022432848831 0.11552499316 0.11578669995 -0.0086185171875 -0.024103101489
          -0.0086185171875 -0.00088166262492 -0.010146831527 -0.024103101489 -0.010146831527 0.10667340414
          0.36864392021 0.026432653369 0.010409231351 0.026432653369 -0.0076595978977 0.014868795914
          0.010409231351 0.014868795914 0.35262737116 0.19740547471 0.007160218623 -0.015894367619
          0.007160218623 -0.031755064278 0.0012609436432 -0.015894367619 0.0012609436432 0.068978800828
          0.36801532709 0.00800103161 0.022975179535 0.00800103161 -0.0013216639557 0.022240398902
          0.022975179535 0.022240398902 0.3438966859 0.074131478343 0.019268500076 -0.026566016403
          0.019268500076 -0.045239719195 -0.0061394773593 -0.026566016403 -0.0061394773593 0.050719976051
          0.08880918148 0.0077261177325 -0.0082608439286 0.0077261177325 -0.019842198178 0.017266135571
          -0.0082608439286 0.017266135571 -0.04158876386 0.11406455664 -0.010386791546 -0.018757954366
          -0.010386791546 -0.051994870773 -0.012338008061 -0.018757954366 -0.012338008061 -0.032121944126
          0.1657197155 0.0049313891403 -0.031257390665 0.0049313891403 -0.02735523132 0.0056060044515
          -0.031257390665 0.0056060044515 0.089417672614 0.030214539991 0.007370168254 -0.010372978217
          0.007370168254 -0.016289759094 0.0087175263555 -0.010372978217 0.0087175263555 -0.021167660107
          0.374363884 0.021618137234 0.0094939762775 0.021618137234 -0.0093314696937 0.015390473162
          0.0094939762775 0.015390473162 0.34555442374 -0.11302637407 -0.0070637148986 0.031141796523
          -0.0070637148986 0.027409512915 -0.005893385295 0.031141796523 -0.005893385295 0.069423578735
          0.14951284538 -0.0065162897746 -0.022071606843 -0.0065162897746 -0.015444363717 0.021293104963
          -0.022071606843 0.021293104963 0.1463305847 -0.11513995631 -0.010053136445 -0.010680362721
          -0.010053136445 0.030948934182 -0.0025210412269 -0.010680362721 -0.0025210412269 0.039643498153
          0.16960501846 -0.00099675553686 -0.027332401843 -0.00099675553686 -0.0089239491032 -0.0048203093752
          -0.027332401843 -0.0048203093752 0.13023617838 0.066368948747 0.0020192787771 0.0040982900606
          0.0020192787771 -0.017712268407 0.010098525091 0.0040982900606 0.010098525091 0.034744726721
          0.38511968542 0.015833767399 0.017867839703 0.015833767399 -0.023808892396 0.019492756464
          0.017867839703 0.019492756464 0.32119353107 0.28645893131 0.025257862858 0.012714896588
          0.025257862858 0.014380401365 0.01523445172 0.012714896588 0.01523445172 0.31781621846
          0.37836738574 0.018644793985 0.013714192837 0.018644793985 -0.0081126404894 0.022238427165
          0.013714192837 0.022238427165 0.35251319401 0.12767407703 -0.00089102792302 -0.042707653112
          -0.00089102792302 -0.03058203175 0.0226918346 -0.042707653112 0.0226918346 0.020691877342
          0.16453245696 -0.0013557107625 -0.0058412043493 -0.0013557107625 -0.047515263608 -0.006034208324
          -0.0058412043493 -0.006034208324 0.015752656471 0.11336407239 0.019827052173 -0.053530450705
          0.019827052173 -0.040415456049 0.065902885998 -0.053530450705 0.065902885998 0.050439884082
          0.35906885524 0.030685899822 0.012676119571 0.030685899822 -0.0037603049674 0.013766892123
          0.012676119571 0.013766892123 0.35773640774 0.06331988719 0.023439504454 -0.042969511131
          0.023439504454 -0.0063674709645 0.0048391852698 -0.042969511131 0.0048391852698 0.074631176958
          0.17931195122 0.073395137828 0.013916919368 0.073395137828 -0.012693124502 0.024843041865
          0.013916919368 0.024843041865 0.21750256848 0.10494299882 -0.0011587307657 -0.029545217398
          -0.0011587307657 -0.010015300792 0.003128552307 -0.029545217398 0.003128552307 0.092332803717
          0.31043122923 -0.0078570187342 0.0098462916428 -0.0078570187342 -0.059683537351 0.027271295011
          0.0098462916428 0.027271295011 0.16874738706 0.32598787135 0.021712912133 0.0066189193613
          0.021712912133 -0.017497998613 0.014551787168 0.0066189193613 0.014551787168 0.26856726451
          0.26727891658 0.012428478989 0.011505462864 0.012428478989 0.015040789072 0.0091693220007
          0.011505462864 0.0091693220007 0.32479289441 0.23823111707 0.012221702243 -0.0038220990691
          0.012221702243 0.02847536279 0.0073866075735 -0.0038220990691 0.0073866075735 0.31904389008
          0.29210636857 0.01144596719 0.013721358123 0.01144596719 0.0062748480598 0.0074265107729
          0.013721358123 0.0074265107729 0.30914115229 0.165953112 0.0036472832613 -0.032206372843
          0.0036472832613 -0.016469526071 -0.001124261762 -0.032206372843 -0.001124261762 0.12412585299
          0.24681939755 0.025960575983 0.014692347622 0.025960575983 0.0016714381258 0.0093645273861
          0.014692347622 0.0093645273861 0.2199197826 0.16636161168 0.0055829907368 -0.029369900233
          0.0055829907368 -0.0084911875492 -0.0019172156249 -0.029369900233 -0.0019172156249 0.1071240507
          -0.057282893384 0.006813189266 -0.0083428949608 0.006813189266 0.031818832816 0.01675854606
          -0.0083428949608 0.01675854606 0.068511037827 0.10250946653 -0.0096753180134 -0.019798559601
          -0.0096753180134 0.00073942041399 0.0064340005268 -0.019798559601 0.0064340005268 0.12139318085
          0.06376363991 5.0808448625e-05 -0.0072586240865 5.0808448625e-05 -0.041949025302 -0.0014603554368
          -0.0072586240865 -0.0014603554368 -0.02551104473 0.0618720603 -0.00051966033279 -0.0024519269421
          -0.00051966033279 -0.027221481156 0.0066561034186 -0.0024519269421 0.0066561034186 -0.034742267853
          0.21164087443 -0.0058485227037 -0.056273110974 -0.0058485227037 -0.084370561387 0.0055059441082
          -0.056273110974 0.0055059441082 -0.046640870641 0.35404272034 0.010736739029 0.01646194056
          0.010736739029 -0.0081507807727 0.016269133953 0.01646194056 0.016269133953 0.34423541305
          0.14439161169 -0.0027356287322 -0.011892354714 -0.0027356287322 -0.051650337492 -0.010585881208
          -0.011892354714 -0.010585881208 0.017581918504 0.38973038914 0.021898219001 0.0065868317372
          0.021898219001 -0.020575462465 0.013742449753 0.0065868317372 0.013742449753 0.33823915801
          0.068503429374 0.001324360712 -0.012675155608 0.001324360712 -0.02181593147 -0.0086869125483
          -0.012675155608 -0.0086869125483 -0.0018769450624 0.069309347079 -0.010051346729 -0.0064376150143
          -0.010051346729 -0.0098537439744 0.0045471038965 -0.0064376150143 0.0045471038965 -0.022622675145
          0.016239184157 0.010591506267 0.0017800511571 0.010591506267 0.0074738381748 -0.012397139449
          0.0017800511571 -0.012397139449 0.0015588541301 0.12969579719 0.017210095703 -0.021036539807
          0.017210095703 0.017366190043 -0.0084294295533 -0.021036539807 -0.0084294295533 0.091115493193
          0.1335991745 -0.0036180507362 0.00015003485757 -0.0036180507362 -0.059173751556 0.017465618892
          0.00015003485757 0.017465618892 -0.024899251455 -0.082205449079 0.005963692748 -0.01948069474
          0.005963692748 0.02137359876 -0.016316587436 -0.01948069474 -0.016316587436 0.026438870182
          0.13174349808 0.015137985565 -0.035636505004 0.015137985565 -0.029287639929 -0.0015751263564
          -0.035636505004 -0.0015751263564 0.040176572407 0.35970779693 0.015768208675 0.01408991713
          0.015768208675 -0.0016476209361 0.011017498095 0.01408991713 0.011017498095 0.35759688452
          0.3780965301 0.01774793883 0.0039745871686 0.01774793883 -0.0072880027856 0.019879843475
          0.0039745871686 0.019879843475 0.35286578015 0.16122432192 -0.0077680677856 -0.012819231268
          -0.0077680677856 -0.010843136667 0.003004299122 -0.012819231268 0.003004299122 0.13070691165
          0.36969143058 0.019126703675 0.010225137967 0.019126703675 -0.0046754256416 0.016313097958
          0.010225137967 0.016313097958 0.35180306879 0.18980753855 0.018626647971 0.018645667799
          0.018626647971 -0.0035964512961 0.025787012324 0.018645667799 0.025787012324 0.17698585004
          0.35815150764 0.015399590989 0.011784666258 0.015399590989 -0.0050893407454 0.019310209256
          0.011784666258 0.019310209256 0.35473590498 0.05967048385 0.019460663622 0.0033720342564
          0.019460663622 0.02158690639 0.00091468433704 0.0033720342564 0.00091468433704 0.15348675162
          0.19500550547 0.0031037550184 -0.019597601512 0.0031037550184 -0.060463432938 0.0065812814073
          -0.019597601512 0.0065812814073 -0.014157492084 0.31008750007 0.018768470654 0.0028334200059
          0.018768470654 -0.050675851902 0.011502532357 0.0028334200059 0.011502532357 0.11798312328
          0.13031874178 -0.0011205231082 -0.013983103414 -0.0011205231082 -0.004174647576 -0.0024906848735
          -0.013983103414 -0.0024906848735 0.085576882616 0.19920982127 0.0035792317729 -0.018595799911
          0.0035792317729 -0.05944822072 -0.0074559348859 -0.018595799911 -0.0074559348859 0.017614706285
          -0.011430400408 -0.011625791912 0.013568223333 -0.011625791912 0.0054921714419 0.0065838114838
          0.013568223333 0.0065838114838 0.069314761155 0.17163672789 0.0055846724831 -0.0072594264112
          0.0055846724831 -0.040825169342 -0.0059979501064 -0.0072594264112 -0.0059979501064 0.039445465514
          0.081789765348 -0.0096619110672 -0.0048419970842 -0.0096619110672 0.003114429595 0.0063974364457
          -0.0048419970842 0.0063974364457 0.10111981143 0.36750389975 0.014556283408 0.021304811081
          0.014556283408 -0.032353720451 0.016863737459 0.021304811081 0.016863737459 0.2841451645
          0.12727413291 0.026167640676 -0.0357840256 0.026167640676 -0.035116441028 -0.0071350818091
          -0.0357840256 -0.0071350818091 0.20831706621 0.13218424855 0.0031371543081 0.006356449948
          0.0031371543081 -0.038362028118 0.013616252256 0.006356449948 0.013616252256 -0.008081210896
          0.11330580684 -4.2748597594e-05 0.013464623861 -4.2748597594e-05 0.015589311586 0.0096851798035
          0.013464623861 0.0096851798035 0.10384626058 0.1774969531 0.0028813707555 -0.028081318793
          0.0028813707555 -0.019334457644 0.0017763888874 -0.028081318793 0.0017763888874 0.11103977624
          0.3577619131 0.022016835502 0.017338142977 0.022016835502 -0.004872188351 0.018240278468
          0.017338142977 0.018240278468 0.32040865421 0.36900446332 0.024334547766 0.012849650519
          0.024334547766 -0.0096178033734 0.015003138337 0.012849650519 0.015003138337 0.34907027794
          0.39770908882 0.022365514459 0.012491114809 0.022365514459 -0.028578027441 0.01777747491
          0.012491114809 0.01777747491 0.3046454173 0.10902606307 0.016067038999 -0.012892354712
          0.016067038999 0.018639950698 -0.005583269235 -0.012892354712 -0.005583269235 0.12233055961
          0.18189059451 0.0089787469962 -0.0013474275561 0.0089787469962 -0.07166486035 -0.0056158888952
          -0.0013474275561 -0.0056158888952 -0.066072135512 0.17136746455 0.0030136687468 -0.017595504379
          0.0030136687468 -0.012612446298 0.00044348612121 -0.017595504379 0.00044348612121 0.13324344438
          0.25693498802 0.022060949796 0.0060773636122 0.022060949796 0.021285059706 0.027490056431
          0.0060773636122 0.027490056431 0.29901940619 0.37955747288 0.018358041098 0.010566221196
          0.018358041098 -0.011437430827 0.019770679299 0.010566221196 0.019770679299 0.35107563191
          -0.025663509749 0.00080148009242 0.0043181312107 0.00080148009242 0.0038633175755 0.017620785511
          0.0043181312107 0.017620785511 0.0097327669583 -0.024852261893 -0.00095428248198 0.0090898662723
          -0.00095428248198 0.007460242759 0.0050295348444 0.0090898662723 0.0050295348444 0.012555491497
          -0.0094732857778 -0.0037119822376 -0.020234754232 -0.0037119822376 0.014470017994 0.0068786687455
          -0.020234754232 0.0068786687455 0.033395706109 0.17693547524 0.0068773679392 -0.019599154585
          0.0068773679392 -0.015002082219 0.00083706052999 -0.019599154585 0.00083706052999 0.13023535174
          -0.074144227327 -0.0068436430198 -0.061224151856 -0.0068436430198 0 0
          -0.061224151856 0 0 0.19925074466 0.0026820033163 -0.011212315065
          0.0026820033163 -0.053736793553 -0.0099562954432 -0.011212315065 -0.0099562954432 -0.014255772672
          0.0094636997779 0.0021760401301 -0.0090524030882 0.0021760401301 -0.005065364822 -0.0014774069233
          -0.0090524030882 -0.0014774069233 0.011245578528 -0.013344821207 0.0081909975227 -0.00013315953079
          0.0081909975227 0.0032490724052 0.00063344458521 -0.00013315953079 0.00063344458521 0.085613936462
          0.17333195975 0.039362745629 0.063571565363 0.039362745629 -0.030115221924 0.014543553934
          0.063571565363 0.014543553934 0.0052458360342 0.3139835329 0.033364978512 0.019702331177
          0.033364978512 -0.053608770715 0.014107649681 0.019702331177 0.014107649681 0.17921259798
          0.18333547731 0.0084555808206 -0.0042804782619 0.0084555808206 -0.055078534037 -0.0028587808877
          -0.0042804782619 -0.0028587808877 -0.016732390237 0.19628747912 -0.0068281257304 0.01543444394
          -0.0068281257304 -0.0058559890639 0.022286724703 0.01543444394 0.022286724703 0.23105542618
          0.15105783177 0.009644950454 -0.016420527118 0.009644950454 -0.0083341437369 0.001128487011
          -0.016420527118 0.001128487011 0.13571496821 -0.10403410636 -0.021062349855 -0.063403188168
          -0.021062349855 0 0 -0.063403188168 0 0
          0.37601263339 0.019922504525 0.0041164929087 0.019922504525 -0.0042550711179 0.018064489718
          0.0041164929087 0.018064489718 0.35360122735 0.36098161146 0.015219738838 0.020434239558
          0.015219738838 -0.0114277239 0.020129068257 0.020434239558 0.020129068257 0.34152934102
          0.29186761657 0.015190960188 0.0059721961278 0.015190960188 -0.06541445928 0.019420365378
          0.0059721961278 0.019420365378 0.11453692586 0.15355835953 0.0060911714638 -0.02137256575
          0.0060911714638 -0.015833837214 0.00026439766506 -0.02137256575 0.00026439766506 0.064880126688
          0.37364419377 0.021531981865 0.0079678184758 0.021531981865 -0.046981086466 0.0070062993012
          0.0079678184758 0.0070062993012 0.26530240085 0.083824449823 0.016185304041 -0.026578751658
          0.016185304041 0.024529181531 -0.00083413214547 -0.026578751658 -0.00083413214547 0.1435204919
          0.10656384075 0.031136703895 -0.0017468674896 0.031136703895 -0.043951056798 0.01291550293
          -0.0017468674896 0.01291550293 0.1664959847 0.13531135585 -0.0018847474954 -0.021008285455
          -0.0018847474954 -0.010366619846 0.0017310225008 -0.021008285455 0.0017310225008 0.090869380078
          0.16444759523 0.013429608225 -0.0050715582652 0.013429608225 -0.074999777492 0.01627688751
          -0.0050715582652 0.01627688751 -0.039403013494 0.15484869236 0.012140298487 0.01366517333
          0.012140298487 -0.022116549803 -0.0033446921914 0.01366517333 -0.0033446921914 0.089670762109
          0.13207227442 -0.0035257411633 -0.025951509227 -0.0035257411633 -0.010252109984 -0.0036458474319
          -0.025951509227 -0.0036458474319 0.092048951838 0.35953692081 0.01513249893 0.013047675588
          0.01513249893 0.002234425474 0.011978488501 0.013047675588 0.011978488501 0.3549872682
          -0.010039481303 0.011556605079 -0.0066764391495 0.011556605079 0.0063590339851 0.0065027229634
          -0.0066764391495 0.0065027229634 0.03729026738 0.0059688623051 -0.0019838701059 -0.0025238237223
          -0.0019838701059 -0.0026916911299 0.0057661801926 -0.0025238237223 0.0057661801926 0.037991654544
          0.16393743996 0.0036556091602 -0.036825282368 0.0036556091602 -0.015168572657 0.00017331986455
          -0.036825282368 0.00017331986455 0.11110805446 0.030848575424 -0.0028863874953 -0.019408982505
          -0.0028863874953 0.0064459538229 -0.014560999075 -0.019408982505 -0.014560999075 0.039718380437
          0.33089090173 0.021074330311 0.02279448109 0.021074330311 -0.0037312077253 0.019819683712
          0.02279448109 0.019819683712 0.3170091279 0.3398234076 0.033326807302 0.03710966158
          0.033326807302 -0.050630398413 0.018829254161 0.03710966158 0.018829254161 0.26187804119
          0.092352246245 0.0154445524 -0.031557692321 0.0154445524 0.024220423899 0.01492466996
          -0.031557692321 0.01492466996 0.1382659166 0.19854836861 0.005470472116 -0.012124791773
          0.005470472116 -0.04924495638 0.0051794623099 -0.012124791773 0.0051794623099 0.016415954337
          0.173912955 0.0015594185797 -0.031409374976 0.0015594185797 -0.017440329188 -0.00096460771607
          -0.031409374976 -0.00096460771607 0.1186572059 0.14568168635 -0.007489789088 -0.013436811981
          -0.007489789088 -0.04765009282 0.0091003824958 -0.013436811981 0.0091003824958 -0.0059211874966
          0.084714500448 0.0014698138054 -0.027665023349 0.0014698138054 -0.030687789792 -0.00908477972
          -0.027665023349 -0.00908477972 -0.021025205192 0.234027517 0.0035147616869 0.010501547554
          0.0035147616869 0.014515692456 0.016463405434 0.010501547554 0.016463405434 0.29558009569
          0.24291894137 0.017906429728 -0.011299681529 0.017906429728 -0.056549627839 0.020429658251
          -0.011299681529 0.020429658251 0.078959785195 0.34537096111 0.019511877639 0.0083571439411
          0.019511877639 0.0017031694962 0.02259259311 0.0083571439411 0.02259259311 0.35862715122
          0.079916827525 0.0024135924065 -0.033725602064 0.0024135924065 -0.010252884475 -0.020499858651
          -0.033725602064 -0.020499858651 -0.028278229734 0.071371533153 -0.016062591523 -0.030469672224
          -0.016062591523 -0.049903298754 -0.011907001938 -0.030469672224 -0.011907001938 -0.021419841412
          -0.086347254178 0.00070690998077 -0.0015774845575 0.00070690998077 0.023764665047 -0.0042788552746
          -0.0015774845575 -0.0042788552746 0.047235169521 0.34354648629 0.014665720443 0.019560770164
          0.014665720443 -0.018647094086 0.0304478817 0.019560770164 0.0304478817 0.28811474599
          0.37785422514 0.0185835765 0.0072518467902 0.0185835765 -0.0061063974994 0.019375164227
          0.0072518467902 0.019375164227 0.36590155276 0.36345400007 0.0054362603352 0.023651657623
          0.0054362603352 -0.018773318355 0.029986854383 0.023651657623 0.029986854383 0.33429451934
          0.13706493157 0.017514649911 -0.00032026570076 0.017514649911 -0.008957769946 0.01058384738
          -0.00032026570076 0.01058384738 0.11437084435 0.38283507104 0.0085590025896 0.025484752368
          0.0085590025896 -0.022034407415 0.027341537925 0.025484752368 0.027341537925 0.33088828775
          0.35967848979 0.023092248603 0.0109735015 0.023092248603 -0.0014665847738 0.015197782325
          0.0109735015 0.015197782325 0.35620275644 0.093609838653 -0.0048185088656 -0.0079120862383
          -0.0048185088656 -0.02550733629 -0.0061208401546 -0.0079120862383 -0.0061208401546 0.023121039077
          0.20161943756 0.0088498524603 0.012343777854 0.0088498524603 0.006040000817 0.023887955926
          0.012343777854 0.023887955926 0.23800222543 0.10850258455 0.0073356671175 -0.0017914608824
          0.0073356671175 -0.014229605042 -0.0005912361704 -0.0017914608824 -0.0005912361704 0.058857406287
          0.10714164344 0.020785352308 0.0059893713733 0.020785352308 -0.022308429281 -0.005779319284
          0.0059893713733 -0.005779319284 0.0094125194253 0.35037730617 0.015548285636 0.019988020279
          0.015548285636 -0.0025906461618 0.011063275986 0.019988020279 0.011063275986 0.34015672468
          0.12920214911 -0.0053446174357 -0.013007598323 -0.0053446174357 -0.016881954259 -0.0042417652025
          -0.013007598323 -0.0042417652025 0.093772440117 0.077956376442 -0.015957193473 -0.056337229549
          -0.015957193473 -0.0026901371708 0.00071734849406 -0.056337229549 0.00071734849406 0.10237163827
          0.019229396124 0.0012704772966 -0.0098363084469 0.0012704772966 -0.0021327515558 0.0033707584124
          -0.0098363084469 0.0033707584124 0.013396304169 0.36714888872 0.013859746615 0.017690763162
          0.013859746615 -0.0059608190276 0.023552132734 0.017690763162 0.023552132734 0.33992849171
          0.064032657424 0.0017177032945 -0.011911104499 0.0017177032945 0.0081958167287 -0.0047843083392
          -0.011911104499 -0.0047843083392 0.087363934478 0.18087993674 0.0031243141795 -0.022062461916
          0.0031243141795 -0.018904160118 -9.383834803e-05 -0.022062461916 -9.383834803e-05 0.13353308412
          0.38671313984 0.022030233779 0.0053946251977 0.022030233779 -0.016652677386 0.015526396394
          0.0053946251977 0.015526396394 0.34947505389 0.075664564049 -0.0076050845874 -0.017905906483
          -0.0076050845874 -0.012284465617 -0.00030231805535 -0.017905906483 -0.00030231805535 0.076616277555
          0.35784400219 0.028300560882 0.028827245781 0.028300560882 -0.035143931486 0.0067029547323
          0.028827245781 0.0067029547323 0.3012785043 0.38834460338 0.034035324239 0.012142262308
          0.034035324239 -0.028782944091 -0.0033179557211 0.012142262308 -0.0033179557211 0.31401300441
          0.38876396549 0.025326972349 0.010659291028 0.025326972349 -0.030803961669 -0.0027307408548
          0.010659291028 -0.0027307408548 0.29194817045 0.071161449133 0.0096065993283 -0.056941122
          0.0096065993283 -0.012691926984 0.018108662187 -0.056941122 0.018108662187 -0.003900619116
          0.12541272676 -0.0082154422273 -0.015565640804 -0.0082154422273 -0.0090423526612 -0.00043814098971
          -0.015565640804 -0.00043814098971 0.13319601629 0.13289143032 0.003974195527 0.013644054722
          0.003974195527 -0.042105208173 -0.00035412532571 0.013644054722 -0.00035412532571 -0.067490509136
          0.40645731565 0.019453601555 0.015562414115 0.019453601555 -0.10838699337 -0.013837519959
          0.015562414115 -0.013837519959 0.15393596116 0.32895421043 0.020491825089 0.034669360025
          0.020491825089 -0.040089780146 0.020368962127 0.034669360025 0.020368962127 0.24904453504
          -0.026575498283 0.000133729622 -0.014753840606 0.000133729622 0.0043178155033 -0.0017379150268
          -0.014753840606 -0.0017379150268 0.016767738801 0.44550066001 0.052623542682 0.075127513678
          0.052623542682 -0.11460551276 -0.018302505928 0.075127513678 -0.018302505928 0.20661116445
          0.31246171461 0.033190093698 0.037723489725 0.033190093698 -0.040481772571 0.0072201696555
          0.037723489725 0.0072201696555 0.28510069445 0.31632844728 0.043105764549 0.031701022048
          0.043105764549 -0.016302423342 -0.0046099724574 0.031701022048 -0.0046099724574 0.28401702798
          0.39114824494 0.015982551574 0.011845696069 0.015982551574 -0.022721882767 0.014892498282
          0.011845696069 0.014892498282 0.31837018739 0.19134875053 0.0014727750031 -0.033634217725
          0.0014727750031 -0.029512575806 -0.0058886460739 -0.033634217725 -0.0058886460739 0.12312857677
          0.11602693498 -0.0003212807291 -0.015704857729 -0.0003212807291 -0.05668962223 -0.00013369676177
          -0.015704857729 -0.00013369676177 -0.025737610942 0.37470350956 0.020810834498 0.0069542994634
          0.020810834498 -0.0063865107404 0.01904431747 0.0069542994634 0.01904431747 0.35271210182
          0.36749744223 0.010968277818 0.0083038244502 0.010968277818 -0.055055074159 0.0020014059593
          0.0083038244502 0.0020014059593 0.17985751364 0.033801553229 0.0065639008497 -0.0024443633187
          0.0065639008497 0.0040985500071 -0.0043855035806 -0.0024443633187 -0.0043855035806 0.035646366252
          0.12451803252 -0.0018734062785 -0.030002433048 -0.0018734062785 0.010693098347 -0.015735961445
          -0.030002433048 -0.015735961445 0.10940272855 0.028149292557 -0.042948688829 -0.007162640614
          -0.042948688829 -0.0068385684002 -0.011899986904 -0.007162640614 -0.011899986904 -0.011249855925
          0.3815770348 0.019549604441 0.0038284573042 0.019549604441 -0.016268313529 0.015798802232
          0.0038284573042 0.015798802232 0.34891900797 -0.085313566375 -0.0036308957245 -0.0066602049962
          -0.0036308957245 0.011361804561 -0.0022992826995 -0.0066602049962 -0.0022992826995 0.048707628454
          -0.10209595559 -0.0044160877701 -0.014277756904 -0.0044160877701 0.011953310112 0.0019054331744
          -0.014277756904 0.0019054331744 0.038966426038 0.35555492901 0.0071974431359 0.017613319453
          0.0071974431359 -0.038393483605 0.00053922397737 0.017613319453 0.00053922397737 0.25589487109
          0.36657015082 0.018868516565 0.011538516314 0.018868516565 -0.0031447288664 0.022731046333
          0.011538516314 0.022731046333 0.35894728847 0.13236005479 -0.0022807479805 -0.011288335923
          -0.0022807479805 -0.014084844139 -4.5110335198e-05 -0.011288335923 -4.5110335198e-05 0.058281615352
          0.22284667842 0.025170293563 0.013845456277 0.025170293563 0.02489043282 0.020954582944
          0.013845456277 0.020954582944 0.31576336463 0.23192776578 0.022753264296 0.0073280056486
          0.022753264296 -0.029971604962 0.020080015287 0.0073280056486 0.020080015287 0.14432070236
          0.3035623964 0.0085117947286 0.0079454809456 0.0085117947286 0.0074972700843 0.029351350975
          0.0079454809456 0.029351350975 0.28264220626 0.39071402409 0.027573156027 0.013108813605
          0.027573156027 -0.031155300386 0.0020915871591 0.013108813605 0.0020915871591 0.33326768057
          0.28358200642 0.035262576477 0.040304967285 0.035262576477 -0.025348983794 -0.011296389679
          0.040304967285 -0.011296389679 0.2326473257 0.17560901744 0.00093456119037 -0.020842839225
          0.00093456119037 -0.03197901609 0.00058930710977 -0.020842839225 0.00058930710977 0.068209363073
          0.12902497223 -0.0017118694461 -0.033571576687 -0.0017118694461 -0.013848921161 -0.0036370566496
          -0.033571576687 -0.0036370566496 0.1056540356 0.12408345885 -0.00057059243235 -0.031827441197
          -0.00057059243235 -0.011919646575 -0.0028583478797 -0.031827441197 -0.0028583478797 0.10567504934
          -0.027590044494 0.0062018447363 -0.005804144435 0.0062018447363 0.023793585635 0.010901475291
          -0.005804144435 0.010901475291 0.039636455566 0.33901606941 0.061803414337 0.061940657111
          0.061803414337 -0.11021028391 0.017098264823 0.061940657111 0.017098264823 0.16572609054
          0.3340906085 0.031591335051 0.091679904006 0.031591335051 -0.065027158042 0.027557569506
          0.091679904006 0.027557569506 0.16425326962 0.34368957129 0.024749703109 0.068227208624
          0.024749703109 -0.11921164035 -0.0095996262091 0.068227208624 -0.0095996262091 0.17241321933
          0.17630090404 -0.0059601709339 0.011823909664 -0.0059601709339 -0.019717550936 0.0074806670892
          0.011823909664 0.0074806670892 0.034817346188 0.1111100247 0.0086755970735 0.012244974383
          0.0086755970735 -0.015879043451 0.015653884806 0.012244974383 0.015653884806 0.044409307577
          0.36617238058 0.02116375368 0.0030939605743 0.02116375368 -0.0017042737082 0.016427534326
          0.0030939605743 0.016427534326 0.35636294119 0.31349096156 -7.0396362667e-05 0.018671961311
          -7.0396362667e-05 -0.014468483184 0.0097143859179 0.018671961311 0.0097143859179 0.25501161434
          0.32595203111 0.00338431381 0.02227853123 0.00338431381 -0.0049989975931 0.014496353351
          0.02227853123 0.014496353351 0.3421958712 0.36813675837 0.027909230441 0.030641962721
          0.027909230441 -0.0079221452383 0.0029193901093 0.030641962721 0.0029193901093 0.32362791003
          0.14021874309 -0.010931440252 0.0096774942915 -0.010931440252 -0.010271598579 0.021125055622
          0.0096774942915 0.021125055622 0.1270150396 0.16898323014 -0.0021615051646 -0.0070276769169
          -0.0021615051646 -0.01478953578 0.025139041075 -0.0070276769169 0.025139041075 0.12518395953
          0.22450461456 0.013888512261 0.017516094896 0.013888512261 0.031207366793 0.030898209456
          0.017516094896 0.030898209456 0.31354837839 0.026134173866 0.010811336943 -0.0052327464573
          0.010811336943 -0.020648111068 -0.0058443463637 -0.0052327464573 -0.0058443463637 -0.0043977918253
          0.17952258616 0.0034138976764 0.017519965135 0.0034138976764 -0.015063609294 0.021652747629
          0.017519965135 0.021652747629 0.098185587148 0.16225454601 0.0001193541785 -0.0018721404753
          0.0001193541785 -0.016431252665 0.017351634295 -0.0018721404753 0.017351634295 0.096811463874
          0.34785899232 0.0056700202673 0.015765364413 0.0056700202673 -0.015829918088 0.021779512798
          0.015765364413 0.021779512798 0.29586798244 0.11700663762 -0.011279588306 -0.016554982113
          -0.011279588306 -0.0079454508492 0.0060396397645 -0.016554982113 0.0060396397645 0.11649502622
          0.090002149004 0.0066774786783 -0.0084933511375 0.0066774786783 0.012503369492 0.0016921501437
          -0.0084933511375 0.0016921501437 0.11273376853 0.26626859152 0.0088214719488 -0.014044708561
          0.0088214719488 -0.030966440149 0.0031841784793 -0.014044708561 0.0031841784793 0.15587869794
          0.15157438368 0.0055980283129 -0.026755792407 0.0055980283129 -0.016790090113 6.0811888792e-05
          -0.026755792407 6.0811888792e-05 0.12095360402 -0.077788563091 0.010955747208 -0.011886660338
          0.010955747208 0.028070662462 0.0052276582254 -0.011886660338 0.0052276582254 0.027909407407
          -0.085215303681 0.0070044663964 -0.019565725866 0.0070044663964 0.035144214523 0.0019172337757
          -0.019565725866 0.0019172337757 0.020034919095 0.28960312313 0.025379936634 0.0022868829619
          0.025379936634 -0.052510821508 0.0078562653841 0.0022868829619 0.0078562653841 0.16685309742
          0.15277413862 -0.0082850082143 -0.020407433094 -0.0082850082143 -0.048020299366 -0.015747976869
          -0.020407433094 -0.015747976869 -0.035712315924 0.15879493648 -0.0037677344962 -0.020724772594
          -0.0037677344962 -0.0078393715271 0.0017689254926 -0.020724772594 0.0017689254926 0.13736214601
          0.18883905871 0.016730052782 0.016884383512 0.016730052782 -0.030105441129 0.019714981397
          0.016884383512 0.019714981397 0.1047553197 0.15909932791 0.025533186454 0.023623711399
          0.025533186454 -0.024842091786 0.043408926383 0.023623711399 0.043408926383 0.069379235604
          0.17219851412 0.002118371605 -0.032604327279 0.002118371605 -0.017739442135 -0.00044993824245
          -0.032604327279 -0.00044993824245 0.12527435741 0.38233458967 0.019050056866 0.015093528622
          0.019050056866 -0.017315242832 0.01597255712 0.015093528622 0.01597255712 0.32598774074
          0.37695767798 0.018340977475 0.01453379583 0.018340977475 -0.012785122608 0.024085328438
          0.01453379583 0.024085328438 0.34042461871 0.011239546523 0.0053762742473 0.016084308178
          0.0053762742473 0.018125246999 0.015764941266 0.016084308178 0.015764941266 0.046478168799
          0.17445800463 0.030946065289 -0.010722430174 0.030946065289 0.009875462468 -0.015090087333
          -0.010722430174 -0.015090087333 0.21152964642 0.17502202492 -0.0029022778702 -0.033080242651
          -0.0029022778702 -0.016445764657 0.0024530053992 -0.033080242651 0.0024530053992 0.12180131614
          0.28082937244 0.028744447653 0.019639641864 0.028744447653 0.023523573723 0.015779376338
          0.019639641864 0.015779376338 0.34673906677 0.31492792131 0.026472248847 0.030277572683
          0.026472248847 -0.023662398285 0.010698190289 0.030277572683 0.010698190289 0.27417743813
          0.19891984931 0.00019051598736 -0.017693176973 0.00019051598736 -0.030331740443 0.0040254443549
          -0.017693176973 0.0040254443549 0.11125138701 0.33424543363 0.047967872951 0.011576999948
          0.047967872951 -0.049068560168 0.011644331987 0.011576999948 0.011644331987 0.28268550112
          0.12276252749 0.0075783064261 -0.02401782675 0.0075783064261 -0.018627302671 -0.0065464264174
          -0.02401782675 -0.0065464264174 -0.020029994363 0.16482554499 -0.00036497290089 -0.011993443805
          -0.00036497290089 -0.049442915039 -0.0032585242682 -0.011993443805 -0.0032585242682 0.014532230513
          0.035306128669 0.0087299722003 -0.0128263463 0.0087299722003 0.019383114732 0.0017095224647
          -0.0128263463 0.0017095224647 0.077530415222 0.38486131884 0.018809577245 0.0049044174831
          0.018809577245 -0.015441197511 0.016561234166 0.0049044174831 0.016561234166 0.34924744159
          0.14695304131 0.0035198150696 -0.010548932002 0.0035198150696 -0.041048897791 -0.00090956215844
          -0.010548932002 -0.00090956215844 0.015183064741 -0.037221313211 0.0019203642922 -0.013811537678
          0.0019203642922 0.02450890114 0.007768194029 -0.013811537678 0.007768194029 0.084080082452
          0.16961811229 -0.00061509673035 -0.034143832424 -0.00061509673035 -0.012480798145 -0.0013149676012
          -0.034143832424 -0.0013149676012 0.11576534368 -0.087588715596 0.0047489494292 -0.007182112506
          0.0047489494292 0.022350096668 -0.0017997991201 -0.007182112506 -0.0017997991201 0.036221527111
          0.37643893055 0.017269068678 0.0066944007289 0.017269068678 -0.016370359461 0.013353036636
          0.0066944007289 0.013353036636 0.34269253787 0.10496767556 0.00071826824095 0.0011323711139
          0.00071826824095 -0.049006848483 -0.0073956378639 0.0011323711139 -0.0073956378639 0.00037740472102
          0.13989918015 0.010131317561 -0.019416694926 0.010131317561 0.03379016625 0.014937348173
          -0.019416694926 0.014937348173 0.043478317286 0.06285667091 0.0016320362385 0.021513897185
          0.0016320362385 0.036017388803 0.0066998034578 0.021513897185 0.0066998034578 0.15743090013
          0.36575068508 0.017612556575 0.019088056011 0.017612556575 -0.018337111322 0.0063070743019
          0.019088056011 0.0063070743019 0.31023010012 0.27780597463 -0.0067235107438 0.024934627017
          -0.0067235107438 -0.0035338810258 0.015864861773 0.024934627017 0.015864861773 0.25595186061
          0.35798362219 0.01846193149 0.026439877449 0.01846193149 -0.012929436499 0.01324150402
          0.026439877449 0.01324150402 0.31415798936 0.043866016415 -0.002122667821 -0.02286847431
          -0.002122667821 -0.031231090269 0.0060960695431 -0.02286847431 0.0060960695431 0.036434403576
          0.28329437021 -0.0059935588722 0.021293131039 -0.0059935588722 -0.01969609899 0.035264549717
          0.021293131039 0.035264549717 0.23405119168 -0.0038153431619 -0.0093118195517 -0.00084976567289
          -0.0093118195517 0.019999284405 -0.0034988964754 -0.00084976567289 -0.0034988964754 0.065040030663
          0.25870663826 0.037013797277 0.0095644208729 0.037013797277 0.024106980708 0.014823248719
          0.0095644208729 0.014823248719 0.33478218091 0.1512912358 0.0034015962996 -0.015604003945
          0.0034015962996 -0.041903794373 -0.0088528905293 -0.015604003945 -0.0088528905293 -0.0048248881904
          0.13590675144 -0.00053976195871 -0.006088967184 -0.00053976195871 -0.042668159956 -0.0044860103111
          -0.006088967184 -0.0044860103111 0.0044585070438 0.28063383527 -0.0053186612352 0.021689307785
          -0.0053186612352 0.0028082587941 0.029215532772 0.021689307785 0.029215532772 0.29413447327
          0.1796259626 0.0024985990542 -0.028044219492 0.0024985990542 -0.019492574861 0.00074627565241
          -0.028044219492 0.00074627565241 0.11690334956 0.048447813832 -0.0023402303578 -0.0066179123781
          -0.0023402303578 -0.008600719314 -0.022566000089 -0.0066179123781 -0.022566000089 0.02362664214
          0.12353002007 0.0077569924375 -0.027121924592 0.0077569924375 -0.011597240903 0.0042679360613
          -0.027121924592 0.0042679360613 0.054885081415 0.036568839358 -0.0012439324326 0.0024068854433
          -0.0012439324326 0.012385214129 0.010771093314 0.0024068854433 0.010771093314 0.071141799668
          0.18683246679 0.0079308555013 -0.01197225476 0.0079308555013 -0.033813713556 0.0071157880081
          -0.01197225476 0.0071157880081 0.069980984408 0.053491921064 0.002191103856 -0.0063102995364
          0.002191103856 -0.015801386642 0.0042209405039 -0.0063102995364 0.0042209405039 -0.0053810222705
          0.013661585144 -0.0087260901402 -0.00051316394359 -0.0087260901402 0.021634940404 0.0041168086132
          -0.00051316394359 0.0041168086132 0.15326329151 0.12892619908 0.024488218324 -0.044640246696
          0.024488218324 -0.0063145065627 0.004865326658 -0.044640246696 0.004865326658 0.1435137913
          0.37690813745 0.022438956046 0.0029120518155 0.022438956046 -0.0054663166135 0.017356337139
          0.0029120518155 0.017356337139 0.35416004458 0.062475118431 -0.0081937943641 -0.0010532996431
          -0.0081937943641 0.0030909514767 -0.0019121793733 -0.0010532996431 -0.0019121793733 0.034512586185
          0.30986048688 -0.0020532332428 0.011292269627 -0.0020532332428 -0.034543381669 0.01905748472
          0.011292269627 0.01905748472 0.21556888379 0.28907616891 -0.011662219368 0.0063057060009
          -0.011662219368 -0.046205928944 0.010112820233 0.0063057060009 0.010112820233 0.072653325806
          0.30268361805 0.013769933962 0.0044011202443 0.013769933962 0.0039032880691 0.017837808309
          0.0044011202443 0.017837808309 0.30285954082 0.1199454931 0.00092108362157 -0.0015155129102
          0.00092108362157 -0.055860239108 0.000864993502 -0.0015155129102 0.000864993502 -0.049048902963
          0.27671339469 0.019983701429 0.008893334926 0.019983701429 0.0072154359128 0.016260616038
          0.008893334926 0.016260616038 0.29990836773 0.33572967925 0.021373931673 0.018084521033
          0.021373931673 -0.011724435472 0.020021455101 0.018084521033 0.020021455101 0.32156331455
          0.19028843217 0.001040440467 -0.018496358127 0.001040440467 -0.024833122597 -0.0036594982977
          -0.018496358127 -0.0036594982977 0.12123615751 0.18719737794 0.0073105800588 -0.018424096857
          0.0073105800588 -0.015314103469 -0.0016228813152 -0.018424096857 -0.0016228813152 0.13283623633
          0.16260061487 0.0051596234157 -0.031035110228 0.0051596234157 -0.031013453233 0.0044981528272
          -0.031035110228 0.0044981528272 0.079483551819 -0.005423834718 0.009112013649 0.0079787692695
          0.009112013649 -0.022887334269 0.0033431539967 0.0079787692695 0.0033431539967 0.0051036074775
          0.15776109342 -0.00030478413657 -0.027826980322 -0.00030478413657 -0.022009405411 -0.0035885558251
          -0.027826980322 -0.0035885558251 0.10350716869 -0.059314819589 -0.0065733555246 0.0073199535102
          -0.0065733555246 0.012085071071 -0.0018141392196 0.0073199535102 -0.0018141392196 0.029633038931
          0.13454359485 -0.0047681163542 -0.036245716817 -0.0047681163542 -0.024129461037 -0.0028721671902
          -0.036245716817 -0.0028721671902 0.067737966688 0.1809138841 0.00049923789612 -0.017227650126
          0.00049923789612 -0.029349978702 -0.002376586208 -0.017227650126 -0.002376586208 0.08407871638
          0.24264907207 0.0060774279589 0.029314893487 0.0060774279589 0.010499220024 0.01331112868
          0.029314893487 0.01331112868 0.28367917338 0.35193112139 0.024929818651 0.013684193315
          0.024929818651 -0.0043311443853 0.015560506737 0.013684193315 0.015560506737 0.35263173756
          0.10884453956 -0.044593013592 -0.016597335968 -0.044593013592 -0.011405092762 -0.028150362878
          -0.016597335968 -0.028150362878 0.15169659109 0.095806557363 0.010364311902 -0.014454631868
          0.010364311902 0.0018790872077 -0.0014635849517 -0.014454631868 -0.0014635849517 0.10741512664
          0.37640891574 0.022555288396 0.0086487604206 0.022555288396 -0.0095791308081 0.017856646635
          0.0086487604206 0.017856646635 0.35096528435 0.38460208959 0.021883101844 0.0085740788301
          0.021883101844 -0.015256326198 0.012945362198 0.0085740788301 0.012945362198 0.34167868325
          0.14680327751 -0.0028928285997 -0.0058398565152 -0.0028928285997 -0.050906175281 -0.010475111372
          -0.0058398565152 -0.010475111372 -0.020485385349 0.10910393874 5.6044239205e-05 -0.0070816310891
          5.6044239205e-05 -0.031645662086 -0.0068327575856 -0.0070816310891 -0.0068327575856 -0.012769982179
          0.289811161 0.01848031434 0.016628979686 0.01848031434 -0.013055488512 0.006766918156
          0.016628979686 0.006766918156 0.30686603651 0.35688628786 0.024644114939 0.023717715677
          0.024644114939 -0.014930327776 0.0089990367866 0.023717715677 0.0089990367866 0.3228214782
          0.16565322747 0.0067088852378 -0.032411851023 0.0067088852378 -0.017202580441 0.0072412285845
          -0.032411851023 0.0072412285845 0.084185059556 0.098884770289 0.022876767011 0.0026470833303
          0.022876767011 -0.0032791541088 0.0047531593505 0.0026470833303 0.0047531593505 0.04030712907
          0.34892820963 0.019974682036 0.010488336784 0.019974682036 -0.039738688549 0.026133842061
          0.010488336784 0.026133842061 0.22908021408 0.15719558412 -0.00083433618573 -0.024272808836
          -0.00083433618573 -0.036224297791 -0.00065733408809 -0.024272808836 -0.00065733408809 0.065956013557
          0.3805619914 0.023589996235 0.011194026902 0.023589996235 -0.011811381706 0.019851466792
          0.011194026902 0.019851466792 0.35249201306 0.14839894787 0.022489820267 -0.026438382
          0.022489820267 0.003425533032 0.0020681630014 -0.026438382 0.0020681630014 0.048641442679
          0.10646690382 -0.057137689918 -0.0050957595801 -0.057137689918 -0.2606738648 0.10331557509
          -0.0050957595801 0.10331557509 0.13188844828 0.070635010802 -0.010567860234 -5.2422238003e-05
          -0.010567860234 -0.034141250732 0.000140105807 -5.2422238003e-05 0.000140105807 -0.0011015147475
          0.11055969989 0.0037227218782 -0.013429609259 0.0037227218782 -0.048448460437 -0.011772427314
          -0.013429609259 -0.011772427314 -0.027374174763 0.11223550321 -0.0092167724983 -0.02221085777
          -0.0092167724983 -0.044862380882 -0.023448410002 -0.02221085777 -0.023448410002 -0.017342140875
          0.21714227247 0.025355114721 0.0067852201711 0.025355114721 0.01779028264 0.021294844634
          0.0067852201711 0.021294844634 0.29161929883 0.19886950864 0.033610650684 0.01704110253
          0.033610650684 0.03372109062 0.01288131607 0.01704110253 0.01288131607 0.29894835628
          0.33987983842 0.016501946525 0.016371769825 0.016501946525 0.0049296380043 0.020169776407
          0.016371769825 0.020169776407 0.33938669217 0.37303837944 0.023812733229 0.0038086054387
          0.023812733229 -0.0065994170899 0.022309921228 0.0038086054387 0.022309921228 0.3567235036
          -0.062360351912 -0.00010545946916 -0.0040176119046 -0.00010545946916 0.016607111558 -0.00076247559527
          -0.0040176119046 -0.00076247559527 0.021570177331 0.1229838175 -0.0069821931244 -0.015278413729
          -0.0069821931244 0.00035346142285 0.00037265905873 -0.015278413729 0.00037265905873 0.11160458087
          0.37966097635 0.019278639253 0.0092140745038 0.019278639253 -0.0098469287913 0.019218822057
          0.0092140745038 0.019218822057 0.35115831133 0.20472169347 -0.0011174366251 -0.014904652172
          -0.0011174366251 -0.03018059096 -0.00035640063707 -0.014904652172 -0.00035640063707 0.079370753885
          -0.014919566004 0.0051766487247 -0.011776754375 0.0051766487247 -0.0024457862328 0.0069877144537
          -0.011776754375 0.0069877144537 -0.00047669745235 0.38215380001 0.018969893837 0.0038817795384
          0.018969893837 -0.01036617776 0.015526155395 0.0038817795384 0.015526155395 0.34708313489
          0.10188010634 0.043675460277 -0.062161441101 0.043675460277 0.059778109869 -0.0072166467188
          -0.062161441101 -0.0072166467188 0.03880567927 0.22448297227 -0.0092953861842 0.010090518599
          -0.0092953861842 -0.030098871691 0.023420573101 0.010090518599 0.023420573101 0.1693885913
          0.18590799583 0.014958804142 0.023961893546 0.014958804142 0.014879420522 0.018448573397
          0.023961893546 0.018448573397 0.29766448639 0.25287280535 -0.0071315532395 0.0079751368377
          -0.0071315532395 -0.025503406454 0.02124195286 0.0079751368377 0.02124195286 0.15264395879
          0.11140477879 0.010220580786 -0.011609454765 0.010220580786 0.026260257587 0.0034063820102
          -0.011609454765 0.0034063820102 0.10521896285 0.11830774317 -0.00028908298973 -0.023537935208
          -0.00028908298973 -0.0060090300981 0.0059633397993 -0.023537935208 0.0059633397993 0.080610486891
          0.1127162425 0.0026146191479 -0.016243491554 0.0026146191479 -0.044393920149 -0.0030461257302
          -0.016243491554 -0.0030461257302 -0.040920686566 0.15918449097 0.029998919102 0.011029649505
          0.029998919102 -0.039529395561 -0.019933460886 0.011029649505 -0.019933460886 -0.051051292333
          0.17430266523 0.022494955279 -0.015559078483 0.022494955279 -0.037488232719 -0.0003047301857
          -0.015559078483 -0.0003047301857 -0.028858538765 0.095447041317 0.00052664786013 -0.0211407038
          0.00052664786013 0.012083860547 -0.0018416851476 -0.0211407038 -0.0018416851476 0.10442738545
          0.098884173225 0.016058338683 0.0057467839218 0.016058338683 0.029292990065 0.0074720799518
          0.0057467839218 0.0074720799518 0.216187398 0.17593801629 0.004154819394 -0.034801543259
          0.004154819394 -0.020926707936 -0.00025681291007 -0.034801543259 -0.00025681291007 0.11955076757
          0.3659104029 0.015942188641 0.019105421268 0.015942188641 -0.0074076480009 0.021245499831
          0.019105421268 0.021245499831 0.33856677403 0.37149711174 0.024523329961 0.011890847618
          0.024523329961 -0.0096142354484 0.014753385656 0.011890847618 0.014753385656 0.34651469103
          0.37269418905 0.022162527746 0.0097510296003 0.022162527746 -0.0097950119881 0.015164616853
          0.0097510296003 0.015164616853 0.34776887054 0.19577926545 -0.0094916486125 0.01702179989
          -0.0094916486125 -0.013140632836 0.017112052857 0.01702179989 0.017112052857 0.14088201649
          0.28451197969 0.021948323076 0.010805756692 0.021948323076 0.01557583844 0.01942231029
          0.010805756692 0.01942231029 0.33994683616 0.35587474536 0.020353083485 0.0088827589619
          0.020353083485 -0.0022811298897 0.01483709572 0.0088827589619 0.01483709572 0.35923557152
          0.34372090746 0.020674417835 0.0089162224593 0.020674417835 0.0045231989786 0.021158551134
          0.0089162224593 0.021158551134 0.35873502146 0.34644709272 0.016014804303 0.0094888578795
          0.016014804303 0.0102548025 0.018842529532 0.0094888578795 0.018842529532 0.35805432761
          0.38835594918 0.016100358458 0.011923060717 0.016100358458 -0.015098058672 0.021618187276
          0.011923060717 0.021618187276 0.34918736073 0.345327905 0.030393956149 0.01169161458
          0.030393956149 0.0098612419403 0.016961526505 0.01169161458 0.016961526505 0.35858141643
          0.16325930192 0.0055622098012 -0.026033120577 0.0055622098012 -0.011695904635 4.8993175319e-05
          -0.026033120577 4.8993175319e-05 0.13754151021 0.029805607563 -0.018637815191 -0.00077937304324
          -0.018637815191 0.0093591264477 0.0099893348524 -0.00077937304324 0.0099893348524 0.012201587786
          -0.049899717578 0.0037191783918 -0.0051677161777 0.0037191783918 0.023767521472 -0.0030062825759
          -0.0051677161777 -0.0030062825759 0.026349359961 0.12066296949 0.0033732278319 -0.054924738491
          0.0033732278319 -0.0038979084632 0.010321032778 -0.054924738491 0.010321032778 0.12328423376
          0.16326565421 0.00024546887389 -0.013201313865 0.00024546887389 -0.0032196621316 -0.0029817613222
          -0.013201313865 -0.0029817613222 0.13275412769 0.12310730107 0.0059824839603 -0.063914605143
          0.0059824839603 -0.0011417396439 -0.0006629625859 -0.063914605143 -0.0006629625859 0.090275159429
          0.32726900356 0.0052110234394 0.020025643053 0.0052110234394 -0.032829079974 0.025654025321
          0.020025643053 0.025654025321 0.22645938119 0.20015839786 -0.0015491007294 -0.018413026643
          -0.0015491007294 -0.028414346173 0.0020254037884 -0.018413026643 0.0020254037884 0.07550452139
          0.14193945147 -0.0067967250989 -0.025436466805 -0.0067967250989 -0.051311760891 -0.014644766866
          -0.025436466805 -0.014644766866 -0.038692170018 -0.091004681424 0.12961333937 0.0440282905
          0.12961333937 -0.09041664958 -0.072675429932 0.0440282905 -0.072675429932 0.021202143537
          0.035691668052 0.0032110328569 -0.019280367287 0.0032110328569 -0.0097207508112 -0.018990109353
          -0.019280367287 -0.018990109353 0.013945533834 0.14521153388 0.010673280448 -0.01932257857
          0.010673280448 -0.0088407653028 -0.00044767968786 -0.01932257857 -0.00044767968786 0.13550436101
          0.11841108235 0.011411806131 -0.0098900988194 0.011411806131 0.019328893195 -0.008145197242
          -0.0098900988194 -0.008145197242 0.098609298606 0.208557506 0.0070593379975 0.012668009975
          0.0070593379975 0.026706196985 0.0071588021988 0.012668009975 0.0071588021988 0.30733414438
          0.12032723466 0.0066333001651 -0.034518179843 0.0066333001651 -0.011628060152 0.0023852035507
          -0.034518179843 0.0023852035507 0.039200574859 0.35505081048 0.027717772934 0.031463398795
          0.027717772934 -0.018327998186 0.015279030743 0.031463398795 0.015279030743 0.30259380364
          0.35897147934 0.020290904843 0.023807747914 0.020290904843 -0.02441546235 0.0036367822494
          0.023807747914 0.0036367822494 0.28363109852 -0.010284156399 0.0051905077195 -0.00747782236
          0.0051905077195 0.013729702185 0.00059328277427 -0.00747782236 0.00059328277427 0.02841086007
          -0.031945961945 -0.00014476134336 -0.0078278028052 -0.00014476134336 0.03824724158 0.0035671603268
          -0.0078278028052 0.0035671603268 0.11589812347 0.39749699612 0.020105411221 0.014480643938
          0.020105411221 -0.042162937439 0.03237847205 0.014480643938 0.03237847205 0.29013137176
          0.3603442943 0.01576497492 0.022599201793 0.01576497492 -0.0085234262795 0.015271294227
          0.022599201793 0.015271294227 0.33074935229 0.36609149007 0.027859000556 0.020843466311
          0.027859000556 -0.009566365537 0.013514626005 0.020843466311 0.013514626005 0.33996979658
          0.129627918 -0.004184877104 -0.0075246394108 -0.004184877104 -0.045313012993 0.017081599754
          -0.0075246394108 0.017081599754 -0.021745352132 0.35261521787 0.032229860516 0.021052667876
          0.032229860516 -0.0024678078461 0.0065991720595 0.021052667876 0.0065991720595 0.34526187214
          0.075783923921 0.0021180409465 -0.0024531364801 0.0021180409465 -0.030260696988 0.014740876987
          -0.0024531364801 0.014740876987 -0.017472546254 0.34833024872 0.010735990784 0.01694800754
          0.010735990784 -0.023855000854 0.029459168917 0.01694800754 0.029459168917 0.27895499573
          0.11131974005 -0.0042060347835 -0.00059677957397 -0.0042060347835 -0.042853442729 0.013079940383
          -0.00059677957397 0.013079940383 -0.017830259026 0.37992759485 0.023301085783 0.0082964772571
          0.023301085783 -0.0089237525192 0.018998059549 0.0082964772571 0.018998059549 0.3517262337
          0.01779487874 0.010368644919 -0.0071997515772 0.010368644919 0.001758570921 0.00012180173535
          -0.0071997515772 0.00012180173535 0.0050140382028 0.090200524266 -0.0011575153418 -0.014822105159
          -0.0011575153418 -0.018684866362 -0.0035965020607 -0.014822105159 -0.0035965020607 -0.021172630846
          0.05786105293 0.0097418200072 -0.0018088655188 0.0097418200072 -0.02069619636 -0.00024217778078
          -0.0018088655188 -0.00024217778078 -0.015480242026 0.076400203669 0.0034850930057 -0.0056663196444
          0.0034850930057 -0.017820951684 0.0020725204792 -0.0056663196444 0.0020725204792 0.0043092639187
          0.3766890174 0.019367816113 0.0029320750426 0.019367816113 -0.0064790662497 0.018262147014
          0.0029320750426 0.018262147014 0.35583708867 0.16580746619 -0.0050986073012 -0.03804700833
          -0.0050986073012 -0.042352526905 0.038194836572 -0.03804700833 0.038194836572 -0.023301725275
          0.19916328088 0.0045812037883 -0.013269758322 0.0045812037883 -0.026591109116 -0.0057019499152
          -0.013269758322 -0.0057019499152 0.1005815238 0.18266814007 -0.0025304780425 -0.015519436399
          -0.0025304780425 -0.017609894915 -0.00070900184033 -0.015519436399 -0.00070900184033 0.13160252611
          0.38327115089 0.02413402565 0.0087078243243 0.02413402565 -0.013159344911 0.020532956975
          0.0087078243243 0.020532956975 0.35381687239 0.019391908261 0.0099578715614 -0.0064718091863
          0.0099578715614 -0.0037265351383 -0.0012215942348 -0.0064718091863 -0.0012215942348 0.011088391742
          0.19426619534 0.017107001769 -0.0020325761056 0.017107001769 0.010745440768 0.016079635046
          -0.0020325761056 0.016079635046 0.28836420492 0.37972461465 0.018167636759 0.0045333837259
          0.018167636759 -0.0078740172051 0.020376754603 0.0045333837259 0.020376754603 0.35609736296
          0.37717754398 0.0086544099185 0.013217234565 0.0086544099185 -0.002821981243 0.020062989824
          0.013217234565 0.020062989824 0.357799495 0.10479135505 0.050929167738 -0.057486759851
          0.050929167738 0.024719491127 -0.027646504248 -0.057486759851 -0.027646504248 0.028894745755
          0.099529612947 -0.0020445562182 0.0075494215422 -0.0020445562182 -0.028837337065 0.0015546620208
          0.0075494215422 0.0015546620208 -0.0056940669469 0.08031405399 0.002049321299 -0.01582281107
          0.002049321299 -0.028641377082 0.013729821214 -0.01582281107 0.013729821214 0.01435193779
          0.20096818045 0.0023793487298 -0.0064770022435 0.0023793487298 -0.06329229673 -0.00020774778838
          -0.0064770022435 -0.00020774778838 -0.005505891098 0.10125504283 0.11482755406 -0.018227053996
          0.11482755406 -0.029919590014 0.036003751622 -0.018227053996 0.036003751622 0.0052706043525
          0.32681630656 0.030304743064 0.011604254073 0.030304743064 -0.0007959241479 0.011442244984
          0.011604254073 0.011442244984 0.3533125929 0.16698189307 -0.0011324404279 -0.012850617035
          -0.0011324404279 -0.070040603015 0.027609250288 -0.012850617035 0.027609250288 -0.040824062478
          0.074503889443 0.030729396186 -0.018371511847 0.030729396186 -0.059259401244 -0.048213358813
          -0.018371511847 -0.048213358813 -0.0050792346052 0.26032342007 0.012318086519 -0.0052528583158
          0.012318086519 0.028218292995 0.026233125204 -0.0052528583158 0.026233125204 0.31881153692
          0.39569876418 0.024208871043 0.013898915692 0.024208871043 -0.035575818773 0.0095110947614
          0.013898915692 0.0095110947614 0.30128705371 0.39198053442 0.030698193059 0.0086112006609
          0.030698193059 -0.042037082393 0.013166653828 0.0086112006609 0.013166653828 0.30015209535
          0.38846070195 0.023476888317 0.0085021346104 0.023476888317 -0.017605738892 0.012261515467
          0.0085021346104 0.012261515467 0.32780288347 0.062230531715 -0.010826621516 -0.015790547861
          -0.010826621516 -0.0056361767391 0.021737269791 -0.015790547861 0.021737269791 0.049264846993
          0.12362238969 0.0085618787257 -0.065771005361 0.0085618787257 0.0094871346642 -0.0071296384709
          -0.065771005361 -0.0071296384709 0.0934662071 -0.085487509609 0.0079667191991 -0.011901807809
          0.0079667191991 0.035332588583 -0.00087020473264 -0.011901807809 -0.00087020473264 0.043415837732
          0.17871602805 0.006071732283 -0.0084417525278 0.006071732283 -0.067758626797 0.0045858025961
          -0.0084417525278 0.0045858025961 -0.061511507902 0.19278616298 -0.0055478645071 -0.011781769786
          -0.0055478645071 -0.039441006 0.0034625819087 -0.011781769786 0.0034625819087 0.069870606512
          0.18849025991 0.0041818720414 -0.014065752303 0.0041818720414 -0.031659824946 0.00058065362143
          -0.014065752303 0.00058065362143 0.070832206511 0.095909343901 0.00084533308649 0.0029398108041
          0.00084533308649 -0.016021180501 0.0073594438342 0.0029398108041 0.0073594438342 -0.012066670223
          0.31276334731 0.026084742657 0.032499115961 0.026084742657 -0.011916383561 0.011441859573
          0.032499115961 0.011441859573 0.31759302921 0.11799977616 0.00086994966027 -0.00098211959639
          0.00086994966027 -0.054205379132 0.00085299951408 -0.00098211959639 0.00085299951408 -0.049194717361
          0.19254431623 -0.0039763813602 -0.014429104211 -0.0039763813602 -0.035480371537 -0.0028899739947
          -0.014429104211 -0.0028899739947 0.080041044014 0.19740079173 0.0074843263643 -0.015991977868
          0.0074843263643 -0.041347685465 0.00062872098305 -0.015991977868 0.00062872098305 0.071195397985
          -0.11183760141 -0.033351018924 0.029142073762 -0.033351018924 0.02316462385 0.0053994599001
          0.029142073762 0.0053994599001 0.071279338578 -0.051735312073 -0.012031738915 -9.1633435082e-05
          -0.012031738915 0.022548574212 0.0081814391869 -9.1633435082e-05 0.0081814391869 0.081511581171
          0.37730667274 0.018945057343 0.0059876024902 0.018945057343 -0.0054942324465 0.018785411455
          0.0059876024902 0.018785411455 0.35862206303 0.30641375051 -0.0013483020098 0.065535536917
          -0.0013483020098 -0.041688840656 -0.011077791447 0.065535536917 -0.011077791447 0.18469941381
          -0.011549337003 0.0070543688925 0.0018246756334 0.0070543688925 -0.003262919984 0.0065283842607
          0.0018246756334 0.0065283842607 0.00027878629601 0.16601043856 0.0055032342804 -0.032944877538
          0.0055032342804 -0.016457314292 0.00080210539449 -0.032944877538 0.00080210539449 0.12404499401
          0.22747659683 -0.026394974717 0.0018233851506 -0.026394974717 -0.050112029699 -0.030770993361
          0.0018233851506 -0.030770993361 0.20724479419 0.059436071933 0.0017024316576 0.0025885227372
          0.0017024316576 -0.001620361333 -0.0064314043979 0.0025885227372 -0.0064314043979 0.083585096314
          0.38116386928 0.019534195791 0.0090181415061 0.019534195791 -0.0092518895403 0.016074607144
          0.0090181415061 0.016074607144 0.34723866238 0.32952351468 0.0050406497648 0.024699539951
          0.0050406497648 -0.032773606516 0.02384061956 0.024699539951 0.02384061956 0.2290277034
          0.38768535045 0.01979824707 0.0058769843062 0.01979824707 -0.018225242806 0.015270805973
          0.0058769843062 0.015270805973 0.3285307769 0.33862345541 0.0017819618904 0.03383967628
          0.0017819618904 -0.038204154576 0.035696752335 0.03383967628 0.035696752335 0.18806527377
          0.056327328683 -0.00060400621306 -0.010261315943 -0.00060400621306 -0.022279062743 0.0023844483244
          -0.010261315943 0.0023844483244 -0.0054336735767 0.11207633677 -0.017734439304 -0.0043000435066
          -0.017734439304 -0.01324178147 -0.018850990645 -0.0043000435066 -0.018850990645 -0.033782859138
          0.12539701871 0.012108564923 -0.025670975363 0.012108564923 -0.0023969399831 0.0016232905747
          -0.025670975363 0.0016232905747 0.10808700992 -0.080288886995 0.0058824705661 0.018394099398
          0.0058824705661 0.031363611047 0.0067562607131 0.018394099398 0.0067562607131 0.033768858559
          0.13076543404 0.0073087243649 -0.014294788849 0.0073087243649 -0.0045282541566 0.00065908013099
          -0.014294788849 0.00065908013099 0.13408586473 0.055497135997 -0.09489471739 -0.0046721782811
          -0.09489471739 -0.038598649823 -0.014957371416 -0.0046721782811 -0.014957371416 -0.01439593529
          0.48619144453 -0.044413534534 0.049905772188 -0.044413534534 -0.13709270508 -0.02765238696
          0.049905772188 -0.02765238696 0.15914945056 0.10780903615 -0.011385236969 -0.0044999661812
          -0.011385236969 -0.040660899976 0.0066520258468 -0.0044999661812 0.0066520258468 0.0021737989889
          0.17650015092 0.025833134985 -0.0021426027517 0.025833134985 0.031026771443 0.0060609870433
          -0.0021426027517 0.0060609870433 0.28480185166 0.19002757389 -0.00029758379589 -0.029167325869
          -0.00029758379589 -0.027835379361 -0.0062078310306 -0.029167325869 -0.0062078310306 0.09748563144
          0.089267735577 0.03093679447 0.041833907966 0.03093679447 -0.0052657507142 -0.0017842085253
          0.041833907966 -0.0017842085253 0.020715162959 0.2445543028 -0.02088273615 0.013596018209
          -0.02088273615 0.016065991472 0.01718888623 0.013596018209 0.01718888623 0.31210656313
          0.2801523056 0.013009539533 0.013831555022 0.013009539533 0.015327250661 0.022244419983
          0.013831555022 0.022244419983 0.33616218588 0.36145570117 0.033383381066 0.013095448204
          0.033383381066 -0.00071789923304 0.014298879115 0.013095448204 0.014298879115 0.35726044039
          0.073243904101 -0.0046053561352 -0.029267474663 -0.0046053561352 -0.013933045348 -0.0070371957186
          -0.029267474663 -0.0070371957186 -0.020829063148 0.043491135955 0.031204466874 -0.078940520998
          0.031204466874 -0.018469045869 0.01835172264 -0.078940520998 0.01835172264 0.11416958624
          0.12242118885 -0.0021173466763 0.030151769228 -0.0021173466763 -0.095034413967 0.012018029843
          0.030151769228 0.012018029843 0.21656760866 -0.18690972795 0.040733254987 -0.1231373681
          0.040733254987 -0.020546281103 0.018678020412 -0.1231373681 0.018678020412 0.11642035736
          0.18235594525 0.016534518498 0.014659754584 0.016534518498 -0.048197363364 -0.0063990362907
          0.014659754584 -0.0063990362907 0.053193264312 0.17057944216 0.01313074714 -0.0097049714284
          0.01313074714 -0.041105860008 0.0017069993836 -0.0097049714284 0.0017069993836 0.022548679779
          0.37087397695 0.020253699341 0.0070595540274 0.020253699341 -0.00060661810723 0.020553447451
          0.0070595540274 0.020553447451 0.36418868888 -0.029628687109 -0.013849516304 -0.0012715002396
          -0.013849516304 0.016675689548 -0.0047427377232 -0.0012715002396 -0.0047427377232 0.092508530486
          0.2176336085 0.041232689306 0.012148074051 0.041232689306 0.011175724719 -0.0018229875868
          0.012148074051 -0.0018229875868 0.30857619604 0.1252864378 0.0048951305056 -0.037480104085
          0.0048951305056 0.01919480148 -0.016727788703 -0.037480104085 -0.016727788703 0.089504248384
          0.15772539874 -0.0044279621971 0.0016065023248 -0.0044279621971 -0.049170048876 0.012938267347
          0.0016065023248 0.012938267347 -0.042331963805 0.3538298992 0.014962294064 0.020254783975
          0.014962294064 -0.0076565666264 0.015310443726 0.020254783975 0.015310443726 0.33687204404
          0.2011939617 0.010622233925 0.019176307238 0.010622233925 0.009915670209 0.0032058950892
          0.019176307238 0.0032058950892 0.27553585672 0.015355809683 -0.011103290925 -0.0099772928567
          -0.011103290925 0.011235455159 -0.0024722436848 -0.0099772928567 -0.0024722436848 0.020642646287
          0.083645206504 0.018762209784 -0.012983486807 0.018762209784 0.0088789519685 -0.0084601079364
          -0.012983486807 -0.0084601079364 0.12212815913 0.36066441271 0.025498997351 0.017131389242
          0.025498997351 -0.0089840530725 0.014696618499 0.017131389242 0.014696618499 0.34697861548
          0.16605547658 -0.0039460963461 -0.014826878768 -0.0039460963461 -0.058168434117 -0.014774428679
          -0.014826878768 -0.014774428679 -0.02670715076 0.17412558284 0.004062999418 -0.021219075646
          0.004062999418 -0.012280567325 -0.00013483577922 -0.021219075646 -0.00013483577922 0.12849365292
          0.015478589822 0.0011416168822 -0.0043697874623 0.0011416168822 0.0058498575186 0.0010741843553
          -0.0043697874623 0.0010741843553 0.024990753545 0.0088386257914 -0.0028423360758 -0.0090752322701
          -0.0028423360758 0.0028602503975 -0.0055659218896 -0.0090752322701 -0.0055659218896 0.022332358292
          0.17896360203 0.0014815739339 -0.02671526369 0.0014815739339 -0.017450351781 -0.00077283463296
          -0.02671526369 -0.00077283463296 0.1168037471 0.13145235574 0.0093890894838 -0.01349643744
          0.0093890894838 0.028701823725 -0.010079304036 -0.01349643744 -0.010079304036 0.0964417917
          0.040025760162 -0.0058594193144 -0.010117057623 -0.0058594193144 0.022787857995 0.020628773772
          -0.010117057623 0.020628773772 0.10909411992 0.13419304019 0.035366472728 0.0077676050731
          0.035366472728 0.013463903917 -0.0068895717163 0.0077676050731 -0.0068895717163 0.10661768792
          0.049638873621 0.021217070361 -0.0012444018696 0.021217070361 0.013783596514 -0.010787314385
          -0.0012444018696 -0.010787314385 0.10778201801 0.37564342692 0.023287333097 0.0035991373262
          0.023287333097 -0.0075889083719 0.019511673227 0.0035991373262 0.019511673227 0.35498096867
          0.38767833716 0.021358478253 0.0056555952117 0.021358478253 -0.015409753759 0.02509465922
          0.0056555952117 0.02509465922 0.35396155401 0.16231136587 -0.0011012245796 -0.034009264525
          -0.0011012245796 -0.013986693491 0.002558200041 -0.034009264525 0.002558200041 0.12253463071
          0.3747085233 0.02385116926 0.02628733012 0.02385116926 -0.042091198306 -0.00091463685012
          0.02628733012 -0.00091463685012 0.25537125337 0.38777175351 0.022726129788 0.0070777426788
          0.022726129788 -0.014983160065 0.023871949926 0.0070777426788 0.023871949926 0.35081573942
          0.38824678521 0.021803626127 0.0065800273109 0.021803626127 -0.015010041924 0.02576020746
          0.0065800273109 0.02576020746 0.35087002506 0.11367191257 -0.0040123115839 -0.033668648318
          -0.0040123115839 0.0054333823478 0.0025458982926 -0.033668648318 0.0025458982926 0.13531947418
          0.3738796567 0.024981256812 0.0041837664129 0.024981256812 -0.0072639204339 0.019516725947
          0.0041837664129 0.019516725947 0.35518728843 -0.0070988210564 -0.0056209497504 -0.01396794892
          -0.0056209497504 -0.0050632786736 0.00019972516398 -0.01396794892 0.00019972516398 0.037068617065
          0.095283497256 0.023983574434 -0.011114737589 0.023983574434 0.01440160004 0.0084825562978
          -0.011114737589 0.0084825562978 0.11535105402 0.34508514351 0.014347989643 0.023104404559
          0.014347989643 -0.020558435216 0.024943873418 0.023104404559 0.024943873418 0.26895737829
          0.36502359453 0.020071054672 0.0099778505519 0.020071054672 0.0021098999329 0.020992495827
          0.0099778505519 0.020992495827 0.35878031934 0.21009422127 -0.0093281497921 0.0041407008582
          -0.0093281497921 0.019106692944 0.01670069232 0.0041407008582 0.01670069232 0.24387291437
          0.37601524893 0.020299529401 0.014569785844 0.020299529401 -0.031228739957 0.016697144081
          0.014569785844 0.016697144081 0.31168897943 0.053856991146 0.0038812487746 -0.021175579715
          0.0038812487746 -0.007520845477 -0.0084566293389 -0.021175579715 -0.0084566293389 -0.0022730771139
          0.12519331766 0.016810262273 -0.021962826273 0.016810262273 0.0184819943 0.020772212059
          -0.021962826273 0.020772212059 0.065271899197 0.10455061162 0.0084893860683 -0.02497506864
          0.0084893860683 -0.012858288711 0.0095428812418 -0.02497506864 0.0095428812418 0.073871772064
          -0.0063851368288 -0.0061436641218 -0.009257047898 -0.0061436641218 0.022720377482 0.0012903611556
          -0.009257047898 0.0012903611556 0.090675619986 0.17654760503 -0.001262001527 -0.031323521387
          -0.001262001527 -0.023882360425 -0.0020487313319 -0.031323521387 -0.0020487313319 0.10319311523
          0.20856579133 0.023789128873 0.010924945293 0.023789128873 -0.030186033241 0.008489392275
          0.010924945293 0.008489392275 0.082116527205 0.31203177065 0.075573525423 0.11207368054
          0.075573525423 -0.010431378094 0.078255575114 0.11207368054 0.078255575114 0.21152352313
          0.33212705079 0.00080253492283 0.021560889375 0.00080253492283 -0.0030804068291 0.018645263262
          0.021560889375 0.018645263262 0.34652834049 0.31290321471 -0.00023015269453 0.020720851587
          -0.00023015269453 -0.0033610319452 0.030869975191 0.020720851587 0.030869975191 0.28592048663
          0.35168105756 0.005364597423 0.018115846806 0.005364597423 -0.015995058392 0.024126802702
          0.018115846806 0.024126802702 0.26340721069 0.22884121031 0.0048219421154 -0.0023498328172
          0.0048219421154 -0.049491351991 0.0058326663774 -0.0023498328172 0.0058326663774 0.0249375221
          0.22128103143 0.01775963045 0.0022799839522 0.01775963045 -0.061073605398 0.0016011411187
          0.0022799839522 0.0016011411187 0.023392915766 0.38384244543 0.019728548212 0.012912137882
          0.019728548212 -0.014985529474 0.023575759252 0.012912137882 0.023575759252 0.35091971745
          0.21746743869 0.015922640345 0.0069500971114 0.015922640345 -0.046490090223 0.013990614666
          0.0069500971114 0.013990614666 0.083721368495 0.38484679734 0.02106598467 0.013776813733
          0.02106598467 -0.015036597689 0.020661264743 0.013776813733 0.020661264743 0.3426404947
          0.22950452453 0.005140467816 -0.0036274055555 0.005140467816 -0.05688608646 0.0072339838974
          -0.0036274055555 0.0072339838974 0.026860341751 0.13011427317 0.026937973847 -0.0083590851122
          0.026937973847 -0.050652956051 0.028711477894 -0.0083590851122 0.028711477894 0.17955952666
          0.17622047731 0.027978935855 -0.0028206320792 0.027978935855 0.025383173118 0.019821249389
          -0.0028206320792 0.019821249389 0.2899270017 0.096756332906 -0.0036688169247 -0.030614626262
          -0.0036688169247 -0.0050233171178 -0.00067065091326 -0.030614626262 -0.00067065091326 0.094284549659
          0.13714640397 0.0041809989678 -0.011376462526 0.0041809989678 -0.036496223647 -0.008145366356
          -0.011376462526 -0.008145366356 0.021553279524 0.1462708344 -0.0016996018353 0.0093634690071
          -0.0016996018353 -0.044221521696 0.0087968958753 0.0093634690071 0.0087968958753 -0.036534082708
          0.37442399936 0.018427252482 0.0056607500887 0.018427252482 -0.002313272217 0.020012619691
          0.0056607500887 0.020012619691 0.36144808553 0.16130902352 0.0072482868081 -0.040117804834
          0.0072482868081 -0.018375428273 0.0095855940081 -0.040117804834 0.0095855940081 0.095758018943
          0.1550994219 0.026560098878 0.0046417481418 0.026560098878 -0.065892787423 0.011467503965
          0.0046417481418 0.011467503965 -0.019397467359 0.28274613393 0.016429973416 0.014802563216
          0.016429973416 -0.027508908546 0.017828864945 0.014802563216 0.017828864945 0.17488342124
          0.15236298159 0.0012673650005 -0.024996812568 0.0012673650005 -0.024166669865 0.00334478585
          -0.024996812568 0.00334478585 0.084856439276 0.075194688116 -0.0042762709083 -0.016654187455
          -0.0042762709083 0.011245583079 -0.0028318800923 -0.016654187455 -0.0028318800923 0.11746394613
          0.19333583225 0.022058926824 -0.010403260002 0.022058926824 -0.060738125757 0.0020946322467
          -0.010403260002 0.0020946322467 -0.030706651457 0.041640464126 0.0076002026998 -0.010440209831
          0.0076002026998 0.0039297425294 0.0062360760934 -0.010440209831 0.0062360760934 0.062964632271
          0.19357965376 -0.00078699339027 -0.021249542831 -0.00078699339027 -0.029615723199 -0.0040054799734
          -0.021249542831 -0.0040054799734 0.10138025575 0.20428360016 0.0031575621801 -0.015284539641
          0.0031575621801 -0.034370255762 0.01146094509 -0.015284539641 0.01146094509 0.090048842445
          0.11990146048 0.0028463253026 -0.011692338307 0.0028463253026 -0.038294200538 0.0064921134869
          -0.011692338307 0.0064921134869 -0.012547680412 0.12866851187 -0.0040105868141 -0.035300341267
          -0.0040105868141 -0.0060854159467 0.0021439361817 -0.035300341267 0.0021439361817 0.10356119313
          0.12915133158 -0.0039344881249 -0.033377520064 -0.0039344881249 -0.012084318013 0.00091331161113
          -0.033377520064 0.00091331161113 0.11082747387 0.17355360477 0.0019330399757 -0.023492134406
          0.0019330399757 -0.030703552822 0.0048460348183 -0.023492134406 0.0048460348183 0.069804195329
          0.17324417666 0.0011729509458 -0.020135609862 0.0011729509458 -0.033267042519 -0.0047599089944
          -0.020135609862 -0.0047599089944 0.062515777105 0.067355756763 -0.006268626834 -0.015269073867
          -0.006268626834 0.0094592597215 0.019437218243 -0.015269073867 0.019437218243 0.098878715292
          0.28522305306 -0.0062364720877 0.0096426196047 -0.0062364720877 0.0073902170792 0.015822652591
          0.0096426196047 0.015822652591 0.35153000419 0.16291806202 -0.0029437437319 0.010515282755
          -0.0029437437319 -0.050749136439 -0.011654548142 0.010515282755 -0.011654548142 -0.067080297362
          0.13713461518 0.0053763607214 0.001223887766 0.0053763607214 -0.041000317466 0.021655723789
          0.001223887766 0.021655723789 -0.04939500594 0.17829205198 0.00099458377845 -0.030862623889
          0.00099458377845 -0.014692312493 -3.1177444387e-05 -0.030862623889 -3.1177444387e-05 0.11183533328
          0.31640231175 0.0064248647197 0.015139516015 0.0064248647197 -0.030351257149 0.01987732308
          0.015139516015 0.01987732308 0.26803412597 0.19087331057 0.021112462016 0.0037321435549
          0.021112462016 -0.00018702270904 0.014023367186 0.0037321435549 0.014023367186 0.16432185495
          0.10633793959 0.0055114744334 -0.0035183654214 0.0055114744334 -0.030743661018 0.012461547362
          -0.0035183654214 0.012461547362 0.037157434274 0.38426193975 0.027143448788 0.014037154437
          0.027143448788 -0.04857517873 0.017222559026 0.014037154437 0.017222559026 0.25909148738
          0.32549686363 0.0019032678845 0.018911028097 0.0019032678845 -0.025152712307 0.01905489714
          0.018911028097 0.01905489714 0.269943554 0.14923916941 0.0019416511444 -0.02921460175
          0.0019416511444 -0.019183599765 0.0035863309862 -0.02921460175 0.0035863309862 0.10450664215
          0.19689611838 -0.003775514139 0.0086570161723 -0.003775514139 0.00055052856876 0.023502110768
          0.0086570161723 0.023502110768 0.19865515583 0.18391074044 -0.010371600252 -0.0026390991288
          -0.010371600252 0.0021174518347 0.014482265304 -0.0026390991288 0.014482265304 0.19101878862
          0.02848747619 0.0093149865044 -0.020638379391 0.0093149865044 -0.019884611088 -0.00011472311173
          -0.020638379391 -0.00011472311173 0.0084920492454 0.38552057141 0.016008677136 0.0060914720662
          0.016008677136 -0.012492163599 0.018959332653 0.0060914720662 0.018959332653 0.35588872506
          0.38068400622 0.023711839028 0.0094337988781 0.023711839028 -0.011678191164 0.018385481266
          0.0094337988781 0.018385481266 0.3508671267 0.049276428604 -0.0067812538235 0.00049167984668
          -0.0067812538235 0.014803192599 0.024713481569 0.00049167984668 0.024713481569 0.15523830851
          0.10301832823 -0.013108377058 -0.013199472202 -0.013108377058 0.015144627747 0.022647026804
          -0.013199472202 0.022647026804 0.11717691952 0.11093608837 -0.010759130494 0.0024020508792
          -0.010759130494 0.030758990562 0.018208952948 0.0024020508792 0.018208952948 0.24318559497
          0.17914171937 -0.0030897125751 -0.0067152982006 -0.0030897125751 0.0088868369822 0.0208510982
          -0.0067152982006 0.0208510982 0.18753593399 0.28950025781 0.046069528172 0.030204023385
          0.046069528172 0.012210484478 0.011508458815 0.030204023385 0.011508458815 0.33038517768
          0.31026468884 0.02008227784 0.001771680897 0.02008227784 -0.066192391702 0.020617123326
          0.001771680897 0.020617123326 0.11292067507 0.31218626153 0.021831740102 -0.004898520156
          0.021831740102 -0.069378367572 0.0062590219295 -0.004898520156 0.0062590219295 0.12170938679
          0.32450309967 0.0289648277 0.017114172556 0.0289648277 -0.067810270189 0.026763619429
          0.017114172556 0.026763619429 0.13757701907 0.34752486615 0.023969538398 0.012312566958
          0.023969538398 0.0028294707047 0.025637152363 0.012312566958 0.025637152363 0.36262698384
          0.2042540318 -0.0020396628515 -0.021771301524 -0.0020396628515 -0.038705592005 -0.0074521544831
          -0.021771301524 -0.0074521544831 0.1011327767 0.14275119627 -0.00097251757225 -0.0075456173636
          -0.00097251757225 -0.046017818806 0.031666192701 -0.0075456173636 0.031666192701 0.016064041734
          0.12056639194 0.0095029799034 -0.013332251431 0.0095029799034 0.033812318462 0.0097369874069
          -0.013332251431 0.0097369874069 0.20981939775 0.23468484884 0.00018492398603 0.018268426991
          0.00018492398603 -0.0076456653455 0.029075148711 0.018268426991 0.029075148711 0.21973239049
          0.37554031796 0.025409596907 0.020418106412 0.025409596907 -0.057237276914 0.0079689364745
          0.020418106412 0.0079689364745 0.24735680019 0.11395233043 0.031747916207 -0.055293813137
          0.031747916207 0.0091941310986 0.024701606494 -0.055293813137 0.024701606494 0.084629050654
          0.34518668817 0.0049563676648 0.018141652558 0.0049563676648 -0.0033478955441 0.028492360893
          0.018141652558 0.028492360893 0.29867043848 0.10830962399 0.0090902963447 0.011392095614
          0.0090902963447 0.028803893512 0.0071818180629 0.011392095614 0.0071818180629 0.21897940584
          0.1317185415 0.010606295013 -0.015560315732 0.010606295013 0.019746444801 -0.0016271738836
          -0.015560315732 -0.0016271738836 0.090404638562 0.10120984978 -0.0022986309586 -0.013759355822
          -0.0022986309586 -0.001907899492 -0.0039236334314 -0.013759355822 -0.0039236334314 0.094321387811
          0.093840537566 0.0074707561816 -0.020325250891 0.0074707561816 -0.031314921892 0.00072209759462
          -0.020325250891 0.00072209759462 -0.0054865914993 0.36089411257 0.01241778381 0.008432064398
          0.01241778381 -0.086329238782 0.011139394301 0.008432064398 0.011139394301 0.1624937774
          0.36841472156 0.038034698293 0.013933450147 0.038034698293 -0.025096324696 0.0039750356397
          0.013933450147 0.0039750356397 0.33948590258 0.023800080376 0.0047309415369 0.00047231756777
          0.0047309415369 -0.011476762363 0.0042123036646 0.00047231756777 0.0042123036646 0.0027126309935
          0.17822420454 0.003710598649 0.00010324314542 0.003710598649 -0.0045980843723 0.012542203704
          0.00010324314542 0.012542203704 0.18516680914 0.24224513174 0.0080647166894 0.013204231396
          0.0080647166894 -0.011955984041 0.013312421219 0.013204231396 0.013312421219 0.21434684276
          0.093810221541 0.0027399869226 -0.028858410467 0.0027399869226 -0.019971905276 -0.0091781770409
          -0.028858410467 -0.0091781770409 0.030547652908 0.29281580395 0.014975023366 0.0070806460092
          0.014975023366 -0.042835960493 0.025054613241 0.0070806460092 0.025054613241 0.15092552009
          0.35469998109 0.014149151647 0.020064310389 0.014149151647 -0.003797676062 0.016219641648
          0.020064310389 0.016219641648 0.34340126622 0.077536497038 0.0057093172996 -0.012732942067
          0.0057093172996 -0.0013884993751 0.0017580322551 -0.012732942067 0.0017580322551 0.038890116683
          0.13677038045 0.0020090789903 -0.0078023842154 0.0020090789903 -0.036462137306 -0.0048375269318
          -0.0078023842154 -0.0048375269318 -0.0089606009412 0.1229019557 -0.0023333871072 -0.025224405564
          -0.0023333871072 -0.035615282378 -0.0026063231192 -0.025224405564 -0.0026063231192 -0.0040719944963
          0.22193235322 -0.0099350574685 0.012741699394 -0.0099350574685 -0.024076930459 0.0078432787468
          0.012741699394 0.0078432787468 0.11098200133 0.11822161153 0.0072342855019 -0.010772162852
          0.0072342855019 0.027375833775 0.0016180967855 -0.010772162852 0.0016180967855 0.099415044837
          0.16238132058 0.0071427317256 -0.029742892004 0.0071427317256 -0.018519218509 0.0021582229293
          -0.029742892004 0.0021582229293 0.10346183094 0.088650601247 -0.014570396254 -0.055500345839
          -0.014570396254 -0.02278433233 -0.0046659008605 -0.055500345839 -0.0046659008605 0.058356886933
          0.2992758308 0.0018814049606 0.024847574272 0.0018814049606 -0.017333560716 0.024020084967
          0.024847574272 0.024020084967 0.25536227459 0.12901597845 0.0060532011367 -0.034361954434
          0.0060532011367 0.0011018378009 -0.028332478441 -0.034361954434 -0.028332478441 0.11260322003
          0.15504534419 0.0002560369197 -0.018279262927 0.0002560369197 -0.057984857194 0.011381062219
          -0.018279262927 0.011381062219 0.036361294932 0.18475980543 0.0278562315 0.017648330682
          0.0278562315 -0.0075962303493 -0.00051082834367 0.017648330682 -0.00051082834367 0.1550230415
          0.22602179938 0.028727358819 -0.00077737084415 0.028727358819 -0.011700287802 0.0026956331622
          -0.00077737084415 0.0026956331622 0.16011525909 0.091419252878 -0.028860553546 -0.071570726913
          -0.028860553546 -0.045774255973 -0.006588803055 -0.071570726913 -0.006588803055 0.077187240354
          0.18063119291 0.0026970468003 -0.029917707053 0.0026970468003 -0.01777418727 0.00047030349588
          -0.029917707053 0.00047030349588 0.12495911635 0.00573056007 0.011193735876 -0.0017399704038
          0.011193735876 0.016647686358 -9.0327591264e-05 -0.0017399704038 -9.0327591264e-05 0.09241028083
          0.041085875943 -0.0037459247164 -0.0076759979153 -0.0037459247164 0.014621667618 -0.00071000151045
          -0.0076759979153 -0.00071000151045 0.10001877377 0.1339892228 0.012144616367 -0.0099220897522
          0.012144616367 0.021572466093 -0.0058327001466 -0.0099220897522 -0.0058327001466 0.087179674444
          0.1755286567 0.0071008513327 -0.029281839135 0.0071008513327 -0.012769397616 0.0011600989886
          -0.029281839135 0.0011600989886 0.1244180558 0.17865551101 -0.0035391538216 0.0035654325212
          -0.0035391538216 -0.044153980642 -0.001347456545 0.0035654325212 -0.001347456545 0.063778667788
          0.092025031098 0.007139222641 -0.031751469975 0.007139222641 0.022647179524 -0.00058640934068
          -0.031751469975 -0.00058640934068 0.12135502171 0.098990581315 0.011145514022 -0.028637694916
          0.011145514022 0.022144950079 -0.0039285420308 -0.028637694916 -0.0039285420308 0.11335862894
          0.17044390669 0.0090687188855 -0.028378825119 0.0090687188855 -0.02140814203 0.0013583688402
          -0.028378825119 0.0013583688402 0.11694101333 0.35082678381 0.022189089868 0.024326802052
          0.022189089868 -0.0045314226524 0.01885442834 0.024326802052 0.01885442834 0.34140372817
          0.10500234338 -0.0053514053844 -0.01361986593 -0.0053514053844 0.015217539205 0.0085027787365
          -0.01361986593 0.0085027787365 0.18373406185 0.34137944785 0.035002246786 0.02998693647
          0.035002246786 -0.012913500846 0.0036186750285 0.02998693647 0.0036186750285 0.31577097479
          0.35670876885 0.016489018109 0.016695472268 0.016489018109 0.00038506803071 0.015676533491
          0.016695472268 0.015676533491 0.34961360251 0.20296919177 -0.0058812611914 -0.020507288589
          -0.0058812611914 -0.048806486928 -0.0069046521889 -0.020507288589 -0.0069046521889 0.074360488629
          0.18157858518 -0.0012826655541 -0.03734004513 -0.0012826655541 -0.022075607797 0.0016038837867
          -0.03734004513 0.0016038837867 0.12442959988 0.17141742404 0.022880472609 0.0175596647
          0.022880472609 0.0099385058326 0.014102615485 0.0175596647 0.014102615485 0.11220002152
          0.18094191768 0.0059890982526 -0.031755724614 0.0059890982526 -0.020090602473 -0.000122963414
          -0.031755724614 -0.000122963414 0.12584154065 0.37886022506 0.020312178059 0.008294525878
          0.020312178059 -0.010521188189 0.01642071477 0.008294525878 0.01642071477 0.34801016813
          0.13805997179 0.013463252852 -0.035642398706 0.013463252852 0.018290627097 0.0051438898375
          -0.035642398706 0.0051438898375 0.076771031673 0.077964858367 -0.014761892403 -0.056175425612
          -0.014761892403 0.049248660413 -0.0023647020154 -0.056175425612 -0.0023647020154 0.09970769467
          0.15344320752 0.013060638389 -0.0009117299819 0.013060638389 -0.014436224525 -0.0038310154937
          -0.0009117299819 -0.0038310154937 0.042872191637 0.19689091574 0.0013691176095 -0.013360640815
          0.0013691176095 -0.030768681879 0.0029914862788 -0.013360640815 0.0029914862788 0.11087606205
          0.20572699205 0.0009552531792 -0.015063592637 0.0009552531792 -0.031935552602 -0.0022358273701
          -0.015063592637 -0.0022358273701 0.087461434354 0.056421693849 0.0074563751638 -0.021179314521
          0.0074563751638 0.018836801027 0.0040921855862 -0.021179314521 0.0040921855862 0.10978259743
          0.32663227677 -0.0042707564598 0.013723944245 -0.0042707564598 -0.072281634214 0.013645835891
          0.013723944245 0.013645835891 0.15401078538 0.39075836887 0.011790118131 0.019619700916
          0.011790118131 -0.018334323282 0.024311656359 0.019619700916 0.024311656359 0.34453980814
          0.22216608133 -0.0021170562005 0.0091103427161 -0.0021170562005 -0.040117029878 0.017961509621
          0.0091103427161 0.017961509621 0.10695538611 0.37678383227 0.018078500822 0.013580216726
          0.018078500822 -0.011638571811 0.019317728633 0.013580216726 0.019317728633 0.32247857179
          0.18079498064 0.0029621605917 -0.032435635063 0.0029621605917 -0.017934924833 3.299356364e-05
          -0.032435635063 3.299356364e-05 0.12149018858 0.37577089529 0.017660378215 0.019170103727
          0.017660378215 -0.011538260471 0.018367995553 0.019170103727 0.018367995553 0.33050500833
          0.10569551748 0.008007641305 -0.0098588922055 0.008007641305 -0.0020018569849 -0.0020208440154
          -0.0098588922055 -0.0020208440154 0.11757158242 0.3817496703 0.019556393697 0.0040623844149
          0.019556393697 -0.010751156857 0.016250109074 0.0040623844149 0.016250109074 0.34908808868
          0.16907100119 0.0010958208057 -0.029825457376 0.0010958208057 -0.017510311922 -0.00061037738101
          -0.029825457376 -0.00061037738101 0.11759226467 0.13832242941 0.030701333383 0.0013579912144
          0.030701333383 -0.0032350753005 -0.022370956295 0.0013579912144 -0.022370956295 0.074750449644
          0.17801112951 0.0034459867151 -0.029207128272 0.0034459867151 -0.018921617017 0.00081852492749
          -0.029207128272 0.00081852492749 0.11313068755 0.18764507699 0.0046767452481 0.025943162321
          0.0046767452481 -0.055670946447 0.021998051267 0.025943162321 0.021998051267 0.22813179432
          0.25713791508 0.026087152043 0.021923169626 0.026087152043 -0.0033272351084 0.019878083494
          0.021923169626 0.019878083494 0.21716128849 0.11322929919 0.0063841021606 -0.031033620387
          0.0063841021606 -0.027289143194 -0.014703789946 -0.031033620387 -0.014703789946 -0.003941332154
          0.046009857351 -0.006824273536 -0.027679057016 -0.006824273536 0.009133789657 -0.0020984409531
          -0.027679057016 -0.0020984409531 0.073353723932 0.3712023757 0.012323703876 0.0089712833342
          0.012323703876 0.00095591577582 0.023143785291 0.0089712833342 0.023143785291 0.35825206977
          0.37144556292 0.012019962274 0.0093722194739 0.012019962274 -0.0032954049273 0.024943419722
          0.0093722194739 0.024943419722 0.35777030283 0.380067839 0.014832115313 0.0064217836313
          0.014832115313 -0.0044507443907 0.018818172861 0.0064217836313 0.018818172861 0.36539269967
          0.16766280905 0.0048765329677 -0.0093824483644 0.0048765329677 -0.038014857024 -0.0080242069744
          -0.0093824483644 -0.0080242069744 -0.046439506069 0.16934058191 -6.7276437629e-05 -0.0032092594684
          -6.7276437629e-05 -0.061832328098 -0.0056470962307 -0.0032092594684 -0.0056470962307 -0.034746194625
          0.18292617094 0.0077142673561 -0.0055932018352 0.0077142673561 -0.063521186073 -0.002647957103
          -0.0055932018352 -0.002647957103 -0.037427438502 0.11811917514 0.0067157511176 -0.057504687953
          0.0067157511176 0.011243979143 0.0074430866054 -0.057504687953 0.0074430866054 0.13964518127
          0.36836963987 0.012563528959 0.0066436169394 0.012563528959 0.0020422839784 0.020103322402
          0.0066436169394 0.020103322402 0.36581068504 0.37177100034 0.013896389353 0.0074575793712
          0.013896389353 -0.0030682730959 0.01853315799 0.0074575793712 0.01853315799 0.365371903
          0.13229205018 0.00043408491045 0.0070170565407 0.00043408491045 -0.034803874944 0.0076077691026
          0.0070170565407 0.0076077691026 -0.013183106699 0.38768245503 0.02928683622 0.013053627739
          0.02928683622 -0.033871043529 0.0069465229989 0.013053627739 0.0069465229989 0.31640503748
          0.39122901619 0.020124095006 0.015096726546 0.020124095006 -0.025562953126 0.012372273786
          0.015096726546 0.012372273786 0.31012449934 0.08708966391 -0.0010644658614 -0.010243387969
          -0.0010644658614 -0.038186538423 0.0035909615951 -0.010243387969 0.0035909615951 0.0044677097844
          0.062085610495 0.0017194241877 -0.015550542088 0.0017194241877 -0.034547121199 0.013962347868
          -0.015550542088 0.013962347868 -0.022188619187 0.36163895364 0.020517344065 0.0068513824698
          0.020517344065 -0.0027126853476 0.015480615053 0.0068513824698 0.015480615053 0.35953056269
          0.35570459725 0.020503283747 0.0087019688579 0.020503283747 0.0004578586733 0.014948402474
          0.0087019688579 0.014948402474 0.35904428581 -0.0078931619127 0.0028346331275 0.0068770229408
          0.0028346331275 0.021576686168 0.001049690765 0.0068770229408 0.001049690765 0.063063890695
          0.038927031587 0.001896916376 -0.0074370872925 0.001896916376 0.0025267894974 -0.0023247551249
          -0.0074370872925 -0.0023247551249 0.046776742906 0.059916575997 0.0017301983053 0.0034480130802
          0.0017301983053 -0.0018992025698 -0.0038381928844 0.0034480130802 -0.0038381928844 0.062053434383
          0.047873637568 0.010303586033 0.002733479397 0.010303586033 -0.0028999439512 -0.013198258473
          0.002733479397 -0.013198258473 0.041817694709 0.18838681256 0.0093667036512 -0.013243256569
          0.0093667036512 -0.083010070573 -0.012212106894 -0.013243256569 -0.012212106894 -0.05868301587
          0.38524501614 0.018480549965 0.0040054171862 0.018480549965 -0.010506954206 0.019068022304
          0.0040054171862 0.019068022304 0.35274362606 0.16201194311 0.023752430163 -0.0016862213406
          0.023752430163 -0.015500459306 -0.0072740937487 -0.0016862213406 -0.0072740937487 0.23594202446
          0.37884898603 -0.0051195917708 0.04548334298 -0.0051195917708 -0.07929815032 0.010543627336
          0.04548334298 0.010543627336 0.1830667719 -0.02714405795 -0.0088317022633 0.028080986702
          -0.0088317022633 0.036726573197 0.0063452158417 0.028080986702 0.0063452158417 0.11820095193
          0.056151905371 0.00017076047346 -0.0012213893789 0.00017076047346 0.014066238403 -0.0080801919764
          -0.0012213893789 -0.0080801919764 0.07916627494 0.32042887393 0.012850921874 0.028168677119
          0.012850921874 0.0012743543828 0.0093766394866 0.028168677119 0.0093766394866 0.31576291707
          0.27265750622 0.013750822292 0.025051807501 0.013750822292 0.028338914838 0.0088221869066
          0.025051807501 0.0088221869066 0.3431461795 0.37187430193 0.019634654108 0.011797621787
          0.019634654108 -0.0034319547258 0.018998597761 0.011797621787 0.018998597761 0.35525773939
          0.079736389469 -0.030523773787 -0.034440790696 -0.030523773787 -0.038684153925 -0.020838808149
          -0.034440790696 -0.020838808149 -0.0040943814381 0.13217997438 0.0011314200724 -0.0068894617871
          0.0011314200724 -0.027959455408 -0.004483609316 -0.0068894617871 -0.004483609316 0.039907791376
          0.086844389596 -0.0085941143047 -0.024630533128 -0.0085941143047 -0.017348457879 -0.0092071242948
          -0.024630533128 -0.0092071242948 0.030996180202 0.3518995464 0.0073841469041 0.015451150515
          0.0073841469041 -0.010411108204 0.016769410504 0.015451150515 0.016769410504 0.33948586806
          0.36563302829 0.012572144456 0.023729147661 0.012572144456 -0.0084535408145 0.019870570325
          0.023729147661 0.019870570325 0.34417796444 0.38334698602 0.01742353927 0.013049971357
          0.01742353927 -0.01584448535 0.020008584811 0.013049971357 0.020008584811 0.35112381702
          0.37903967037 0.021710665152 0.0098463645607 0.021710665152 -0.013590241357 0.018418397571
          0.0098463645607 0.018418397571 0.35139726216 0.37586896689 0.017385083815 0.014348556135
          0.017385083815 -0.019761984065 0.013701176045 0.014348556135 0.013701176045 0.33331028165
          0.38481019546 0.021428974235 0.013055110631 0.021428974235 -0.013375237557 0.018035144132
          0.013055110631 0.018035144132 0.35065885242 0.17642050877 -0.0012793819316 -0.032653618086
          -0.0012793819316 -0.023560144768 -0.0037491213748 -0.032653618086 -0.0037491213748 0.096377096651
          0.081124674555 0.021989927755 -0.009281889434 0.021989927755 -0.02598126605 -0.0050824980781
          -0.009281889434 -0.0050824980781 0.026975955036 0.10267845655 -0.01286309746 -0.064192235187
          -0.01286309746 0 0 -0.064192235187 0 0
          0.30751085324 0.02269077846 0.014486272282 0.02269077846 0.015630189429 0.019336266408
          0.014486272282 0.019336266408 0.34711921657 0.17655483459 0.0038040573495 -0.0132012656
          0.0038040573495 -0.028497702477 -0.0016326638961 -0.0132012656 -0.0016326638961 0.10293297965
          0.11127282012 0.0025378568182 -0.027936313539 0.0025378568182 -0.014086343984 0.001253003103
          -0.027936313539 0.001253003103 0.074564459108 0.08855250036 0.033174437297 -0.024854759399
          0.033174437297 -0.00545024277 -0.0056951262031 -0.024854759399 -0.0056951262031 0.026155300533
          0.37174057688 0.022114294839 0.0027017765899 0.022114294839 -0.0055320630994 0.018039545242
          0.0027017765899 0.018039545242 0.35475439502 0.21250797658 -0.0029375357055 -0.011633062549
          -0.0029375357055 -0.045768341015 -0.0032095773419 -0.011633062549 -0.0032095773419 0.083709749756
          0.081428960376 0.002080188783 -0.026076366606 0.002080188783 -0.021076087405 -0.0055282077753
          -0.026076366606 -0.0055282077753 0.011608310901 0.10344447045 0.010611218485 -0.037202212387
          0.010611218485 0.014561490923 0.0021646410617 -0.037202212387 0.0021646410617 0.12519114478
          0.14744678031 -0.00098347354809 -0.012180761241 -0.00098347354809 -0.0023546587917 -0.0042351408201
          -0.012180761241 -0.0042351408201 0.13124817638 0.25283729745 -0.005619046495 0.010533786577
          -0.005619046495 -0.014907714218 0.029767973359 0.010533786577 0.029767973359 0.15234569495
          0.23467352286 0.029125791082 0.015006683751 0.029125791082 -0.015695601878 -0.0054002679608
          0.015006683751 -0.0054002679608 0.23134418286 0.094730708509 0.0078189875635 -0.0028855408587
          0.0078189875635 0.028422296514 0.027192701077 -0.0028855408587 0.027192701077 0.21273426844
          0.37172330234 0.019055849416 0.0061904456097 0.019055849416 -0.0055429499231 0.017004327256
          0.0061904456097 0.017004327256 0.35440067729 0.37586024044 0.022803336252 0.017010672021
          0.022803336252 -0.022816646958 0.015077092455 0.017010672021 0.015077092455 0.3248505459
          0.37392985571 0.022140700008 0.019473978325 0.022140700008 -0.04607028312 0.018615612117
          0.019473978325 0.018615612117 0.29738236369 0.1285333977 0.0017167188652 -0.039428703693
          0.0017167188652 -0.0084859189638 -0.00027265371313 -0.039428703693 -0.00027265371313 0.17235334389
          0.14710861828 0.0068889395996 -0.0013138079535 0.0068889395996 0.0062875971143 -0.0002096817469
          -0.0013138079535 -0.0002096817469 0.2141436731 0.12647967277 0.0026766298988 -0.043279621636
          0.0026766298988 0.0096210249435 0.0080066452836 -0.043279621636 0.0080066452836 0.16739504474
          0.077976537708 0.016077145122 -0.016818641896 0.016077145122 0.030970872976 0.0027436269326
          -0.016818641896 0.0027436269326 0.21196724904 0.1961406649 0.0036880233266 -0.0054532819636
          0.0036880233266 -0.064463498044 0.010019647674 -0.0054532819636 0.010019647674 -0.031346166838
          0.14604011349 0.0058448456539 0.0016574165073 0.0058448456539 0.009547413239 0.0096924861834
          0.0016574165073 0.0096924861834 0.21732609476 0.12222455222 0.0085267803976 -0.028125480381
          0.0085267803976 0.013313079893 -0.018405403382 -0.028125480381 -0.018405403382 0.09535151652
          0.08055339076 0.010517064206 -0.012258524782 0.010517064206 0.01675273414 0.0090840530066
          -0.012258524782 0.0090840530066 0.21005098118 0.060960544002 -0.0014190499627 -0.0021603727305
          -0.0014190499627 -0.022895381412 -0.0039193541706 -0.0021603727305 -0.0039193541706 -0.022600684014
          0.12037750904 0.015527508414 -0.048029118664 0.015527508414 0.01272097357 0.0085821040838
          -0.048029118664 0.0085821040838 0.10385068662 0.21250200299 0.025752696784 0.011551125316
          0.025752696784 0.021546734869 0.027845089984 0.011551125316 0.027845089984 0.29949886646
          0.039410920427 -0.0034661202341 -0.005188608936 -0.0034661202341 -0.014398203982 0.027528030739
          -0.005188608936 0.027528030739 0.0063674111998 0.31523279252 0.022460329752 0.033983275432
          0.022460329752 -0.00063555230183 0.015230671147 0.033983275432 0.015230671147 0.31644983834
          -0.021855408245 0.0078279890635 -0.048590757077 0.0078279890635 0.0098662928232 -0.0093192051358
          -0.048590757077 -0.0093192051358 0.042748064108 0.0094535645475 -0.010465343769 -0.01670143422
          -0.010465343769 0.013668916503 -0.016339177348 -0.01670143422 -0.016339177348 0.068407961451
          0.16639999572 -0.004863032523 -0.0099427739279 -0.004863032523 -0.062048712369 -0.0062601131788
          -0.0099427739279 -0.0062601131788 -0.030690722264 0.13099923905 0.0061758959276 -0.022747203042
          0.0061758959276 -0.0035621384059 -0.0023322615831 -0.022747203042 -0.0023322615831 0.10217619447
          0.28078851779 0.013824860701 0.01233686693 0.013824860701 0.0051403066806 0.021402510939
          0.01233686693 0.021402510939 0.33957112328 0.33347666988 0.017523777651 0.013445057046
          0.017523777651 0.0040518456028 0.021136650778 0.013445057046 0.021136650778 0.33950682828
          0.11249823711 0.0084799478051 -0.030391267491 0.0084799478051 -0.0078721991145 -0.0088520187049
          -0.030391267491 -0.0088520187049 0.062158666324 0.29027331939 0.014337551198 0.011085859319
          0.014337551198 0.0046735626906 0.016889872924 0.011085859319 0.016889872924 0.29977679219
          0.13519627766 -0.00019423293508 -0.021742852634 -0.00019423293508 -0.035520123327 -0.0039335062076
          -0.021742852634 -0.0039335062076 0.039071142045 0.18065227317 0.0016950777576 -0.017772850764
          0.0016950777576 -0.01501669327 -0.0018720893517 -0.017772850764 -0.0018720893517 0.13540845666
          0.33194312433 0.025482458347 0.016969057803 0.025482458347 0.0025700462509 0.02195677322
          0.016969057803 0.02195677322 0.34049302559 0.21331165677 0.012473065434 0.0039859125063
          0.012473065434 -0.053318482843 0.029054223276 0.0039859125063 0.029054223276 0.038020961903
          -0.0035303905438 0.0040450140999 0.01023991456 0.0040450140999 -0.0039241422423 0.0038974848443
          0.01023991456 0.0038974848443 -0.000640051669 -0.0068786047558 -0.0017916297932 0.007088560187
          -0.0017916297932 -0.0059768774647 -0.007720774164 0.007088560187 -0.007720774164 0.0010126984264
          0.082807743605 0.010043833226 -0.044635435516 0.010043833226 -0.010883608848 -8.5271587281e-05
          -0.044635435516 -8.5271587281e-05 0.021713353148 0.26330014065 0.021271620725 0.0047102602421
          0.021271620725 0.015951768714 0.023611193791 0.0047102602421 0.023611193791 0.2979906064
          0.37315762737 0.009676755155 0.012445054314 0.009676755155 -0.00084130228306 0.019363616495
          0.012445054314 0.019363616495 0.36077736325 0.12772818988 0.024527373429 -0.029671376508
          0.024527373429 0.0067778212307 0.0034997986193 -0.029671376508 0.0034997986193 0.098841791024
          0.37158967802 0.0090559697119 0.016193211847 0.0090559697119 -0.0071651420724 0.020581224544
          0.016193211847 0.020581224544 0.35923194913 0.372187167 0.021458908687 0.0037023184534
          0.021458908687 -0.0054604992566 0.016953400093 0.0037023184534 0.016953400093 0.35683193834
          0.35960607834 0.0054898738885 0.013901782638 0.0054898738885 -0.00099569453695 0.018690385397
          0.013901782638 0.018690385397 0.36269255495 0.14673789306 0.0049521944477 -0.0097935469616
          0.0049521944477 -0.030868761248 0.0042582930884 -0.0097935469616 0.0042582930884 0.020099568765
          0.19184238993 0.0029828335473 0.0027318496092 0.0029828335473 -0.054807827243 -0.0097483473193
          0.0027318496092 -0.0097483473193 0.015215713664 0.30182998046 -0.00072905239873 0.02571535416
          -0.00072905239873 0.0047214957457 0.024783620508 0.02571535416 0.024783620508 0.32689168286
          0.052441175589 0.0034464577607 -0.021544213697 0.0034464577607 -0.019650236811 0.0057723240628
          -0.021544213697 0.0057723240628 0.027763966231 0.058979398719 -0.005537770745 -0.032618039063
          -0.005537770745 -0.0067989370152 0.0072021916222 -0.032618039063 0.0072021916222 0.069266135342
          0.038979798224 -0.0076467011582 0.012395363878 -0.0076467011582 -0.020094899785 0.0096982075894
          0.012395363878 0.0096982075894 0.0086605017209 0.13757881566 0.022937007938 -0.014093126461
          0.022937007938 -0.00022062224678 0.027155858878 -0.014093126461 0.027155858878 0.078464453735
          0.090245069963 0.001357800249 -0.02746345018 0.001357800249 -0.026177053979 0.002477385748
          -0.02746345018 0.002477385748 0.046212867259 0.32544237371 0.014523695794 0.014591320837
          0.014523695794 0.012725124236 0.021459576209 0.014591320837 0.021459576209 0.33592745358
          0.20783181723 0.025849085409 0.01546745468 0.025849085409 -0.036202559349 -0.0043518762098
          0.01546745468 -0.0043518762098 0.23330924673 0.37223018473 0.025087314393 0.0046282618675
          0.025087314393 -0.0061075055855 0.020523787753 0.0046282618675 0.020523787753 0.35598955193
          0.14989857059 0.0034356590606 0.0037692038557 0.0034356590606 0.03505944152 0.0066228241493
          0.0037692038557 0.0066228241493 0.19709660441 0.15432776595 0.0024919080582 -0.025373248498
          0.0024919080582 -0.032888846617 -0.0035246046469 -0.025373248498 -0.0035246046469 0.068708525898
          0.12089730053 -0.0084958396359 0.024933900787 -0.0084958396359 -0.029757490776 0.051788675089
          0.024933900787 0.051788675089 -0.0087893695275 0.15375001101 0.033075599089 -0.034105326932
          0.033075599089 -0.021736436679 -0.02788781919 -0.034105326932 -0.02788781919 0.054882686434
          -0.097233396193 -0.0075655316931 -0.019107574964 -0.0075655316931 0.031001297147 -0.0052071079742
          -0.019107574964 -0.0052071079742 0.035778252974 0.18328814532 0.0001956876131 -0.023084130962
          0.0001956876131 -0.034002777928 0.00030862681493 -0.023084130962 0.00030862681493 0.056452631632
          0.33054619051 0.016920937514 0.049407419683 0.016920937514 -0.013151814958 0.035603555692
          0.049407419683 0.035603555692 0.23943302327 0.17079977298 -0.0079068251292 -0.029534733657
          -0.0079068251292 -0.033609768921 -0.012712855438 -0.029534733657 -0.012712855438 0.055793622589
          0.38554450249 0.020031618642 0.0054535166536 0.020031618642 -0.01882065526 0.015628815893
          0.0054535166536 0.015628815893 0.34335208163 0.24239807304 0.013144586334 0.022123042912
          0.013144586334 0.024529947266 0.0097578034115 0.022123042912 0.0097578034115 0.30868119737
          0.20894689524 0.0095151332594 0.0030033197188 0.0095151332594 0.0066333955381 0.011344552637
          0.0030033197188 0.011344552637 0.24737397832 0.10089159538 -0.0010676648942 -0.011390087877
          -0.0010676648942 -0.018826353359 -0.019519857625 -0.011390087877 -0.019519857625 0.020981783903
          0.097185696142 0.0061006133696 -0.020669041698 0.0061006133696 -0.029161038474 -0.0087566282573
          -0.020669041698 -0.0087566282573 0.012369579585 0.20358675662 0.0075065185947 -0.0016508735451
          0.0075065185947 0.0092927008349 0.0070543897257 -0.0016508735451 0.0070543897257 0.24523268853
          0.24506056903 0.0078184166768 0.029534151209 0.0078184166768 0.0086754458849 0.0051081148541
          0.029534151209 0.0051081148541 0.26100564291 0.24043611617 0.017130354366 0.021161467847
          0.017130354366 0.017412242394 0.013193201856 0.021161467847 0.013193201856 0.31045203073
          0.10003444675 -0.008601194129 -0.019269779571 -0.008601194129 -0.052321689587 -0.0039417925821
          -0.019269779571 -0.0039417925821 -0.040050502765 0.16322092686 0.0084143753878 -0.029716644985
          0.0084143753878 -0.020525441661 0.0039630861253 -0.029716644985 0.0039630861253 0.07385632895
          0.15245144268 -0.0037439460451 -0.02354055118 -0.0037439460451 -0.025379516054 0.0026421403745
          -0.02354055118 0.0026421403745 0.068618635509 0.1475736456 -0.0013379089972 -0.031213398476
          -0.0013379089972 -0.0099982707379 -0.0030656576783 -0.031213398476 -0.0030656576783 0.06198779946
          0.084047137697 0.024442682024 0.0065816431712 0.024442682024 -0.0020836546641 0.0072042969398
          0.0065816431712 0.0072042969398 0.0088506436831 0.16670197987 -0.0022275690025 -0.01701342373
          -0.0022275690025 -0.046999107531 0.0069441782209 -0.01701342373 0.0069441782209 0.032681021984
          0.20874209486 0.0083677421147 -0.010569888555 0.0083677421147 -0.030430689597 0.00039514376304
          -0.010569888555 0.00039514376304 0.089801671826 0.37839226154 0.021642071975 0.0090410319774
          0.021642071975 -0.01030978518 0.019851769563 0.0090410319774 0.019851769563 0.351360106
          0.20901735902 0.0082165934309 0.016444939062 0.0082165934309 -0.058105263823 0.021874340434
          0.016444939062 0.021874340434 0.17761223479 0.13476550654 0.009016472779 -0.029978992491
          0.009016472779 -0.0060343513393 0.0018325910112 -0.029978992491 0.0018325910112 0.083290600312
          0.36999868169 0.026378718019 0.016567425147 0.026378718019 -0.0066273792019 0.018755306297
          0.016567425147 0.018755306297 0.34981110233 0.19446922737 0.013843516047 0.0080910836475
          0.013843516047 0.022267839487 0.02676870331 0.0080910836475 0.02676870331 0.24538643491
          0.22887005082 0.0013164850198 0.025959118981 0.0013164850198 -0.049507738541 0.04606185726
          0.025959118981 0.04606185726 0.19042374962 0.22232446808 -0.0025585456693 0.018161727079
          -0.0025585456693 -0.044903396465 0.03157093458 0.018161727079 0.03157093458 0.19527061208
          0.34926038762 0.031592719058 0.023173279989 0.031592719058 -0.046667334343 0.010288720116
          0.023173279989 0.010288720116 0.17336696082 0.13924625105 -0.0036831413327 -0.015122177341
          -0.0036831413327 -0.0025427169483 0.0039575967599 -0.015122177341 0.0039575967599 0.13688509062
          0.17844166528 0.0036703068697 -0.031225568756 0.0036703068697 -0.015973124705 0.0020545761912
          -0.031225568756 0.0020545761912 0.11151829719 0.17662196564 0.0044809599638 -0.028601320813
          0.0044809599638 -0.016290940802 0.0018031327785 -0.028601320813 0.0018031327785 0.12717158185
          -0.053908771052 -0.01344987838 0.0088168315441 -0.01344987838 0.014767435385 -0.0064591163211
          0.0088168315441 -0.0064591163211 0.067772025352 -0.067708132294 -0.010437064219 0.014911897932
          -0.010437064219 0.025359397114 0.0053834333545 0.014911897932 0.0053834333545 0.080505600498
          0.17323909611 0.0014240644091 -0.031331567151 0.0014240644091 -0.017872908805 -0.00028062381592
          -0.031331567151 -0.00028062381592 0.12509259041 0.1381428698 -6.1233913621e-05 -0.015898098068
          -6.1233913621e-05 -0.00037509338228 0.0011863473835 -0.015898098068 0.0011863473835 0.1383515645
          0.03265901384 -0.0042620340254 -0.054528117626 -0.0042620340254 -0.0070348861284 0.014023818682
          -0.054528117626 0.014023818682 0.0015327454209 0.031629695674 -0.0163563392 -0.055785732554
          -0.0163563392 0 0 -0.055785732554 0 0
          0.069992295932 -0.0083016764192 -0.0081669837031 -0.0083016764192 -0.0056218835149 -0.00018498748918
          -0.0081669837031 -0.00018498748918 -0.01860632437 0.078663107683 -0.010758051322 -0.0025536553958
          -0.010758051322 -0.018092827367 -0.0043910395331 -0.0025536553958 -0.0043910395331 -0.015492042351
          0.030058383558 -0.013465052169 -0.055669367235 -0.013465052169 -0.0053144598191 -0.00039841876839
          -0.055669367235 -0.00039841876839 0.0060115847747 0.11483918161 -0.0071938032457 0.014360486616
          -0.0071938032457 -0.042114235087 0.0051548983182 0.014360486616 0.0051548983182 0.011693783391
          0.064481499386 8.2349406667e-05 -0.0092597383806 8.2349406667e-05 -0.044482447025 -0.0038040555966
          -0.0092597383806 -0.0038040555966 -0.013457866488 0.20439003242 0.0011284863745 -0.0085720918987
          0.0011284863745 -0.046250401681 -0.00418465424 -0.0085720918987 -0.00418465424 0.076616020646
          0.29522399771 0.013705068179 0.043757540264 0.013705068179 -0.013460010467 0.010839477412
          0.043757540264 0.010839477412 0.27296685299 0.33319158598 0.0083983701161 0.025501925984
          0.0083983701161 -0.0080637181557 0.018941505507 0.025501925984 0.018941505507 0.30796292543
          0.29743499609 0.0039003748317 0.031480208521 0.0039003748317 -0.0084851381528 0.019672193661
          0.031480208521 0.019672193661 0.30696654954 0.087864818869 -0.0058562173948 -0.013402065192
          -0.0058562173948 0.0106523993 -0.002538040799 -0.013402065192 -0.002538040799 0.089269352331
          0.072456354068 -0.011126824181 -0.01526440294 -0.011126824181 0.0090853371883 -0.0056503771069
          -0.01526440294 -0.0056503771069 0.11502904836 0.38206331397 0.020350417948 0.0073659220937
          0.020350417948 -0.01493551745 0.013897697119 0.0073659220937 0.013897697119 0.34264935654
          0.35240135907 0.0080253849783 0.01417403927 0.0080253849783 -0.00088862566383 0.020297566345
          0.01417403927 0.020297566345 0.34259598866 0.34523570422 0.024036619002 0.033205220236
          0.024036619002 -0.015855402987 0.01885122372 0.033205220236 0.01885122372 0.29310273753
          0.23712912457 0.016580396132 0.019084286706 0.016580396132 -0.024002149403 0.031799386885
          0.019084286706 0.031799386885 0.19525007429 0.37013489218 0.030643308241 0.019616692608
          0.030643308241 -0.041664108947 0.0023743806414 0.019616692608 0.0023743806414 0.21244705127
          0.16859824697 0.0004181639131 -0.030267798827 0.0004181639131 -0.016400715143 -0.0039793080753
          -0.030267798827 -0.0039793080753 0.11392557086 0.12633198596 0.0048095195099 -0.041775392291
          0.0048095195099 -0.0085373641317 0.0054455839865 -0.041775392291 0.0054455839865 0.1811153604
          0.37452908663 0.022474212729 0.015117296941 0.022474212729 -0.016816929014 0.015136133436
          0.015117296941 0.015136133436 0.34020427093 0.18357580841 0.007861192845 -0.0096037569302
          0.007861192845 -0.043758369602 0.0048615267351 -0.0096037569302 0.0048615267351 0.081433142976
          0.38492596958 0.019158006728 0.003950210256 0.019158006728 -0.014863396479 0.016881650541
          0.003950210256 0.016881650541 0.3403740176 0.38806192951 0.019223071258 0.0050860346041
          0.019223071258 -0.015260261761 0.017235046958 0.0050860346041 0.017235046958 0.34051221652
          0.12095686143 0.0041494106616 -0.031410589253 0.0041494106616 0.00048464823402 0.00080529929481
          -0.031410589253 0.00080529929481 0.1056478257 0.078347783948 -0.0035989535422 -0.016599797316
          -0.0035989535422 0.0036569399515 -0.0028415698613 -0.016599797316 -0.0028415698613 0.11746482528
          0.073900742479 0.001386238897 -0.0096822889283 0.001386238897 0.013539466817 0.0024599052036
          -0.0096822889283 0.0024599052036 0.11772257088 0.19574796666 0.003586859681 -0.0082409911899
          0.003586859681 -0.059968668456 -0.009295004411 -0.0082409911899 -0.009295004411 0.0098869700147
          0.077887036819 -0.00094463800498 -0.0032731298359 -0.00094463800498 -0.02201109613 -0.0041623392688
          -0.0032731298359 -0.0041623392688 -0.0048401913124 0.076632624075 -0.0029324420591 -0.022448242765
          -0.0029324420591 -0.022034436708 -0.0035246983689 -0.022448242765 -0.0035246983689 0.0098716512256
          0.037606334058 0.003443625361 -0.040815372338 0.003443625361 -0.007824027951 -0.0014149331078
          -0.040815372338 -0.0014149331078 0.066312310888 0.30096162235 0.021259511014 0.02169525952
          0.021259511014 -0.062060683529 -0.026224790608 0.02169525952 -0.026224790608 0.23360628015
          0.12553871349 -0.0023910727977 -0.034468009301 -0.0023910727977 -0.0098245000788 -0.00012287400888
          -0.034468009301 -0.00012287400888 0.10869711679 -0.097317345554 0.03994365393 0.0029718630492
          0.03994365393 -0.015480107683 -0.06167594723 0.0029718630492 -0.06167594723 0.068090054799
          0.12947176189 0.00033161668963 -0.02821767245 0.00033161668963 -0.014188052894 -0.0102840476
          -0.02821767245 -0.0102840476 0.091847315909 0.20258860861 -0.00084407336779 -0.014166663433
          -0.00084407336779 -0.038519090474 -0.0099077580766 -0.014166663433 -0.0099077580766 0.079321945047
          0.16385710283 0.023157651601 -0.0029868055639 0.023157651601 0.0099410930564 0.016021326779
          -0.0029868055639 0.016021326779 0.16289529794 0.13045465236 0.0022041888494 -0.014958994513
          0.0022041888494 -0.0080597985219 -0.0074529639318 -0.014958994513 -0.0074529639318 0.1143699138
          0.11432371557 -0.0092028146585 -0.011452088736 -0.0092028146585 -0.0038002069654 -0.0006426764509
          -0.011452088736 -0.0006426764509 0.091918580334 0.37459751245 0.019737842291 0.0067379564698
          0.019737842291 -0.0069425505063 0.018215495387 0.0067379564698 0.018215495387 0.35375622597
          0.3750924847 0.01963866303 0.0072059064876 0.01963866303 -0.0077494513719 0.018238466049
          0.0072059064876 0.018238466049 0.35418214667 0.18352712733 0.019191737273 0.0048304966243
          0.019191737273 0.021684768516 0.01413718044 0.0048304966243 0.01413718044 0.22930696008
          0.17993492755 0.0018581900795 -0.019027794159 0.0018581900795 -0.01927981908 -0.0020105658597
          -0.019027794159 -0.0020105658597 0.13281968916 0.13343515862 -0.0064373565767 -0.019748982699
          -0.0064373565767 -0.0033684413281 -0.00082604764397 -0.019748982699 -0.00082604764397 0.11947891567
          0.159906927 0.0025953225775 0.0013835764382 0.0025953225775 -0.080316313798 -0.016739654866
          0.0013835764382 -0.016739654866 -0.072655287266 0.16143417395 -0.0077676522165 -0.02964799393
          -0.0077676522165 -0.01558984345 -0.0062730625908 -0.02964799393 -0.0062730625908 0.1187184014
          -0.018242883479 -0.0011853366845 -0.018964426432 -0.0011853366845 0.020983111785 0.0094189672505
          -0.018964426432 0.0094189672505 0.068415243943 0.14734978097 0.0083320546047 0.0038941061926
          0.0083320546047 -0.069570462311 0.0055910469554 0.0038941061926 0.0055910469554 -0.058331370222
          0.16172428069 -0.0044985078414 -0.015142949001 -0.0044985078414 -0.0072113328869 -0.0031163250624
          -0.015142949001 -0.0031163250624 0.1377338585 0.1611904299 -0.0061801110571 -0.013853519032
          -0.0061801110571 -0.010459596335 0.0018820092176 -0.013853519032 0.0018820092176 0.13504771902
          0.18203022257 -0.0059561269378 -0.018520080049 -0.0059561269378 -0.019487221726 -0.0044144598766
          -0.018520080049 -0.0044144598766 0.12680860844 0.37971014942 0.020641537949 0.013586235041
          0.020641537949 -0.0096837036286 0.020485817806 0.013586235041 0.020485817806 0.35198778514
          0.18865063347 -0.0029241701584 -0.016778534709 -0.0029241701584 -0.018233243431 -0.0039730162572
          -0.016778534709 -0.0039730162572 0.12632424288 0.16138786058 -0.0066799797425 -0.015247994448
          -0.0066799797425 -0.0091951717264 0.005336758205 -0.015247994448 0.005336758205 0.1400074622
          0.16450716954 -0.0046411342701 -0.016631031856 -0.0046411342701 -0.0097280526186 0.00089112535066
          -0.016631031856 0.00089112535066 0.13389689696 0.20778757604 0.027267699681 0.0080137604501
          0.027267699681 0.021442283434 0.0079092941444 0.0080137604501 0.0079092941444 0.31492834162
          0.088727696399 -0.001832615248 -0.033063343274 -0.001832615248 -0.010133790824 -0.018414916577
          -0.033063343274 -0.018414916577 0.029200570734 -0.0051937750866 0.003614212102 -0.0083834592194
          0.003614212102 -0.0024335301391 0.010021845797 -0.0083834592194 0.010021845797 0.011330827679
          0.37993693216 0.029227129245 0.020866083909 0.029227129245 -0.02991597274 0.0068669516385
          0.020866083909 0.0068669516385 0.30742134266 0.38806183628 0.027731795586 0.011564895455
          0.027731795586 -0.030500631073 0.0092749245159 0.011564895455 0.0092749245159 0.31750550278
          0.12268907455 -0.0031581741241 -0.013127836046 -0.0031581741241 -0.013594611917 -0.0037097746742
          -0.013127836046 -0.0037097746742 0.030580467612 0.27616794692 0.040943459937 0.033005822819
          0.040943459937 -0.01363090257 0.004646976304 0.033005822819 0.004646976304 0.24437904176
          0.12311441432 0.014221486142 0.0067468821189 0.014221486142 0.017194565891 0.0012426119359
          0.0067468821189 0.0012426119359 0.15359000648 0.28414769579 0.038750625197 0.021443232843
          0.038750625197 -0.018105838133 0.0085987892193 0.021443232843 0.0085987892193 0.2610150269
          0.22173243852 0.03236988311 0.027754822364 0.03236988311 -0.0083292477792 -0.019086391423
          0.027754822364 -0.019086391423 0.23224014962 0.19490374435 0.0059796171921 -0.024084701342
          0.0059796171921 -0.03124304878 -0.009031141798 -0.024084701342 -0.009031141798 0.071237538564
          0.37886736813 0.017610794951 0.0047350518007 0.017610794951 -0.006822713994 0.019840048862
          0.0047350518007 0.019840048862 0.35641207311 0.38724603001 0.018098047182 0.010967643306
          0.018098047182 -0.013796351179 0.021108813424 0.010967643306 0.021108813424 0.34383181591
          0.10551025875 0.00116920373 -0.038671989465 0.00116920373 0.0088526384785 -0.010094508837
          -0.038671989465 -0.010094508837 0.11284111833 0.29844948162 0.029128527777 0.065309646714
          0.029128527777 -0.052594714933 0.021383858265 0.065309646714 0.021383858265 0.1462448937
          0.33716797493 0.0035514699345 0.024682654035 0.0035514699345 -0.007098830206 0.021851864351
          0.024682654035 0.021851864351 0.30928849047 0.19518990417 0.0011994425696 -0.022298402455
          0.0011994425696 -0.029483869809 -0.0040126084191 -0.022298402455 -0.0040126084191 0.11628207364
          0.32550350822 0.028152909419 0.029335487762 0.028152909419 -0.047321702532 -0.003425819877
          0.029335487762 -0.003425819877 0.21822235532 0.38611559259 0.02548631249 -0.013006663665
          0.02548631249 -0.052907788247 0.00085163851093 -0.013006663665 0.00085163851093 0.24677928857
          0.37558957012 0.014669028875 0.014683230239 0.014669028875 -0.055370474681 0.019065555919
          0.014683230239 0.019065555919 0.18605980607 0.37328470514 0.0086949753628 -0.012150036256
          0.0086949753628 -0.053827655379 0.023448372456 -0.012150036256 0.023448372456 0.19468676501
          0.30927416596 0.038516947745 0.011446721669 0.038516947745 -0.067709257176 0.012573909954
          0.011446721669 0.012573909954 0.18714973251 0.30165782111 0.025074845619 0.020735820714
          0.025074845619 -0.053060299971 0.0167230673 0.020735820714 0.0167230673 0.17972806065
          0.30834027353 0.028088191028 0.013090481118 0.028088191028 -0.053261959416 0.01598555099
          0.013090481118 0.01598555099 0.18376862562 0.12821971272 0.016180992713 -0.0065294934044
          0.016180992713 0.021782778187 -0.010953389976 -0.0065294934044 -0.010953389976 0.087672142366
          0.1540117622 0.00016444548834 -0.029766572295 0.00016444548834 -0.015604630366 -0.00057082850973
          -0.029766572295 -0.00057082850973 0.10876042802 0.30125799393 0.030076645284 0.011436419955
          0.030076645284 -0.044298543164 0.0011159109774 0.011436419955 0.0011159109774 0.20807672888
          0.34464664462 0.025170868241 0.014021388387 0.025170868241 -0.02941701938 0.022043318711
          0.014021388387 0.022043318711 0.28751275217 0.36268267726 0.024942737075 0.017996193461
          0.024942737075 -0.010802383453 0.010500334152 0.017996193461 0.010500334152 0.33785733984
          0.36531281566 0.028412566645 0.020341167773 0.028412566645 -0.0087361520249 0.013473424539
          0.020341167773 0.013473424539 0.33977540962 0.16266055872 0.0027946809111 0.035555761128
          0.0027946809111 -0.096913610465 0.0015440670228 0.035555761128 0.0015440670228 0.16728637858
          0.35760868345 0.031210810528 0.020243984919 0.031210810528 -0.00018713620651 0.017615736531
          0.020243984919 0.017615736531 0.34427212267 0.36321157426 0.03011517971 0.020030434464
          0.03011517971 -0.0091508323846 0.013290383745 0.020030434464 0.013290383745 0.3422022729
          0.12763240707 0.0069103193391 -0.020378255669 0.0069103193391 -0.00040582081771 0.0059219394609
          -0.020378255669 0.0059219394609 0.13993054647 0.38108798637 0.024967806367 0.010349591797
          0.024967806367 -0.017540852273 0.0147123644 0.010349591797 0.0147123644 0.34530563376
          0.091073117994 0.0036731008687 -0.01483771995 0.0036731008687 -0.036036124708 0.0066302362076
          -0.01483771995 0.0066302362076 -0.010999404733 0.038303147542 0.0076732661454 -0.034256093743
          0.0076732661454 -0.012421543932 0.014897465571 -0.034256093743 0.014897465571 0.028010772106
          0.17015648866 -0.0094971548116 -0.028441795515 -0.0094971548116 -0.022146042884 -0.0073458074435
          -0.028441795515 -0.0073458074435 0.074190389894 0.2620734402 0.015378397438 0.05522513602
          0.015378397438 -0.05969289099 0.033074961793 0.05522513602 0.033074961793 0.23117280076
          0.18116395995 0.015318206447 0.024885537278 0.015318206447 -0.0075778137138 0.024325223578
          0.024885537278 0.024325223578 0.22796452583 0.37059002719 0.02173954503 0.014019241624
          0.02173954503 -0.039592105 0.015488029048 0.014019241624 0.015488029048 0.23771825869
          0.32395420461 0.0093418543213 0.0045880430055 0.0093418543213 -0.071086321884 -0.0029678173849
          0.0045880430055 -0.0029678173849 0.10204855041 0.38216276934 0.021485258786 0.0060370758926
          0.021485258786 -0.0084835500598 0.020524466153 0.0060370758926 0.020524466153 0.35391780718
          0.0082371936361 -0.0051509931703 -0.025541284093 -0.0051509931703 0.011992955296 -0.0093750205703
          -0.025541284093 -0.0093750205703 0.098525815252 0.37478570398 0.021830840011 0.0091518858582
          0.021830840011 -0.041318721724 0.014643187079 0.0091518858582 0.014643187079 0.28243534547
          0.35223245388 0.016064507849 0.017905062855 0.016064507849 -0.035764004364 0.019549526379
          0.017905062855 0.019549526379 0.23836120502 0.014464292816 -0.015620890007 -0.023904565368
          -0.015620890007 0.0065489476745 0.00027479652907 -0.023904565368 0.00027479652907 0.092282735691
          0.0086538496416 -0.0050749102936 -0.006400066526 -0.0050749102936 -0.010807323141 0.0035045763779
          -0.006400066526 0.0035045763779 0.0011414942741 0.051398911367 0.0014905023041 0.0065285525142
          0.0014905023041 -0.02475065688 -0.0088113042475 0.0065285525142 -0.0088113042475 -0.0086279461942
          0.19514467052 0.025190125933 0.042240611376 0.025190125933 -0.0074578737142 0.050709129526
          0.042240611376 0.050709129526 0.22036729692 0.078059071116 0.0015792839546 -0.0037897289639
          0.0015792839546 0.0097557996853 0.023126072252 -0.0037897289639 0.023126072252 0.18662990118
          0.15621409441 -0.0013087289033 -0.022498892042 -0.0013087289033 -0.016447044568 0.001743361447
          -0.022498892042 0.001743361447 0.10287353787 0.1634281313 -0.0033274339565 -0.028470935331
          -0.0033274339565 -0.018007789542 -0.0039351140803 -0.028470935331 -0.0039351140803 0.082405244847
          0.35670077136 0.029113897811 0.007121147133 0.029113897811 0.0013501050095 0.016725682618
          0.007121147133 0.016725682618 0.36035313573 0.35658538251 0.02902913862 0.0062541985332
          0.02902913862 0.0030437089609 0.018929587808 0.0062541985332 0.018929587808 0.35843537546
          0.18086421988 0.0033301116843 -0.031220980254 0.0033301116843 -0.018974217541 -0.00086720871372
          -0.031220980254 -0.00086720871372 0.11830252739 0.18536412042 -0.00025066576616 -0.0195968746
          -0.00025066576616 -0.019833720925 -0.00084148421119 -0.0195968746 -0.00084148421119 0.12513259976
          0.19025492569 0.00044632584684 -0.015071733297 0.00044632584684 -0.017038376879 -0.0020818892776
          -0.015071733297 -0.0020818892776 0.11426252154 0.18619057385 -0.0012498857021 -0.014105925655
          -0.0012498857021 -0.018472089637 0.00095219325897 -0.014105925655 0.00095219325897 0.13145970534
          0.17090227862 0.00861586047 -0.060111741531 0.00861586047 -0.03472476998 -0.026699967028
          -0.060111741531 -0.026699967028 0.040607294314 0.11839036873 0.016372734266 -0.024525377633
          0.016372734266 0.006900993232 -0.0080582471009 -0.024525377633 -0.0080582471009 0.12558964228
          0.30400260024 0.024690072416 0.017051699635 0.024690072416 -0.013963061213 0.014300378304
          0.017051699635 0.014300378304 0.26395903392 0.39153481193 0.02065589107 0.0078708088069
          0.02065589107 -0.018280055162 0.021666164942 0.0078708088069 0.021666164942 0.34660762898
          0.11689073183 0.012545728481 -0.015436984718 0.012545728481 0.018509675882 -0.0050944219638
          -0.015436984718 -0.0050944219638 0.12290598929 0.38218887646 0.019362190702 0.016612918023
          0.019362190702 -0.018923162701 0.017685112028 0.016612918023 0.017685112028 0.33152389255
          0.12734145074 0.010846483753 -0.0073754456234 0.010846483753 0.032140598512 0.01346445089
          -0.0073754456234 0.01346445089 0.069229684589 0.1715816182 0.0013150844003 -0.027174136889
          0.0013150844003 -0.015076119943 0.0013349471032 -0.027174136889 0.0013349471032 0.12393834161
          0.31672266297 0.022572676755 0.036936436474 0.022572676755 -0.018551815329 0.004232671885
          0.036936436474 0.004232671885 0.279835834 0.32193092837 0.023234653465 0.027808400591
          0.023234653465 -0.018526022491 0.0034175863658 0.027808400591 0.0034175863658 0.29379250112
          0.32206686463 0.031562432732 0.025396126006 0.031562432732 0.0061592340289 0.0096284060152
          0.025396126006 0.0096284060152 0.28775540693 0.12945698574 0.0083945828698 -0.035562363812
          0.0083945828698 -0.014638083365 -0.0029443752075 -0.035562363812 -0.0029443752075 0.055289030599
          0.30394883087 0.040809372771 0.019142026832 0.040809372771 -0.014963379054 -0.0089246926777
          0.019142026832 -0.0089246926777 0.27350857326 0.2967697429 0.020847098818 0.045552943279
          0.020847098818 -0.012889284561 -0.00023230715385 0.045552943279 -0.00023230715385 0.24914867562
          0.30740179287 0.03322846877 0.034385660087 0.03322846877 -0.045045657335 0.00031105109092
          0.034385660087 0.00031105109092 0.2569475103 0.20317937757 0.0029924213989 -0.01373924965
          0.0029924213989 -0.038081202182 -0.003318908386 -0.01373924965 -0.003318908386 0.062215780467
          0.11905115279 -0.00055626050238 -0.0030633619003 -0.00055626050238 -0.043056395145 0.0049267912695
          -0.0030633619003 0.0049267912695 -0.012590867002 0.023932254272 0.0045658095743 -0.0054234892668
          0.0045658095743 -0.0028474090518 0.0080695597943 -0.0054234892668 0.0080695597943 0.01668322656
          0.37898237947 0.020568168671 0.010396138148 0.020568168671 -0.0075493071934 0.019232256903
          0.010396138148 0.019232256903 0.3523822074 0.37903190495 0.018072433078 0.010657743
          0.018072433078 -0.013438535148 0.020730799608 0.010657743 0.020730799608 0.35212685951
          0.1864715247 0.0021112459606 -0.0049322014903 0.0021112459606 -0.049421056918 0.00053122139279
          -0.0049322014903 0.00053122139279 0.045757806996 0.012188779396 -0.0012676852692 0.012781438851
          -0.0012676852692 0.040517535865 -0.019317878515 0.012781438851 -0.019317878515 0.16102275543
          0.37842813395 0.019406707646 0.0093552971559 0.019406707646 -0.0095046776384 0.018258959591
          0.0093552971559 0.018258959591 0.35347617719 0.38221765085 0.024789477725 0.0057357170062
          0.024789477725 -0.0089413205358 0.017501487514 0.0057357170062 0.017501487514 0.3520660981
          0.37471938812 0.020108376812 0.0087690073135 0.020108376812 -0.0076131576261 0.017814009059
          0.0087690073135 0.017814009059 0.35142719277 0.29556445267 0.057675855399 0.027082061551
          0.057675855399 -0.0025540407562 0.011571489514 0.027082061551 0.011571489514 0.32222401862
          0.26847145454 0.043306792181 0.020001786766 0.043306792181 0.0052968794074 0.002838603017
          0.020001786766 0.002838603017 0.32197524141 -0.072526771051 0.013316352343 0.033266954591
          0.013316352343 0.020098599871 0.011682875062 0.033266954591 0.011682875062 0.03852825513
          -0.12498817938 -0.01864914367 0.020434863449 -0.01864914367 0.014751942521 0.0088026242454
          0.020434863449 0.0088026242454 0.070509973562 0.1359491897 0.0139377189 -0.011724437594
          0.0139377189 0.013988853667 -0.016126246232 -0.011724437594 -0.016126246232 0.080735452506
          0.3259253828 0.015831956552 0.012482104372 0.015831956552 0.0082707684237 0.010766996322
          0.012482104372 0.010766996322 0.34709277314 0.32195449993 0.010749445103 0.018672278016
          0.010749445103 0.00083420389173 0.012163126824 0.018672278016 0.012163126824 0.34309635399
          0.32042453212 0.013613988199 0.029947020826 0.013613988199 0.0074209457106 0.016745523857
          0.029947020826 0.016745523857 0.317070389 0.14368481772 0.023545809402 -0.025585423031
          0.023545809402 0.005721806315 0.0094562822374 -0.025585423031 0.0094562822374 0.071166994116
          0.2931402342 0.0097720243637 0.011922462768 0.0097720243637 0.0068809243364 0.01420536819
          0.011922462768 0.01420536819 0.30516742905 0.21198341054 -0.0013567553067 -0.013779598701
          -0.0013567553067 -0.040708990326 -0.010429682317 -0.013779598701 -0.010429682317 0.069985200457
          0.14620293184 0.0035539298523 -0.046103252015 0.0035539298523 -0.0010990563091 -0.0066796159021
          -0.046103252015 -0.0066796159021 0.044726499084 0.27239886952 0.037868125733 0.013651079563
          0.037868125733 0.022060698406 0.0084874604541 0.013651079563 0.0084874604541 0.31531293365
          0.076796042173 -0.010001186033 0.0073642645042 -0.010001186033 0.02807179536 0.010607171208
          0.0073642645042 0.010607171208 0.16825763913 -0.088489557771 -0.0043295629072 -0.061153098133
          -0.0043295629072 0.01776883671 0.0024241358598 -0.061153098133 0.0024241358598 0.00032568569637
          0.052660378939 0.0070538004604 -0.0059093594761 0.0070538004604 0.0019276484131 -0.00042882641503
          -0.0059093594761 -0.00042882641503 0.099437792875 0.3738318029 0.015807420257 0.01640016095
          0.015807420257 -0.0075427823969 0.023556842314 0.01640016095 0.023556842314 0.351211312
          0.17746996658 0.0046252578105 -0.029471230603 0.0046252578105 -0.017644071665 0.0013127511876
          -0.029471230603 0.0013127511876 0.12443554936 0.15708238368 0.0081289813058 -0.024871987096
          0.0081289813058 -0.011413077205 -0.002750114128 -0.024871987096 -0.002750114128 0.12431091067
          0.37706066843 0.017403339798 0.010087849308 0.017403339798 -0.040598441637 0.012825292698
          0.010087849308 0.012825292698 0.32444965541 0.17190993321 0.0067639685214 -0.021829693302
          0.0067639685214 -0.015335278079 0.001689760163 -0.021829693302 0.001689760163 0.13430380118
          0.29890220703 0.011706851152 0.022235873703 0.011706851152 -0.022584343672 0.014130417536
          0.022235873703 0.014130417536 0.23587479555 0.30529574393 0.021060440841 0.025963514202
          0.021060440841 -0.014706594196 0.022937699083 0.025963514202 0.022937699083 0.23611089939
          0.15408172747 0.0093559283577 -0.018408310898 0.0093559283577 -0.0085884097427 -0.0012074742727
          -0.018408310898 -0.0012074742727 0.13445565333 0.080681068802 0.012277852347 -0.015938763064
          0.012277852347 -0.034307785433 0.010213682149 -0.015938763064 0.010213682149 -0.021188689963
          0.1313418313 -0.0049436952499 -0.026570925018 -0.0049436952499 -0.0060217641588 0.00068016654264
          -0.026570925018 0.00068016654264 0.12250099741 0.15205024045 0.010466575388 -0.0081387991619
          0.010466575388 -0.022254340632 -0.0039664855206 -0.0081387991619 -0.0039664855206 0.098449128126
          0.082176722572 -0.019011795158 -0.026163555202 -0.019011795158 -0.0094294051489 0.0062036902904
          -0.026163555202 0.0062036902904 0.027094842715 0.091249964649 -0.0080567764889 -0.011771286245
          -0.0080567764889 0.0046339799747 0.0035440857999 -0.011771286245 0.0035440857999 0.13477923391
          0.16654035714 0.033259247999 -0.041260701598 0.033259247999 0.0057905771888 0.015779570255
          -0.041260701598 0.015779570255 0.064698078251 0.36795896282 0.018913558726 0.011127087031
          0.018913558726 -0.0077093713614 0.019626803264 0.011127087031 0.019626803264 0.35697687211
          0.37781426839 0.019650912049 0.0059444468244 0.019650912049 -0.0088835636388 0.017758152311
          0.0059444468244 0.017758152311 0.350668193 0.38323741857 0.018377241103 0.016705853962
          0.018377241103 -0.012847986928 0.018609511934 0.016705853962 0.018609511934 0.34918914553
          0.18517997478 0.0098165928117 -0.013877316855 0.0098165928117 -0.043873981503 0.010654210041
          -0.013877316855 0.010654210041 0.051110112601 0.35585930558 0.018372822983 0.017298151562
          0.018372822983 -0.0020893937649 0.010251911811 0.017298151562 0.010251911811 0.34113055481
          0.076094129981 -0.0038335815679 0.016728847233 -0.0038335815679 0.04110089509 0.028494509146
          0.016728847233 0.028494509146 0.19259244639 0.051861501226 -0.0033633687088 -0.0052243541247
          -0.0033633687088 0.012601492045 0.0027230598693 -0.0052243541247 0.0027230598693 0.094863082543
          0.19122787804 0.0051413606287 -0.016823153464 0.0051413606287 -0.024703688521 0.00062854020367
          -0.016823153464 0.00062854020367 0.11817196045 0.16251086944 0.078663689887 -0.032383945993
          0.078663689887 -0.042906484755 -0.032833225636 -0.032383945993 -0.032833225636 -0.025702028194
          0.16115312985 -0.0047242664216 -0.0036703861571 -0.0047242664216 -0.037113356299 0.012728779797
          -0.0036703861571 0.012728779797 0.11132900358 0.36639825235 0.021943626749 0.015860242356
          0.021943626749 -0.0042166749907 0.020144940709 0.015860242356 0.020144940709 0.34148429264
          0.18538762748 -0.0054854612328 -0.0050450590707 -0.0054854612328 -0.056117416596 0.012326438342
          -0.0050450590707 0.012326438342 0.021852592919 0.1178243878 -0.013891541518 0.0056305815095
          -0.013891541518 -0.0086264107967 0.019597114652 0.0056305815095 0.019597114652 0.067523637811
          0.13242692909 -0.011174610495 0.00097792941272 -0.011174610495 -0.027628280212 0.023469986903
          0.00097792941272 0.023469986903 0.067855023818 0.12228284335 -0.0094373014684 0.0091076172155
          -0.0094373014684 -0.021890161914 0.030137668249 0.0091076172155 0.030137668249 0.072103017367
          0.30765707678 0.018150068606 0.01302793206 0.018150068606 -0.041524032184 0.015125714852
          0.01302793206 0.015125714852 0.11263139453 0.15083644389 0.020752036154 0.0037993958413
          0.020752036154 -0.018750446622 0.023748183825 0.0037993958413 0.023748183825 0.15238821088
          0.30034609404 0.003662393556 0.0077803252589 0.003662393556 -0.031684117884 0.014547283994
          0.0077803252589 0.014547283994 0.1266562914 0.042795489075 -0.0029183863556 -0.012268742239
          -0.0029183863556 -0.0026455532811 -0.0045994832039 -0.012268742239 -0.0045994832039 0.026723206722
          0.37794014486 0.020537733749 0.0033900395759 0.020537733749 -0.010187811518 0.020119357637
          0.0033900395759 0.020119357637 0.3548689977 0.08188482931 0.0012386917818 0.0042426355494
          0.0012386917818 -0.043639869459 0.0056792761993 0.0042426355494 0.0056792761993 -0.012386773156
          0.057103170006 0.0048501843619 -0.0096853650076 0.0048501843619 0.03497400065 0.0086850898426
          -0.0096853650076 0.0086850898426 0.19720679696 0.11038368923 -0.014030360912 -0.0022444903754
          -0.014030360912 0.030847221861 0.03130959585 -0.0022444903754 0.03130959585 0.13925426141
          0.382477097 0.022317981063 0.0052356876378 0.022317981063 -0.013279003384 0.021715327555
          0.0052356876378 0.021715327555 0.35389244675 0.10098751096 0.0044512811944 0.008904935649
          0.0044512811944 0.0073409313411 0.019140068995 0.008904935649 0.019140068995 0.13344085357
          0.060006548852 0.0013703484724 -0.021676301836 0.0013703484724 0.037097657252 0.031817707746
          -0.021676301836 0.031817707746 0.2092352584 0.15068777826 -0.0037565460817 0.010437332934
          -0.0037565460817 0.010143516298 0.022114849544 0.010437332934 0.022114849544 0.18914746837
          0.11724704973 0.0079563301595 -0.0090783300463 0.0079563301595 0.029952494448 -0.00017048181124
          -0.0090783300463 -0.00017048181124 0.096562602374 0.11643666882 0.0064996433552 -0.010039701587
          0.0064996433552 0.028842139575 0.0019138868083 -0.010039701587 0.0019138868083 0.10506006907
          0.32947565104 0.0097543995201 0.027693464862 0.0097543995201 -0.028244962122 0.022056283626
          0.027693464862 0.022056283626 0.27425953704 0.10794974999 0.014056552318 -0.028515853447
          0.014056552318 0.02118529204 -0.0016495332815 -0.028515853447 -0.0016495332815 0.11077115097
          0.1182718179 0.011480451043 -0.010335448294 0.011480451043 0.02058285594 -0.0070323437865
          -0.010335448294 -0.0070323437865 0.097804829688 0.15130191678 -0.0038576238591 -0.030456384484
          -0.0038576238591 -0.01859321341 -0.0044681115896 -0.030456384484 -0.0044681115896 0.097274471009
          0.15567382171 0.0033223484277 -0.023448081551 0.0033223484277 -0.013686026097 -0.00038081581492
          -0.023448081551 -0.00038081581492 0.10050657943 0.14890613918 -0.0061258963119 -0.032574402249
          -0.0061258963119 -0.010975843563 0.0023641451275 -0.032574402249 0.0023641451275 0.10561234521
          0.17207390135 -0.0079555749613 -0.025569176015 -0.0079555749613 -0.014538938995 -0.0076365656393
          -0.025569176015 -0.0076365656393 0.1224067347 0.048464562834 0.00035735382815 -0.011941525502
          0.00035735382815 -0.0059441182065 -0.0077513631498 -0.011941525502 -0.0077513631498 -0.0023431052237
          0.18158085206 0.0030618530847 -0.010793646092 0.0030618530847 -0.031978768922 -0.00085247179031
          -0.010793646092 -0.00085247179031 0.074487822303 0.17954507228 -0.0054240992204 -0.015669119091
          -0.0054240992204 -0.047293829827 -0.0056466738073 -0.015669119091 -0.0056466738073 0.074833922416
          0.19790761505 -0.0020579803985 -0.011921392935 -0.0020579803985 -0.050373124756 0.0050590756764
          -0.011921392935 0.0050590756764 0.048443649033 0.1596902762 -0.0032375398994 -0.001289226248
          -0.0032375398994 0.027067426552 0.0064296433679 -0.001289226248 0.0064296433679 0.3052806562
          0.12280540837 -0.0056231955678 0.014953923549 -0.0056231955678 -0.035190519125 -0.0070487446881
          0.014953923549 -0.0070487446881 -0.02840167283 0.11979630426 0.026252231475 -0.013086798756
          0.026252231475 -0.040655770865 0.0048683368514 -0.013086798756 0.0048683368514 -0.04525024153
          0.37689130533 0.026909889882 0.0084408236547 0.026909889882 -0.010540869283 0.019768428924
          0.0084408236547 0.019768428924 0.35400841155 0.37318799639 0.0251576892 0.0068033184506
          0.0251576892 -0.0091505251614 0.019174650781 0.0068033184506 0.019174650781 0.3549669855
          0.37262758035 0.02392807104 0.011489249805 0.02392807104 -0.0091197497251 0.018219934844
          0.011489249805 0.018219934844 0.35037599396 0.063101509723 -0.0039865011418 -0.0031821445057
          -0.0039865011418 -0.024186587218 -0.010202039862 -0.0031821445057 -0.010202039862 -0.021041070258
          0.034066612883 -0.00034196751522 0.0052316172333 -0.00034196751522 -0.009893488721 0.00012810213607
          0.0052316172333 0.00012810213607 -0.014689938662 0.37451714707 0.025388633988 0.0075255868422
          0.025388633988 -0.010167388036 0.018245178505 0.0075255868422 0.018245178505 0.35430651886
          -0.069439068871 0.0077049565481 0.011943060802 0.0077049565481 0.036459616583 0.010522551177
          0.011943060802 0.010522551177 0.072704920697 0.37670548148 0.021337551668 0.0041792490459
          0.021337551668 -0.0069640710236 0.017929968752 0.0041792490459 0.017929968752 0.35511713143
          0.37738554734 0.023695106708 0.0045150792007 0.023695106708 -0.0070625237843 0.018259506612
          0.0045150792007 0.018259506612 0.35357252176 0.25815163621 0.0034918510868 -0.015866235828
          0.0034918510868 -0.03993905187 0.017716927594 -0.015866235828 0.017716927594 0.081359366724
          0.26748033745 0.01685420387 0.0082491042562 0.01685420387 0.014555963913 0.017645594339
          0.0082491042562 0.017645594339 0.30016940569 0.19333418744 0.0049425505304 -0.014867788378
          0.0049425505304 -0.026004671948 -0.0057426108592 -0.014867788378 -0.0057426108592 0.10017549355
          0.34646141245 0.030454936303 0.023878023828 0.030454936303 0.0024233766224 0.013394874032
          0.023878023828 0.013394874032 0.35058491152 0.23229902767 0.0022720747765 -0.0007447090993
          0.0022720747765 -0.037185551656 0.0068282916939 -0.0007447090993 0.0068282916939 0.12345641787
          0.046556562896 0.0080288600589 -0.08648919843 0.0080288600589 0.013005439323 -0.049066747734
          -0.08648919843 -0.049066747734 0.11550319594 0.24714334435 0.0074572370231 0.026486645628
          0.0074572370231 -0.036354940213 0.011078520982 0.026486645628 0.011078520982 0.14517691657
          0.11480964247 -0.0759717914 -0.054040396186 -0.0759717914 0.0051121958018 -0.086091226573
          -0.054040396186 -0.086091226573 0.0003597531329 0.063872574077 -0.056229301997 -0.093476241383
          -0.056229301997 0.03738066866 -0.10514252783 -0.093476241383 -0.10514252783 0.0014188690313
          0.042772113929 -0.039163623383 -0.11040762897 -0.039163623383 -5.4020278736e-05 -0.022394268115
          -0.11040762897 -0.022394268115 0.045520774536 0.079716847676 -0.055782919885 -0.09254649669
          -0.055782919885 0.008768275433 -0.071395515587 -0.09254649669 -0.071395515587 -0.038250409961
          0.36137643212 0.019452370016 0.017945180868 0.019452370016 -0.0093661772349 0.015369172838
          0.017945180868 0.015369172838 0.34026232644 0.35752424142 0.020546220238 0.025966748775
          0.020546220238 -0.0095472377603 0.012653879348 0.025966748775 0.012653879348 0.32503641509
          0.36388638729 0.015009222453 0.017039755543 0.015009222453 -0.015858918565 0.018925326803
          0.017039755543 0.018925326803 0.33736071375 0.34577753009 0.025936404775 0.024024973147
          0.025936404775 -0.013450603169 0.010121682371 0.024024973147 0.010121682371 0.31935204475
          0.34210431181 0.030486658363 0.029921516088 0.030486658363 -0.018687365719 0.0020393110197
          0.029921516088 0.0020393110197 0.31139968477 0.37629976133 0.016442161187 0.018713787702
          0.016442161187 -0.026527094148 0.020291103351 0.018713787702 0.020291103351 0.30300678013
          0.3768384921 0.015488206743 0.01551813842 0.015488206743 -0.02499306674 0.025491388876
          0.01551813842 0.025491388876 0.32060872339 0.00062329572405 -0.0031791683124 -0.0012238595637
          -0.0031791683124 -0.0031600265823 0.004531254234 -0.0012238595637 0.004531254234 0.0046245321691
          0.36622784374 0.026812654549 0.017614753498 0.026812654549 -0.014733347042 0.010307647522
          0.017614753498 0.010307647522 0.34132860783 0.37307607716 0.018781758304 0.011141388033
          0.018781758304 -0.0096159181749 0.016135270233 0.011141388033 0.016135270233 0.3467243105
          0.30783690675 0.016534053918 0.01959786712 0.016534053918 -0.023006070417 0.026748674986
          0.01959786712 0.026748674986 0.24859366003 0.29399439693 0.021984608974 0.0014017977111
          0.021984608974 -0.017366804157 0.02250044088 0.0014017977111 0.02250044088 0.22590108502
          0.28012410644 0.023046273443 0.010611856244 0.023046273443 -0.0072066425229 0.018524347149
          0.010611856244 0.018524347149 0.22083029069 0.3624585134 0.0090916458041 0.010358577039
          0.0090916458041 -0.044854185722 0.023939325642 0.010358577039 0.023939325642 0.16815213892
          0.36916978719 0.016957546063 0.014693590305 0.016957546063 -0.0080577679621 0.018845049148
          0.014693590305 0.018845049148 0.34476078727 0.33402693667 0.021774728217 0.011040876727
          0.021774728217 -0.011775787387 0.020929094799 0.011040876727 0.020929094799 0.30552202299
          0.36864023645 0.017319785028 0.014093843186 0.017319785028 -0.0037448478266 0.014917587805
          0.014093843186 0.014917587805 0.3482203726 0.36620189249 0.027159600875 0.015026550355
          0.027159600875 -0.010633751496 0.013960617696 0.015026550355 0.013960617696 0.34810366404
          0.37455840478 0.016711125407 0.015025581647 0.016711125407 -0.0076738982402 0.019391119804
          0.015025581647 0.019391119804 0.34900536292 0.15173694938 -0.011564019495 -0.0095288420504
          -0.011564019495 -0.0046390834865 -0.0092430347199 -0.0095288420504 -0.0092430347199 0.11378905218
          0.1820648703 0.0034173407382 -0.03238230552 0.0034173407382 -0.017829743453 0.00046184795472
          -0.03238230552 0.00046184795472 0.11859652989 0.29631619126 0.0062425647501 0.020873267053
          0.0062425647501 -0.012727627054 0.026792820998 0.020873267053 0.026792820998 0.26294120688
          0.26311417463 -0.0059929257237 0.015143125801 -0.0059929257237 -0.016447533455 0.02471277923
          0.015143125801 0.02471277923 0.26195354169 -0.022323014685 -0.0057670899678 0.00071569936756
          -0.0057670899678 0.013095651787 0.0024039733652 0.00071569936756 0.0024039733652 9.9665516579e-08
          0.37905329922 0.017791005197 0.013717775696 0.017791005197 -0.0082640441133 0.020033391706
          0.013717775696 0.020033391706 0.35678921928 0.10449539511 0.0076633424067 -0.025547276818
          0.0076633424067 0.0081966280472 0.019588919025 -0.025547276818 0.019588919025 0.1125103169
          0.38521571127 0.017229238795 0.01808435354 0.017229238795 -0.027428731316 0.027374686688
          0.01808435354 0.027374686688 0.32074340038 0.047280112718 0.0018597340118 -0.012951431824
          0.0018597340118 -0.010523155587 -0.0070038764646 -0.012951431824 -0.0070038764646 0.006619123818
          0.17923103979 0.0030940471213 -0.028995051823 0.0030940471213 -0.025737225961 -0.00083848024458
          -0.028995051823 -0.00083848024458 0.11806738529 0.2226376953 -0.0050381225459 0.020519873982
          -0.0050381225459 0.018919715475 0.03199290523 0.020519873982 0.03199290523 0.29268910723
          0.089102413747 0.0099508235963 -0.020084621819 0.0099508235963 0.0019871053096 0.002577641825
          -0.020084621819 0.002577641825 0.060607644266 0.011953546498 -0.019251445105 -0.0084437035783
          -0.019251445105 0.0034075400265 -0.0093394716212 -0.0084437035783 -0.0093394716212 0.025052176663
          0.085112631053 0.012311636814 -0.03004296441 0.012311636814 0.022824633242 0.0048245259293
          -0.03004296441 0.0048245259293 0.16359687782 -0.016445030612 0.0007335522023 -0.0058149167271
          0.0007335522023 0.01619669638 0.0094853845086 -0.0058149167271 0.0094853845086 0.013823421442
          -0.036179750585 0.0035193636131 -0.00093584584346 0.0035193636131 0.01736909017 0.0051972012572
          -0.00093584584346 0.0051972012572 0.020892303159 -0.034889586649 0.00319672891 -0.007991845985
          0.00319672891 0.0066320657166 -0.015532257778 -0.007991845985 -0.015532257778 0.012708879061
          0.29050204201 0.023315971419 0.023763036517 0.023315971419 -0.044554294722 0.028303258206
          0.023763036517 0.028303258206 0.20620909117 0.2768500003 0.021325528219 0.031439260624
          0.021325528219 -0.041535420666 0.033241880084 0.031439260624 0.033241880084 0.20630145147
          -0.015213982836 -0.0021417004436 -0.018340928005 -0.0021417004436 0.012711770013 -0.010628255366
          -0.018340928005 -0.010628255366 0.0053591077849 0.024267874621 0.00059669027335 0.0034540685194
          0.00059669027335 0.011370670267 -0.0034044196767 0.0034540685194 -0.0034044196767 -0.0039212525668
          0.36526836087 0.023169588935 0.022135084663 0.023169588935 -0.038608394145 0.010264986187
          0.022135084663 0.010264986187 0.28943428993 0.14639018068 -0.0047618883731 -0.0068508496027
          -0.0047618883731 -0.058286178367 -0.013068579897 -0.0068508496027 -0.013068579897 -0.019315222571
          0.14337441119 -0.0024195072627 -0.013451301532 -0.0024195072627 -0.050532233081 -0.012476985076
          -0.013451301532 -0.012476985076 -0.016169107563 0.17566096632 0.0046897555302 -0.01209787591
          0.0046897555302 -0.033528504407 -0.0023558311902 -0.01209787591 -0.0023558311902 0.065664244267
          0.13383580852 -9.9318381729e-06 -0.018105998077 -9.9318381729e-06 -0.035337539086 0.0059979211024
          -0.018105998077 0.0059979211024 -0.052241007153 0.16796962122 0.0082229822485 -0.038504095103
          0.0082229822485 -0.030617347047 0.0089744574421 -0.038504095103 0.0089744574421 0.078754668317
          0.37924196079 0.016039709813 0.013570486529 0.016039709813 -0.048241924232 0.032965778685
          0.013570486529 0.032965778685 0.26342391565 0.38188138068 0.020608101186 0.0056838184538
          0.020608101186 -0.010757316478 0.019140642294 0.0056838184538 0.019140642294 0.35364777396
          0.19052048726 0.0052837449972 -0.015568873017 0.0052837449972 -0.019452423133 -0.0012631510369
          -0.015568873017 -0.0012631510369 0.11913428818 0.17916338056 0.0037438487916 -0.017261196565
          0.0037438487916 -0.015281013102 -0.00033825538811 -0.017261196565 -0.00033825538811 0.13173605542
          0.14141558373 0.0016779010273 -0.022785584487 0.0016779010273 -0.055916922153 0.0018794828165
          -0.022785584487 0.0018794828165 -0.065315899656 0.24734813899 -0.0030663507006 0.005515779908
          -0.0030663507006 -0.060446552513 0.014858109697 0.005515779908 0.014858109697 0.082925651016
          -0.067467383919 0.0062422007338 0.016915609244 0.0062422007338 0.024779193935 0.00020070867271
          0.016915609244 0.00020070867271 0.029914009423 0.18781470021 0.0058550844225 -0.015433864372
          0.0058550844225 -0.015393896376 -0.0026967992083 -0.015433864372 -0.0026967992083 0.11959999504
          -0.086783233409 0.0021544607249 0.012298044104 0.0021544607249 0.033925872856 0.0051152246068
          0.012298044104 0.0051152246068 0.0322773084 0.1851308804 0.0025146511113 -0.0052929719569
          0.0025146511113 -0.051746657761 -0.0018328217785 -0.0052929719569 -0.0018328217785 -0.066231256212
          0.16702553284 0.0022722971892 0.018896839695 0.0022722971892 -0.066581469059 -0.00023406749099
          0.018896839695 -0.00023406749099 -0.047571538726 0.051550952584 -0.0018037823803 -0.0077374245561
          -0.0018037823803 0.014971320606 -0.00039522373809 -0.0077374245561 -0.00039522373809 0.090146092387
          0.38106269193 0.027048222573 0.021386171087 0.027048222573 -0.026027462264 0.0071565707355
          0.021386171087 0.0071565707355 0.3025507365 0.35597422211 0.028200417646 0.028137123085
          0.028200417646 -0.025758696574 0.0065404107029 0.028137123085 0.0065404107029 0.30102546428
          0.39294367393 0.023231241345 0.018129611231 0.023231241345 -0.046918917161 0.0026788878631
          0.018129611231 0.0026788878631 0.26624864344 0.39253542202 0.017841644353 0.017635269902
          0.017841644353 -0.064445088065 0.016500218303 0.017635269902 0.016500218303 0.27337063278
          0.38481532762 0.025090159148 0.017081804158 0.025090159148 -0.041034920247 0.0066905124197
          0.017081804158 0.0066905124197 0.26836871203 0.36974991656 0.024822339266 0.0086378073684
          0.024822339266 -0.0031393998998 0.013883499895 0.0086378073684 0.013883499895 0.36045439957
          0.3716080561 0.023309227877 0.0030929499607 0.023309227877 -0.0064496723227 0.019157032052
          0.0030929499607 0.019157032052 0.35620411041 0.37036764395 0.025449287495 0.0035439251846
          0.025449287495 -0.005014785221 0.019276252006 0.0035439251846 0.019276252006 0.35619718033
          0.37938425975 0.0091422866684 0.01973909137 0.0091422866684 -0.0082179531204 0.020609230039
          0.01973909137 0.020609230039 0.35516261244 0.38017588441 0.012699844338 0.016073232868
          0.012699844338 -0.010995654439 0.022503442148 0.016073232868 0.022503442148 0.35415831611
          0.080702772743 0.0039868822482 -0.021425111206 0.0039868822482 -0.015334749707 0.0019150258396
          -0.021425111206 0.0019150258396 0.031105360394 0.3852794826 0.012881383635 0.0053875471838
          0.012881383635 -0.0088996274239 0.017857623867 0.0053875471838 0.017857623867 0.35752597312
          0.39012715952 0.013669111944 0.0049989284698 0.013669111944 -0.0096815241957 0.017910313784
          0.0049989284698 0.017910313784 0.35754237971 0.38955224302 0.012496181562 0.0063914854876
          0.012496181562 -0.0094472050505 0.018756787481 0.0063914854876 0.018756787481 0.35568358539
          0.20066768216 0.0064809647419 -0.015824914712 0.0064809647419 -0.031889621244 -0.0024764120412
          -0.015824914712 -0.0024764120412 0.075531836991 0.062376393728 0.010163546379 -0.031179443237
          0.010163546379 -0.017860547017 0.0059461232985 -0.031179443237 0.0059461232985 0.058931746403
          0.31956982563 0.045127633633 0.036139432647 0.045127633633 -0.062446928332 -0.0028223026476
          0.036139432647 -0.0028223026476 0.25639075065 0.31428287848 0.030427079152 0.043267156523
          0.030427079152 -0.090975023445 0.011990124273 0.043267156523 0.011990124273 0.24881131457
          0.2976679687 -0.0031944882889 0.019120439453 -0.0031944882889 0.0035163206607 0.020325124236
          0.019120439453 0.020325124236 0.31763490984 0.32901603241 0.031772983054 0.046596325677
          0.031772983054 -0.099586465617 -0.014710557174 0.046596325677 -0.014710557174 0.16607070836
          0.21648037178 0.0060424035901 -0.041868749137 0.0060424035901 -0.046547346759 0.034724244534
          -0.041868749137 0.034724244534 0.092314887258 -0.0069193332444 0.0015212730654 -0.015559707171
          0.0015212730654 -0.0049506815945 0.0016340344845 -0.015559707171 0.0016340344845 -0.013835633788
          0.13584363268 0.0063736559874 0.009083102697 0.0063736559874 -0.063987289373 -0.0023440845965
          0.009083102697 -0.0023440845965 -0.060567856017 0.29854152401 0.005279263338 -0.0021458518701
          0.005279263338 -0.032113044487 0.012962076574 -0.0021458518701 0.012962076574 0.17973602118
          0.26412009327 0.0015927483321 -0.0067878399284 0.0015927483321 -0.040024609097 0.011371926689
          -0.0067878399284 0.011371926689 0.14862202751 0.21691029624 0.017426916658 0.011421622
          0.017426916658 -0.017680684607 0.011983553854 0.011421622 0.011983553854 0.18259101747
          0.2321273966 0.012553899328 0.006487430888 0.012553899328 -0.022734403717 0.019103684851
          0.006487430888 0.019103684851 0.17955063161 0.25828233459 0.0066071280369 -0.0025818276241
          0.0066071280369 -0.080698473139 0.0037427026409 -0.0025818276241 0.0037427026409 0.015648871525
          0.12956743116 0.0084847483614 -0.045420618897 0.0084847483614 -0.0045451595566 -0.00016667634438
          -0.045420618897 -0.00016667634438 0.17336234929 0.12934456301 0.011500053942 -0.045799032236
          0.011500053942 0.0068539946539 0.0065994390365 -0.045799032236 0.0065994390365 0.17277176196
          0.12730917799 0.021137710218 -0.042438106584 0.021137710218 -0.031185607638 -0.017004837877
          -0.042438106584 -0.017004837877 0.17500824334 0.087354724361 -0.0051987536198 -0.029746692938
          -0.0051987536198 -0.018896312559 -0.019286089229 -0.029746692938 -0.019286089229 0.012216899056
          0.11641807991 0.010201732408 -0.01689689639 0.010201732408 -0.041777546344 0.012619485979
          -0.01689689639 0.012619485979 0.15577667022 0.11068162491 -0.011762163102 -0.0043803868769
          -0.011762163102 -0.034972226839 -0.016899784669 -0.0043803868769 -0.016899784669 0.19444356419
          0.092579044184 0.018029110761 -0.12206042326 0.018029110761 -0.027931816471 0.0023000329929
          -0.12206042326 0.0023000329929 0.087672237638 0.11723278769 0.0020579635146 -0.016636415797
          0.0020579635146 -0.0095035089701 0.013130265308 -0.016636415797 0.013130265308 0.15090884481
          0.12818354507 0.0054984070965 -0.040022882443 0.0054984070965 -0.0087939479546 0.0099836640567
          -0.040022882443 0.0099836640567 0.15333049383 0.39120689413 0.021519005546 0.016780120139
          0.021519005546 -0.045348394748 0.017650230371 0.016780120139 0.017650230371 0.28814866622
          0.13206690728 0.039171411378 0.0044348676004 0.039171411378 -0.034591907071 0.00024246187477
          0.0044348676004 0.00024246187477 0.058954183871 0.1640322009 3.2759979826e-05 -0.030329869153
          3.2759979826e-05 -0.014904271059 -0.0014725883344 -0.030329869153 -0.0014725883344 0.1078241747
          0.16880123513 0.00032901168221 -0.028907419405 0.00032901168221 -0.016403972229 -0.0050249431617
          -0.028907419405 -0.0050249431617 0.11830701802 0.13133482069 0.023377653472 0.0095711650808
          0.023377653472 0.013791387456 -0.0055203217788 0.0095711650808 -0.0055203217788 0.25620015389
          0.089335189992 -0.029470336149 -0.0057826762243 -0.029470336149 0.03168996035 0.038119259336
          -0.0057826762243 0.038119259336 0.18556065729 0.156650232 0.0085323259769 0.014409650156
          0.0085323259769 -0.030601462777 0.012622396972 0.014409650156 0.012622396972 0.022149691123
          0.14742594087 0.025542181746 -0.00080498837471 0.025542181746 -0.032094042669 0.0083883336611
          -0.00080498837471 0.0083883336611 0.078781626784 0.13602060827 0.015476733835 -0.0039679446681
          0.015476733835 0.0033446845434 0.0077349640498 -0.0039679446681 0.0077349640498 0.23602475113
          0.13660390946 0.017626709743 -0.002490015492 0.017626709743 0.0016368725372 0.0175343882
          -0.002490015492 0.0175343882 0.23780318478 0.14365557536 0.02361280621 -0.0065055005778
          0.02361280621 0.0064366884224 0.012550595101 -0.0065055005778 0.012550595101 0.23128378955
          0.13371927656 0.051140749443 -0.045754987283 0.051140749443 0.019673920076 -0.036060366853
          -0.045754987283 -0.036060366853 0.1759857443 0.10477437886 -0.003768628574 -0.035875256715
          -0.003768628574 0.020548688611 0.022805939604 -0.035875256715 0.022805939604 0.18794056004
          0.083514741652 0.012109100039 -0.025551792919 0.012109100039 0.028529134364 0.013430591233
          -0.025551792919 0.013430591233 0.19697144178 0.073118129994 0.0096994391856 -0.0092800392617
          0.0096994391856 0.020336575842 0.0084659857242 -0.0092800392617 0.0084659857242 0.16725571106
          0.31534163335 0.029210866805 0.0091091275531 0.029210866805 -0.0049147890588 0.024879612539
          0.0091091275531 0.024879612539 0.3044475235 0.31276742908 0.026041096695 0.027204787979
          0.026041096695 -0.0051880096756 0.027480565494 0.027204787979 0.027480565494 0.28395384941
          0.3320920445 0.027233368122 0.020795699992 0.027233368122 -0.013599502878 0.023014019392
          0.020795699992 0.023014019392 0.28412612614 0.10651843801 0.0031673147818 -0.013528564556
          0.0031673147818 0.0015511759399 -0.01043435262 -0.013528564556 -0.01043435262 0.093996495823
          0.032556068108 -0.00099267251644 -0.0054020472869 -0.00099267251644 0.0026476181347 -0.0075692054331
          -0.0054020472869 -0.0075692054331 0.097462247404 0.08599352383 -0.0056575897465 -0.012773521077
          -0.0056575897465 -0.0035640548485 -0.010372433868 -0.012773521077 -0.010372433868 0.049849348256
          0.0016192886932 -0.012260737282 -0.016154710555 -0.012260737282 0.0057096631016 0.001252058423
          -0.016154710555 0.001252058423 0.08542981798 0.042020734128 0.008585474707 -0.022595251778
          0.008585474707 0.0080047380855 -0.0098733228584 -0.022595251778 -0.0098733228584 0.11089707252
          0.051775986288 0.0074808719939 -0.0082192966783 0.0074808719939 0.0021003966933 0.0023166904359
          -0.0082192966783 0.0023166904359 0.1004155952 0.3073317818 0.012761072214 0.01240719811
          0.012761072214 -0.027433800194 0.025128852191 0.01240719811 0.025128852191 0.22491686464
          0.16135214437 0.0035128250876 -0.024061072505 0.0035128250876 -0.024612224261 0.0043987158388
          -0.024061072505 0.0043987158388 0.025539367726 0.19279392104 0.0065636920048 -0.012491330356
          0.0065636920048 -0.049925568276 0.0037373175529 -0.012491330356 0.0037373175529 0.029854589397
          0.31922276275 0.015627170745 0.025639955294 0.015627170745 -0.039975370996 0.026257920908
          0.025639955294 0.026257920908 0.23231913336 0.32383669364 0.011926761917 0.0096691542158
          0.011926761917 -0.055395207417 0.024910498976 0.0096691542158 0.024910498976 0.15114057047
          0.35960789468 0.019557544835 0.0097736097407 0.019557544835 -0.048025022124 0.0063230452492
          0.0097736097407 0.0063230452492 0.18172442731 0.3025555229 0.008146971517 0.013666465348
          0.008146971517 -0.030537417863 0.027096855654 0.013666465348 0.027096855654 0.22500199685
          0.30430266166 0.024051355386 0.015345196646 0.024051355386 -0.013597937793 0.016172070413
          0.015345196646 0.016172070413 0.27096758968 0.11974772635 0.013301316948 -0.0281499867
          0.013301316948 0.0053078647388 -0.01384063742 -0.0281499867 -0.01384063742 0.11237811224
          -0.06933740111 -0.0078435772679 0.0009817217218 -0.0078435772679 0.013992499324 0.0028361791968
          0.0009817217218 0.0028361791968 0.073005771554 0.19805003969 0.0023096220975 -0.012763275285
          0.0023096220975 -0.063589681538 0.013405482752 -0.012763275285 0.013405482752 -0.032857963061
          0.13395659866 0.07118371066 0.022899758884 0.07118371066 0.0003590339525 -0.022630913268
          0.022899758884 -0.022630913268 -0.04804286201 0.18774408642 0.0038537266698 -0.018092820407
          0.0038537266698 -0.01613105802 0.00020241879103 -0.018092820407 0.00020241879103 0.12752913586
          0.11502723602 0.0063047410972 -0.0043565349578 0.0063047410972 -0.047909848004 -0.0025026550201
          -0.0043565349578 -0.0025026550201 -0.061254641112 0.11938885354 -0.0022558384262 -0.011957704354
          -0.0022558384262 -0.064265703439 -0.011013207469 -0.011957704354 -0.011013207469 -0.058311430276
          -0.013092204495 0.0017368761184 -0.0075910198091 0.0017368761184 0.011313748863 0.0042995890648
          -0.0075910198091 0.0042995890648 0.038150170421 0.1819680237 0.0014701955964 0.0011778476975
          0.0014701955964 0.027178376662 0.014355967622 0.0011778476975 0.014355967622 0.24351693297
          0.1812108371 0.0018027925775 -0.015228676886 0.0018027925775 -0.016560323026 0.0018546353886
          -0.015228676886 0.0018546353886 0.12891673752 0.38027263531 0.018566462556 0.0030811614195
          0.018566462556 -0.011056238029 0.017390543037 0.0030811614195 0.017390543037 0.35110336124
          0.37891229906 0.017999402535 0.003656418685 0.017999402535 -0.0099900930076 0.017376988537
          0.003656418685 0.017376988537 0.35090937629 0.18128604976 0.0062526425629 -0.0092169776543
          0.0062526425629 -0.041386677194 0.00069529964578 -0.0092169776543 0.00069529964578 0.072039351822
          0.17068083612 -0.0046195862017 0.0066201874175 -0.0046195862017 -0.075499191183 0.001317684765
          0.0066201874175 0.001317684765 -0.066827754987 0.25240207725 0.029725026012 0.033240010633
          0.029725026012 -0.050260043478 0.022794657724 0.033240010633 0.022794657724 0.19642155331
          -0.04277038016 0.034845924627 -0.087516709564 0.034845924627 -0.017644835438 -0.071004378134
          -0.087516709564 -0.071004378134 0.098439817467 0.1330100886 0.0048187175772 -7.5583890577e-05
          0.0048187175772 -0.040714846476 -0.00092146189015 -7.5583890577e-05 -0.00092146189015 -0.064924944957
          0.20856774177 0.0079760636414 -0.0026495744135 0.0079760636414 -0.016399124341 0.012097996792
          -0.0026495744135 0.012097996792 0.15085108893 0.33214365484 0.00040012821616 0.022529721362
          0.00040012821616 -0.0067649834245 0.027095312155 0.022529721362 0.027095312155 0.32718426225
          0.3259594606 0.030839351606 0.033326003784 0.030839351606 -0.0455789499 0.020960668531
          0.033326003784 0.020960668531 0.2172553508 0.20858887766 0.0052614664228 -0.011596872297
          0.0052614664228 -0.044814651309 -0.0077450079909 -0.011596872297 -0.0077450079909 0.056838013184
          0.20630971425 0.006445714018 -0.010393407478 0.006445714018 -0.043906994474 -0.0084518751643
          -0.010393407478 -0.0084518751643 0.056206915289 0.17712064233 -8.521358235e-05 -0.021298651632
          -8.521358235e-05 -0.04473063922 -0.010336700013 -0.021298651632 -0.010336700013 0.05261602935
          0.11464704373 0.0013148579615 -0.00098574403185 0.0013148579615 -0.042295586984 0.0022475314423
          -0.00098574403185 0.0022475314423 -0.049109477422 0.10573712329 4.2871448781e-05 -0.0047609214346
          4.2871448781e-05 -0.038589417155 0.0058405929449 -0.0047609214346 0.0058405929449 -0.046317436354
          0.1323135365 0.0097254247056 -0.049106173917 0.0097254247056 -0.050061331122 -0.026521414608
          -0.049106173917 -0.026521414608 -0.012753446051 0.20834069884 -0.021656576886 -0.044013818055
          -0.021656576886 -0.090388984291 -0.0054814560445 -0.044013818055 -0.0054814560445 -0.02246371838
          0.27623553909 0.0030806789741 0.0057952176492 0.0030806789741 0.0055722519642 0.022723018853
          0.0057952176492 0.022723018853 0.31360802551 0.27443885122 0.0028975977474 0.0097181314843
          0.0028975977474 0.018503589434 0.015388315141 0.0097181314843 0.015388315141 0.30966211471
          0.27287918317 0.0050372651313 0.0039117491518 0.0050372651313 0.017481420762 0.027698202735
          0.0039117491518 0.027698202735 0.29791044395 0.056830963767 -0.0028972067708 -0.0042138694908
          -0.0028972067708 -0.015989885026 -0.0020171932705 -0.0042138694908 -0.0020171932705 -0.01689156146
          0.14949581296 -0.0045180942325 0.0074983896006 -0.0045180942325 0.010378735322 0.018063627673
          0.0074983896006 0.018063627673 0.18844642528 0.11163320142 -0.0089078099603 0.0046194410732
          -0.0089078099603 0.010509382744 0.011747785773 0.0046194410732 0.011747785773 0.2441782064
          0.35474859068 0.0075379457193 0.026299905255 0.0075379457193 -0.010577545098 0.020602704639
          0.026299905255 0.020602704639 0.32043658587 0.36101789675 0.02266365943 0.016557270713
          0.02266365943 -0.002023011665 0.007142869129 0.016557270713 0.007142869129 0.3319646882
          0.36552341018 0.008544640948 0.013082772934 0.008544640948 -0.0048935096657 0.029543039502
          0.013082772934 0.029543039502 0.33183127967 0.35770189811 0.017226516825 0.021564904231
          0.017226516825 -0.011546810299 0.01959684369 0.021564904231 0.01959684369 0.32272724801
          0.35306735633 0.017133989283 0.027915337331 0.017133989283 -0.011548638932 0.019723424596
          0.027915337331 0.019723424596 0.31402786307 0.35936657597 0.019230809771 0.022283967982
          0.019230809771 -0.011459540359 0.016873228794 0.022283967982 0.016873228794 0.31749870724
          0.3456362438 0.019056370274 0.025208522151 0.019056370274 -0.011427853563 0.017349927709
          0.025208522151 0.017349927709 0.32257434271 0.34584485618 0.013365647859 0.02924318995
          0.013365647859 -0.0037317588974 0.020558834287 0.02924318995 0.020558834287 0.32933824108
          0.33166532819 0.013904808027 0.014687197468 0.013904808027 -0.0031685661973 0.019631160705
          0.014687197468 0.019631160705 0.3181542684 0.096880468506 0.0011248937827 -0.0247868566
          0.0011248937827 0.0015148359021 0.0032770395642 -0.0247868566 0.0032770395642 0.10573208768
          0.00096094737254 -0.003178375585 -0.012107576876 -0.003178375585 0.0085479719853 0.0062142186382
          -0.012107576876 0.0062142186382 0.020317729274 0.04595017449 0.0077995102295 -0.017220321853
          0.0077995102295 0.00037394381998 0.0022652554267 -0.017220321853 0.0022652554267 0.10673091161
          -0.033501785173 0.0108936914 -0.019872950706 0.0108936914 0.019472883758 -0.0026659720484
          -0.019872950706 -0.0026659720484 0.093300285242 0.006002097121 0.0088499845328 -0.014123601551
          0.0088499845328 0.016842790419 0.0023929942735 -0.014123601551 0.0023929942735 0.08364985692
          0.035512612919 0.0068300670309 -0.011401896856 0.0068300670309 0.0055830167692 -0.00023821809714
          -0.011401896856 -0.00023821809714 0.083376431233 0.036793112894 0.0086568040598 -0.038315586787
          0.0086568040598 0.0061152699857 -0.0037589252509 -0.038315586787 -0.0037589252509 0.062580305382
          0.13365507817 0.0017379828209 -0.030132640484 0.0017379828209 -0.016547314396 -0.0020809081681
          -0.030132640484 -0.0020809081681 0.10307374554 0.025800174713 0.012160761391 -0.01093447145
          0.012160761391 0.013323413155 0.014439713552 -0.01093447145 0.014439713552 0.051618110415
          -0.037655829109 0.010956084911 -0.0065798814431 0.010956084911 0.01685039275 0.0063576839992
          -0.0065798814431 0.0063576839992 0.070098192497 0.22783120931 0.0081899507905 0.01965311048
          0.0081899507905 -0.0085062924794 0.012045591152 0.01965311048 0.012045591152 0.2184786181
          0.072525251282 -0.01215401967 -0.016369349005 -0.01215401967 0.017066821701 -0.0011287322861
          -0.016369349005 -0.0011287322861 0.11326911416 0.063111377098 -0.016242237501 -0.0078885207111
          -0.016242237501 0.0064316946533 -0.0051692525437 -0.0078885207111 -0.0051692525437 0.10250453785
          0.088267582134 -0.011846969134 -0.016714869032 -0.011846969134 0.0058404513128 -0.0028422089929
          -0.016714869032 -0.0028422089929 0.11301736202 0.38165989558 0.025195512036 0.0034794374036
          0.025195512036 -0.010692275476 0.022222891186 0.0034794374036 0.022222891186 0.35528113038
          0.37912247319 0.023626033428 0.0026199770213 0.023626033428 -0.011360271733 0.021914777489
          0.0026199770213 0.021914777489 0.35515498534 0.024700887726 0.00056493212111 0.035220740149
          0.00056493212111 0.0019291229935 0.023603363423 0.035220740149 0.023603363423 0.072208556791
          0.14896053951 0.02131388413 0.0030161994135 0.02131388413 -0.006867446084 0.014157159002
          0.0030161994135 0.014157159002 0.079204936262 0.12887722507 0.025990400389 0.011794483893
          0.025990400389 -0.0018411432973 -0.0016773699996 0.011794483893 -0.0016773699996 0.10646672265
          0.10342497674 0.010309876804 0.0031734427653 0.010309876804 0.0094440385073 0.0082691959268
          0.0031734427653 0.0082691959268 0.11466116853 0.042478365438 0.020854128802 -0.00086307928516
          0.020854128802 0.017373654315 -0.004208728576 -0.00086307928516 -0.004208728576 0.11968478497
          0.29657332071 0.029264702894 0.012680605973 0.029264702894 -0.036982906285 0.0023278419155
          0.012680605973 0.0023278419155 0.20787941024 -0.10102726859 0.00065181268219 0.035416586597
          0.00065181268219 0.050994808642 0.010268460241 0.035416586597 0.010268460241 0.0178608886
          0.28164298545 0.022116644109 0.011328183287 0.022116644109 -0.0219116432 0.0060308139381
          0.011328183287 0.0060308139381 0.16291218767 0.23568802757 0.030609068528 0.0063020669221
          0.030609068528 -0.014110628998 0.0069297615182 0.0063020669221 0.0069297615182 0.16236257408
          0.23291822869 0.017051717201 0.016929839092 0.017051717201 -0.038838286606 0.025939350974
          0.016929839092 0.025939350974 0.14775784771 0.14663442124 0.0084953934676 -0.03387458388
          0.0084953934676 -0.042075292827 -0.021745016771 -0.03387458388 -0.021745016771 0.016529967966
          0.15575279996 0.0065871205365 -0.0099079057956 0.0065871205365 -0.043131829597 -0.017510326984
          -0.0099079057956 -0.017510326984 0.020749310615 0.26796660234 0.02400589596 -0.0087569685782
          0.02400589596 -0.041649191608 0.021296369989 -0.0087569685782 0.021296369989 0.166534482
          0.28699633333 0.023130600016 0.0043036504592 0.023130600016 -0.047320537915 0.014364825256
          0.0043036504592 0.014364825256 0.16848120605 0.30337245145 0.027144642724 0.019601553596
          0.027144642724 -0.047867084067 0.020908239516 0.019601553596 0.020908239516 0.1776723871
          0.17686223207 0.0055209599952 -0.029396421503 0.0055209599952 -0.019312105045 0.00081715633959
          -0.029396421503 0.00081715633959 0.12582799021 0.17757548795 -0.0023938281019 -0.031528658045
          -0.0023938281019 -0.015751338455 -0.0013262196771 -0.031528658045 -0.0013262196771 0.12430048107
          0.17504617755 0.001324950154 -0.033842984456 0.001324950154 -0.017670508708 -0.00020802516257
          -0.033842984456 -0.00020802516257 0.12365362935 0.17665826055 -0.0074981326508 0.0075179219421
          -0.0074981326508 -0.066327199015 0.0085123479513 0.0075179219421 0.0085123479513 -0.015348159155
          0.15157551882 0.0027768385553 -0.035531996761 0.0027768385553 -0.0027655670399 0.00069774005155
          -0.035531996761 0.00069774005155 0.12273538553 -0.0022663836469 -0.003962107928 -0.019241035363
          -0.003962107928 0.0096658681108 0.0045074106074 -0.019241035363 0.0045074106074 0.016706144485
          0.0073149166057 -0.0066346834241 -0.015019574547 -0.0066346834241 -0.0011535490486 -0.0035641430813
          -0.015019574547 -0.0035641430813 0.014456441558 0.0064834755495 -0.0087264202135 -0.016848775657
          -0.0087264202135 -0.0062583091467 -0.0074135140032 -0.016848775657 -0.0074135140032 0.014024826537
          -0.016608931136 0.0013145251052 -0.046847888408 0.0013145251052 -0.0075528088267 -0.0060463743047
          -0.046847888408 -0.0060463743047 0.019446195857 0.17344946922 0.0030263664523 -0.030920622807
          0.0030263664523 -0.015174786245 -0.0018649047363 -0.030920622807 -0.0018649047363 0.12928072574
          0.16454098242 0.0038423872266 -0.029869825608 0.0038423872266 -0.012918928874 -0.0030672571252
          -0.029869825608 -0.0030672571252 0.12968173095 0.068456293003 0.0062725577626 -0.031724714351
          0.0062725577626 -0.017697301602 -0.014599379281 -0.031724714351 -0.014599379281 0.00074437749157
          0.12787684791 -0.0022334932056 -0.033992334581 -0.0022334932056 -0.022259690852 -0.0049367317281
          -0.033992334581 -0.0049367317281 -0.014255329604 0.073762708152 -0.0062161515759 -0.011937769185
          -0.0062161515759 -0.022493341764 -0.0017804717131 -0.011937769185 -0.0017804717131 0.01628380654
          0.071687331536 -0.0014031171518 -0.027347568029 -0.0014031171518 -0.020744515145 -0.0086937235214
          -0.027347568029 -0.0086937235214 0.042758801698 -0.11083641699 -0.019317947492 -0.048843072642
          -0.019317947492 0.046039490007 -0.0075088399989 -0.048843072642 -0.0075088399989 0.11175884716
          -0.12108947052 0.0093581238285 -0.033245266575 0.0093581238285 -0.012087898336 -0.024716469562
          -0.033245266575 -0.024716469562 0.1196430845 0.12600476426 -0.0090886819141 -0.019317757338
          -0.0090886819141 0.00014228382427 0.0061167956496 -0.019317757338 0.0061167956496 0.14122049809
          0.072328501004 -0.002588406202 -0.035399401083 -0.002588406202 -6.2548187537e-05 0.0021044070218
          -0.035399401083 0.0021044070218 0.053216747395 0.079832524492 -0.010065557908 -0.022337369898
          -0.010065557908 -0.077053815387 -0.0082970666556 -0.022337369898 -0.0082970666556 0.075872531495
          0.057969429425 0.0020811496916 -0.037479432868 0.0020811496916 0.016577472447 0.025546967297
          -0.037479432868 0.025546967297 0.08145828844 0.097057719449 -0.0014319076572 -0.0066705588631
          -0.0014319076572 -0.022242281479 -0.0040976296727 -0.0066705588631 -0.0040976296727 0.013039164629
          0.09952031547 8.4814744232e-05 -3.8200850261e-06 8.4814744232e-05 -0.021441731129 0.00035238147709
          -3.8200850261e-06 0.00035238147709 0.030201944103 0.12269002233 -0.01892135018 -0.010170254804
          -0.01892135018 -0.030188514758 -0.010647967706 -0.010170254804 -0.010647967706 0.04346690876
          0.19265076324 0.0049900229977 -0.014886585668 0.0049900229977 -0.028917385907 -0.00068565897843
          -0.014886585668 -0.00068565897843 0.090324439087 0.16249796918 -0.0091397812653 0.0032814262459
          -0.0091397812653 -0.041360492452 0.0078229182908 0.0032814262459 0.0078229182908 -0.04711873416
          0.21604594494 -0.0019826440737 0.011377448298 -0.0019826440737 0.019609027376 0.014396468692
          0.011377448298 0.014396468692 0.31045952795 0.060951044011 -0.0095934159658 -0.025149618864
          -0.0095934159658 0.0066530233279 -0.010950809379 -0.025149618864 -0.010950809379 0.065442023636
          0.19000601359 0.0017419505708 -0.019053195875 0.0017419505708 -0.017890673104 -0.0024343416045
          -0.019053195875 -0.0024343416045 0.13167153948 -0.0041823600557 -0.007040830285 -0.0058167824235
          -0.007040830285 0.023085634588 -7.7558118767e-05 -0.0058167824235 -7.7558118767e-05 0.088601523698
          -0.020125432935 -0.024375193512 -0.0092508708242 -0.024375193512 0.0086858456166 0.0028667228471
          -0.0092508708242 0.0028667228471 0.097889616574 0.042495904179 -0.010343903431 -0.02452918706
          -0.010343903431 0.0057639908007 0.00093617192428 -0.02452918706 0.00093617192428 0.070623342849
          0.36886828599 0.022598155375 0.010388114489 0.022598155375 -0.0041683829348 0.020473064705
          0.010388114489 0.020473064705 0.35826398555 0.37071940927 0.021764558852 0.01102817929
          0.021764558852 -0.0048326739912 0.020512718936 0.01102817929 0.020512718936 0.3583818938
          0.11509856058 -0.0021971768686 -0.01201622361 -0.0021971768686 -0.033143801562 0.0070474285288
          -0.01201622361 0.0070474285288 -0.040390648573 0.37639829943 0.026268242265 0.01734802703
          0.026268242265 -0.012745961358 0.012071070062 0.01734802703 0.012071070062 0.33489470334
          0.029553606648 -0.018675389981 -0.017108454003 -0.018675389981 -0.0046258289152 -0.0041162878996
          -0.017108454003 -0.0041162878996 0.060079395325 0.14920515707 0.0026275767097 -0.029870360102
          0.0026275767097 -0.03226923314 0.0037458359934 -0.029870360102 0.0037458359934 0.06380705645
          -0.031666377841 -0.019366511079 0.00067463058509 -0.019366511079 0.023380310096 0.0038926953522
          0.00067463058509 0.0038926953522 0.072849723109 0.37422167507 0.023703759685 0.015711748028
          0.023703759685 -0.012956121542 0.011856272022 0.015711748028 0.011856272022 0.33914749432
          0.37734024513 0.017821290561 0.0040488595699 0.017821290561 -0.0066142294212 0.019935759297
          0.0040488595699 0.019935759297 0.35610374718 0.37632356331 0.023611979575 0.014935346935
          0.023611979575 -0.021524204901 0.011580009462 0.014935346935 0.011580009462 0.33401494579
          0.3772939947 0.018003290527 0.0042853145445 0.018003290527 -0.0073202921093 0.019103081471
          0.0042853145445 0.019103081471 0.35583946509 0.36168560354 0.024874519798 0.017595429066
          0.024874519798 -0.01048735021 0.010225362637 0.017595429066 0.010225362637 0.33788794234
          0.37485164708 0.019909743676 0.011721560554 0.019909743676 -0.0050070836518 0.019997405675
          0.011721560554 0.019997405675 0.35456222232 0.37740711579 0.01995019632 0.0096653285229
          0.01995019632 -0.0087395578567 0.019043150086 0.0096653285229 0.019043150086 0.35399683818
          0.37949673288 0.018849713882 0.010208014991 0.018849713882 -0.0092248307671 0.02177969606
          0.010208014991 0.02177969606 0.34555936557 0.096242729636 -0.0088366785746 -0.021189812413
          -0.0088366785746 -0.0057739162911 0.021957204044 -0.021189812413 0.021957204044 -0.0033940273757
          0.16831690573 0.00044227679466 -0.03154816204 0.00044227679466 -0.01308109428 -0.0013383492739
          -0.03154816204 -0.0013383492739 0.088793036399 0.099476619079 -0.0012815945737 -0.016106534434
          -0.0012815945737 -0.05244033257 -0.0079384832479 -0.016106534434 -0.0079384832479 -0.042723419106
          0.1062982939 0.0047285178842 0.019614944888 0.0047285178842 -0.050506620886 -0.00071864093969
          0.019614944888 -0.00071864093969 -0.030643014041 0.059005664773 0.0025911655516 -0.01892260286
          0.0025911655516 -0.0078860640424 -0.0041642184823 -0.01892260286 -0.0041642184823 0.052001932733
          -0.011807136848 -0.02464855176 -0.018272687661 -0.02464855176 -0.0067071333115 -0.0026525102056
          -0.018272687661 -0.0026525102056 0.052132525875 0.045015468498 0.0066240012254 -0.020592842595
          0.0066240012254 -0.017396305779 0.021526849378 -0.020592842595 0.021526849378 0.04087216474
          0.3047737825 0.022997261056 0.02040406708 0.022997261056 -0.017809407191 0.021909993773
          0.02040406708 0.021909993773 0.24890416882 -0.19051634454 0.00040864091354 -0.028335164916
          0.00040864091354 0.057227386562 0.01817921504 -0.028335164916 0.01817921504 0.069980330797
          -0.064314344837 0.0061118705064 -0.021742264706 0.0061118705064 0.0086384157066 0.00097594364479
          -0.021742264706 0.00097594364479 0.046849606967 0.13910761175 -0.01357186275 -0.034927168661
          -0.01357186275 0.0040607447757 0.0048961136106 -0.034927168661 0.0048961136106 0.062022741517
          0.13956197406 -0.0054660034351 -0.041744092895 -0.0054660034351 -0.024504636293 -0.030356029221
          -0.041744092895 -0.030356029221 0.12122997757 0.056628011614 -0.040882598803 -0.18328896449
          -0.040882598803 -0.029479627058 -0.11197458913 -0.18328896449 -0.11197458913 -0.076180378841
          0.089175089551 -0.035441254479 -0.12431241513 -0.035441254479 -0.147282276 -0.062516646527
          -0.12431241513 -0.062516646527 0.017478959181 0.22420708526 0.018678859444 -0.030750377122
          0.018678859444 -0.0083392149583 -0.055617224206 -0.030750377122 -0.055617224206 -0.094945842006
          0.13470813495 0.005305614645 0.015410068858 0.005305614645 0.006141898475 -0.0030327475913
          0.015410068858 -0.0030327475913 0.007907686901 0.12914432289 0.011890572197 0.010482357853
          0.011890572197 0.0020835582894 -0.015878698045 0.010482357853 -0.015878698045 0.096944535503
          0.26295043425 0.013540031892 0.043313927137 0.013540031892 -0.0499024175 -0.070897251562
          0.043313927137 -0.070897251562 0.045935562807 0.078333708696 -0.011484220211 -0.058207974708
          -0.011484220211 -0.0028207992827 -0.012484463578 -0.058207974708 -0.012484463578 0.11013124953
          0.10257520705 -0.013327829799 -0.016665034249 -0.013327829799 0.0065054497371 0.0061405479759
          -0.016665034249 0.0061405479759 0.053656936733 0.15565203588 0.01994280292 0.0092543291202
          0.01994280292 -0.036009601782 -0.0023102876498 0.0092543291202 -0.0023102876498 0.10908326846
          0.11788601799 -0.0049752803111 -0.0049038806044 -0.0049752803111 -0.07710314398 -0.0096349355159
          -0.0049038806044 -0.0096349355159 -0.05287500525 -0.016381918783 -0.0079216775814 0.00067374733173
          -0.0079216775814 0.024728715377 -0.003122816442 0.00067374733173 -0.003122816442 0.02677062252
          0.12113775449 -0.0026829161335 0.014054157044 -0.0026829161335 -0.06408221316 0.0080491093996
          0.014054157044 0.0080491093996 -0.065400032945 0.28531665113 0.015021922688 0.008297922047
          0.015021922688 0.009627095585 0.0085904205544 0.008297922047 0.0085904205544 0.31381781207
          0.27251073562 0.014285167072 0.017237903986 0.014285167072 0.0096416514111 0.010586579704
          0.017237903986 0.010586579704 0.34613777926 0.27009583738 0.02184815626 0.022945423038
          0.02184815626 0.0094315378342 0.010169736551 0.022945423038 0.010169736551 0.34563113096
          0.30703842628 0.017208342816 0.016794666949 0.017208342816 0.0095535672864 0.010440226407
          0.016794666949 0.010440226407 0.34610817486 0.32207561078 0.016037986938 0.0083424957925
          0.016037986938 -0.02461813708 0.014792523072 0.0083424957925 0.014792523072 0.24046940827
          0.20206379215 -0.0010138007762 -0.012396018745 -0.0010138007762 -0.032386323288 0.0053739005102
          -0.012396018745 0.0053739005102 0.093903410943 0.32264804784 0.01573035508 0.035853419746
          0.01573035508 -0.065230898617 0.024054925831 0.035853419746 0.024054925831 0.24332205987
          0.32567996429 0.026732051764 0.030062707415 0.026732051764 -0.026746392869 0.0028665230531
          0.030062707415 0.0028665230531 0.25436026867 0.17867281977 -0.0017952024136 -0.0077791676019
          -0.0017952024136 -0.073620722817 -0.011862470914 -0.0077791676019 -0.011862470914 -0.068419371108
          -0.052446273204 -0.018575181234 0.0045469829833 -0.018575181234 -0.013689637466 0.0082693287632
          0.0045469829833 0.0082693287632 0.07036344851 0.15379908819 0.02822442821 -0.0035109823951
          0.02822442821 0.033645784418 -0.02508958447 -0.0035109823951 -0.02508958447 -0.015380784417
          0.34882063724 -0.0092475626422 0.014744155887 -0.0092475626422 -0.055151885857 0.034471357352
          0.014744155887 0.034471357352 0.27798430317 0.132966042 0.024459943484 -0.04930499117
          0.024459943484 -0.020077514192 -0.0066136942409 -0.04930499117 -0.0066136942409 0.088917935501
          0.15812744788 -0.025647604807 -0.010801749679 -0.025647604807 -0.013690751349 -0.016311330618
          -0.010801749679 -0.016311330618 0.10792795456 0.16057111003 -0.0035651715479 -0.033288026712
          -0.0035651715479 -0.017093540875 -0.00078910169683 -0.033288026712 -0.00078910169683 0.12289932594
          0.11276274268 -0.0091680452381 -0.0031744649626 -0.0091680452381 0.0030094011768 0.0080963381691
          -0.0031744649626 0.0080963381691 0.076439415542 0.10643104891 0.0054698667867 -0.0080069471625
          0.0054698667867 0.0012291788329 0.016374184525 -0.0080069471625 0.016374184525 0.073012417339
          0.20877711154 -0.0066315134049 0.0047583498379 -0.0066315134049 -0.012037530029 0.031894273771
          0.0047583498379 0.031894273771 0.15335233748 0.14196003024 -0.0063681880822 -0.016118902662
          -0.0063681880822 -0.057118896632 0.015836884215 -0.016118902662 0.015836884215 -0.006085040885
          0.18929679895 -0.0011190154128 -0.021442289042 -0.0011190154128 -0.016689383616 0.0041062358388
          -0.021442289042 0.0041062358388 0.12461769621 0.37913509966 0.019364605883 0.013563281088
          0.019364605883 -0.011315648551 0.019934175186 0.013563281088 0.019934175186 0.35219514502
          0.16325807529 -0.0056325017852 -0.0078183668747 -0.0056325017852 -0.061058603211 0.011172347065
          -0.0078183668747 0.011172347065 -0.012460633404 0.13767033663 -0.0060224208917 -0.024256716698
          -0.0060224208917 -0.051657721062 0.0082449052926 -0.024256716698 0.0082449052926 -0.0091295309549
          0.17654897342 0.00045642340793 -0.034884419584 0.00045642340793 -0.016044734057 -0.00087898759024
          -0.034884419584 -0.00087898759024 0.11955683029 0.15248657364 -0.015813211532 0.0069906933221
          -0.015813211532 -0.0019689801818 0.021172714987 0.0069906933221 0.021172714987 0.10325408728
          0.14064276733 0.00035369027738 0.013600757518 0.00035369027738 -0.015978404333 0.020363660124
          0.013600757518 0.020363660124 0.10793692172 0.12633422777 0.004043319599 -0.0097839138717
          0.004043319599 -0.016148711793 0.019152644143 -0.0097839138717 0.019152644143 0.13684491042
          0.36388421636 0.025967921034 0.017656249194 0.025967921034 -0.010493517363 0.018030075634
          0.017656249194 0.018030075634 0.34370304776 0.098498903413 -0.0047669632365 -0.021424009393
          -0.0047669632365 -0.049088237033 0.023659567194 -0.021424009393 0.023659567194 0.011964095329
          0.25775166188 -0.0052446998497 -0.011173869883 -0.0052446998497 -0.072838225843 0.015480946734
          -0.011173869883 0.015480946734 0.02193244579 0.35404914148 0.020226369595 0.025775613574
          0.020226369595 -0.003214689449 0.016305379323 0.025775613574 0.016305379323 0.32239931861
          0.18108203133 0.00094853381458 0.010744424542 0.00094853381458 -0.03586357249 0.012343349244
          0.010744424542 0.012343349244 0.066554298342 0.20784542442 0.014016553523 0.015475458799
          0.014016553523 -0.001384617952 0.0032414501934 0.015475458799 0.0032414501934 0.25115619566
          -0.02081895927 0.031367590848 0.0062805744469 0.031367590848 0.022086389784 0.006297548763
          0.0062805744469 0.006297548763 0.048837165736 0.26264182185 0.025103492657 0.021760998654
          0.025103492657 0.00082715106188 0.0087937986629 0.021760998654 0.0087937986629 0.26199878347
          0.27133733614 0.036735988291 0.039725499508 0.036735988291 -0.011983757818 -0.0018656313363
          0.039725499508 -0.0018656313363 0.25669430748 0.089457120329 0.0048004693332 -0.011155267193
          0.0048004693332 -0.0019249344825 0.0080224474387 -0.011155267193 0.0080224474387 0.10632119526
          0.11957694785 -0.00028212003915 0.012251881989 -0.00028212003915 -0.044730952041 -0.0012904112366
          0.012251881989 -0.0012904112366 -0.061115333327 0.21163361523 0.020832326386 0.0078213522608
          0.020832326386 0.0035518013492 0.0077604296471 0.0078213522608 0.0077604296471 0.23405726128
          0.21972405466 0.010157023408 0.0042543510156 0.010157023408 -0.0018209823835 0.013540412925
          0.0042543510156 0.013540412925 0.2355707148 0.10804717065 0.0074683904043 -0.0061964742909
          0.0074683904043 -0.016243633617 0.0052566660516 -0.0061964742909 0.0052566660516 0.021378955413
          0.1032190854 0.0038387767254 0.0056621757211 0.0038387767254 -0.0080625406872 -0.0092182061292
          0.0056621757211 -0.0092182061292 0.042398533207 0.29203929427 0.024664959012 0.013619337707
          0.024664959012 0.0051739302828 0.021471996491 0.013619337707 0.021471996491 0.30524942526
          0.10541939514 0.011494623809 -0.0041990884559 0.011494623809 -0.015829530258 0.012945793412
          -0.0041990884559 0.012945793412 0.078366048977 0.14490133353 0.0020200207857 0.0059992943252
          0.0020200207857 -0.018033878723 0.0064553744409 0.0059992943252 0.0064553744409 0.07734993732
          0.16286970989 -0.00067194678812 -0.01299197725 -0.00067194678812 -0.019043370645 0.0026600692266
          -0.01299197725 0.0026600692266 0.066210075094 0.12357376239 -0.00097203896006 -0.0029842166163
          -0.00097203896006 0.0051755545225 0.016286604422 -0.0029842166163 0.016286604422 0.12770658198
          0.15461338208 -0.0078452348874 0.0070521005998 -0.0078452348874 -0.01571258402 0.0164844259
          0.0070521005998 0.0164844259 0.093829527526 0.10132207429 0.00028336393522 -0.012520601612
          0.00028336393522 0.0064704746537 -0.0038690281567 -0.012520601612 -0.0038690281567 0.092137177758
          0.079703382087 0.0026667299634 -0.0097043405651 0.0026667299634 0.0066940393446 -0.00055163007555
          -0.0097043405651 -0.00055163007555 0.1188337463 0.15017724046 -0.003497576913 0.0087647069842
          -0.003497576913 -0.0062955007235 0.0031605820452 0.0087647069842 0.0031605820452 0.1030831934
          0.08130817221 0.0019052311448 -0.073604729236 0.0019052311448 -0.038508477299 0.0080001390331
          -0.073604729236 0.0080001390331 0.013032227934 0.38272673636 0.016371819135 0.018363044945
          0.016371819135 -0.011362633347 0.020711496571 0.018363044945 0.020711496571 0.34588510705
          0.11263826887 -0.020872147114 -0.04479166805 -0.020872147114 -0.059737762506 0.017879123143
          -0.04479166805 0.017879123143 0.014383560494 0.084263742879 0.0042978650122 -0.039160159971
          0.0042978650122 -0.037428807308 0.017215919878 -0.039160159971 0.017215919878 0.0079152129022
          0.14522312029 -0.0097366435374 -0.011183293436 -0.0097366435374 -0.053746815092 0.011962721666
          -0.011183293436 0.011962721666 -0.012794788273 0.17755496561 0.0020405847839 -0.030738163425
          0.0020405847839 -0.015160025687 -0.00041647503127 -0.030738163425 -0.00041647503127 0.12241683045
          0.18224814296 0.0012106914629 -0.03466552909 0.0012106914629 -0.020754664134 0.0013352122867
          -0.03466552909 0.0013352122867 0.12301966548 0.181460233 0.0015049818914 -0.036089777678
          0.0015049818914 -0.020864520051 0.0018498617044 -0.036089777678 0.0018498617044 0.12514467687
          0.37209936845 0.021897143652 0.018820541909 0.021897143652 -0.031350482253 -0.0035351983405
          0.018820541909 -0.0035351983405 0.28305106311 0.36512654647 0.020889869019 0.012920157712
          0.020889869019 -0.0042314281608 0.020940687337 0.012920157712 0.020940687337 0.34685550705
          0.3491560561 0.03086977122 0.03258203407 0.03086977122 -0.032967802277 -0.011413763281
          0.03258203407 -0.011413763281 0.27809221426 0.18400503395 0.0022840717528 -0.032084711788
          0.0022840717528 -0.021350620048 -0.0003934456075 -0.032084711788 -0.0003934456075 0.12126635097
          0.17351717634 0.0043470307031 -0.037827138715 0.0043470307031 -0.021116705914 0.0010493878477
          -0.037827138715 0.0010493878477 0.11827563651 0.18368213921 0.0010323333206 -0.033240906243
          0.0010323333206 -0.021475654167 -0.0012774881723 -0.033240906243 -0.0012774881723 0.11986484182
          0.27971713636 0.039836072677 0.027063740377 0.039836072677 -0.0088020108756 -0.0059617241215
          0.027063740377 -0.0059617241215 0.27204696415 0.20796301401 0.017228217478 0.010269859839
          0.017228217478 0.0060419822619 -0.0024031733939 0.010269859839 -0.0024031733939 0.24943467129
          0.27854071159 0.03725053053 0.013422007512 0.03725053053 0.0075148953028 0.0024105748341
          0.013422007512 0.0024105748341 0.31277429327 0.23667498123 -0.02111664352 0.032056666725
          -0.02111664352 -0.019417789848 0.0377072049 0.032056666725 0.0377072049 0.23177834856
          0.2891580338 0.022949254197 0.0073592901176 0.022949254197 0.004153836182 0.017716713166
          0.0073592901176 0.017716713166 0.29213800854 0.098029614961 0.014384884978 -0.00550017587
          0.014384884978 -0.093172165283 -0.026677549068 -0.00550017587 -0.026677549068 0.20598367712
          0.38419932038 0.019905818975 0.011496346314 0.019905818975 -0.031386987837 0.014871428339
          0.011496346314 0.014871428339 0.28296487393 0.3858947353 0.0026796638026 0.012724576123
          0.0026796638026 -0.03956923585 0.024346004172 0.012724576123 0.024346004172 0.28122389561
          0.056350800459 -0.00024631097978 0.0020975375891 -0.00024631097978 -0.033965594249 -0.0042105544048
          0.0020975375891 -0.0042105544048 -0.01018454258 0.044946100779 0.0058088382982 0.0040561906672
          0.0058088382982 -0.020754568354 0.0034254272369 0.0040561906672 0.0034254272369 -0.0023598491511
          0.084198127477 -0.017875049245 -0.020465312163 -0.017875049245 0.0059966535232 -0.0025545292101
          -0.020465312163 -0.0025545292101 0.10452441285 0.094730541168 -0.0036212326466 -0.0096699094931
          -0.0036212326466 -0.0029654630241 -0.0020422990101 -0.0096699094931 -0.0020422990101 0.10855489885
          0.062339098555 -0.014001003997 -0.0041879207139 -0.014001003997 -0.015628836637 0.012342932077
          -0.0041879207139 0.012342932077 -0.017693405267 0.18819604147 0.0035445175163 -0.018710183399
          0.0035445175163 -0.020168723518 -0.0023280012286 -0.018710183399 -0.0023280012286 0.11771398568
          0.132572317 0.0032530045813 -0.022785044617 0.0032530045813 -0.032527902107 -0.015499119583
          -0.022785044617 -0.015499119583 -0.00079259484187 0.198306193 0.02980977289 0.016186689668
          0.02980977289 -0.019409987287 0.0033690037304 0.016186689668 0.0033690037304 0.23028432108
          0.14576606364 0.0065047285247 0.013719394105 0.0065047285247 -0.02401699143 0.0019574332317
          0.013719394105 0.0019574332317 0.20392699856 0.1424850225 -0.0030853350581 -0.032366833367
          -0.0030853350581 -0.0065458459204 0.0027453550254 -0.032366833367 0.0027453550254 0.12245387087
          0.072465269984 0.0041854060582 -0.051297780822 0.0041854060582 -0.035524723508 0.011058700977
          -0.051297780822 0.011058700977 0.014587261575 0.37765499223 0.020487605756 0.0042831796815
          0.020487605756 -0.0075878956864 0.018131190671 0.0042831796815 0.018131190671 0.3565301216
          0.041750116997 0.01036093605 -0.015938039156 0.01036093605 -0.0078079005031 0.02587658472
          -0.015938039156 0.02587658472 0.03698070133 0.08549128112 0.0048701318218 -0.014389044345
          0.0048701318218 -0.007140842476 0.02523173108 -0.014389044345 0.02523173108 0.027897174252
          0.04852924141 0.0033697096965 -0.0086910159916 0.0033697096965 0.0068452292502 -0.0055030621231
          -0.0086910159916 -0.0055030621231 0.095441102746 0.082076515828 0.008390533703 -0.029588517501
          0.008390533703 0.002794086407 -0.0015243595466 -0.029588517501 -0.0015243595466 -0.036563528646
          0.0093342466117 -0.0063398405244 -0.035110689593 -0.0063398405244 0 0
          -0.035110689593 0 0 0.0093342466117 -0.0063398405244 -0.035110689593
          -0.0063398405244 0 0 -0.035110689593 0 0
          0.0095752630129 -0.0055694630929 -0.0339851137 -0.0055694630929 0.00096625961548 -0.0012584492477
          -0.0339851137 -0.0012584492477 -0.010505689153 0.011348106058 -0.0041003743391 -0.039660721069
          -0.0041003743391 0.0021564611794 -0.0060089016319 -0.039660721069 -0.0060089016319 0.0075820061427
          0.3045579901 0.0031262365964 0.02316307821 0.0031262365964 -0.0061457162148 0.013092692477
          0.02316307821 0.013092692477 0.28211716809 0.0023698581892 -0.0034105857501 -0.0031209233325
          -0.0034105857501 -0.010502950857 -0.0061639484787 -0.0031209233325 -0.0061639484787 0.064923095949
          0.0192641677 -0.002415660573 -0.050006789365 -0.002415660573 -0.01044530325 -0.0093301733602
          -0.050006789365 -0.0093301733602 0.021357558665 0.077490175339 0.00020963902734 -0.027835989229
          0.00020963902734 -0.011520671991 -0.0002661098048 -0.027835989229 -0.0002661098048 -0.02468049197
          0.25112572181 0.030855608899 0.019624638587 0.030855608899 -0.0016924347442 0.0081717667068
          0.019624638587 0.0081717667068 0.26967326693 0.027973019639 0.0006517400475 -0.016434784722
          0.0006517400475 -0.042320773092 0.0034844248849 -0.016434784722 0.0034844248849 0.01843725174
          0.18329528501 -0.0014423209624 -0.0023292519977 -0.0014423209624 -0.041555606493 -0.0071768670959
          -0.0023292519977 -0.0071768670959 0.021378995992 0.1957292029 -0.00218997073 -0.005468441273
          -0.00218997073 -0.054273774601 -0.0023574420662 -0.005468441273 -0.0023574420662 0.01605919925
          0.177330777 0.00079609040621 -0.021370908383 0.00079609040621 -0.041071842464 -0.010931968778
          -0.021370908383 -0.010931968778 0.05035690797 0.15640176695 0.0071661448699 -0.025066268779
          0.0071661448699 -0.017622552266 -0.0018083535971 -0.025066268779 -0.0018083535971 0.11718773899
          0.19825518051 0.014589319437 -0.014806173759 0.014589319437 -0.055645969437 0.0085439837583
          -0.014806173759 0.0085439837583 0.0047204942416 -0.091727096817 0.00014277552919 0.0026449284048
          0.00014277552919 0.024008697779 -0.0012487798581 0.0026449284048 -0.0012487798581 0.033878496884
          -0.010522503252 -0.001399515619 0.00480841352 -0.001399515619 0.0071619170668 -0.0013523239191
          0.00480841352 -0.0013523239191 0.0024303254572 0.38120208186 0.020337203693 0.0053749663071
          0.020337203693 -0.010635068242 0.016223651702 0.0053749663071 0.016223651702 0.357384797
          0.10638165997 0.0024853296289 -0.047308297424 0.0024853296289 0.0058598022741 -0.0044654290684
          -0.047308297424 -0.0044654290684 0.1871461353 0.11325371304 -0.0024826165834 -0.0379227193
          -0.0024826165834 0.0024355722331 0.002580510291 -0.0379227193 0.002580510291 0.17269764549
          0.37800352177 0.019213873198 0.0071923941411 0.019213873198 -0.0095968862897 0.019007467205
          0.0071923941411 0.019007467205 0.35184772677 0.11123730052 -0.0049624982634 -0.028045431688
          -0.0049624982634 -0.021502180684 -0.015194629787 -0.028045431688 -0.015194629787 0.063792547632
          0.36402422948 0.016469668454 0.0087158844922 0.016469668454 -0.046553758099 0.011995214684
          0.0087158844922 0.011995214684 0.26300405278 0.36563559248 0.018340221032 0.023770679048
          0.018340221032 -0.048250239661 0.002344397707 0.023770679048 0.002344397707 0.21340584134
          0.38042106513 0.01816206755 0.010085435817 0.01816206755 -0.01313334824 0.019337250463
          0.010085435817 0.019337250463 0.34849145102 0.06187943451 0.015571378442 -0.0094279683281
          0.015571378442 0.011146293812 0.012947243438 -0.0094279683281 0.012947243438 0.09480018863
          -0.0035344674604 0.0049779680738 0.0091292143536 0.0049779680738 0.0076778149844 0.0016337931308
          0.0091292143536 0.0016337931308 -0.011101493778 0.025028880656 0.062354297373 -0.081311684746
          0.062354297373 -0.031478096076 -0.020719702232 -0.081311684746 -0.020719702232 0.0077190959099
          0.37729671916 0.01972504625 0.0071004994112 0.01972504625 -0.010545107239 0.015999301498
          0.0071004994112 0.015999301498 0.34710200837 0.38506134278 0.020894185181 0.0075606023821
          0.020894185181 -0.014411665552 0.013697871858 0.0075606023821 0.013697871858 0.34292028198
          0.38246512641 0.021664069983 0.0096971396776 0.021664069983 -0.012326894464 0.014290271662
          0.0096971396776 0.014290271662 0.34181182099 0.12255692999 -0.00034636190204 -0.014508884567
          -0.00034636190204 -0.043647513677 0.00075783402436 -0.014508884567 0.00075783402436 -0.031488469969
          0.13586649157 0.0064028604286 -0.0096143716865 0.0064028604286 -0.062324598337 -0.0052066353572
          -0.0096143716865 -0.0052066353572 -0.032916774965 0.1735466422 0.010958140493 -0.00077512561205
          0.010958140493 -0.064780653727 -0.016258762815 -0.00077512561205 -0.016258762815 -0.079703862007
          0.12226815385 -0.090366820942 -0.019727728297 -0.090366820942 0.02610286636 -0.19979352355
          -0.019727728297 -0.19979352355 0.0095157601028 -0.0044177264016 -0.0017163433258 -0.0072739923081
          -0.0017163433258 -0.0043304699386 0.0027465834024 -0.0072739923081 0.0027465834024 0.092286699638
          0.033416904886 0.012636218334 0.0029318749831 0.012636218334 -0.0068537714659 -0.038281848889
          0.0029318749831 -0.038281848889 -0.0088929121541 0.10284185434 -0.0022205185259 -0.013908311339
          -0.0022205185259 -0.048182615662 -0.0017988457699 -0.013908311339 -0.0017988457699 -0.018119778378
          0.16181497459 -0.0028617814336 -0.013535287059 -0.0028617814336 -0.0084446839141 -0.0054962253183
          -0.013535287059 -0.0054962253183 0.13140512247 0.12522220243 -0.0093630116869 -0.015507551642
          -0.0093630116869 -0.0038404480521 -0.0023483066685 -0.015507551642 -0.0023483066685 0.13342378498
          0.16941471161 0.0089348227034 -0.019447227173 0.0089348227034 -0.045486629729 0.0010189087624
          -0.019447227173 0.0010189087624 0.034488090253 0.12715285925 -0.0045666177343 -0.018743697137
          -0.0045666177343 0.0035452781432 -0.0025140643174 -0.018743697137 -0.0025140643174 0.1119919139
          0.11533937697 -0.0068911620394 -0.016326725848 -0.0068911620394 0.0034597984413 -0.0049540694302
          -0.016326725848 -0.0049540694302 0.1343535187 0.33501732151 0.0082893476199 0.012268006343
          0.0082893476199 -0.024612457635 0.022523808239 0.012268006343 0.022523808239 0.29328121859
          0.078413571987 -0.011755269661 -0.0084871777147 -0.011755269661 -0.046765845314 -0.0093239340445
          -0.0084871777147 -0.0093239340445 -0.017886007121 0.20528229831 0.0023669174287 -0.014578202489
          0.0023669174287 -0.05196109577 0.0084465672262 -0.014578202489 0.0084465672262 0.025541611546
          0.1987493542 0.0057595959225 -0.018090715987 0.0057595959225 -0.043837046301 -0.0018528851429
          -0.018090715987 -0.0018528851429 0.038520747291 0.19928448957 0.0016032577276 -0.014462942197
          0.0016032577276 -0.041036605666 -0.0039801055899 -0.014462942197 -0.0039801055899 0.040097275088
          0.11800752849 -0.0022325235526 -0.0045426779197 -0.0022325235526 -0.048784707904 0.0065083316498
          -0.0045426779197 0.0065083316498 -0.053701836857 0.20297560263 0.0019968456631 -0.021027529897
          0.0019968456631 -0.042511972291 -0.0025256165111 -0.021027529897 -0.0025256165111 0.017895681831
          0.2886497136 0.025168895986 0.036126121483 0.025168895986 -0.026048656377 0.012902284616
          0.036126121483 0.012902284616 0.28119137175 0.09626557032 0.07634903591 0.031077614375
          0.07634903591 0.0092328594598 -0.017171848007 0.031077614375 -0.017171848007 0.18561640068
          0.082082138254 0.0016486919649 -0.0073191483032 0.0016486919649 -0.016466428336 0.0025997826456
          -0.0073191483032 0.0025997826456 -0.018028913816 0.32956300356 0.0306429247 0.013461453654
          0.0306429247 0.0069468816985 0.017193089224 0.013461453654 0.017193089224 0.33198206517
          0.32797555277 0.027010543021 0.014955273197 0.027010543021 -0.005382418385 0.020735555435
          0.014955273197 0.020735555435 0.33761601743 0.32736732128 0.024881515759 0.017363187005
          0.024881515759 0.0048737027518 0.014741829961 0.017363187005 0.014741829961 0.33982929675
          0.32199015341 0.028427909374 0.014128835967 0.028427909374 0.018800024251 0.013577422527
          0.014128835967 0.013577422527 0.35240293192 0.069827222808 -0.0056583674465 -0.069762684683
          -0.0056583674465 -0.056608632145 -0.044971973542 -0.069762684683 -0.044971973542 0.025214947289
          0.06338680238 0.0077155087706 -0.011226597729 0.0077155087706 -0.044827406388 -0.0028257780664
          -0.011226597729 -0.0028257780664 0.0054100393535 0.2890100089 0.027692104151 0.013141797572
          0.027692104151 0.0029695362909 0.0069242291756 0.013141797572 0.0069242291756 0.33589502257
          -0.017906585048 0.048156897656 0.03104050738 0.048156897656 0.022186419773 0.018023190079
          0.03104050738 0.018023190079 0.035628067368 0.11993513683 0.005004643803 -0.040093449504
          0.005004643803 0.0095139022699 -0.0095017179268 -0.040093449504 -0.0095017179268 0.11035294006
          0.10543084708 0.010129262465 -0.033043550511 0.010129262465 0.017387805733 -0.011121873496
          -0.033043550511 -0.011121873496 0.10513646965 0.10432926007 0.0063184893727 -0.034647761616
          0.0063184893727 0.014019744109 0.0012436681868 -0.034647761616 0.0012436681868 0.13550111093
          0.37667147085 0.019399326105 0.013166261583 0.019399326105 -0.0084686369163 0.01884585968
          0.013166261583 0.01884585968 0.35009263592 0.097595677305 0.016585003268 -0.036630011955
          0.016585003268 0.016863634595 -0.0083093508034 -0.036630011955 -0.0083093508034 0.13414371267
          0.058131800663 0.0019359128391 -0.0094576100821 0.0019359128391 0.0023896374438 0.0063918272591
          -0.0094576100821 0.0063918272591 0.027855647315 0.038974976 0.0070264636517 -0.031218895502
          0.0070264636517 0.0088482289842 -0.0021344060674 -0.031218895502 -0.0021344060674 0.029347015465
          0.13086186661 -0.011254705068 -0.022851733906 -0.011254705068 0.0043571429321 0.0085148559684
          -0.022851733906 0.0085148559684 0.074328147438 0.04496566974 -0.0079520867641 -0.019903119885
          -0.0079520867641 -0.0068978003656 0.0058614347078 -0.019903119885 0.0058614347078 0.025966671902
          0.053837163368 0.0089843851165 -0.0074958584234 0.0089843851165 -0.0027228618295 0.0046704889539
          -0.0074958584234 0.0046704889539 0.023785480491 0.019661670986 -0.0021562479252 -0.020665834673
          -0.0021562479252 -0.012081651562 -0.0030835901951 -0.020665834673 -0.0030835901951 0.0027174206852
          0.075167770913 0.008957069102 -0.00084607775229 0.008957069102 -0.012856558302 0.01194479878
          -0.00084607775229 0.01194479878 0.020624578036 0.13284652038 0.014915122446 -0.021599212301
          0.014915122446 0.019138471027 0.01173252341 -0.021599212301 0.01173252341 0.084693410602
          0.11824479596 0.011503728966 -0.031084497068 0.011503728966 0.018761013461 0.0079709701215
          -0.031084497068 0.0079709701215 0.084225093377 0.13418320383 0.0078503470983 -0.018882828767
          0.0078503470983 0.019452693638 0.0058118838984 -0.018882828767 0.0058118838984 0.090775273505
          0.12828489152 0.0035074572887 -0.0093742275947 0.0035074572887 0.019016327067 0.016957876108
          -0.0093742275947 0.016957876108 0.081668309623 0.13380253761 0.011831803885 -0.018426763257
          0.011831803885 0.028405405878 0.0010082517632 -0.018426763257 0.0010082517632 0.094862624482
          0.13552664415 0.011869925259 -0.017729136955 0.011869925259 0.027490906984 0.0042816303827
          -0.017729136955 0.0042816303827 0.083548951414 0.13610463163 0.013557359205 -0.017025202343
          0.013557359205 0.032345549811 0.0067573674171 -0.017025202343 0.0067573674171 0.081943078587
          0.14923770245 0.0050536934876 -0.0018993218096 0.0050536934876 -0.063278081216 0.0045728387219
          -0.0018993218096 0.0045728387219 -0.02369699289 0.080504796373 -0.0060668816743 -0.022552548546
          -0.0060668816743 -0.0037775774946 0.0024292011885 -0.022552548546 0.0024292011885 0.088400802714
          0.1206328024 0.0063881725413 -0.028321063505 0.0063881725413 -0.0076745310327 -0.0028162128752
          -0.028321063505 -0.0028162128752 0.087692351423 0.12744081508 -0.0031837535126 -0.023692808501
          -0.0031837535126 -0.014020513463 -0.0050336313749 -0.023692808501 -0.0050336313749 0.058955210337
          0.1543485015 0.0019664813506 -0.0216204225 0.0019664813506 -0.032182296095 -0.0060480297021
          -0.0216204225 -0.0060480297021 0.068206162071 0.18330464387 0.0015173264178 -0.032681503144
          0.0015173264178 -0.03281414344 -0.0050388145799 -0.032681503144 -0.0050388145799 0.071333081905
          0.17212869926 -0.0045886169252 -0.034253129013 -0.0045886169252 -0.032917705079 -0.013636720804
          -0.034253129013 -0.013636720804 0.089641957094 0.17484242501 -0.0081825284867 -0.03348931592
          -0.0081825284867 -0.029636274586 -0.0126634648 -0.03348931592 -0.0126634648 0.087191812318
          0.15184991241 -0.0062253629339 -0.029046185412 -0.0062253629339 -0.025614670918 -0.015725587873
          -0.029046185412 -0.015725587873 0.088053138192 0.15694670632 -0.0025147760154 -0.022968156279
          -0.0025147760154 -0.024497994231 -0.0042113693543 -0.022968156279 -0.0042113693543 0.063587329572
          0.27752794672 -0.0033840671271 0.01949262248 -0.0033840671271 -0.010391723054 0.029829277091
          0.01949262248 0.029829277091 0.21952654471 0.2951783638 0.014962206135 0.0041580903272
          0.014962206135 -0.073965762224 -0.0029069945778 0.0041580903272 -0.0029069945778 0.056686838195
          0.11212438256 -0.0093024170377 -0.034660758291 -0.0093024170377 -0.0076031219857 -0.0042420296514
          -0.034660758291 -0.0042420296514 0.10293737163 0.15077262715 -0.020746822612 -0.025922264178
          -0.020746822612 -0.014368963415 -0.0076568061166 -0.025922264178 -0.0076568061166 0.10484579692
          0.37016561612 0.026252283732 0.012199052413 0.026252283732 -0.033456693421 0.011991389165
          0.012199052413 0.011991389165 0.26592908632 0.36875990649 0.028943550201 0.010349597108
          0.028943550201 -0.038464085286 0.015453228122 0.010349597108 0.015453228122 0.26353880541
          0.30806126215 0.0052324961106 0.016434454527 0.0052324961106 -0.016146050141 0.026329815289
          0.016434454527 0.026329815289 0.2644151921 0.31008355512 0.0067118536675 0.019185858894
          0.0067118536675 -0.016330962601 0.019321751966 0.019185858894 0.019321751966 0.20393745213
          0.28276753097 0.0015783854439 0.014007654221 0.0015783854439 -0.01569268962 0.014105998763
          0.014007654221 0.014105998763 0.21418467293 0.13216446536 -0.0082389090069 -0.01792749088
          -0.0082389090069 -0.013020905549 -0.012243693087 -0.01792749088 -0.012243693087 0.085073499069
          0.37784977054 0.019357589106 0.0067958457645 0.019357589106 -0.0086502090054 0.018840284075
          0.0067958457645 0.018840284075 0.35109256887 0.37997344612 0.018252245189 0.016378272531
          0.018252245189 -0.012079516505 0.021541110935 0.016378272531 0.021541110935 0.34713805993
          0.37587410595 0.022278465732 0.015504595161 0.022278465732 -0.016722648758 0.0134007627
          0.015504595161 0.0134007627 0.33329596392 0.31086367028 0.0041153378906 0.019575289679
          0.0041153378906 -0.015107138725 0.025540590568 0.019575289679 0.025540590568 0.26537897682
          0.37042191915 0.019251981754 0.0036128065172 0.019251981754 -0.0032143363382 0.016990451555
          0.0036128065172 0.016990451555 0.35626802482 0.16771023386 0.0044634726618 -0.032306005
          0.0044634726618 -0.033268736209 -0.0028317755315 -0.032306005 -0.0028317755315 0.075909207643
          0.37135616723 0.01976146265 0.0061797216361 0.01976146265 -0.0047823120292 0.016779375724
          0.0061797216361 0.016779375724 0.35442885103 0.14668014223 0.0061339757746 -0.0018130332319
          0.0061339757746 0.0096729632061 0.0084054185482 -0.0018130332319 0.0084054185482 0.22058328625
          0.083531280222 0.01233509023 -0.024914372415 0.01233509023 0.0098279404429 0.0094376848789
          -0.024914372415 0.0094376848789 0.2141328937 0.07853459374 0.013809017528 -0.01841594436
          0.013809017528 0.024511179835 -0.00073860387526 -0.01841594436 -0.00073860387526 0.21019369634
          0.10049989692 0.0056381976644 -0.030093920932 0.0056381976644 0.027534174359 0.0025135273607
          -0.030093920932 0.0025135273607 0.14391665691 0.37792040902 0.020783681872 0.014642012286
          0.020783681872 -0.007427189749 0.020050769542 0.014642012286 0.020050769542 0.35145985974
          0.37823729853 0.018388915995 0.01179911261 0.018388915995 -0.010555763207 0.020542923799
          0.01179911261 0.020542923799 0.35258189039 0.15182459315 0.011847772567 -0.0075282699713
          0.011847772567 -0.0047052696768 0.010786229081 -0.0075282699713 0.010786229081 0.20337097721
          0.14042736825 0.0059242657148 1.7538575521e-06 0.0059242657148 0.011754637518 0.011682720671
          1.7538575521e-06 0.011682720671 0.19886186732 0.14038280791 0.0060687150811 -0.011468156734
          0.0060687150811 0.011764645894 0.011222025896 -0.011468156734 0.011222025896 0.20915414405
          0.32258198664 0.018632693987 0.0067158766288 0.018632693987 0.011375955191 0.016381247338
          0.0067158766288 0.016381247338 0.35766257842 0.34098451512 0.023671822364 0.011693755666
          0.023671822364 0.012005538846 0.018825691462 0.011693755666 0.018825691462 0.3574505337
          0.37348932437 0.062277710998 0.0099234676831 0.062277710998 -0.0041523592787 0.010605594822
          0.0099234676831 0.010605594822 0.35694342969 0.34589300669 0.016863568348 0.012460355405
          0.016863568348 0.0035357866219 0.015690039754 0.012460355405 0.015690039754 0.35672025521
          0.1532921619 0.008893697286 -0.014146310217 0.008893697286 -0.033632806597 0.0089163870816
          -0.014146310217 0.0089163870816 0.047705559594 0.35527245099 0.02136105131 0.0080410432051
          0.02136105131 -0.0015646122165 0.01551124667 0.0080410432051 0.01551124667 0.35828373021
          0.35177083096 0.023999729259 0.013147894171 0.023999729259 -0.003425522657 0.011761683668
          0.013147894171 0.011761683668 0.35091226133 0.35736123384 0.017468875479 0.021636649432
          0.017468875479 -0.0024020049679 0.015038175361 0.021636649432 0.015038175361 0.33745284801
          0.35070092574 0.016185135026 0.0098282389581 0.016185135026 0.01453912828 0.020255970754
          0.0098282389581 0.020255970754 0.3578086906 0.35009343203 0.022424124646 0.027856996576
          0.022424124646 -0.0084367167943 0.012312398019 0.027856996576 0.012312398019 0.33718605495
          0.04869950121 0.078248669139 -0.12033570861 0.078248669139 0.069904606728 0.040468897609
          -0.12033570861 0.040468897609 -0.10827031976 0.14699185452 0.012626036856 -0.032176883221
          0.012626036856 -0.023846527616 0.0078296655735 -0.032176883221 0.0078296655735 0.062888844356
          0.10977966865 0.0024287251752 -0.036732235569 0.0024287251752 -0.015014348757 0.014651791578
          -0.036732235569 0.014651791578 0.067933192071 0.1136516488 0.0046578345228 -0.027547098472
          0.0046578345228 -0.014100233494 0.016717546041 -0.027547098472 0.016717546041 0.061600393345
          0.10108279332 0.0021239197058 -0.026483423004 0.0021239197058 -0.010009422548 0.0037464889108
          -0.026483423004 0.0037464889108 0.099291855809 0.15422918762 0.010480311635 -0.032286064306
          0.010480311635 -0.035463671398 0.0027955505075 -0.032286064306 0.0027955505075 0.063775739554
          0.14955983495 -0.00082895369314 -0.023618862385 -0.00082895369314 -0.019951749522 -0.0012297912461
          -0.023618862385 -0.0012297912461 0.062275830981 0.12204132102 0.00089129196518 -0.036611718449
          0.00089129196518 -0.016648253623 -0.0035719742688 -0.036611718449 -0.0035719742688 0.059058327709
          0.052523412667 0.0075450894011 -0.0054663036427 0.0075450894011 0.016132036434 0.0016166165858
          -0.0054663036427 0.0016166165858 0.098832000979 0.079709172385 -0.0030149126909 -0.023724463692
          -0.0030149126909 -0.014544459545 0.003911079952 -0.023724463692 0.003911079952 0.096332522579
          0.12363157919 0.0019126704038 -0.022062862307 0.0019126704038 -0.01627538608 0.00040532034428
          -0.022062862307 0.00040532034428 0.090426177723 0.13363060917 9.1082711384e-05 -0.033527601401
          9.1082711384e-05 -0.016851206371 0.0060571111513 -0.033527601401 0.0060571111513 0.089583704692
          0.13572465565 0.00062612220666 -0.031411242919 0.00062612220666 -0.017213611396 0.0084359096304
          -0.031411242919 0.0084359096304 0.084953653054 0.1131793819 0.0081469244587 0.02198805935
          0.0081469244587 -0.017668035697 0.024631099096 0.02198805935 0.024631099096 -0.015120734451
          0.088169813677 0.026355182444 0.01734093045 0.026355182444 -0.024369286634 0.018844279371
          0.01734093045 0.018844279371 -0.0031561445018 0.38144439499 0.020584313673 0.0089165076791
          0.020584313673 -0.0098097606058 0.018618299099 0.0089165076791 0.018618299099 0.35188684165
          0.053592722186 0.032462814599 -0.019873418542 0.032462814599 -0.0045524780056 0.010024474997
          -0.019873418542 0.010024474997 -0.020633360466 0.055622542356 0.020385676059 -0.036049952309
          0.020385676059 -0.022735650439 0.001152454822 -0.036049952309 0.001152454822 -0.014440639595
          0.077672786345 0.016911103821 -0.019431576524 0.016911103821 -0.029116826843 0.0095915750645
          -0.019431576524 0.0095915750645 -0.019563575525 0.13282989103 -0.014601408995 -0.067268448188
          -0.014601408995 -0.014979986843 0.025830171696 -0.067268448188 0.025830171696 -0.0098898838163
          0.080347183946 -0.0096685714665 -0.015395838689 -0.0096685714665 -0.036937203979 -0.008991512939
          -0.015395838689 -0.008991512939 -0.015177255241 0.071078047094 -0.00037336147623 -0.037930160783
          -0.00037336147623 -0.025010114592 -0.022672451045 -0.037930160783 -0.022672451045 -0.0080202052362
          0.071751541371 0.017528168892 -0.039611809583 0.017528168892 -0.029277834637 0.0042213644816
          -0.039611809583 0.0042213644816 -0.014497250411 0.036225579506 0.003905102275 -0.041345743368
          0.003905102275 -0.0073585496991 0.00040632400366 -0.041345743368 0.00040632400366 0.0040414858153
          0.17096682045 0.0041468373156 -0.028498608535 0.0041468373156 -0.025186750722 0.00083247923443
          -0.028498608535 0.00083247923443 0.07831156282 0.15877393035 0.054404702612 0.0087627702244
          0.054404702612 -0.029754813204 0.01645924733 0.0087627702244 0.01645924733 -0.012844128837
          0.36509479604 0.014915468296 0.0048577872637 0.014915468296 -0.047417984431 0.023071873566
          0.0048577872637 0.023071873566 0.25733041016 0.37809865172 0.021294466753 0.0087777953923
          0.021294466753 -0.046442547876 0.025983969934 0.0087777953923 0.025983969934 0.25805781244
          0.37725074243 0.013288141257 0.010130496885 0.013288141257 -0.051902050986 0.02822280159
          0.010130496885 0.02822280159 0.25748184459 0.37778944622 0.010619708789 0.0036373667478
          0.010619708789 -0.049187158053 0.030847725205 0.0036373667478 0.030847725205 0.25267232342
          0.35976374865 0.0041857273134 0.0071727560035 0.0041857273134 -0.045051075527 0.035348344833
          0.0071727560035 0.035348344833 0.2536095764 0.36155674693 0.016087812339 0.0043815972908
          0.016087812339 -0.047353990368 0.022905028683 0.0043815972908 0.022905028683 0.25749923993
          0.36730186993 0.025328188817 0.0021011902336 0.025328188817 -0.032625581986 0.018124414106
          0.0021011902336 0.018124414106 0.24914078324 0.16424328136 0.0079574266921 -0.034465262551
          0.0079574266921 -0.01945238503 0.0085607107865 -0.034465262551 0.0085607107865 0.10206758761
          0.1911122048 0.0036255939151 -0.017817964306 0.0036255939151 -0.027481698142 -0.0069383623841
          -0.017817964306 -0.0069383623841 0.11636485879 0.19407271508 0.007995873175 -0.017509482573
          0.007995873175 -0.022019977155 -0.0068624413267 -0.017509482573 -0.0068624413267 0.11625150832
          0.30584804407 0.0087158300378 0.012945576503 0.0087158300378 0.0050307909815 0.02155308644
          0.012945576503 0.02155308644 0.26622348176 0.34631483625 0.014158808405 0.0098001960888
          0.014158808405 0.0034362421765 0.014449025744 0.0098001960888 0.014449025744 0.35922699297
          0.34647189209 0.013450516357 0.010974075976 0.013450516357 0.0050844711913 0.011909772711
          0.010974075976 0.011909772711 0.3630925401 0.33882652197 0.013413599861 0.017504425599
          0.013413599861 0.0033695780802 0.015195557557 0.017504425599 0.015195557557 0.35135486041
          0.34676183472 0.014184669518 0.010939027181 0.014184669518 0.006551837394 0.012322831979
          0.010939027181 0.012322831979 0.36245368078 0.15275065376 -0.00091130392764 -0.02627945977
          -0.00091130392764 -0.016466676377 0.001658180622 -0.02627945977 0.001658180622 0.10911778024
          0.37637675042 0.026101572728 0.017068297935 0.026101572728 -0.012780906397 0.013216204741
          0.017068297935 0.013216204741 0.33999244251 0.37594267965 0.01994152464 0.0085356594623
          0.01994152464 -0.0084301692106 0.018776098833 0.0085356594623 0.018776098833 0.35284599031
          0.37754894267 0.019534282505 0.009670467743 0.019534282505 -0.0094196374714 0.019145505827
          0.009670467743 0.019145505827 0.35325255387 0.019949846795 -0.011442012589 -0.0050673680999
          -0.011442012589 0.011815753115 -0.0091071575312 -0.0050673680999 -0.0091071575312 0.045742237702
          -0.010054687501 -0.012051714139 0.017591363859 -0.012051714139 0.0048817629397 0.0085068341481
          0.017591363859 0.0085068341481 0.067554094943 -0.0098398039809 -0.041452672595 0.022061161306
          -0.041452672595 -0.0043621594576 0.0031480980426 0.022061161306 0.0031480980426 0.069385766696
          0.37708286304 0.020107852343 0.0079050371038 0.020107852343 -0.0096509104505 0.018603595945
          0.0079050371038 0.018603595945 0.35139807578 0.37699121511 0.020148886054 0.0076103589312
          0.020148886054 -0.0087187880436 0.018461736588 0.0076103589312 0.018461736588 0.35052945757
          0.3734737713 0.021663177904 0.0080222300114 0.021663177904 -0.0092461962785 0.018235624509
          0.0080222300114 0.018235624509 0.35050035502 0.3729121803 0.020402326858 0.0098959262578
          0.020402326858 -0.0096613478906 0.018382656374 0.0098959262578 0.018382656374 0.35107157549
          0.033925871342 -0.00047786823908 0.00076785685087 -0.00047786823908 -0.017695162742 0.00051926731875
          0.00076785685087 0.00051926731875 0.0019427045739 0.10414277232 0.0027236745757 0.002082188605
          0.0027236745757 0.019191493611 0.025262538063 0.002082188605 0.025262538063 0.2153081873
          0.17658527802 -0.00011404762118 -0.03100143526 -0.00011404762118 -0.016153823224 -0.004229340902
          -0.03100143526 -0.004229340902 0.10066700472 0.14175231152 -0.001402998876 -0.029797184427
          -0.001402998876 -0.015781055793 -0.0048738899185 -0.029797184427 -0.0048738899185 0.1017547766
          0.26426728562 0.013071336813 0.011773915806 0.013071336813 -0.035646544983 0.026415210763
          0.011773915806 0.026415210763 0.14251318296 0.049327946586 0.0084081600982 -0.014565619151
          0.0084081600982 -0.010967100526 0.021287603305 -0.014565619151 0.021287603305 0.03233143975
          0.039343121512 -0.0082409303432 -0.0090810547189 -0.0082409303432 0.0046785969557 -0.0024631605154
          -0.0090810547189 -0.0024631605154 0.1010063281 0.20915394478 -0.0048962779667 0.0032071648816
          -0.0048962779667 0.030849257807 0.018287506145 0.0032071648816 0.018287506145 0.24318861405
          0.20395364263 0.0049095336818 0.0061486512997 0.0049095336818 0.012576943333 0.011979012984
          0.0061486512997 0.011979012984 0.24419101617 0.20996254163 0.002364393484 0.0029989019083
          0.002364393484 0.0096013478651 0.020250608939 0.0029989019083 0.020250608939 0.2339690456
          0.19493085897 -0.018892565843 0.026352878151 -0.018892565843 0.0060278966489 0.031187673389
          0.026352878151 0.031187673389 0.21610612549 0.19157872657 -0.0013240330689 0.025972034274
          -0.0013240330689 -0.00035521909295 0.011298258681 0.025972034274 0.011298258681 0.22165220696
          0.24823714151 -0.0039230777634 0.0079075636208 -0.0039230777634 -0.00067427303256 0.012000447093
          0.0079075636208 0.012000447093 0.22737523062 0.24804031569 -0.0023365358206 0.019304859471
          -0.0023365358206 0.002326046013 0.023283369776 0.019304859471 0.023283369776 0.24132864067
          0.24602578532 -0.0035875767392 0.019143169447 -0.0035875767392 0.0075216428701 0.028669727777
          0.019143169447 0.028669727777 0.24635620094 0.23023043221 -0.0041905735971 0.015268998492
          -0.0041905735971 0.0081480788234 0.022913961484 0.015268998492 0.022913961484 0.29382833231
          0.23323678915 0.00143263409 0.011046469444 0.00143263409 0.018651387536 0.014788664248
          0.011046469444 0.014788664248 0.29620991387 0.25899130644 -0.011718579612 0.014677974459
          -0.011718579612 0.0059208276623 0.025557485604 0.014677974459 0.025557485604 0.29236483439
          0.25393754831 -0.0061496302061 0.031478204882 -0.0061496302061 0.004714200544 0.016385410645
          0.031478204882 0.016385410645 0.25421354473 0.25607218691 -0.0017024128146 0.033495041619
          -0.0017024128146 0.00015107921951 0.022616684157 0.033495041619 0.022616684157 0.25582122788
          0.24704919004 -0.00050103784583 0.0053903629384 -0.00050103784583 6.172344767e-05 0.024366235219
          0.0053903629384 0.024366235219 0.22451084055 0.13287651314 -0.0021554211681 -0.017433816295
          -0.0021554211681 -0.014533692312 -0.0060375821924 -0.017433816295 -0.0060375821924 0.089133763382
          0.025238510453 -0.0053755115387 0.010491811016 -0.0053755115387 -0.0010981241134 0.0088340545437
          0.010491811016 0.0088340545437 -0.00083030261935 0.25908237382 -0.0086033387173 0.0092703613217
          -0.0086033387173 0.022423486852 0.031360565813 0.0092703613217 0.031360565813 0.31448875894
          0.1328922329 -0.0010822662018 0.0090816759633 -0.0010822662018 0.012351916531 0.024494474964
          0.0090816759633 0.024494474964 0.12715052865 0.10380966285 -0.010681781831 -0.0045583293939
          -0.010681781831 0.012187160256 0.014410940619 -0.0045583293939 0.014410940619 0.1311235089
          0.13500753142 -0.0059947994348 8.5990951354e-05 -0.0059947994348 0.0038786801839 0.010674968564
          8.5990951354e-05 0.010674968564 0.12963375711 0.11766286904 0.008252560649 0.0024675572217
          0.008252560649 0.00066051542453 0.004025299786 0.0024675572217 0.004025299786 0.12400555983
          0.18237962517 -0.0065223481709 0.021358478534 -0.0065223481709 -0.014301047373 0.010719398632
          0.021358478534 0.010719398632 0.10628565585 0.1398886566 0.028670246449 -0.042607588849
          0.028670246449 -0.047405130371 0.05404354317 -0.042607588849 0.05404354317 0.13867832305
          0.36299153196 0.024877642879 0.017635939612 0.024877642879 -0.032779813287 0.017792146946
          0.017635939612 0.017792146946 0.2858951647 0.12960231355 -0.0065921987942 -0.030302658238
          -0.0065921987942 -0.0067556274942 0.0017162263394 -0.030302658238 0.0017162263394 0.1307785563
          0.37949656479 0.020219200055 0.0098908661785 0.020219200055 -0.0084582904194 0.019264233765
          0.0098908661785 0.019264233765 0.35279433991 0.063252839362 0.0025723711349 0.00029989569598
          0.0025723711349 -0.023815434258 0.00043623744012 0.00029989569598 0.00043623744012 -0.027644444824
          0.059434692537 0.0032456631888 -0.0045727959377 0.0032456631888 -0.017190221712 0.013637496801
          -0.0045727959377 0.013637496801 -0.011275970089 -0.064357849706 -0.02089037982 0.0069023215924
          -0.02089037982 0.025946637071 9.22035071e-05 0.0069023215924 9.22035071e-05 0.081122505207
          0.36626782696 0.018570359786 0.021090552643 0.018570359786 -0.045221940617 0.01830711147
          0.021090552643 0.01830711147 0.28744929134 0.18660555115 0.015337914625 0.0076384512719
          0.015337914625 -0.046542278212 0.018622075066 0.0076384512719 0.018622075066 0.041649827698
          0.19083096328 0.017188144231 -0.0040102772389 0.017188144231 -0.030417000053 0.0049392865368
          -0.0040102772389 0.0049392865368 0.085492876614 0.25029859151 0.023368049374 0.01748140578
          0.023368049374 -0.042727844694 0.024657964009 0.01748140578 0.024657964009 0.15198005638
          0.1686185202 0.0024401533977 -0.035525871458 0.0024401533977 -0.016560237805 -0.0020991673587
          -0.035525871458 -0.0020991673587 0.11862433956 0.17002747011 -0.0047488087466 -0.020925636413
          -0.0047488087466 -0.014670610668 -0.0065000801535 -0.020925636413 -0.0065000801535 0.11611402632
          0.19215560712 0.0037535408211 -0.021831013317 0.0037535408211 -0.027736088922 -0.0073180148856
          -0.021831013317 -0.0073180148856 0.10844708912 0.18992720614 0.0020386627673 -0.019010510232
          0.0020386627673 -0.023038680659 -0.00098970207132 -0.019010510232 -0.00098970207132 0.10775015741
          0.33230675519 -0.02283677612 0.18039468829 -0.02283677612 -0.11276387362 0.016336014027
          0.18039468829 0.016336014027 0.28445457703 -0.061983942032 0.0091302674822 -0.00188256023
          0.0091302674822 0.036183171055 0.0065291839025 -0.00188256023 0.0065291839025 0.07997867454
          -0.055525771904 0.0054036716052 0.0043604237134 0.0054036716052 0.036540354216 0.0096064487791
          0.0043604237134 0.0096064487791 0.061131667633 0.013100379886 -0.0041147929904 0.020287165561
          -0.0041147929904 0.015492414111 -0.0018142410607 0.020287165561 -0.0018142410607 0.11701121201
          0.18327511341 0.0025977995195 -0.031543453016 0.0025977995195 -0.028468645705 0.0040861988554
          -0.031543453016 0.0040861988554 0.10025432225 0.3558839578 0.017893631524 0.006853623414
          0.017893631524 0.0049938092935 0.010729830487 0.006853623414 0.010729830487 0.36106128227
          0.15487477662 0.021269947747 -0.0018181770549 0.021269947747 -0.015056483394 0.017028326118
          -0.0018181770549 0.017028326118 0.11229669441 0.19629965574 0.020335555747 -0.0017690631588
          0.020335555747 -0.028450567393 0.010863519651 -0.0017690631588 0.010863519651 0.15108951611
          0.38130919783 0.019873605263 0.008676080892 0.019873605263 -0.012710269858 0.016285987009
          0.008676080892 0.016285987009 0.34780368987 0.37898027661 0.021051569977 0.0086183975242
          0.021051569977 -0.012012356723 0.017877111716 0.0086183975242 0.017877111716 0.34968804188
          0.37945119167 0.020463390363 0.0094466143841 0.020463390363 -0.015745506575 0.017604982358
          0.0094466143841 0.017604982358 0.35101458639 0.38129471104 0.017757690994 0.010172236762
          0.017757690994 -0.012078928491 0.016754097032 0.010172236762 0.016754097032 0.35114967577
          0.38357559584 0.017037680935 0.0089449560698 0.017037680935 -0.01252936532 0.017407143085
          0.0089449560698 0.017407143085 0.3517059302 0.38607032229 0.01962621295 0.0049761881426
          0.01962621295 -0.01285636539 0.01447074993 0.0049761881426 0.01447074993 0.35755628533
          0.38623936727 0.019298333459 0.0038916596465 0.019298333459 -0.012803758723 0.019195047266
          0.0038916596465 0.019195047266 0.35274025419 0.38748569507 0.01898338274 0.0067524611809
          0.01898338274 -0.013255521624 0.016615541884 0.0067524611809 0.016615541884 0.35281992892
          0.38562470659 0.018290961154 0.0038417482048 0.018290961154 -0.01350095502 0.015452256831
          0.0038417482048 0.015452256831 0.34879590076 0.38688263593 0.018092291179 0.0046618443994
          0.018092291179 -0.013939134233 0.015031295623 0.0046618443994 0.015031295623 0.34914966688
          0.075681670447 0.037091531283 -0.018047034648 0.037091531283 -0.0063315986334 0.0041154327885
          -0.018047034648 0.0041154327885 0.053691424522 0.055147195209 0.004584575521 -0.022804016944
          0.004584575521 -0.002364817804 -0.010690031853 -0.022804016944 -0.010690031853 0.053544294981
          0.17721288162 0.010873904748 -0.0095587910995 0.010873904748 -0.051094750227 0.0079048430361
          -0.0095587910995 0.0079048430361 0.024312537515 0.13959396378 0.0086872230025 0.027756720117
          0.0086872230025 -0.045296412576 0.0044244053174 0.027756720117 0.0044244053174 -0.081520252951
          0.13324597706 0.0005023578721 -0.027216413474 0.0005023578721 -0.030672614033 -0.0086225631973
          -0.027216413474 -0.0086225631973 -0.075032256641 0.30847703037 0.030284685201 0.017841361311
          0.030284685201 0.0082888037364 0.015569252429 0.017841361311 0.015569252429 0.33321177518
          0.38438841316 0.015212433931 0.017772250259 0.015212433931 -0.012111105664 0.021004710855
          0.017772250259 0.021004710855 0.35088538113 0.1699907426 0.0040823969631 -0.012594171761
          0.0040823969631 -0.043940606461 -0.0079008514395 -0.012594171761 -0.0079008514395 -0.021484500354
          0.1623274252 -0.002980551253 -0.014158780853 -0.002980551253 -0.010884881643 -0.0063275186629
          -0.014158780853 -0.0063275186629 0.1317778662 -0.032728311858 -0.071032823192 -0.065659968502
          -0.071032823192 -0.049664714533 -0.062117899717 -0.065659968502 -0.062117899717 0.108632358
          0.1263911906 0.024963358176 0.0071360991506 0.024963358176 -0.041818569749 0.027080216068
          0.0071360991506 0.027080216068 0.12488711874 0.20443908546 0.0061976357658 -0.014270741002
          0.0061976357658 -0.013703753147 0.023482329725 -0.014270741002 0.023482329725 0.092063969763
          0.38918816755 0.023139659114 0.0090439930938 0.023139659114 -0.031535335812 0.019330682829
          0.0090439930938 0.019330682829 0.32440215452 0.12143714409 0.0016139993778 0.011092450647
          0.0016139993778 -0.027581964318 0.011151785228 0.011092450647 0.011151785228 -0.018511308619
          0.11882843055 0.024425488584 -0.026133823336 0.024425488584 -0.01462651898 -0.0017326664058
          -0.026133823336 -0.0017326664058 0.16277766456 0.080637656758 0.0057956259951 -0.042903400595
          0.0057956259951 -0.0096973251347 0.0015293729933 -0.042903400595 0.0015293729933 0.040704956314
          0.10731851302 0.025621314034 -0.07242036024 0.025621314034 0.0037527347675 0.010804585987
          -0.07242036024 0.010804585987 0.089972400553 0.12409046186 -0.0012506743232 -0.014439607616
          -0.0012506743232 -0.025720391928 0.020969528107 -0.014439607616 0.020969528107 -0.02864956112
          0.12259991052 0.011694780906 -0.014244405515 0.011694780906 -0.03604871951 0.0019510971682
          -0.014244405515 0.0019510971682 -0.025736039131 0.14247182453 0.006961462314 -0.028946514389
          0.006961462314 -0.0099015929081 0.0057854364653 -0.028946514389 0.0057854364653 0.13028987142
          0.15785788134 0.0031714840241 -0.026592167023 0.0031714840241 -0.020648881009 -3.3850438333e-05
          -0.026592167023 -3.3850438333e-05 0.11038329643 0.16935285007 0.0045440567611 -0.0382205263
          0.0045440567611 -0.020131068692 0.0022528852034 -0.0382205263 0.0022528852034 0.12428035767
          0.090777542598 -0.0059610958849 -0.0079156399571 -0.0059610958849 -0.03046878336 0.011838658143
          -0.0079156399571 0.011838658143 -0.02435055556 0.37472624872 0.021886083578 0.0061306414582
          0.021886083578 -0.0082593386383 0.019354730261 0.0061306414582 0.019354730261 0.35259146805
          0.19572303711 -0.0016945214194 -0.015800710999 -0.0016945214194 -0.029948160935 -0.0034791171278
          -0.015800710999 -0.0034791171278 0.079493648214 0.26606927576 0.0082204684952 0.020362660535
          0.0082204684952 0.0098423062242 0.013820120635 0.020362660535 0.013820120635 0.29521826488
          0.15203610367 0.0041735003639 -0.031531832375 0.0041735003639 -0.011829352547 0.0022796545031
          -0.031531832375 0.0022796545031 0.12013040912 0.19725165747 0.0052057998748 -0.016701024172
          0.0052057998748 -0.037069852384 0.0047711431505 -0.016701024172 0.0047711431505 0.08727738316
          0.18308745093 -0.00069725888916 -0.025711338536 -0.00069725888916 -0.030157833342 0.0066475066995
          -0.025711338536 0.0066475066995 0.084929443883 0.18337267572 -0.00088589840446 -0.02082008577
          -0.00088589840446 -0.030046295814 0.0045378322382 -0.02082008577 0.0045378322382 0.073052021001
          0.18583433127 0.0025147875734 -0.022951348468 0.0025147875734 -0.025350687364 0.0015954176988
          -0.022951348468 0.0015954176988 0.074895761734 0.12314142154 0.010176953567 -0.040682309672
          0.010176953567 0.0065481583044 -0.0088891649009 -0.040682309672 -0.0088891649009 0.08472980075
          0.10879743922 0.020849661035 -0.0107837828 0.020849661035 0.017263374036 0.013097878627
          -0.0107837828 0.013097878627 0.23082983302 0.0040857604994 0.026923350196 0.0048095614128
          0.026923350196 0.0079151610926 0.00068429000508 0.0048095614128 0.00068429000508 0.094706646385
          0.17828795754 0.0016945942744 -0.0310473944 0.0016945942744 -0.025564167619 -0.0026649819236
          -0.0310473944 -0.0026649819236 0.11426156756 0.17709958768 0.0016856763317 -0.031697551761
          0.0016856763317 -0.018462521611 0.00013151118801 -0.031697551761 0.00013151118801 0.11501090761
          0.17552351545 0.0035924550569 -0.03331318264 0.0035924550569 -0.017896330182 -0.00028494807248
          -0.03331318264 -0.00028494807248 0.11531155346 0.17864745471 0.0038270601415 -0.030933614455
          0.0038270601415 -0.019615297618 -0.0023284525372 -0.030933614455 -0.0023284525372 0.11428048911
          0.36713861791 0.014204550413 0.021740054653 0.014204550413 -0.023800340543 0.012698071377
          0.021740054653 0.012698071377 0.30326079286 0.18019648303 0.0029222483003 -0.034997790776
          0.0029222483003 -0.025450850215 0.009764402789 -0.034997790776 0.009764402789 0.10334582287
          0.19823161359 -0.0024852488762 -0.02146998556 -0.0024852488762 -0.023890735412 0.0058319089567
          -0.02146998556 0.0058319089567 0.11324337442 0.19354204592 0.002037169753 -0.015814430666
          0.002037169753 -0.026945162813 0.0028487437719 -0.015814430666 0.0028487437719 0.11109449576
          -0.073424366877 -0.038030994018 -0.086307927836 -0.038030994018 -0.076224303127 -0.048560060867
          -0.086307927836 -0.048560060867 0.14823555754 0.18838217805 -0.0067324141781 0.039328886787
          -0.0067324141781 -0.099348030262 0.028008697947 0.039328886787 0.028008697947 0.15817706089
          0.10797176302 0.047936701659 -0.03334236963 0.047936701659 -0.037119339277 -0.011433935509
          -0.03334236963 -0.011433935509 0.075377679537 0.20215742336 0.0029063272622 -0.018948133205
          0.0029063272622 -0.027622862554 0.0017078557625 -0.018948133205 0.0017078557625 0.11134561658
          0.20191620459 0.0039633711932 -0.018851728451 0.0039633711932 -0.031435610258 0.0044923759397
          -0.018851728451 0.0044923759397 0.12385978808 0.1850016905 0.002429149912 -0.029124995427
          0.002429149912 -0.021062645181 0.0022112383911 -0.029124995427 0.0022112383911 0.11779336874
          0.18451708905 0.0031405479343 -0.031300455582 0.0031405479343 -0.020520489822 0.0036663302059
          -0.031300455582 0.0036663302059 0.10993241685 0.19701912161 0.001589388144 -0.017246154685
          0.001589388144 -0.022768552337 0.00088609554276 -0.017246154685 0.00088609554276 0.12529152747
          0.19698480889 0.0012195647076 -0.01744632128 0.0012195647076 -0.024444109877 0.00075409089038
          -0.01744632128 0.00075409089038 0.12589937868 0.19779237992 -0.00050603421948 -0.017169144779
          -0.00050603421948 -0.022031213441 -0.0012181794391 -0.017169144779 -0.0012181794391 0.12450005825
          0.14370874031 0.002859546701 -0.054659980083 0.002859546701 -0.00066835895438 -0.0020625224141
          -0.054659980083 -0.0020625224141 0.093879188573 0.38308569252 0.017772395874 0.013553694608
          0.017772395874 -0.0115334608 0.023842907355 0.013553694608 0.023842907355 0.34516244305
          0.19909574473 -0.00097611881923 -0.01785085275 -0.00097611881923 -0.023067451877 0.0048278000812
          -0.01785085275 0.0048278000812 0.11126756733 0.13792132997 -0.004853360607 -0.00018061882831
          -0.004853360607 -0.060929752998 -0.0048294183049 -0.00018061882831 -0.0048294183049 -0.059979580273
          0.18978956296 -0.00088194376316 -0.0022726847646 -0.00088194376316 -0.067088104918 0.0068566590096
          -0.0022726847646 0.0068566590096 -0.082527603418 0.37685088678 0.0081640782999 0.026751175384
          0.0081640782999 -0.012036423888 0.023289219601 0.026751175384 0.023289219601 0.34247281463
          0.38476898218 0.013615927498 0.02305851731 0.013615927498 -0.015319847979 0.023980101402
          0.02305851731 0.023980101402 0.3427092601 0.37444957888 0.0096729478471 0.022843000588
          0.0096729478471 -0.0060900455218 0.018330454414 0.022843000588 0.018330454414 0.34212442847
          0.37383232695 0.018323671325 0.023316363208 0.018323671325 -0.0059820298559 0.016070769872
          0.023316363208 0.016070769872 0.34191910729 0.37112875289 0.0096513574495 0.018871693543
          0.0096513574495 -0.0060901856681 0.018305891946 0.018871693543 0.018305891946 0.34442791204
          0.37767575768 0.014616924793 0.019297223065 0.014616924793 -0.012889639376 0.022936968813
          0.019297223065 0.022936968813 0.3486301268 0.35916659586 0.028244960584 0.0097344716402
          0.028244960584 0.0040314506926 0.01390073937 0.0097344716402 0.01390073937 0.35673866114
          0.36006804845 0.025244919922 0.0025606027482 0.025244919922 0.0026957891054 0.013594564096
          0.0025606027482 0.013594564096 0.36217516095 0.36277762757 0.026218670895 0.0043776332777
          0.026218670895 0.0018645362238 0.017045100197 0.0043776332777 0.017045100197 0.3567679378
          0.36093981803 0.011716831309 0.012996371334 0.011716831309 -0.0031786530899 0.021171891031
          0.012996371334 0.021171891031 0.35393741915 0.36468303108 0.021206535372 0.0091091046161
          0.021206535372 -0.008062342125 0.018265362533 0.0091091046161 0.018265362533 0.35423896192
          0.36892255586 0.023234416113 0.0079405073936 0.023234416113 -0.0074102362109 0.018809123557
          0.0079405073936 0.018809123557 0.3507357312 0.36914025994 0.023973580187 0.0070344241322
          0.023973580187 -0.0065360932624 0.017051154714 0.0070344241322 0.017051154714 0.35344403039
          0.38610685969 0.027707865519 0.0042956426757 0.027707865519 -0.011899543582 0.015424347286
          0.0042956426757 0.015424347286 0.35371660023 0.37161313985 0.023286182329 0.0034646276595
          0.023286182329 -0.0063726515228 0.018352525598 0.0034646276595 0.018352525598 0.3551412414
          0.36867111629 0.023702807329 0.0087207215502 0.023702807329 -0.0051609649807 0.01418994792
          0.0087207215502 0.01418994792 0.35152507189 0.37133830425 0.021218932605 0.0053347141551
          0.021218932605 -0.0050015898049 0.016451569038 0.0053347141551 0.016451569038 0.35545447188
          0.36878613264 0.019434245437 0.0057711146738 0.019434245437 -0.0017836784779 0.016586249427
          0.0057711146738 0.016586249427 0.3553863593 0.36429232229 0.022059903878 0.0099090881742
          0.022059903878 -0.0051638945329 0.013098087919 0.0099090881742 0.013098087919 0.3550569827
          0.11889006242 0.0082523119533 -0.019048927624 0.0082523119533 -0.00074465631198 -0.0037892794088
          -0.019048927624 -0.0037892794088 0.13709346913 0.12927899419 0.010195836434 -0.016392094705
          0.010195836434 -0.0082049355228 -0.0001932205469 -0.016392094705 -0.0001932205469 0.13654539654
          0.1429441562 0.0097732841632 -0.015389723521 0.0097732841632 -0.0083925816545 -0.0008399754989
          -0.015389723521 -0.0008399754989 0.13472984964 0.15035086285 0.012125778923 -0.015763688582
          0.012125778923 -0.0094447240613 -0.0029071212167 -0.015763688582 -0.0029071212167 0.13263898524
          0.38625210575 0.017276590184 0.013597936401 0.017276590184 -0.017956555708 0.023676569773
          0.013597936401 0.023676569773 0.33407551663 0.15469553478 -0.0019137127698 -0.01667859465
          -0.0019137127698 -0.0089872015723 0.0043841626387 -0.01667859465 0.0043841626387 0.1324132386
          0.12997378369 0.01252141557 -0.016130805654 0.01252141557 -0.0120611586 -0.00061963545425
          -0.016130805654 -0.00061963545425 0.1364982524 0.12754922157 -0.0060428646405 -0.027422700034
          -0.0060428646405 -0.0062251264279 0.0011526812379 -0.027422700034 0.0011526812379 0.12680198318
          0.37413094514 0.018067900239 0.016074593718 0.018067900239 -0.017352814984 0.024262351029
          0.016074593718 0.024262351029 0.31921342502 0.13376511402 0.008170576944 -0.038493562861
          0.008170576944 -0.0028555551192 0.0046671873614 -0.038493562861 0.0046671873614 0.12188520018
          0.12242670377 0.0063601699034 -0.018238720456 0.0063601699034 -0.00099437639721 -0.0023385644184
          -0.018238720456 -0.0023385644184 0.1344660455 0.032725648126 -0.001323510825 0.0050338723563
          -0.001323510825 -0.017285305378 0.0026954063498 0.0050338723563 0.0026954063498 -0.017342399719
          0.078608983711 -0.0091122499123 -0.0022599327637 -0.0091122499123 -0.019224802752 0.00045298312468
          -0.0022599327637 0.00045298312468 -0.019897102561 0.077819056583 0.002010847927 -0.021037119853
          0.002010847927 -0.017397494734 -0.0020431300448 -0.021037119853 -0.0020431300448 -0.024291672943
          0.08549510375 0.0281047693 0.0056238673685 0.0281047693 -0.038733265729 -0.0060362149581
          0.0056238673685 -0.0060362149581 -0.013059611191 0.078638269893 0.0023740452937 -0.0021890036438
          0.0023740452937 -0.017340056026 -0.00014874933104 -0.0021890036438 -0.00014874933104 0.0062442900627
          0.077586846441 -0.0025067406346 0.0041983260267 -0.0025067406346 -0.0057916125659 -0.0078417258154
          0.0041983260267 -0.0078417258154 0.0082110152536 0.1521589937 -0.00088527801436 -0.025346935165
          -0.00088527801436 -0.035394377163 -0.003127995878 -0.025346935165 -0.003127995878 0.068754141232
          0.17964772364 -0.0013625518974 -0.029045083753 -0.0013625518974 -0.020296841731 -0.0028237723736
          -0.029045083753 -0.0028237723736 0.12451143904 0.10417193269 -0.012607275329 0.008758290037
          -0.012607275329 -0.023051218229 -0.016777589806 0.008758290037 -0.016777589806 -0.0078534715808
          0.099460663903 0.0052689324252 -0.0052054225666 0.0052689324252 -0.038840640947 -0.0010920746278
          -0.0052054225666 -0.0010920746278 -0.022508317909 0.1234818586 0.022975120809 -0.079498908137
          0.022975120809 -0.009424797521 -0.0024412412671 -0.079498908137 -0.0024412412671 0.14983682296
          0.38235536286 0.022626758917 0.0036663882303 0.022626758917 -0.0084064260136 0.023777221584
          0.0036663882303 0.023777221584 0.35463167313 0.10634140304 0.018339282197 -0.06635047772
          0.018339282197 0.0079233724914 -5.6709915774e-05 -0.06635047772 -5.6709915774e-05 0.1061145661
          0.10263862558 0.019442380088 -0.055662706271 0.019442380088 -0.0021290260088 0.012440383049
          -0.055662706271 0.012440383049 0.1374666946 0.13141394372 -0.001580460489 -0.029777215794
          -0.001580460489 -0.044289712557 9.4876500715e-05 -0.029777215794 9.4876500715e-05 0.04872531705
          0.090991370542 0.029651101289 -0.017024252527 0.029651101289 0.034157741891 0.0055339559845
          -0.017024252527 0.0055339559845 0.23398011013 0.10520596471 0.0099594685835 -0.00083387513464
          0.0099594685835 -0.0054410481509 0.02271365551 -0.00083387513464 0.02271365551 0.14263890321
          0.11947297852 0.0034276369627 -0.0076596722703 0.0034276369627 -0.033527873413 0.0070578304883
          -0.0076596722703 0.0070578304883 0.0062396604026 0.16657750227 -0.0007770623178 -0.0097639276397
          -0.0007770623178 -0.050430692002 -0.0013857271818 -0.0097639276397 -0.0013857271818 0.012071604032
          0.12031205001 0.00068901169649 -0.014678336301 0.00068901169649 -0.046045346813 -0.0079054454124
          -0.014678336301 -0.0079054454124 0.016771381835 0.38179206369 0.012677468379 0.012049719588
          0.012677468379 -0.012526146143 0.016823594138 0.012049719588 0.016823594138 0.35772260926
          0.12009787109 0.0061862983018 -0.059041828084 0.0061862983018 -0.0024020729301 0.0039806539098
          -0.059041828084 0.0039806539098 0.13975095384 0.3696009263 0.016713227351 0.024268608248
          0.016713227351 -0.0076495248581 0.020290740129 0.024268608248 0.020290740129 0.36526574454
          0.37755507783 0.019179123883 0.0068063005083 0.019179123883 -0.0088642151455 0.017668217484
          0.0068063005083 0.017668217484 0.35093560069 0.14777813944 0.00067476902508 -0.018494626614
          0.00067476902508 -0.039116536683 -0.011655739357 -0.018494626614 -0.011655739357 -0.01054491882
          0.15062522062 0.0072085816947 -0.0099884418587 0.0072085816947 -0.040528164886 0.002337540597
          -0.0099884418587 0.002337540597 0.013006453715 0.26258176202 0.021026140997 0.013532890345
          0.021026140997 0.0013969636811 0.013555455542 0.013532890345 0.013555455542 0.24987559188
          0.10810806866 0.002993376433 -0.0045040719616 0.002993376433 -0.035459982659 0.0064657846161
          -0.0045040719616 0.0064657846161 -0.046461776945 0.19955083663 0.0022650248986 -0.011367687524
          0.0022650248986 -0.059823098442 -0.01040764237 -0.011367687524 -0.01040764237 0.0052590397986
          0.17131228745 0.0027542853909 -0.0047933007531 0.0027542853909 -0.054758020116 -0.003188880365
          -0.0047933007531 -0.003188880365 0.014326122791 0.035376820352 0.066174044813 -0.036891847583
          0.066174044813 -0.043463354191 0.044707872807 -0.036891847583 0.044707872807 0.01892855623
          0.14851724278 0.00072876696174 -0.028294004187 0.00072876696174 -0.0338837094 0.002890874075
          -0.028294004187 0.002890874075 0.016131683991 0.09605207718 0.001977323874 -0.0089021462873
          0.001977323874 -0.033742853889 0.0030464235738 -0.0089021462873 0.0030464235738 0.011196309376
          0.14716675223 0.0053381860153 -0.026079111087 0.0053381860153 -0.038092344072 -0.012648154728
          -0.026079111087 -0.012648154728 0.018024020361 0.37875464406 0.018951611443 0.0050873004973
          0.018951611443 -0.0083854178421 0.018228636086 0.0050873004973 0.018228636086 0.35017610605
          0.37923215793 0.018717518925 0.0043925058934 0.018717518925 -0.010633406997 0.019914084826
          0.0043925058934 0.019914084826 0.35042158942 0.38025673835 0.01862421947 0.0026761053233
          0.01862421947 -0.011265737496 0.018922101133 0.0026761053233 0.018922101133 0.35123936646
          0.37973853427 0.017923274558 0.0030379102424 0.017923274558 -0.0081786181718 0.020143669246
          0.0030379102424 0.020143669246 0.35325452263 0.041243173493 0.0025654386416 -0.010548526596
          0.0025654386416 -0.0020677272407 -7.8462771277e-06 -0.010548526596 -7.8462771277e-06 0.039970739445
          0.081444671936 -0.0014783784538 -0.0040560363669 -0.0014783784538 -0.010139798249 0.015895404964
          -0.0040560363669 0.015895404964 0.020973311009 0.12066170942 -0.0073074047387 -0.0057363412312
          -0.0073074047387 -0.016871850201 0.012941360011 -0.0057363412312 0.012941360011 -0.012966264231
          0.082811129826 0.003172999532 -0.005033095419 0.003172999532 -0.017641237397 0.0083283940394
          -0.005033095419 0.0083283940394 -0.0038254239763 0.083003313009 0.0034589296115 -0.0010716849595
          0.0034589296115 -0.018517935727 0.005138716063 -0.0010716849595 0.005138716063 0.014463771764
          0.08682418425 0.0028733453844 -0.0042085368624 0.0028733453844 -0.019002970987 0.0072062673401
          -0.0042085368624 0.0072062673401 0.012658381388 0.08894846727 0.0047990839317 0.014783508169
          0.0047990839317 -0.018550836368 0.0081135614058 0.014783508169 0.0081135614058 -0.02317354899
          0.08884723756 -0.0087994657083 -0.01008842129 -0.0087994657083 0.00066446001036 0.0049119476292
          -0.01008842129 0.0049119476292 0.0022345053382 0.091804091713 -0.013448456331 -0.0019617782289
          -0.013448456331 -0.020103558658 0.019133027039 -0.0019617782289 0.019133027039 -0.0013909282543
          0.091982584454 -0.0060211126044 0.014801661801 -0.0060211126044 -0.030566063697 0.0042211886797
          0.014801661801 0.0042211886797 -0.015643616359 0.37503802586 0.018280717516 0.017021306657
          0.018280717516 -0.017169563999 0.0099529637357 0.017021306657 0.0099529637357 0.31318826071
          0.36811894212 0.019900917108 0.020545827999 0.019900917108 -0.016959367688 0.011461122928
          0.020545827999 0.011461122928 0.32062833169 0.37019309143 0.02632067396 0.022104546894
          0.02632067396 -0.021574370857 0.014043965144 0.022104546894 0.014043965144 0.32159448865
          0.37292151877 0.025047283705 0.016092322298 0.025047283705 -0.021328360257 0.014082747518
          0.016092322298 0.014082747518 0.31285748348 0.37118972107 0.030819517859 0.019073632405
          0.030819517859 -0.035506872094 0.0041061548528 0.019073632405 0.0041061548528 0.3077254333
          0.39024755004 0.02069682147 0.015775079128 0.02069682147 -0.0302414153 0.0058996704646
          0.015775079128 0.0058996704646 0.30828089976 0.39046022164 0.021913138159 0.015220825373
          0.021913138159 -0.040566874276 0.016903259963 0.015220825373 0.016903259963 0.29810115552
          0.3727367413 0.02863485032 0.018331076999 0.02863485032 -0.040434379195 0.013478331823
          0.018331076999 0.013478331823 0.2994353214 0.011257854455 -0.0060377633589 -0.0077196939752
          -0.0060377633589 -0.0060170775512 -0.0062298813056 -0.0077196939752 -0.0062298813056 -0.001847964378
          0.045530004966 0.0047555449277 0.012070806015 0.0047555449277 -0.0033694389174 0.0036854034491
          0.012070806015 0.0036854034491 -0.0084668065235 0.19324848346 0.010480070859 -0.01371362424
          0.010480070859 -0.017362206449 -0.00069392525188 -0.01371362424 -0.00069392525188 0.13586493464
          0.17623506013 0.0069180952034 -0.019737512551 0.0069180952034 -0.012723403206 -0.00091502229603
          -0.019737512551 -0.00091502229603 0.13268470741 0.16815677555 0.0078640415946 -0.018917155444
          0.0078640415946 -0.013433260615 0.00016332622367 -0.018917155444 0.00016332622367 0.13525214606
          0.15666479426 -0.0046894481428 0.0046523017369 -0.0046894481428 0.0055554429376 0.016028031461
          0.0046523017369 0.016028031461 0.18442560978 0.19239466195 -0.0012140341073 0.0021821299638
          -0.0012140341073 0.0042287096318 0.0070079926993 0.0021821299638 0.0070079926993 0.1382934898
          0.10525190142 0.0092012990596 0.0013686333859 0.0092012990596 0.0030604398564 0.007311728479
          0.0013686333859 0.007311728479 0.13884280292 0.11041810773 0.0010281194105 -0.0034315490026
          0.0010281194105 0.015238051195 0.018323933521 -0.0034315490026 0.018323933521 0.12778180252
          0.11412850971 0.0017884026897 0.0093632758237 0.0017884026897 0.0044067665952 0.010749094641
          0.0093632758237 0.010749094641 0.16244009256 0.1060518507 0.0043804583453 -0.00087868830987
          0.0043804583453 0.015107846361 0.0084066535824 -0.00087868830987 0.0084066535824 0.15220012018
          0.10876128969 0.01221268991 -0.0069225153118 0.01221268991 0.021428711592 0.0070144857313
          -0.0069225153118 0.0070144857313 0.14984049177 0.10339498928 -0.0028331319892 -0.012905041075
          -0.0028331319892 -0.0099102122547 -0.011529021773 -0.012905041075 -0.011529021773 0.086057911846
          0.11459649553 -0.028332936216 -0.015033828493 -0.028332936216 -0.0015398804578 -0.01022400701
          -0.015033828493 -0.01022400701 0.086210070053 0.10391375474 -0.00097312734902 -0.010973840368
          -0.00097312734902 -0.0035196213286 -0.0048355540463 -0.010973840368 -0.0048355540463 0.093055885027
          0.086457780326 0.0040647562622 -0.010270774188 0.0040647562622 -0.0018972917329 0.001182278119
          -0.010270774188 0.001182278119 0.10560688654 0.27020456883 0.015458438729 0.027887314814
          0.015458438729 0.0020332948384 0.00023887773486 0.027887314814 0.00023887773486 0.27306783599
          0.27818378746 0.025794254897 0.034183729406 0.025794254897 0.015367730827 0.0093284991265
          0.034183729406 0.0093284991265 0.26188896649 0.2804302468 0.026973906215 0.022467132005
          0.026973906215 0.015546343474 0.0030777893563 0.022467132005 0.0030777893563 0.32297601689
          0.20388393918 0.034013999854 0.0069897439903 0.034013999854 0.016084567286 0.0030207933948
          0.0069897439903 0.0030207933948 0.32169506416 0.21182306564 0.02779832842 0.0050020941598
          0.02779832842 0.020000815737 0.0046402228229 0.0050020941598 0.0046402228229 0.32218848191
          0.21866003463 0.033498709796 0.011714280245 0.033498709796 0.024621402016 0.01010518692
          0.011714280245 0.01010518692 0.32864755648 0.15114806616 0.0042353280668 -0.0037437609773
          0.0042353280668 -0.073049278336 0.011108216709 -0.0037437609773 0.011108216709 -0.069655877652
          0.2272484319 0.0227564621 0.0017206236319 0.0227564621 0.021343784594 0.0093729685256
          0.0017206236319 0.0093729685256 0.27896126125 0.22301678976 0.027343695129 0.0061415860736
          0.027343695129 0.01816637161 0.0066297370391 0.0061415860736 0.0066297370391 0.27668159707
          0.20965404097 0.022588947958 0.019143311844 0.022588947958 0.016924977298 0.012398461157
          0.019143311844 0.012398461157 0.26692863499 0.12786160332 0.0053974960069 0.028089571504
          0.0053974960069 -0.045285736323 0.019127266626 0.028089571504 0.019127266626 -0.051383495577
          -0.064174867775 -0.071723767298 -0.012957213577 -0.071723767298 -0.029005316474 -0.017351356846
          -0.012957213577 -0.017351356846 0.040427740496 -0.0056408683891 -0.012311915327 -0.017321408212
          -0.012311915327 -0.0054957620713 -0.018635967278 -0.017321408212 -0.018635967278 0.040484294632
          -0.0105758516 -0.0081454110615 -0.032130313105 -0.0081454110615 0.017623888458 0.0029951284551
          -0.032130313105 0.0029951284551 -0.00082616813523 -0.035523699727 -0.0077054756292 -0.040402324792
          -0.0077054756292 0.015457051025 0.0033471052513 -0.040402324792 0.0033471052513 0.038328360493
          -0.063914980261 -0.011040508393 -0.017021157094 -0.011040508393 0.01510396111 0.0069246711864
          -0.017021157094 0.0069246711864 0.036935338453 -0.095611651016 0.0028110965935 -0.024185578333
          0.0028110965935 0.01380068857 0.012388265512 -0.024185578333 0.012388265512 0.036461554244
          -0.10353936359 -0.032318027318 -0.069840382304 -0.032318027318 0.017325757569 -0.00011723213968
          -0.069840382304 -0.00011723213968 -0.00016336520671 -0.063599430439 0.017992719863 0.05252273408
          0.017992719863 0.010215082734 0.021231643806 0.05252273408 0.021231643806 0.033037765081
          -0.060245687097 0.021628922597 0.039776405469 0.021628922597 0.014117632378 0.0080896859771
          0.039776405469 0.0080896859771 0.06996504423 -0.038877881785 0.010897464989 0.025723647271
          0.010897464989 0.017826421766 0.014186672193 0.025723647271 0.014186672193 0.078657919917
          -0.038782774545 0.010350543447 0.028405953825 0.010350543447 0.020653041549 0.0034618295545
          0.028405953825 0.0034618295545 0.08495037447 -0.044345655135 0.020086515114 0.012444544615
          0.020086515114 0.01689949913 0.011457804355 0.012444544615 0.011457804355 0.069076683422
          -0.059511637035 0.014177265613 0.0041619975469 0.014177265613 0.02090574504 0.0061525396964
          0.0041619975469 0.0061525396964 0.065237870227 -0.057525790741 0.0048899064903 0.05814899337
          0.0048899064903 0.020088013685 0.011813415806 0.05814899337 0.011813415806 0.037847547077
          0.3797180861 0.02033777369 0.016423085651 0.02033777369 -0.011583804565 0.020331623392
          0.016423085651 0.020331623392 0.34364028278 0.19221547567 -0.0023845204656 -0.018289482331
          -0.0023845204656 -0.042476023957 -0.0068862157479 -0.018289482331 -0.0068862157479 0.024034977265
          0.1755436307 0.0034604725407 -0.011676454841 0.0034604725407 -0.038078697513 0.0082703655803
          -0.011676454841 0.0082703655803 0.068782688388 0.17199441256 0.002841127641 -0.020539985497
          0.002841127641 -0.03725865312 0.003038741386 -0.020539985497 0.003038741386 0.061277880727
          0.16833857722 0.0069120762603 -0.014101806098 0.0069120762603 -0.041238881639 -0.0009230773979
          -0.014101806098 -0.0009230773979 0.068543818003 0.16742618608 0.00075741003308 -0.029362275328
          0.00075741003308 -0.038042241598 -0.0035647536212 -0.029362275328 -0.0035647536212 0.084111561178
          0.16696291424 0.0028319692784 -0.032429910011 0.0028319692784 -0.027452543172 -0.0058321537559
          -0.032429910011 -0.0058321537559 0.076683314481 0.18276415484 0.018513700965 -0.0093724461856
          0.018513700965 -0.030326524383 0.018950229599 -0.0093724461856 0.018950229599 0.11013353563
          0.19113945446 0.0062202887935 -0.011317259442 0.0062202887935 -0.034852612534 -0.0040368777045
          -0.011317259442 -0.0040368777045 0.080998144031 0.20425013932 0.0049125465347 -0.0093047969398
          0.0049125465347 -0.041592868805 0.005693708704 -0.0093047969398 0.005693708704 0.066951721179
          0.21369080105 0.0055812971382 -0.0037999744321 0.0055812971382 -0.047450294065 -0.010489369706
          -0.0037999744321 -0.010489369706 0.023645976182 0.21436898539 0.0021147103483 -0.0070077118731
          0.0021147103483 -0.044681825103 -0.00025247428876 -0.0070077118731 -0.00025247428876 0.036280528162
          0.085697945182 -0.018275987731 0.00087308889315 -0.018275987731 -0.045289298915 0.011655950693
          0.00087308889315 0.011655950693 -0.0088416509077 0.27403106064 0.017852714947 0.02366120495
          0.017852714947 -0.045133469255 0.018874060758 0.02366120495 0.018874060758 0.21850401734
          0.33230538703 0.015692521584 0.011599793252 0.015692521584 0.0050748339761 0.019315793041
          0.011599793252 0.019315793041 0.33689115858 0.21299802718 -0.00023660221213 -0.0058767828536
          -0.00023660221213 -0.048414514219 0.0021966745867 -0.0058767828536 0.0021966745867 0.036212881854
          0.20766402972 -0.0027938589966 -0.018700731134 -0.0027938589966 -0.062755680258 0.0004014369231
          -0.018700731134 0.0004014369231 0.032086378731 0.21303292545 0.0096504099418 0.021516919514
          0.0096504099418 0.021353451812 0.0027050955063 0.021516919514 0.0027050955063 0.31144684727
          0.2028125244 -0.0015990099494 0.019788482504 -0.0015990099494 0.015064987658 0.017946095223
          0.019788482504 0.017946095223 0.29851107553 0.26222839889 -0.0041519837458 0.011649506991
          -0.0041519837458 0.0093741439694 0.020366258242 0.011649506991 0.020366258242 0.29888695097
          0.15780225114 0.0042310657496 -0.0040800241584 0.0042310657496 -0.03349184039 -0.0099108250097
          -0.0040800241584 -0.0099108250097 0.056025936149 0.169722207 0.0025707608845 -0.021001493298
          0.0025707608845 -0.015564838074 0.00031750181242 -0.021001493298 0.00031750181242 0.13108456187
          0.15498082649 0.023901115282 -0.013581522549 0.023901115282 0.038299949487 0.010578356874
          -0.013581522549 0.010578356874 0.070314792714 0.1344606256 0.0049288651666 -0.016260531609
          0.0049288651666 -0.023921174988 -0.0025936625093 -0.016260531609 -0.0025936625093 0.074980629214
          0.12648000639 -0.006190350457 -0.027466681647 -0.006190350457 -0.0098541363886 -0.0087629237606
          -0.027466681647 -0.0087629237606 0.062262598989 0.12983063433 0.0049399230852 -0.030269179102
          0.0049399230852 -0.017572495567 -0.0055536648812 -0.030269179102 -0.0055536648812 0.061099955003
          0.11150730047 0.012475939 -0.027907521919 0.012475939 -0.014504815311 0.0067424108221
          -0.027907521919 0.0067424108221 0.089337921907 0.10544850651 0.0070998080381 -0.022903869935
          0.0070998080381 -0.0080757252082 0.0050267482842 -0.022903869935 0.0050267482842 0.088588909909
          0.13784869231 0.0088269544856 -0.036469252947 0.0088269544856 -0.010535806278 0.0018534940126
          -0.036469252947 0.0018534940126 0.091916309028 0.17134968789 0.0043613122534 -0.030768558682
          0.0043613122534 -0.013051543122 0.00044470647896 -0.030768558682 0.00044470647896 0.12327384679
          0.37847882543 0.021342679267 0.0093290032066 0.021342679267 -0.0092861878216 0.018874868974
          0.0093290032066 0.018874868974 0.35228746478 0.37981925839 0.020327421936 0.010085939766
          0.020327421936 -0.008499168879 0.018975624876 0.010085939766 0.018975624876 0.35128814776
          0.14151613696 -0.00047177002057 0.011951622342 -0.00047177002057 -0.031503412548 0.011814605291
          0.011951622342 0.011814605291 0.044446609812 0.17181792737 0.0091130186785 0.0045826125936
          0.0091130186785 -0.061323015509 -0.0066813045534 0.0045826125936 -0.0066813045534 -0.065108340524
          0.11878638133 0.0086334717282 -0.0069249051378 0.0086334717282 -0.037518627872 0.0055392522649
          -0.0069249051378 0.0055392522649 -0.047771911455 0.14712493432 -0.0077376466417 0.017626851888
          -0.0077376466417 -0.028457816195 0.017338138374 0.017626851888 0.017338138374 0.024151760976
          0.15682643533 0.00025978676467 -0.010730898381 0.00025978676467 -0.037951677307 0.0091604183566
          -0.010730898381 0.0091604183566 0.077670852641 -0.0087728735652 0.0046343108473 0.01154945293
          0.0046343108473 0.004304815971 -0.0033257759019 0.01154945293 -0.0033257759019 -0.0033348177721
          0.0549148356 0.0028592052188 -0.019726821192 0.0028592052188 -0.012590151884 0.0036130369043
          -0.019726821192 0.0036130369043 -0.030243007376 0.0015431036743 -0.0020770063599 0.010637200693
          -0.0020770063599 -0.0043656608787 0.0029674834436 0.010637200693 0.0029674834436 -0.005746142578
          -0.0089293414534 0.0066180052266 0.01537707178 0.0066180052266 0.011017926 0.0020655065523
          0.01537707178 0.0020655065523 -0.0057284951596 0.3802791235 0.014924164149 0.0050741764617
          0.014924164149 -0.0075621234044 0.020164754888 0.0050741764617 0.020164754888 0.34758805173
          0.38104407177 0.020511713775 0.0048540806548 0.020511713775 -0.015666482668 0.016328168855
          0.0048540806548 0.016328168855 0.34936910248 0.38085880154 0.023504045346 0.0070974540975
          0.023504045346 -0.019145396404 0.013844352031 0.0070974540975 0.013844352031 0.33823171439
          0.094151458872 -0.0022834446304 -0.011488302085 -0.0022834446304 -0.015285194269 -0.016945969479
          -0.011488302085 -0.016945969479 0.025454352357 0.093709046029 -0.0084788365755 -0.013842176096
          -0.0084788365755 -0.026851798921 -0.0022565133327 -0.013842176096 -0.0022565133327 0.043129903047
          0.09868432035 -0.0066759554216 -0.032953286758 -0.0066759554216 -0.020406837925 -0.0073837259065
          -0.032953286758 -0.0073837259065 0.026202071633 0.12728424614 -0.00060202830596 -0.021918386257
          -0.00060202830596 -0.021843334149 -0.0061084138216 -0.021918386257 -0.0061084138216 0.030041204456
          0.3724167075 0.0076468041727 0.014867057183 0.0076468041727 -0.040323065395 0.046899595052
          0.014867057183 0.046899595052 0.23959940075 0.37207516334 0.0077766239062 0.022754504513
          0.0077766239062 -0.039017798968 0.026885858233 0.022754504513 0.026885858233 0.27119156294
          0.083612423113 -0.0062347347988 -0.025212465077 -0.0062347347988 -0.0032236747901 -0.0087866930411
          -0.025212465077 -0.0087866930411 0.066507511288 0.084069819551 -0.0069249625356 -0.024361134806
          -0.0069249625356 -0.014959451555 -0.014927634301 -0.024361134806 -0.014927634301 0.066246349554
          0.23327384985 0.016679545453 -0.0055231545365 0.016679545453 -0.019758019256 0.010439126192
          -0.0055231545365 0.010439126192 0.20477404534 0.18151913288 0.0025375405607 -0.026691553548
          0.0025375405607 -0.023029491711 -0.001451178157 -0.026691553548 -0.001451178157 0.10638604883
          0.16117738198 0.0019291499414 -0.0075812777281 0.0019291499414 -0.050850401753 0.010542299856
          -0.0075812777281 0.010542299856 0.016365729776 0.38401471709 0.014545967953 0.0060316258874
          0.014545967953 -0.0082218738268 0.016395954576 0.0060316258874 0.016395954576 0.35732939471
          0.15639638202 0.0096494161788 -0.006254829275 0.0096494161788 -0.03413961979 0.011707973151
          -0.006254829275 0.011707973151 0.016372673218 0.38418630319 0.01373022403 0.0053722384435
          0.01373022403 -0.0067711679564 0.018402780963 0.0053722384435 0.018402780963 0.35933919472
          0.38511515086 0.014063476306 0.0053392940407 0.014063476306 -0.008647307567 0.018984297357
          0.0053392940407 0.018984297357 0.35916396035 0.37905277075 0.017122259707 0.0022779260681
          0.017122259707 -0.0094990350036 0.019027480383 0.0022779260681 0.019027480383 0.35234938348
          0.38552401922 0.015366872677 0.0033194114782 0.015366872677 -0.0090292454176 0.018745163248
          0.0033194114782 0.018745163248 0.35251699458 0.38265441411 0.018700278843 0.0051733851082
          0.018700278843 -0.0091085200424 0.017863078174 0.0051733851082 0.017863078174 0.35114964137
          0.38147490921 0.018218739582 0.0028534423953 0.018218739582 -0.0089474321451 0.018420839077
          0.0028534423953 0.018420839077 0.35291823633 0.37297861301 0.023848318495 0.017321162107
          0.023848318495 -0.017452547757 0.013187815035 0.017321162107 0.013187815035 0.33707170624
          0.38562731592 0.0067250167242 0.047886604201 0.0067250167242 -0.062332247984 0.01126686995
          0.047886604201 0.01126686995 0.18068046954 0.36604538781 0.049015818174 0.074729809158
          0.049015818174 -0.085803681491 -0.031744289942 0.074729809158 -0.031744289942 0.14718197697
          0.3824493919 0.046076386814 0.050992261803 0.046076386814 -0.097021907271 -0.014072894294
          0.050992261803 -0.014072894294 0.16620250643 0.36242629496 0.039894916475 0.014452933588
          0.039894916475 -0.083119900601 0.02197493186 0.014452933588 0.02197493186 0.24119989662
          0.3455550751 0.058529910302 0.016196613953 0.058529910302 -0.077550936647 -0.007673304086
          0.016196613953 -0.007673304086 0.27040636084 0.37994161728 0.014127475115 0.029363282741
          0.014127475115 -0.058728198209 0.0056580709836 0.029363282741 0.0056580709836 0.25155724447
          0.3769094076 0.02337973458 0.023919905099 0.02337973458 -0.073065218952 0.0091598096187
          0.023919905099 0.0091598096187 0.25415085661 -0.028695562602 0.0016455948264 -0.0092906680454
          0.0016455948264 0.018937091929 0.020504846431 -0.0092906680454 0.020504846431 0.10104480198
          0.019215033928 0.0063434125975 0.0087291000129 0.0063434125975 0.012004808791 0.0035142722938
          0.0087291000129 0.0035142722938 0.08558821658 0.077653387989 -0.013999560931 0.011143905082
          -0.013999560931 -0.029477835636 -0.0056001065206 0.011143905082 -0.0056001065206 -0.040597984723
          0.077720898396 0.0085800905053 -0.014840198466 0.0085800905053 -0.016573936022 -0.018519746991
          -0.014840198466 -0.018519746991 -0.027951697271 0.042596213292 0.0028366570613 -0.01718422774
          0.0028366570613 -0.013768456823 -0.025531722649 -0.01718422774 -0.025531722649 -0.016374081269
          0.19450234969 0.0033126019665 -0.027802492744 0.0033126019665 -0.029069397473 -0.0046308300545
          -0.027802492744 -0.0046308300545 0.11672149525 0.20319485346 0.0082040263976 -0.024519665973
          0.0082040263976 -0.027120312576 -0.0029540054393 -0.024519665973 -0.0029540054393 0.11792511844
          0.36903145831 0.024925080389 0.017058856006 0.024925080389 -0.019231191907 0.014163736453
          0.017058856006 0.014163736453 0.32700188338 0.3745918173 0.021298075237 0.018751216587
          0.021298075237 -0.018966067792 0.022044481193 0.018751216587 0.022044481193 0.33185388383
          0.15231377993 0.0042134400441 -0.03114246088 0.0042134400441 -0.012444876134 0.0015903052027
          -0.03114246088 0.0015903052027 0.11978218028 0.15282258256 -0.00058899030429 -0.025650387066
          -0.00058899030429 -0.0085321349832 -0.0013098374577 -0.025650387066 -0.0013098374577 0.12123835629
          0.16328833276 -0.0004699135721 -0.03060986397 -0.0004699135721 -0.0095282964192 -0.0017490706444
          -0.03060986397 -0.0017490706444 0.12344163276 0.1476614724 -0.0053082288733 -0.033905327118
          -0.0053082288733 -0.01257018302 0.00088842677818 -0.033905327118 0.00088842677818 0.12351597532
          0.37005862043 0.023002706672 0.019231203403 0.023002706672 -0.022498276912 0.020155448268
          0.019231203403 0.020155448268 0.31686174841 0.16332316648 -0.00051983250445 -0.030464929698
          -0.00051983250445 -0.01008379466 -0.0015676570397 -0.030464929698 -0.0015676570397 0.12380319885
          0.17068608799 0.0044376988262 -0.035674070333 0.0044376988262 -0.01878077119 0.0071158986449
          -0.035674070333 0.0071158986449 0.099685405078 0.1791541187 0.0048664286765 -0.028598671844
          0.0048664286765 -0.02137100573 -0.0013307845567 -0.028598671844 -0.0013307845567 0.12476274278
          0.18304732351 -0.00026915719429 -0.0047079336479 -0.00026915719429 -0.045609275601 -0.0033484094516
          -0.0047079336479 -0.0033484094516 0.035398060356 0.20409345713 -0.008691393339 -0.0001220396768
          -0.008691393339 -0.05511386266 -0.017116267744 -0.0001220396768 -0.017116267744 0.025337988081
          0.20316736494 0.0062008245972 -0.017816520173 0.0062008245972 -0.063551779567 -0.00095995523806
          -0.017816520173 -0.00095995523806 -0.00098001015712 0.20313421729 0.0091674702206 -0.0046812541384
          0.0091674702206 -0.058162898098 0.010031821938 -0.0046812541384 0.010031821938 -0.0086773160822
          0.1938827553 0.0089977916212 0.0044671979976 0.0089977916212 0.0057147640272 0.0047415950839
          0.0044671979976 0.0047415950839 0.22566172037 0.20166561719 -0.0013499707369 -0.020100556102
          -0.0013499707369 -0.04826122949 0.0085151099643 -0.020100556102 0.0085151099643 0.0037947784591
          0.14313555509 -0.0020419249977 -0.028258154437 -0.0020419249977 -0.03287664654 -0.0065697553273
          -0.028258154437 -0.0065697553273 0.02860991804 0.12771179294 -0.0018236153866 -0.0238676115
          -0.0018236153866 -0.026415271394 -0.0016352791507 -0.0238676115 -0.0016352791507 0.031222171657
          0.13835016046 -0.0081778374781 -0.012617702913 -0.0081778374781 -0.037723244031 -0.01137983342
          -0.012617702913 -0.01137983342 0.042512881151 0.13191894333 0.00012957236718 -0.0099501432374
          0.00012957236718 -0.031326541353 -0.015748011484 -0.0099501432374 -0.015748011484 0.004507449554
          0.38525624608 0.021308520258 0.0070930172143 0.021308520258 -0.019128181412 0.01524928516
          0.0070930172143 0.01524928516 0.34288449446 0.38379248652 0.02302687128 0.0076807752648
          0.02302687128 -0.013659353531 0.014684991635 0.0076807752648 0.014684991635 0.3426505965
          0.38488894702 0.020066807624 0.0050722645902 0.020066807624 -0.016991231236 0.013050871139
          0.0050722645902 0.013050871139 0.34299276931 0.38380593906 0.01948597462 0.0040235028068
          0.01948597462 -0.012583094246 0.017654485224 0.0040235028068 0.017654485224 0.34763191376
          0.37713950722 0.02082576334 0.0064160262085 0.02082576334 -0.012512853061 0.016829479484
          0.0064160262085 0.016829479484 0.3471221514 0.37660910961 0.020301148609 0.007473349136
          0.020301148609 -0.01097542693 0.01579434498 0.007473349136 0.01579434498 0.34712025992
          0.37385340945 0.019213988894 0.0091153092197 0.019213988894 -0.0092938194844 0.017875294975
          0.0091153092197 0.017875294975 0.3471151344 0.38136129111 0.020080555232 0.0033139930125
          0.020080555232 -0.0110913459 0.017221588645 0.0033139930125 0.017221588645 0.34765001668
          0.12424655128 -0.018467944785 -0.043374568488 -0.018467944785 0.0068394005669 -0.041547392963
          -0.043374568488 -0.041547392963 0.070816789402 0.35655238157 -0.0097319534638 0.0066931753325
          -0.0097319534638 -0.067348370838 0.020128532794 0.0066931753325 0.020128532794 0.16812990408
          0.36215901561 -0.0019811595822 0.019856352186 -0.0019811595822 -0.057881580287 0.040235651461
          0.019856352186 0.040235651461 0.1961117087 0.34583962528 0.0034616726245 0.013688533634
          0.0034616726245 -0.047932324323 0.020468366149 0.013688533634 0.020468366149 0.23426694201
          0.34095598785 -0.0041844393634 0.0067350844933 -0.0041844393634 -0.02566601261 0.0363279444
          0.0067350844933 0.0363279444 0.24526062871 0.30795895892 -0.0003317326045 0.018272651304
          -0.0003317326045 -0.034512064396 0.0048872076507 0.018272651304 0.0048872076507 0.22871223127
          0.11417489216 0.0029154318983 -0.0082323237 0.0029154318983 -0.050153385004 -0.014159489397
          -0.0082323237 -0.014159489397 -0.038794072085 0.14147761023 0.0098162625616 0.010437848579
          0.0098162625616 -0.049506582094 -0.0030506030228 0.010437848579 -0.0030506030228 -0.063234530617
          0.094481207368 0.0079868928386 0.010441284355 0.0079868928386 -0.048597901089 -0.012337029892
          0.010441284355 -0.012337029892 -0.041133085714 0.094421492691 -0.00015181724279 0.00039545545038
          -0.00015181724279 -0.033642217182 -0.0020210491833 0.00039545545038 -0.0020210491833 -0.038393425947
          0.09999503983 0.017413328985 -0.03557259059 0.017413328985 -0.028131748431 0.0047800556295
          -0.03557259059 0.0047800556295 0.030121191436 0.37726696754 0.019332201464 0.010345990585
          0.019332201464 -0.0094743373482 0.019675698636 0.010345990585 0.019675698636 0.35165776682
          0.37753082823 0.019371372259 0.011028915995 0.019371372259 -0.010251126405 0.019957978363
          0.011028915995 0.019957978363 0.35338350321 0.38046987222 0.018705929726 0.0086952805093
          0.018705929726 -0.010246508046 0.020243231364 0.0086952805093 0.020243231364 0.35483173697
          0.1111886185 -0.0090183018807 -0.0061365937989 -0.0090183018807 -0.030047795199 0.00015076628995
          -0.0061365937989 0.00015076628995 -0.022557867192 0.37991483424 0.018098025964 0.008491942736
          0.018098025964 -0.0099477841939 0.021409022249 0.008491942736 0.021409022249 0.35018145296
          0.045938746382 0.010243782897 -0.0066499187282 0.010243782897 -0.031471273101 0.00017818625484
          -0.0066499187282 0.00017818625484 0.0052977262189 0.38451854006 0.020595286884 0.0065085320452
          0.020595286884 -0.011917966587 0.018824564549 0.0065085320452 0.018824564549 0.35093272845
          0.37785184334 0.019117748459 0.0048438247802 0.019117748459 -0.0076426668914 0.020694099173
          0.0048438247802 0.020694099173 0.35635509157 0.37978758732 0.019602774634 0.004325816377
          0.019602774634 -0.0075327934809 0.020498246191 0.004325816377 0.020498246191 0.35611933763
          0.38043611945 0.017931890925 0.0099467030869 0.017931890925 -0.010041095257 0.02177502198
          0.0099467030869 0.02177502198 0.34953526631 0.18116458564 -0.00083780468539 0.0031017283609
          -0.00083780468539 -0.065164176788 0.0032902968575 0.0031017283609 0.0032902968575 -0.076818659064
          -0.073076815676 -0.0034760793336 -0.063536464345 -0.0034760793336 0.010202412657 -0.0058860960466
          -0.063536464345 -0.0058860960466 0.000303299547 -0.070336451526 0.00035983081817 -0.069346046925
          0.00035983081817 -1.0842021725e-19 7.0473141212e-18 -0.069346046925 7.0473141212e-18 -2.7755575616e-17
          -0.028910581458 -0.036199390318 0.046710672586 -0.036199390318 0.00010275559023 -0.0064719459652
          0.046710672586 -0.0064719459652 0.038880301634 -0.028995718658 -0.027388043345 0.045321952003
          -0.027388043345 0.012062675587 0.0059355105944 0.045321952003 0.0059355105944 0.034893343186
          -0.048998445302 -0.033893807425 -0.0072201885529 -0.033893807425 0.010055631264 -0.0074137152681
          -0.0072201885529 -0.0074137152681 0.025289567031 -0.054184701876 -0.017227654055 -0.022866302813
          -0.017227654055 0.01079710749 -0.0074440787239 -0.022866302813 -0.0074440787239 0.024701248648
          -0.050391745094 0.035403112801 -0.019515066615 0.035403112801 -0.025123882881 -0.00527839488
          -0.019515066615 -0.00527839488 0.025096807175 -0.0010921320223 -0.018941754811 0.024764699978
          -0.018941754811 0.0099306403195 0.0057678446401 0.024764699978 0.0057678446401 0.042219113673
          -0.0083091337519 -0.017849757115 0.0130474366 -0.017849757115 0.014422222387 -0.0020062312687
          0.0130474366 -0.0020062312687 0.042767855102 0.2007327831 0.00058962603594 -0.012916534218
          0.00058962603594 -0.051363659171 0.013187988606 -0.012916534218 0.013187988606 0.022065156412
          0.15941707719 0.0020145532605 -0.014568647066 0.0020145532605 -0.012729617362 -0.0024372461153
          -0.014568647066 -0.0024372461153 0.13497210574 0.16339497836 0.0051197543777 -0.017475266342
          0.0051197543777 -0.01525843621 -0.0017761937077 -0.017475266342 -0.0017761937077 0.13536260168
          0.17271930065 0.0024386363789 -0.015729622201 0.0024386363789 -0.014508700509 -0.0023927377647
          -0.015729622201 -0.0023927377647 0.13506972463 0.3737556326 0.018533394695 0.011594689702
          0.018533394695 -0.0093627945607 0.014844787877 0.011594689702 0.014844787877 0.34636543834
          0.37208320517 0.017973785853 0.0097714365061 0.017973785853 -0.0058350387187 0.017507628471
          0.0097714365061 0.017507628471 0.34726119454 0.37311382841 0.018872669929 0.0083396619198
          0.018872669929 -0.0086628777247 0.018803563603 0.0083396619198 0.018803563603 0.34745740933
          0.3744500465 0.020346986957 0.010161305749 0.020346986957 -0.011036834333 0.016366986279
          0.010161305749 0.016366986279 0.3449988067 0.37278801792 0.018722855201 0.0078791150993
          0.018722855201 -0.0077622546699 0.016658825533 0.0078791150993 0.016658825533 0.35066027503
          0.36978649672 0.019257924668 0.0097762915794 0.019257924668 -0.0060010362007 0.016532213515
          0.0097762915794 0.016532213515 0.3494852377 0.37071288209 0.019010482408 0.010445839395
          0.019010482408 -0.0065848501434 0.017247280311 0.010445839395 0.017247280311 0.34873964307
          0.37140327657 0.020545175715 0.0082105019079 0.020545175715 -0.005303290383 0.015615091455
          0.0082105019079 0.015615091455 0.35066970513 0.19650648925 0.0070432611322 -0.019058186815
          0.0070432611322 -0.02055146838 -0.0010984565512 -0.019058186815 -0.0010984565512 0.11492286782
          0.19521412479 0.002669377884 -0.016736390004 0.002669377884 -0.025918434324 -0.0018615889715
          -0.016736390004 -0.0018615889715 0.12494283209 0.11760505218 -0.011585726334 -0.020254627223
          -0.011585726334 -0.0032596606935 -0.0078569234374 -0.020254627223 -0.0078569234374 0.063900580349
          0.18708741393 0.00039816177243 -0.015446560694 0.00039816177243 -0.031610236682 0.0062980527805
          -0.015446560694 0.0062980527805 0.093727703694 0.26769761079 0.020297199092 -0.0094076084514
          0.020297199092 -0.054087663931 0.0016358087239 -0.0094076084514 0.0016358087239 0.080111018092
          0.032844657472 -0.0078394041794 0.0086568855626 -0.0078394041794 -0.00040139403262 0.011199265957
          0.0086568855626 0.011199265957 0.015779256069 0.035807318804 -0.014027001858 0.0025659098922
          -0.014027001858 0.0090033371811 0.01863082855 0.0025659098922 0.01863082855 0.020348945687
          -0.0038682707688 0.0037801903216 -0.0067449391901 0.0037801903216 0.0019492154649 0.018797095343
          -0.0067449391901 0.018797095343 0.035327537166 0.015516015103 -0.00012909288139 0.010174317397
          -0.00012909288139 0.00081631532558 0.0074871916141 0.010174317397 0.0074871916141 0.01763045649
          0.015978131601 0.00051062351267 0.0019017116307 0.00051062351267 0.0016902718671 -0.0052897599932
          0.0019017116307 -0.0052897599932 0.014560088588 -0.033963938658 -0.0029881606209 0.015855917284
          -0.0029881606209 0.0073241130362 0.017121867401 0.015855917284 0.017121867401 0.023056459296
          -0.030777805175 -0.00062570825332 0.0059271942264 -0.00062570825332 0.0078513011998 0.014577669976
          0.0059271942264 0.014577669976 0.035041743377 -0.043947098084 0.0015707534675 -0.0012970191867
          0.0015707534675 0.014242176038 0.0063677250872 -0.0012970191867 0.0063677250872 0.044196525284
          0.085657906431 -0.022191234897 -0.048331332298 -0.022191234897 -0.0040956540154 0.0055845664478
          -0.048331332298 0.0055845664478 -0.0052786065796 0.10703085996 -0.0086817016167 -0.0082167759775
          -0.0086817016167 -0.027139701369 -0.019466262224 -0.0082167759775 -0.019466262224 -0.010436981264
          -0.028263001247 0.0041920836261 0.00069892607367 0.0041920836261 0.010462165746 -0.0040572455597
          0.00069892607367 -0.0040572455597 0.027847208454 -0.092566365821 -0.0079323500581 0.0075654671215
          -0.0079323500581 0.023707132656 -0.0008617075535 0.0075654671215 -0.0008617075535 0.049674209625
          -0.09131480132 -0.0082630278302 0.010279283178 -0.0082630278302 0.010456670957 0.0037266445405
          0.010279283178 0.0037266445405 0.053448370311 -0.069548815607 -0.0071020435475 0.013032739188
          -0.0071020435475 0.020309226303 0.0045588287 0.013032739188 0.0045588287 0.043013621056
          -0.03395544925 0.0060320743051 0.010360685054 0.0060320743051 0.01583979388 -0.0063087261149
          0.010360685054 -0.0063087261149 0.032732755193 0.074762362064 -0.0027381527807 -0.017254987709
          -0.0027381527807 3.8554809941e-05 -0.0053397894279 -0.017254987709 -0.0053397894279 0.06966867082
          0.14914332264 0.015239064428 -0.0031766378434 0.015239064428 0.021504796516 0.024429280814
          -0.0031766378434 0.024429280814 0.21558350995 0.19338341186 0.02727846012 0.0053611867325
          0.02727846012 -0.011216870178 0.006506783281 0.0053611867325 0.006506783281 0.13837214168
          0.1512189951 0.0070003071615 -0.00078272511934 0.0070003071615 -0.0035128011003 0.030651708808
          -0.00078272511934 0.030651708808 0.17954700363 0.20416770192 0.016653495861 0.025400272171
          0.016653495861 -0.016472696661 0.015012441144 0.025400272171 0.015012441144 0.17104493196
          0.21673433592 -0.0063807106083 0.010380417915 -0.0063807106083 -0.0017113316184 0.028022396591
          0.010380417915 0.028022396591 0.18131808861 0.16206546827 0.0013829821219 0.010589640007
          0.0013829821219 -0.0043239061707 0.020110103974 0.010589640007 0.020110103974 0.14054188576
          0.16662124904 0.019002734801 -0.0086074196891 0.019002734801 0.015505662808 0.0026262424572
          -0.0086074196891 0.0026262424572 0.15474969582 0.14842948116 0.0097732721055 -0.013095658945
          0.0097732721055 -0.028396782783 -0.0016858457697 -0.013095658945 -0.0016858457697 0.033932128431
          0.15435347473 -0.00056033774991 -0.01510085727 -0.00056033774991 -0.038680215873 0.0026674268874
          -0.01510085727 0.0026674268874 0.034585011515 0.13810239748 -0.0039753742763 -0.020547763318
          -0.0039753742763 -0.031203376407 -0.010257304613 -0.020547763318 -0.010257304613 0.049694038324
          0.11707607478 -0.0058350524243 -0.027443235316 -0.0058350524243 -0.021066433372 0.0021297643415
          -0.027443235316 0.0021297643415 0.063830484756 0.12069920516 0.005179326799 -0.030206886093
          0.005179326799 -0.028938141285 -0.0014825491519 -0.030206886093 -0.0014825491519 0.065383919372
          0.11662093582 -0.0061910450038 -0.028690110366 -0.0061910450038 -0.010714378922 -0.002711582719
          -0.028690110366 -0.002711582719 0.061820625543 0.12368777453 0.0012758509297 0.011954094335
          0.0012758509297 -0.048581113511 -0.0031523109328 0.011954094335 -0.0031523109328 -0.061782661516
          0.24199988097 0.016020957521 0.02123622274 0.016020957521 0.0117636966 0.011152030967
          0.02123622274 0.011152030967 0.30984141291 0.087196829395 0.0016664049297 -0.013950614528
          0.0016664049297 -0.039239756246 0.0073232981078 -0.013950614528 0.0073232981078 -0.030943700546
          0.23891232827 0.027137907378 0.0098562224004 0.027137907378 0.026674690782 0.0048205896772
          0.0098562224004 0.0048205896772 0.31584941067 0.21544058843 0.020446174169 0.027124228684
          0.020446174169 0.039241758436 0.014531291293 0.027124228684 0.014531291293 0.30472898683
          0.21313806933 0.010507259107 0.026537456804 0.010507259107 0.00059713263631 0.014520592782
          0.026537456804 0.014520592782 0.26616310511 0.087778122084 -0.017689495078 -0.0089829688274
          -0.017689495078 -0.03702889014 -0.01678410599 -0.0089829688274 -0.01678410599 -0.0054746183724
          0.1097709489 0.0081337124955 0.0033306304908 0.0081337124955 -0.044886151372 -0.0048560620729
          0.0033306304908 -0.0048560620729 0.0012519827654 0.11664712505 0.0067647731176 -0.0040053585537
          0.0067647731176 -0.050078966546 -0.018230170003 -0.0040053585537 -0.018230170003 -0.031186965793
          0.14978506357 0.018697545453 -0.004521525098 0.018697545453 -0.061551018357 0.0044667463639
          -0.004521525098 0.0044667463639 -0.064384759619 0.38514483045 0.01395171244 0.0075345359185
          0.01395171244 -0.0078026042526 0.018338553025 0.0075345359185 0.018338553025 0.3639233322
          0.38186528533 0.013461586681 0.012144491084 0.013461586681 -0.0077554293879 0.018935664
          0.012144491084 0.018935664 0.35751330716 0.38548212018 0.013469581761 0.007401226161
          0.013469581761 -0.010229416989 0.017140315142 0.007401226161 0.017140315142 0.36335703534
          0.38160955655 0.011051825585 0.0083765553144 0.011051825585 -0.0064914219209 0.017259599603
          0.0083765553144 0.017259599603 0.36315708125 0.37414608881 0.011385853454 0.0089987074791
          0.011385853454 -0.00396887931 0.018889619538 0.0089987074791 0.018889619538 0.36418838061
          0.3739199579 0.010298551572 0.0084415760112 0.010298551572 -0.0023968993109 0.018470451779
          0.0084415760112 0.018470451779 0.36356664468 0.3757313287 0.010338684785 0.01195808424
          0.010338684785 -0.0064025973541 0.02029547401 0.01195808424 0.02029547401 0.36609929239
          0.37589868343 0.010741030376 0.01185457421 0.010741030376 -0.005892018555 0.018817551476
          0.01185457421 0.018817551476 0.36285579152 0.010983342198 0.00044571312639 0.014608035841
          0.00044571312639 -0.0013351116076 0.0068884556944 0.014608035841 0.0068884556944 0.048972230107
          0.070504041063 0.0012900924142 -0.00097984383722 0.0012900924142 -0.01335954595 -0.0091083956198
          -0.00097984383722 -0.0091083956198 0.023951762297 0.061766197607 -0.0015186113124 -0.017999284385
          -0.0015186113124 -0.013923897276 -0.015247984763 -0.017999284385 -0.015247984763 -0.0078768295996
          0.079040967245 0.0018388465362 -0.011074023281 0.0018388465362 -0.020512517536 0.0034348780715
          -0.011074023281 0.0034348780715 0.011676588878 0.1800706182 0.00074307871736 -0.0076028881689
          0.00074307871736 -0.054312102941 -0.01145911441 -0.0076028881689 -0.01145911441 -0.013845810346
          0.063519646904 -0.0036639594775 0.0017023512691 -0.0036639594775 -0.01653074177 -0.015111894521
          0.0017023512691 -0.015111894521 -0.0140404948 0.039749818776 -0.015578196252 -0.015795915516
          -0.015578196252 -0.011407672061 -0.0039146608567 -0.015795915516 -0.0039146608567 -0.0039635621326
          0.18042629831 0.0083212034334 -0.015624356637 0.0083212034334 -0.058652581483 -0.010677914901
          -0.015624356637 -0.010677914901 -0.0107241168 0.08585830103 0.0089105949338 -0.028109475388
          0.0089105949338 -0.013529872883 0.0029568876804 -0.028109475388 0.0029568876804 0.0048131823392
          0.35770477563 0.016314649151 0.013728145077 0.016314649151 -0.035735108187 0.027685200053
          0.013728145077 0.027685200053 0.26242696708 0.23552624238 0.023415983643 0.013071367075
          0.023415983643 -0.037569773868 0.0039886642985 0.013071367075 0.0039886642985 0.11539378781
          0.23267741495 0.016196666171 -0.0061230237777 0.016196666171 -0.037339069906 0.00083456930505
          -0.0061230237777 0.00083456930505 0.097757205285 0.2364621441 0.015619860828 -0.0037108820976
          0.015619860828 -0.046577627031 0.015297408424 -0.0037108820976 0.015297408424 0.075711927322
          0.37050200118 0.01142909984 0.018310243948 0.01142909984 -0.024651806884 0.016491161676
          0.018310243948 0.016491161676 0.29250521638 0.26577697148 0.026846560607 0.0080317942964
          0.026846560607 -0.044358889919 0.0080913953472 0.0080317942964 0.0080913953472 0.11318959472
          0.24319317218 0.021111424972 0.008575756326 0.021111424972 -0.051727030897 0.0089542098528
          0.008575756326 0.0089542098528 0.070320580025 0.24297489813 0.013985317699 0.0082735995162
          0.013985317699 -0.075880391266 0.012236503471 0.0082735995162 0.012236503471 0.070731300376
          0.37526685838 0.015415771742 0.0097719192072 0.015415771742 -0.041248976274 0.029676079245
          0.0097719192072 0.029676079245 0.29066861738 0.12128667572 0.016801429336 -0.019070941101
          0.016801429336 0.013642139174 -0.014952035084 -0.019070941101 -0.014952035084 0.10988197751
          0.14179673258 0.0050565336651 -0.022173436539 0.0050565336651 -0.047170826034 -0.0082296139844
          -0.022173436539 -0.0082296139844 -0.028047233017 0.18714695464 0.029568048586 0.00071303818263
          0.029568048586 -0.045899901671 -0.003912281185 0.00071303818263 -0.003912281185 0.0327133988
          0.19488981164 0.0014443283663 0.00095612325333 0.0014443283663 -0.041205682037 -0.001151371406
          0.00095612325333 -0.001151371406 0.032584789828 0.1962812185 0.0022979556298 -0.0018379151188
          0.0022979556298 -0.058566869285 0.013777216064 -0.0018379151188 0.013777216064 0.022708565237
          0.37112677652 0.025410116724 0.01474566282 0.025410116724 -0.012868173524 0.013781647613
          0.01474566282 0.013781647613 0.34670940257 0.3685933648 0.025832395973 0.011805689329
          0.025832395973 -0.0098889932567 0.018392098817 0.011805689329 0.018392098817 0.348864882
          0.36928352016 0.026985321751 0.017673642163 0.026985321751 -0.013838189245 0.012111686691
          0.017673642163 0.012111686691 0.34389979052 0.17005958477 0.014492466812 -0.0034976858498
          0.014492466812 -0.042411059658 0.011514722261 -0.0034976858498 0.011514722261 -0.019178652898
          0.1688591314 0.012812282743 0.0042883869527 0.012812282743 -0.039854139915 0.0034286709701
          0.0042883869527 0.0034286709701 0.0037398356065 0.16752494996 0.017023629332 0.0011776522066
          0.017023629332 -0.037374396316 0.02242230977 0.0011776522066 0.02242230977 0.0018235305575
          0.10759234934 0.016247026986 -0.012292212849 0.016247026986 -0.036865555292 0.018094744267
          -0.012292212849 0.018094744267 0.03203469727 0.15810551419 0.0090325453239 0.01066313545
          0.0090325453239 -0.037538212024 0.010535077018 0.01066313545 0.010535077018 0.031704884055
          0.10924957296 0.0098626771973 -0.0099487729027 0.0098626771973 -0.041849636763 0.00047169852815
          -0.0099487729027 0.00047169852815 0.032850963165 0.14562297543 -0.0047241149507 -0.0027414966386
          -0.0047241149507 -0.044341875211 0.0096528859782 -0.0027414966386 0.0096528859782 0.016810582622
          0.38170595456 0.023143545247 0.014871785553 0.023143545247 -0.012685171761 0.012875797433
          0.014871785553 0.012875797433 0.34423299097 0.23299643166 0.017739761865 0.014060396298
          0.017739761865 -0.032932330402 -0.0035011719792 0.014060396298 -0.0035011719792 0.13383176632
          0.37501583269 0.020330082009 0.011653462557 0.020330082009 -0.007492761513 0.018691188732
          0.011653462557 0.018691188732 0.35423077698 0.16323630233 0.0066597652838 -0.017090312767
          0.0066597652838 -0.055816440598 -0.0064521538885 -0.017090312767 -0.0064521538885 0.017881052676
          0.16245179205 0.0032529503745 -0.018969549506 0.0032529503745 -0.042370912515 0.0083315630123
          -0.018969549506 0.0083315630123 0.032021488813 0.30629365988 0.0056162989722 0.026441297396
          0.0056162989722 -0.0088848768646 0.014132024315 0.026441297396 0.014132024315 0.28137909127
          0.16134103328 0.0049623376111 -0.021965744333 0.0049623376111 -0.03901885451 7.0010560882e-05
          -0.021965744333 7.0010560882e-05 0.044686452409 0.15013754842 0.0046360203976 -0.0090040272795
          0.0046360203976 -0.038489510712 -0.0066177144441 -0.0090040272795 -0.0066177144441 0.039719401603
          0.16399429137 0.023205933749 -0.0078232564842 0.023205933749 0.0089074507901 0.00073341103357
          -0.0078232564842 0.00073341103357 0.15772187256 0.14524424319 0.0035693758629 -0.02972847046
          0.0035693758629 -0.036044498884 0.0069211454546 -0.02972847046 0.0069211454546 0.012479704623
          0.11813348592 -0.0025750634583 -0.0082832822991 -0.0025750634583 -0.033421270576 -0.00066186180065
          -0.0082832822991 -0.00066186180065 -0.043571220151 0.077996977477 -0.0081134613223 -0.0031770795026
          -0.0081134613223 -0.033259862988 -0.0040039210079 -0.0031770795026 -0.0040039210079 -0.026529996013
          0.067399971441 -0.0032662369604 0.0029309116193 -0.0032662369604 -0.0352720024 -0.0066764980548
          0.0029309116193 -0.0066764980548 -0.029978807014 0.11752252003 -0.00074815104016 0.0075416847837
          -0.00074815104016 -0.053180642864 -0.0043613612963 0.0075416847837 -0.0043613612963 -0.022689248247
          0.11586817606 0.0013786551953 0.0040018627178 0.0013786551953 -0.05591105241 0.00012459405013
          0.0040018627178 0.00012459405013 -0.029155193098 0.14173612929 0.0018079157642 -0.01364391633
          0.0018079157642 -0.055952649743 0.00098258908743 -0.01364391633 0.00098258908743 -0.044301183496
          0.1872829367 0.0018280434828 -0.01749539663 0.0018280434828 -0.022336288589 0.0014748563522
          -0.01749539663 0.0014748563522 0.12743379558 0.19119473151 0.0017277128811 -0.019245120864
          0.0017277128811 -0.022386811079 7.969208419e-05 -0.019245120864 7.969208419e-05 0.12782228634
          0.19410835965 0.00038215549714 -0.021147368971 0.00038215549714 -0.027852582427 -0.0030958240197
          -0.021147368971 -0.0030958240197 0.1008314779 0.12056144376 -0.0019676344163 -0.0083535358495
          -0.0019676344163 -0.045681527223 -0.021932370797 -0.0083535358495 -0.021932370797 -0.04604075992
          0.15356196546 -0.0047864666319 -0.00052050057437 -0.0047864666319 -0.058263956874 -0.0054072512175
          -0.00052050057437 -0.0054072512175 -0.067236617068 0.089144335785 0.004067124667 -0.011624232796
          0.004067124667 -0.028919280143 0.0064837299854 -0.011624232796 0.0064837299854 -0.0045189136874
          0.38396816386 0.019045784258 0.014854252648 0.019045784258 -0.018418346735 0.018575896022
          0.014854252648 0.018575896022 0.31988189207 0.10757737692 0.00019501255663 -0.006965394862
          0.00019501255663 -0.044055485539 -0.015567547044 -0.006965394862 -0.015567547044 -0.039312608195
          0.1081407561 0.0041404441984 -0.0012189306976 0.0041404441984 -0.048982184175 -0.0025022637681
          -0.0012189306976 -0.0025022637681 -0.0033864584897 0.11457781645 0.005757934202 -0.020084648217
          0.005757934202 -0.048803655771 -0.0019463589575 -0.020084648217 -0.0019463589575 -0.071179293846
          0.18077353389 0.0035646024157 -0.014661997491 0.0035646024157 -0.022722250124 0.0013665227739
          -0.014661997491 0.0013665227739 0.13162423488 0.11934128249 0.0011381325037 -0.010584823433
          0.0011381325037 -0.044560104816 -0.002851213929 -0.010584823433 -0.002851213929 -0.054932470991
          0.10831731952 0.000783625332 -0.00088900202433 0.000783625332 -0.04447615956 -0.0040413448361
          -0.00088900202433 -0.0040413448361 -0.039801064837 0.090045625542 0.0025444088302 -0.0059028714825
          0.0025444088302 -0.03522170066 0.0020283340321 -0.0059028714825 0.0020283340321 -0.037865292307
          0.097813856073 -0.003082910074 0.0031534577664 -0.003082910074 -0.043924811592 0.010074550115
          0.0031534577664 0.010074550115 -0.044002215872 0.19687067476 0.052408931423 0.0065130560954
          0.052408931423 -0.02486414806 -0.022744316366 0.0065130560954 -0.022744316366 0.11806275564
          0.22568017468 -0.0026572802559 0.021003111613 -0.0026572802559 -0.031474328437 0.0055577202707
          0.021003111613 0.0055577202707 0.097318261423 0.35615109037 0.021881736404 0.016876688341
          0.021881736404 -0.0043154351588 0.021609963766 0.016876688341 0.021609963766 0.34072608808
          0.19024814927 0.028966988573 0.046142326226 0.028966988573 -0.045818114218 -0.0047775246643
          0.046142326226 -0.0047775246643 0.0543254767 0.33643735371 0.017272153091 0.016633635848
          0.017272153091 -0.001698082847 0.019822250177 0.016633635848 0.019822250177 0.34153386143
          0.22145686135 -0.0019683713999 -0.0073411739677 -0.0019683713999 -0.041312396511 0.010956771927
          -0.0073411739677 0.010956771927 0.075366953205 0.21371968561 -0.003487523992 0.0034781452761
          -0.003487523992 -0.033395424141 0.0099370316786 0.0034781452761 0.0099370316786 0.061440962908
          0.21336782543 -0.004708580536 0.0087978230179 -0.004708580536 -0.031816079085 0.0035204948941
          0.0087978230179 0.0035204948941 0.087410626048 0.19194390836 0.012486303204 -0.0030546631155
          0.012486303204 -0.051304057547 0.001779002535 -0.0030546631155 0.001779002535 -0.038507258377
          0.3765708966 0.020291869964 0.010621679693 0.020291869964 -0.0081815272043 0.017849860786
          0.010621679693 0.017849860786 0.3538262931 0.22598591805 0.010880448469 -0.0019682757139
          0.010880448469 -0.082866281041 -0.020782341572 -0.0019682757139 -0.020782341572 0.053444276831
          0.24267104241 0.010049693326 -0.010391733715 0.010049693326 -0.058394378334 0.025368596189
          -0.010391733715 0.025368596189 0.047147766531 0.16648460972 0.0034137928564 -0.035121485836
          0.0034137928564 -0.013292401587 -0.0047431349018 -0.035121485836 -0.0047431349018 0.12017723462
          0.15457210012 0.0026987559669 -0.024912089793 0.0026987559669 -0.012625165978 -0.0057993547228
          -0.024912089793 -0.0057993547228 0.11535006569 0.28769781035 0.029637333234 0.043050868747
          0.029637333234 -0.05082517073 -0.020698288836 0.043050868747 -0.020698288836 0.22110042875
          0.18882575531 -0.0015574991424 -0.022231939254 -0.0015574991424 -0.024734852863 -0.0050554418941
          -0.022231939254 -0.0050554418941 0.11252708776 0.28420084055 0.036030093357 0.02131408773
          0.036030093357 -0.014577610994 -0.0071476135509 0.02131408773 -0.0071476135509 0.25764636121
          0.27642462959 0.025036133093 0.028119572036 0.025036133093 -0.028433445822 0.00039604906173
          0.028119572036 0.00039604906173 0.25424923126 0.25394729447 0.029129356618 0.046031051449
          0.029129356618 -0.026312802637 0.0041104938815 0.046031051449 0.0041104938815 0.25695688014
          0.26182644398 0.014521407883 0.037644678942 0.014521407883 -0.051810522748 0.00028641086802
          0.037644678942 0.00028641086802 0.25874572618 0.33253227954 -0.0042467164385 0.045839361905
          -0.0042467164385 -0.040399018178 0.00066950589305 0.045839361905 0.00066950589305 0.2565183292
          0.19549043609 0.034901347559 0.019498297887 0.034901347559 -0.012784124419 -0.0050586300538
          0.019498297887 -0.0050586300538 0.26007672029 0.19331840119 0.030981343954 0.021583044696
          0.030981343954 0.00061405501623 0.0076132524908 0.021583044696 0.0076132524908 0.26195296901
          0.22892483568 0.032402427666 0.018004160892 0.032402427666 -0.01265569902 0.0054678746336
          0.018004160892 0.0054678746336 0.26201177295 0.11716053595 0.0077993765214 -0.022327343494
          0.0077993765214 0.0034381823904 -0.0026663031303 -0.022327343494 -0.0026663031303 0.12345207159
          0.10938984703 0.019317392521 -0.015411134967 0.019317392521 -0.003993506235 0.0092437505705
          -0.015411134967 0.0092437505705 0.10575298506 0.079881736291 0.01605884927 -0.027086627485
          0.01605884927 0.0075768546135 0.0096562702592 -0.027086627485 0.0096562702592 0.10137609978
          0.079571011337 0.011275688655 -0.011053924927 0.011275688655 0.0080368206561 0.011659886132
          -0.011053924927 0.011659886132 0.082946049544 0.0046733154074 0.0096368898247 -0.023187194774
          0.0096368898247 0.0027080921589 0.002269290155 -0.023187194774 0.002269290155 0.096616669616
          0.16779582065 0.005490662437 -0.032357901524 0.005490662437 -0.017348776344 0.0019423618446
          -0.032357901524 0.0019423618446 0.12276904017 -0.034588614612 -0.0095570447486 -0.0052681331941
          -0.0095570447486 0.014282611989 -0.0061256878893 -0.0052681331941 -0.0061256878893 0.045758965775
          0.11349293733 0.0062687731136 0.0052042396006 0.0062687731136 -0.037921422827 0.014065917168
          0.0052042396006 0.014065917168 -0.0080840167079 0.0025297699499 -0.0030676182558 -0.011708989997
          -0.0030676182558 -0.0057957400162 -0.0079315681941 -0.011708989997 -0.0079315681941 0.018044937917
          -0.01277182914 -0.0030403199058 -0.0067274521303 -0.0030403199058 0.01854080728 0.0040381944667
          -0.0067274521303 0.0040381944667 0.038277924974 -0.084146993472 -0.0059494198476 -0.011493748186
          -0.0059494198476 0.027923143669 0.013290059125 -0.011493748186 0.013290059125 0.047351309092
          -0.078491040123 0.0060632375125 -0.016436702186 0.0060632375125 0.022503880567 -0.0094733616517
          -0.016436702186 -0.0094733616517 0.04680795213 0.19097928615 -0.0068503095852 -0.011879261856
          -0.0068503095852 -0.037775296302 -0.013177717614 -0.011879261856 -0.013177717614 0.071761858287
          0.17591341164 0.00526148839 -0.018890393077 0.00526148839 -0.056975118358 0.0025686442123
          -0.018890393077 0.0025686442123 0.0071135881842 0.1760407032 -0.0030064214325 -0.020408009458
          -0.0030064214325 -0.041778417455 -0.0022035918998 -0.020408009458 -0.0022035918998 0.0047400636494
          0.17602824469 -0.0038182375484 -0.01751414236 -0.0038182375484 -0.037682268663 -0.013814061744
          -0.01751414236 -0.013814061744 0.035622695606 0.17573541167 -0.0052395596286 -0.013764269734
          -0.0052395596286 -0.042096579009 -0.0064418660246 -0.013764269734 -0.0064418660246 0.034802034266
          0.16800622461 -0.0031550085626 -0.031451969318 -0.0031550085626 -0.041658202169 -0.010026723578
          -0.031451969318 -0.010026723578 0.064094159564 0.33773401153 0.013912336196 0.010673450603
          0.013912336196 0.0080084544172 0.027072783822 0.010673450603 0.027072783822 0.35486122015
          0.35026400639 0.01600409592 0.016081348098 0.01600409592 -0.0030977869168 0.020950915639
          0.016081348098 0.020950915639 0.33932170591 0.29684783643 0.019081239456 0.031829621188
          0.019081239456 -0.012136870153 0.0052597710273 0.031829621188 0.0052597710273 0.23260389513
          0.31477858218 0.015889832616 0.01909732943 0.015889832616 -0.02521239505 0.03300972502
          0.01909732943 0.03300972502 0.19404552636 0.32202035027 0.016245837911 0.017539212834
          0.016245837911 -0.037766186314 0.022741626693 0.017539212834 0.022741626693 0.18611855271
          0.32345575273 0.016175518437 0.026676105548 0.016175518437 -0.039265796751 0.013968129161
          0.026676105548 0.013968129161 0.19815876108 0.32539965586 0.014710511166 0.017714664516
          0.014710511166 -0.040041099947 0.018037411499 0.017714664516 0.018037411499 0.2356369021
          0.34371901108 0.00054674182856 0.0120619157 0.00054674182856 -0.0031681620013 0.018093978105
          0.0120619157 0.018093978105 0.34811349694 0.29574872481 0.0031344054983 0.012240644431
          0.0031344054983 0.010735333749 0.012648453906 0.012240644431 0.012648453906 0.34967102655
          0.36192711516 0.024414773273 0.020675054152 0.024414773273 -0.055640540898 0.058684753414
          0.020675054152 0.058684753414 0.21174329893 0.37698074546 0.06890575039 0.028482248976
          0.06890575039 -0.1174545027 -0.0071958662872 0.028482248976 -0.0071958662872 0.17485766786
          0.25293533757 0.027256573808 0.050163188234 0.027256573808 -0.046699546746 0.011259015901
          0.050163188234 0.011259015901 0.16617180839 0.11328808754 -0.0010833360813 -0.039444501395
          -0.0010833360813 0.0099962093502 0.0025317402332 -0.039444501395 0.0025317402332 0.16250888554
          0.14941284851 0.0085039480114 -0.0019822428835 0.0085039480114 -0.048981803176 5.6895591069e-05
          -0.0019822428835 5.6895591069e-05 -0.03528740078 0.14841576168 0.0089297487703 0.0013953405528
          0.0089297487703 -0.03678486344 0.0005707093671 0.0013953405528 0.0005707093671 -0.046419668068
          0.19685781776 0.0035936108533 -0.0065712446215 0.0035936108533 -0.064959841712 0.0064216957939
          -0.0065712446215 0.0064216957939 -0.057171679608 0.061861953611 0.0084093840393 -0.0089523071059
          0.0084093840393 0.0039570061719 0.00578013209 -0.0089523071059 0.00578013209 0.011139346284
          0.056408795185 0.016728353928 -0.003017307909 0.016728353928 -0.0048576478586 0.0098710175458
          -0.003017307909 0.0098710175458 0.049256762241 0.042681563214 0.0046850489634 0.0016523901021
          0.0046850489634 -0.0096782656273 0.016875909735 0.0016523901021 0.016875909735 0.049140149318
          0.022603853425 0.005668405165 0.00051903736901 0.005668405165 0.0010975779658 0.0034102016255
          0.00051903736901 0.0034102016255 0.065966713605 0.012608550231 0.0074625250182 0.0049481388272
          0.0074625250182 0.0085448995905 -0.0083213595571 0.0049481388272 -0.0083213595571 0.079398959065
          0.014267860116 0.0066171392257 0.0022047253248 0.0066171392257 0.0089106921586 -0.0078745817612
          0.0022047253248 -0.0078745817612 0.070004497746 -0.011298767654 -0.0042725281022 -0.010051912496
          -0.0042725281022 0.021821179331 0.0082561349211 -0.010051912496 0.0082561349211 0.090106275399
          -0.011995432842 0.0070037705371 -0.0030491780907 0.0070037705371 0.030881345049 0.010000183015
          -0.0030491780907 0.010000183015 0.088856985622 -0.0024514958609 -0.0048426152015 0.0095821762406
          -0.0048426152015 0.017792796697 0.013864541214 0.0095821762406 0.013864541214 0.091832546722
          0.011915133573 -0.00011588547629 0.0018507670031 -0.00011588547629 0.010628051632 0.012519539226
          0.0018507670031 0.012519539226 0.09582842904 0.080378928009 0.024162444173 -0.012599814658
          0.024162444173 0.0069287535083 -0.0035556208305 -0.012599814658 -0.0035556208305 0.069526116228
          0.086688932234 0.028157219578 -0.0016242937456 0.028157219578 0.0092581230661 0.0052077712071
          -0.0016242937456 0.0052077712071 0.072119187691 0.075227629118 0.0046660604706 0.0033169081467
          0.0046660604706 -0.0088601614793 -0.0035329561909 0.0033169081467 -0.0035329561909 0.081844362235
          0.047092054811 0.014088524926 -0.023276986246 0.014088524926 -0.010914696219 0.005841651384
          -0.023276986246 0.005841651384 0.056906981136 0.11184423477 -0.0044188146806 -0.01346487626
          -0.0044188146806 -0.015387037297 0.011565413557 -0.01346487626 0.011565413557 0.050943489973
          0.10522294637 0.0098118198627 -0.012398610022 0.0098118198627 -0.010242291812 0.016163858332
          -0.012398610022 0.016163858332 0.052100467536 0.095122303152 0.014699624436 -0.0021748439143
          0.014699624436 -0.012030924928 0.007623436565 -0.0021748439143 0.007623436565 0.064140808128
          0.26535785319 -0.056811166839 0.080081123464 -0.056811166839 -0.12943944588 -0.028349965723
          0.080081123464 -0.028349965723 0.20258189222 0.26990559622 0.075870585872 0.080805975287
          0.075870585872 -0.11226821377 -0.0088394374231 0.080805975287 -0.0088394374231 0.20410451066
          0.20701902087 0.016217795316 0.075933740367 0.016217795316 -0.11369854159 -0.0096456003667
          0.075933740367 -0.0096456003667 0.20399097873 0.27296150814 -0.073730484096 0.070576656066
          -0.073730484096 -0.13989713215 -0.032184543143 0.070576656066 -0.032184543143 0.20148730005
          0.41059843159 0.11535637449 0.10804807655 0.11535637449 -0.11710500446 0.034975303971
          0.10804807655 0.034975303971 0.21065116901 0.18349664428 0.0081356387779 -0.010692425401
          0.0081356387779 -0.018797285825 0.003697865398 -0.010692425401 0.003697865398 0.067402678183
          0.33472471271 0.0079929994996 0.012758351947 0.0079929994996 0.0064648872696 0.019935382581
          0.012758351947 0.019935382581 0.33667466739 0.34940587414 0.013199909778 0.017527732359
          0.013199909778 0.00012618908857 0.01689740877 0.017527732359 0.01689740877 0.35046262015
          0.35192430624 0.015884698927 0.010613315789 0.015884698927 0.0018159754593 0.012263439242
          0.010613315789 0.012263439242 0.3630555767 0.16291578755 -0.0024838747887 -0.020508274737
          -0.0024838747887 -0.041925601236 0.001114138187 -0.020508274737 0.001114138187 0.029684714852
          0.16650409945 0.0017811904069 -0.008542557971 0.0017811904069 -0.044331930518 0.00043047586713
          -0.008542557971 0.00043047586713 0.053653834029 0.057940358474 -0.0025985328692 -0.028613340429
          -0.0025985328692 -0.0039242102698 -0.014412550557 -0.028613340429 -0.014412550557 0.060395066237
          0.37839018241 0.023906022899 0.0048196383689 0.023906022899 -0.0067847151262 0.019665568929
          0.0048196383689 0.019665568929 0.35413492564 0.057207803286 0.0023900008835 -0.023127904951
          0.0023900008835 0.0043594098134 0.0043221329263 -0.023127904951 0.0043221329263 0.093773537592
          0.26629774152 0.0010053254724 0.030161255649 0.0010053254724 -0.006920354855 0.020548172105
          0.030161255649 0.020548172105 0.25575692739 0.26209612202 0.010024098613 0.045131756558
          0.010024098613 -0.013047609418 0.0073240075212 0.045131756558 0.0073240075212 0.22944202289
          0.26123345864 0.017612384878 0.043917400472 0.017612384878 -0.037912983338 0.038512199232
          0.043917400472 0.038512199232 0.23777246433 0.32740941534 0.02125613476 0.021224186964
          0.02125613476 -0.038187017185 0.03627895833 0.021224186964 0.03627895833 0.24351576911
          0.32498468529 0.01511660533 0.016627107128 0.01511660533 -0.035843100614 0.01201912309
          0.016627107128 0.01201912309 0.24370251887 0.29263102598 0.0091847855208 0.040445003427
          0.0091847855208 -0.021545864749 0.012532096647 0.040445003427 0.012532096647 0.22713381314
          0.32812985453 0.011497879201 0.027927178052 0.011497879201 -0.035270308117 0.0099169285412
          0.027927178052 0.0099169285412 0.25121871688 0.12989677909 0.013591887778 -0.027377092878
          0.013591887778 0.013597105738 0.01108008325 -0.027377092878 0.01108008325 0.09657265457
          0.33083760318 0.016710861359 0.032294964019 0.016710861359 -0.032612130796 0.025107378119
          0.032294964019 0.025107378119 0.2520308606 0.33244344984 0.024685479734 0.023582947607
          0.024685479734 -0.020184703252 0.0093349566927 0.023582947607 0.0093349566927 0.27148318999
          0.30157814726 0.0089976071943 0.052453558041 0.0089976071943 -0.024624171581 0.021728869198
          0.052453558041 0.021728869198 0.24594940737 0.30182264905 0.025236984953 0.029279856161
          0.025236984953 -0.026296359217 0.014849079499 0.029279856161 0.014849079499 0.26891009696
          0.13631519831 0.00056866544037 -0.0092381663019 0.00056866544037 -0.040545371602 -0.013821845906
          -0.0092381663019 -0.013821845906 0.028034983544 0.34603319421 0.036136204639 0.014472237473
          0.036136204639 -0.00067587209831 0.012635804058 0.014472237473 0.012635804058 0.360903664
          0.33236807345 0.04204082894 0.011582744148 0.04204082894 0.0016518308493 0.013247704408
          0.011582744148 0.013247704408 0.36037574977 0.13760422058 0.0011941809676 -0.0054294321545
          0.0011941809676 -0.041263890135 -0.0050454048397 -0.0054294321545 -0.0050454048397 -0.0076751919052
          0.33180674752 0.031888619398 0.0096286406536 0.031888619398 0.010906076876 0.012706487941
          0.0096286406536 0.012706487941 0.35985251064 0.34554792491 0.029673087908 0.012608107746
          0.029673087908 0.006700047167 0.0096653246569 0.012608107746 0.0096653246569 0.3590615015
          0.34774977721 0.028238776848 0.015449882933 0.028238776848 0.0022888454338 0.014282176757
          0.015449882933 0.014282176757 0.35490296852 0.30912586299 -0.0042606198601 0.005233093906
          -0.0042606198601 0.013130537599 0.017280359201 0.005233093906 0.017280359201 0.34907492648
          0.37416742242 0.019428293592 0.0071474836191 0.019428293592 -0.0085168226184 0.017619338216
          0.0071474836191 0.017619338216 0.35038978263 0.27225153179 -0.0033781225356 0.0088410210353
          -0.0033781225356 0.010110036359 0.019418845757 0.0088410210353 0.019418845757 0.30664346711
          0.22793945699 0.017277308266 0.022807015922 0.017277308266 0.0023566558834 0.018044790719
          0.022807015922 0.018044790719 0.31631136937 0.33507751172 0.014248777951 0.036940206069
          0.014248777951 -0.018030621288 0.0089560023091 0.036940206069 0.0089560023091 0.30054726524
          0.33946425766 0.001294543151 0.035393306745 0.001294543151 -0.018244059433 0.031725563186
          0.035393306745 0.031725563186 0.29248048734 0.14959048715 0.0062318331355 -0.010685888018
          0.0062318331355 -0.0054028591404 -0.0057243680129 -0.010685888018 -0.0057243680129 0.13754834073
          0.15265997002 0.0053063092386 -0.017215070645 0.0053063092386 -0.0053768070046 -0.0017803220623
          -0.017215070645 -0.0017803220623 0.13601494333 0.14784354345 0.0060222540309 -0.018779090562
          0.0060222540309 0.0050276140233 -0.001133152638 -0.018779090562 -0.001133152638 0.13552342555
          0.31245924692 -0.0051408779731 0.008083792928 -0.0051408779731 -0.040035703863 0.028847828178
          0.008083792928 0.028847828178 0.16922913905 0.31159048333 -0.0012808872212 0.0090578940788
          -0.0012808872212 -0.056496892737 0.023638976677 0.0090578940788 0.023638976677 0.16926288523
          0.14794579636 0.0057285391943 -0.017625366853 0.0057285391943 -0.0041950782608 -0.0032032425649
          -0.017625366853 -0.0032032425649 0.13078277268 0.31366519973 -0.0015889093551 0.0081709176161
          -0.0015889093551 -0.048049385784 0.025521133647 0.0081709176161 0.025521133647 0.16526138478
          0.31276264437 -0.0025941845335 0.010419631167 -0.0025941845335 -0.035505935231 0.026942950721
          0.010419631167 0.026942950721 0.15974453794 0.15584917722 0.0019406711233 -0.021019538383
          0.0019406711233 -0.0087937605186 -0.0025087681261 -0.021019538383 -0.0025087681261 0.13732473049
          0.15647001273 -0.010229358941 -0.011962837445 -0.010229358941 -0.002492107672 -0.005069958834
          -0.011962837445 -0.005069958834 0.13762731807 0.14384158827 0.0053474343295 -0.017258819401
          0.0053474343295 -0.0027074891733 -0.0066940832118 -0.017258819401 -0.0066940832118 0.1389082396
          0.34633808344 0.017376876697 0.018526328186 0.017376876697 -0.01412333859 0.015919859705
          0.018526328186 0.015919859705 0.28097888769 0.35523130111 0.014390909138 0.0094861122449
          0.014390909138 0.0020455026057 0.013144087915 0.0094861122449 0.013144087915 0.35910017877
          0.35438473557 0.013841602817 0.010862008714 0.013841602817 0.0023305956038 0.016347163904
          0.010862008714 0.016347163904 0.36518410086 0.35750229624 0.017275552232 0.0098546630674
          0.017275552232 0.0017311231406 0.011433155016 0.0098546630674 0.011433155016 0.36220654391
          0.35453880598 0.016124301948 0.013316312358 0.016124301948 0.0019456600846 0.013036081677
          0.013316312358 0.013036081677 0.35826369919 0.30344684511 0.011472540034 0.0058783835006
          0.011472540034 0.0035261453363 0.020367511944 0.0058783835006 0.020367511944 0.2990448499
          0.35741102559 0.017301129537 0.010274822279 0.017301129537 0.0061558366067 0.01176261801
          0.010274822279 0.01176261801 0.36031749124 0.35561475254 0.017879445566 0.0072393527786
          0.017879445566 0.0060424803882 0.012031718458 0.0072393527786 0.012031718458 0.36207364933
          0.36720379169 0.019697306934 0.014320131482 0.019697306934 -0.0076809133718 0.013848324918
          0.014320131482 0.013848324918 0.36949906248 0.37398576637 0.02456486715 0.013508476109
          0.02456486715 -0.0080081248633 0.01840789015 0.013508476109 0.01840789015 0.35357859493
          0.17338585885 -0.0060588039323 -0.018936772933 -0.0060588039323 -0.014957880708 -0.0013626265533
          -0.018936772933 -0.0013626265533 0.1375578285 0.17638352812 0.00035444493569 -0.015384354458
          0.00035444493569 -0.010193567415 -0.00075928872521 -0.015384354458 -0.00075928872521 0.13630171077
          0.16598688892 -0.0010166210178 -0.028655577596 -0.0010166210178 -0.010374370594 -0.0025019093792
          -0.028655577596 -0.0025019093792 0.12708227014 0.16266477221 -0.0026258835391 -0.015848180609
          -0.0026258835391 -0.010326528428 -0.0013889639057 -0.015848180609 -0.0013889639057 0.13682975549
          0.16085849005 -0.0068368735641 -0.013483517477 -0.0068368735641 -0.010105754518 0.001249325384
          -0.013483517477 0.001249325384 0.13455723027 0.15058294127 0.0097106989929 -0.0096211679991
          0.0097106989929 -0.014268508329 -0.0016346762423 -0.0096211679991 -0.0016346762423 0.13066490649
          0.14387747099 -0.0011690544491 -0.028516127049 -0.0011690544491 -0.0052312360465 0.007068708921
          -0.028516127049 0.007068708921 0.13546912924 0.16173048365 -0.0046174209023 -0.01121333677
          -0.0046174209023 -0.0051397624544 0.00022411177524 -0.01121333677 0.00022411177524 0.13088851946
          0.22087354552 -0.0050472756177 0.0037484462862 -0.0050472756177 -0.07135898692 0.012525824469
          0.0037484462862 0.012525824469 -0.035795476897 0.22204143414 -0.0063844098912 0.0024785836136
          -0.0063844098912 -0.072872428825 0.016297259895 0.0024785836136 0.016297259895 -0.036179000772
          0.19424657275 -0.0074168987663 -0.0057995227232 -0.0074168987663 -0.07290990134 0.015753877596
          -0.0057995227232 0.015753877596 0.024502187786 0.17429413903 -0.0034109346101 0.0083931207988
          -0.0034109346101 -0.068872507236 0.0049670321037 0.0083931207988 0.0049670321037 -0.01475861342
          0.17429866191 -0.0037592453905 0.0083553479751 -0.0037592453905 -0.044921104557 0.013400218285
          0.0083553479751 0.013400218285 -0.025068079646 0.16517316805 -0.011891285703 0.012944866123
          -0.011891285703 -0.051592124594 0.019187887078 0.012944866123 0.019187887078 -0.022369531407
          0.062139054559 0.0005494118457 -0.0080630725604 0.0005494118457 -0.012039534342 0.0022135526307
          -0.0080630725604 0.0022135526307 0.055021976167 0.062742130474 -0.016985214674 0.010981430277
          -0.016985214674 -0.0056538088827 -0.015101867271 0.010981430277 -0.015101867271 0.084888007079
          0.080752426539 0.010262780931 -0.029420641218 0.010262780931 -0.013372530837 0.003058154874
          -0.029420641218 0.003058154874 0.0045938567121 0.10555237898 0.0093988602661 -0.020244234531
          0.0093988602661 -0.011499239593 -0.0040392137182 -0.020244234531 -0.0040392137182 0.047193397064
          0.11539146891 0.011360616235 -0.012564778977 0.011360616235 -0.011429063963 -0.0050253434202
          -0.012564778977 -0.0050253434202 0.033444570666 0.37949174933 0.022605739505 0.011024006609
          0.022605739505 -0.010377582703 0.016708596289 0.011024006609 0.016708596289 0.34760352072
          0.37719982136 0.021393706032 0.010091816098 0.021393706032 -0.0083156638709 0.019308670303
          0.010091816098 0.019308670303 0.35076390279 0.382916867 0.024130931433 0.010004322041
          0.024130931433 -0.010376361836 0.018415395662 0.010004322041 0.018415395662 0.35055023023
          0.3794421207 0.021540245018 0.0095498407323 0.021540245018 -0.011435350649 0.018159830007
          0.0095498407323 0.018159830007 0.35049873546 0.37566917144 0.029361710825 0.0098952365484
          0.029361710825 -0.012308836591 0.014742621048 0.0098952365484 0.014742621048 0.35094274148
          0.36476750689 0.024542600022 0.012419846933 0.024542600022 -0.010058138036 0.017793027958
          0.012419846933 0.017793027958 0.35121220883 0.373998052 0.024446230433 0.012561651575
          0.024446230433 -0.010257422487 0.01571655527 0.012561651575 0.01571655527 0.349546223
          0.37435475155 0.024245330047 0.014115617907 0.024245330047 -0.010413488518 0.016533627377
          0.014115617907 0.016533627377 0.34567832906 0.19113557921 -0.00164942544 -0.018418998832
          -0.00164942544 -0.023291524858 0.0012315753331 -0.018418998832 0.0012315753331 0.13036929385
          0.19180767861 -0.0037303827613 -0.017338913913 -0.0037303827613 -0.017092425068 -0.003024718319
          -0.017338913913 -0.003024718319 0.12869484944 0.18833786594 -0.0023745132692 -0.021131692912
          -0.0023745132692 -0.016871135432 0.00098282155094 -0.021131692912 0.00098282155094 0.13304044203
          0.17770308563 -0.0049032315751 -0.017914802653 -0.0049032315751 -0.0073047375309 0.0013127717433
          -0.017914802653 0.0013127717433 0.13208597897 0.17861481523 -0.0068716261121 -0.020496199254
          -0.0068716261121 -0.015931946517 -0.00053681978961 -0.020496199254 -0.00053681978961 0.13511598123
          0.19131194184 -0.0028560652767 -0.025175654089 -0.0028560652767 -0.02223120119 -0.0014406227362
          -0.025175654089 -0.0014406227362 0.13679671907 0.19099047889 0.00086865785832 -0.021332794366
          0.00086865785832 -0.022777473923 -0.00027927672847 -0.021332794366 -0.00027927672847 0.12845163342
          0.19230712355 0.0012126272285 -0.019280524626 0.0012126272285 -0.024221565593 0.0017979957824
          -0.019280524626 0.0017979957824 0.13010220311 0.37601880079 0.020215725299 0.013374542914
          0.020215725299 -0.011583470962 0.020266412949 0.013374542914 0.020266412949 0.34141490079
          0.11635476081 0.00016797747113 -0.03698233698 0.00016797747113 0.015688644235 -0.00620732079
          -0.03698233698 -0.00620732079 0.10771451173 0.10258239406 0.012785786344 -0.046274042708
          0.012785786344 0.0093745406129 -0.0013650821476 -0.046274042708 -0.0013650821476 0.14751203943
          0.37236658694 0.018997552559 0.014739425988 0.018997552559 -0.01131670803 0.021692252642
          0.014739425988 0.021692252642 0.34230443973 0.37811306774 0.017378490736 0.0060954799624
          0.017378490736 -0.0033391891227 0.020162334539 0.0060954799624 0.020162334539 0.36144290206
          0.37980387761 0.019530930762 0.0057819890912 0.019530930762 -0.0068107722887 0.020091025225
          0.0057819890912 0.020091025225 0.36148373048 0.092858123517 0.011121498241 -0.032750906714
          0.011121498241 0.016358452615 -0.0067107039453 -0.032750906714 -0.0067107039453 0.13677845185
          0.37825048362 0.018748633159 0.0060120897687 0.018748633159 -0.0073445937299 0.019463486098
          0.0060120897687 0.019463486098 0.35927170483 0.3799387944 0.019275009269 0.004974096226
          0.019275009269 -0.0071819053909 0.01910192088 0.004974096226 0.01910192088 0.35889852823
          0.3774467035 0.019491280279 0.0095693255143 0.019491280279 -0.0089127708553 0.019848915032
          0.0095693255143 0.019848915032 0.35421247916 -0.0018426578894 -0.0099717225274 -0.0077630341963
          -0.0099717225274 0.013421179712 -0.011213446614 -0.0077630341963 -0.011213446614 0.057678812077
          0.035203084541 -0.010627420045 -0.013354640212 -0.010627420045 0.0038805712889 -0.0040197551398
          -0.013354640212 -0.0040197551398 0.053253330076 -0.013862666716 -0.0079736809413 0.016192891187
          -0.0079736809413 0.01121780337 -0.00075786712157 0.016192891187 -0.00075786712157 0.075446829829
          0.011399622724 -0.012812256477 -0.0078970289475 -0.012812256477 0.010060699969 0.0076113795652
          -0.0078970289475 0.0076113795652 0.091651673241 0.022041740092 -0.010871037339 -0.024186904543
          -0.010871037339 0.010035307146 -0.0091501917682 -0.024186904543 -0.0091501917682 0.044291583936
          0.19507546003 -0.00084566645122 -0.016969351651 -0.00084566645122 -0.022075298981 -0.008732476573
          -0.016969351651 -0.008732476573 0.091815720165 0.38447286022 0.021135159118 0.011969370513
          0.021135159118 -0.0099386205826 0.021637402233 0.011969370513 0.021637402233 0.35276579489
          0.28821473263 0.028734074541 0.011466975273 0.028734074541 0.0030231457853 0.021190887109
          0.011466975273 0.021190887109 0.3070725546 0.17648376134 0.003038126009 -0.022067369084
          0.003038126009 -0.014554320026 -0.005099118126 -0.022067369084 -0.005099118126 0.13166980698
          0.10248796303 -0.010588025075 -0.021592852941 -0.010588025075 -0.0014302057436 -0.0053405882577
          -0.021592852941 -0.0053405882577 0.11499102789 0.1089631166 -0.0052893195125 -0.0059324182536
          -0.0052893195125 0.0011995946899 -0.0036973860573 -0.0059324182536 -0.0036973860573 0.079714321234
          0.38865309335 0.0092154170369 0.017147112312 0.0092154170369 -0.033265627464 0.022541110297
          0.017147112312 0.022541110297 0.27538156103 0.12122421111 -0.0077527123245 -0.017778868955
          -0.0077527123245 -0.0079644811833 -0.0065377049876 -0.017778868955 -0.0065377049876 0.091497930779
          0.096602715758 -0.0036593409809 -0.0091110840118 -0.0036593409809 0.0018440451453 -3.1985221819e-05
          -0.0091110840118 -3.1985221819e-05 0.091158947499 0.0784942975 -0.0084309054525 -0.014988620342
          -0.0084309054525 0.00061792364836 -0.0025330337742 -0.014988620342 -0.0025330337742 0.11833312849
          0.076883038682 -0.0081618898884 -0.017893582962 -0.0081618898884 0.0047008048032 -0.0027817945657
          -0.017893582962 -0.0027817945657 0.11322616627 0.088929688801 -0.0047331470139 -0.010434796963
          -0.0047331470139 0.0057895545124 -0.0014345458939 -0.010434796963 -0.0014345458939 0.11551480547
          0.26297240918 0.024743277376 0.0009799905679 0.024743277376 -0.072048732143 0.0069011796217
          0.0009799905679 0.0069011796217 0.072372590566 0.35451060465 0.0079898667437 0.017567381575
          0.0079898667437 -0.04468863387 0.020581882618 0.017567381575 0.020581882618 0.22124997752
          0.36754534274 0.021370519781 0.008544986031 0.021370519781 -0.052529043126 0.024813377156
          0.008544986031 0.024813377156 0.22778405453 0.37020684372 0.0097236296312 0.0075030549944
          0.0097236296312 -0.058142111596 0.019904284946 0.0075030549944 0.019904284946 0.2266073932
          0.3820074437 0.021074212756 0.0043186204961 0.021074212756 -0.013395254534 0.021735743988
          0.0043186204961 0.021735743988 0.35398929936 0.38259601866 0.023735244891 0.0044044863988
          0.023735244891 -0.0016764870819 0.020490247115 0.0044044863988 0.020490247115 0.34545120977
          0.37843130671 0.02125121957 0.0039137752395 0.02125121957 -0.01053418107 0.021383362817
          0.0039137752395 0.021383362817 0.35399179693 0.36575941348 0.0083196608326 0.0024396540924
          0.0083196608326 -0.04594970867 0.019070494047 0.0024396540924 0.019070494047 0.23876176443
          0.34171783609 -0.0066893625656 0.013808089426 -0.0066893625656 -0.043427845045 0.035746884285
          0.013808089426 0.035746884285 0.24110218206 0.351639395 0.008104989024 0.00952431893
          0.008104989024 -0.044693237388 0.020926929682 0.00952431893 0.020926929682 0.23990347237
          0.34933978614 0.0086227428299 0.0044119077813 0.0086227428299 -0.029369579565 0.035187229437
          0.0044119077813 0.035187229437 0.23966790537 0.34951118204 0.011222288281 0.011983831788
          0.011222288281 -0.032934463572 0.026366544916 0.011983831788 0.026366544916 0.21847117405
          0.34864102673 0.0073349277939 0.013457337199 0.0073349277939 -0.044552372182 0.022393382748
          0.013457337199 0.022393382748 0.23535943194 0.3461169067 0.0061598173091 0.014894096976
          0.0061598173091 -0.023981824484 0.029593429304 0.014894096976 0.029593429304 0.23656153713
          0.34961655398 0.010785999211 0.015036739123 0.010785999211 -0.031753858628 0.018702486005
          0.015036739123 0.018702486005 0.2673516303 0.35395154099 0.0092938214995 0.019490146801
          0.0092938214995 -0.032254670934 0.01562647526 0.019490146801 0.01562647526 0.26957953327
          0.35728013246 0.0086991885758 0.015121792836 0.0086991885758 -0.032482163372 0.014371303975
          0.015121792836 0.014371303975 0.26289643757 0.36673369784 0.012465498626 0.0089720485136
          0.012465498626 -0.046861458681 0.032536605889 0.0089720485136 0.032536605889 0.24013383036
          0.38939961863 0.015434887923 0.0049226638322 0.015434887923 -0.053533659252 0.028698456701
          0.0049226638322 0.028698456701 0.23930788474 0.39325006249 0.0047464002019 0.0069981369672
          0.0047464002019 -0.049846419514 0.017342147438 0.0069981369672 0.017342147438 0.23922183138
          0.38969796831 0.0035519078264 0.016292439233 0.0035519078264 -0.04912916973 0.028836052848
          0.016292439233 0.028836052848 0.27748971965 0.3998954349 -0.0033251872067 0.0083079585355
          -0.0033251872067 -0.054948402509 0.030199889798 0.0083079585355 0.030199889798 0.28219541759
          0.37857045279 0.008656191545 0.01274512852 0.008656191545 -0.044402855892 0.024145475981
          0.01274512852 0.024145475981 0.28200627972 0.37439357826 0.013159679273 0.013097977939
          0.013159679273 -0.029527741173 0.018263768815 0.013097977939 0.018263768815 0.28351031773
          0.37422968344 0.011029913482 0.012983985137 0.011029913482 -0.038879608977 0.02834934867
          0.012983985137 0.02834934867 0.2907326094 0.37944549814 0.015104507563 0.010359571102
          0.015104507563 -0.042841149722 0.011933163176 0.010359571102 0.011933163176 0.26316677685
          0.37927764394 0.015522841144 0.010727251241 0.015522841144 -0.034434824078 0.010624107303
          0.010727251241 0.010624107303 0.26237770472 0.37491825314 0.013582656922 0.011762717699
          0.013582656922 -0.029471042757 0.024119910351 0.011762717699 0.024119910351 0.29128948681
          0.11986615376 0.006080764503 -0.016851963089 0.006080764503 -0.0022241003644 0.00094760027106
          -0.016851963089 0.00094760027106 0.10684447674 0.10903831187 0.0084423223752 -0.017355553961
          0.0084423223752 9.3040535493e-05 -0.0062358706233 -0.017355553961 -0.0062358706233 0.10423286283
          0.14468117982 0.0033879289546 -0.03147684472 0.0033879289546 -0.0039258259593 0.0010855157817
          -0.03147684472 0.0010855157817 0.11537803227 0.1379754202 0.003952811542 -0.029463365448
          0.003952811542 -0.0070561700822 -0.0039952288481 -0.029463365448 -0.0039952288481 0.11888923935
          0.15093792222 0.012101845794 -0.018281264173 0.012101845794 -0.0038141855038 -0.0002744478615
          -0.018281264173 -0.0002744478615 0.1227144578 0.13385428954 0.0045184327461 -0.020986589783
          0.0045184327461 -0.0064044320205 -0.0077994139146 -0.020986589783 -0.0077994139146 0.11101444298
          0.33547663807 0.040112961081 0.01873997587 0.040112961081 0.0028464995921 0.0089405562339
          0.01873997587 0.0089405562339 0.35871969059 0.34492270693 0.033810370172 0.012784624915
          0.033810370172 0.0046708530988 0.0097941981519 0.012784624915 0.0097941981519 0.3583859884
          0.33571880801 0.02879851664 0.021401935495 0.02879851664 0.0023586065029 0.013636369129
          0.021401935495 0.013636369129 0.35205203943 0.13486195368 0.0063530253797 -0.019761558079
          0.0063530253797 -0.0047223000953 -0.0019063758105 -0.019761558079 -0.0019063758105 0.10441243944
          0.33508304598 0.030868248212 0.028524663159 0.030868248212 -0.0015209828293 0.0044270938705
          0.028524663159 0.0044270938705 0.34061463478 0.33593083643 0.035114991532 0.03135504664
          0.035114991532 0.0075809408952 0.0083770486073 0.03135504664 0.0083770486073 0.34146872047
          0.35155862766 0.038331002018 0.016857542984 0.038331002018 0.00150781749 0.0063900450917
          0.016857542984 0.0063900450917 0.35477027063 0.29994912436 0.051164509049 0.030797382098
          0.051164509049 0.004777168523 0.0021119196386 0.030797382098 0.0021119196386 0.32095940351
          0.12890901593 -0.015820198714 -0.031420945172 -0.015820198714 -0.055406008052 -0.021924927782
          -0.031420945172 -0.021924927782 -0.0033969281736 0.1213056049 -0.010134735394 -0.026318124793
          -0.010134735394 -0.037352505484 -0.0087157145061 -0.026318124793 -0.0087157145061 0.0061732126261
          0.10259360192 -0.0090966759319 -0.014638361861 -0.0090966759319 -0.028428996484 -0.010656986068
          -0.014638361861 -0.010656986068 -0.00093088031237 0.14690058565 -0.0017053925728 -0.018266181228
          -0.0017053925728 -0.031275630858 -0.016410397642 -0.018266181228 -0.016410397642 -0.0071305178794
          0.14642914283 0.00077221317224 -0.01893495505 0.00077221317224 -0.043173178373 -0.0111634356
          -0.01893495505 -0.0111634356 -0.0054074439846 0.12169877487 -0.10416934285 -0.09371338422
          -0.10416934285 -0.02824500991 -0.065328245324 -0.09371338422 -0.065328245324 -0.074578147939
          0.14928717791 -0.007385814451 -0.011262850829 -0.007385814451 -0.047311646088 -0.01122501904
          -0.011262850829 -0.01122501904 0.017641230908 0.18438615183 0.022069862225 0.0077928469007
          0.022069862225 0.0053069512833 0.023038164683 0.0077928469007 0.023038164683 0.25425020219
          0.22943342807 0.027417625168 0.0057687559889 0.027417625168 0.0036585963249 0.017814483496
          0.0057687559889 0.017814483496 0.24346427899 0.25307442371 0.027909837262 0.0055269785508
          0.027909837262 -0.0034705031508 0.019350729364 0.0055269785508 0.019350729364 0.24313401211
          0.18308377149 0.0048075993993 -0.018087714053 0.0048075993993 -0.018896889176 -0.0026442717515
          -0.018087714053 -0.0026442717515 0.11629102461 0.19730882629 0.0027392613283 -0.017101541723
          0.0027392613283 -0.02850434932 0.00468506511 -0.017101541723 0.00468506511 0.10838583787
          -0.047553595872 0.014998629288 0.0027886021341 0.014998629288 0.02528714431 -0.00016511856398
          0.0027886021341 -0.00016511856398 0.012309081324 -0.0084749921846 -0.017544492864 -0.001240183954
          -0.017544492864 -0.003398790385 0.0028743019054 -0.001240183954 0.0028743019054 0.0064558061663
          -0.066464311177 0.0019268270948 0.0092857852028 0.0019268270948 0.017925328676 0.0082814647259
          0.0092857852028 0.0082814647259 0.039689668304 -0.031227555305 -0.0010574210388 -0.0070599551354
          -0.0010574210388 0.0097384363527 0.0011683405478 -0.0070599551354 0.0011683405478 0.038716485485
          -0.030048197382 -0.0005954896753 -0.0047067809651 -0.0005954896753 0.008675869391 0.0081516160599
          -0.0047067809651 0.0081516160599 0.013863808166 0.061927097435 0.021288375146 0.0028593952781
          0.021288375146 0.030494579138 0.0081754653856 0.0028593952781 0.0081754653856 0.096502803451
          -0.03746890227 -0.0059262262323 0.010140009933 -0.0059262262323 0.017158111393 0.014152751397
          0.010140009933 0.014152751397 0.026846592002 0.093786604086 -0.016122527989 -0.034735344244
          -0.016122527989 -0.0054658177508 -0.0048300955914 -0.034735344244 -0.0048300955914 -0.019454560348
          0.033410549502 -0.016419727597 -0.055992771092 -0.016419727597 -0.0054175624754 -0.0059426014849
          -0.055992771092 -0.0059426014849 -0.0065079112148 -0.080298605476 -0.012591146316 0.0063745985823
          -0.012591146316 0.026853257003 -0.0010938042973 0.0063745985823 -0.0010938042973 0.023309712111
          0.40006846013 0.021312561095 0.0077532187824 0.021312561095 -0.014898575077 0.023774853778
          0.0077532187824 0.023774853778 0.35084799042 0.40070054551 0.021585486543 0.0082430323563
          0.021585486543 -0.015626809564 0.024597997769 0.0082430323563 0.024597997769 0.35078538048
          0.14919330069 -0.011199320487 -0.015260008456 -0.011199320487 -0.02708082872 -0.01479128062
          -0.015260008456 -0.01479128062 0.064319557327 0.38792640156 0.015452559184 0.006574365949
          0.015452559184 -0.072904788802 -0.017008304248 0.006574365949 -0.017008304248 0.25847570747
          0.35334552865 0.014496005506 0.028129695463 0.014496005506 -0.057365261848 -0.019869758441
          0.028129695463 -0.019869758441 0.24580766938 0.18240084589 0.0019033433488 -0.025741398661
          0.0019033433488 -0.020642563592 -0.0036509384663 -0.025741398661 -0.0036509384663 0.1250730724
          -0.0154131951 0.00014039514864 0.00026458451186 0.00014039514864 0.0084850118057 0.0084095111957
          0.00026458451186 0.0084095111957 0.02112151813 0.36424257786 0.025200908562 0.029023578432
          0.025200908562 -0.041568868729 0.0015771457503 0.029023578432 0.0015771457503 0.26627581412
          0.36573284653 0.024928841476 0.024738351035 0.024928841476 -0.05144320531 0.011852129611
          0.024738351035 0.011852129611 0.2695178031 0.30524852086 0.012127288308 0.0084194733392
          0.012127288308 -0.00069864697609 0.0090706577967 0.0084194733392 0.0090706577967 0.29062787678
          0.096731702873 0.00012891241775 0.0003165103202 0.00012891241775 0.0059694818731 0.016701144463
          0.0003165103202 0.016701144463 0.068992295692 0.05306774435 0.0080369901684 -0.016219908342
          0.0080369901684 0.0054840532516 0.019036566082 -0.016219908342 0.019036566082 0.063189027293
          0.058219413123 -0.0001670888479 -0.0091066892869 -0.0001670888479 -0.0028329635105 0.0033650056112
          -0.0091066892869 0.0033650056112 0.07212827066 0.028672600921 0.0085336968993 0.0025244574095
          0.0085336968993 0.0099572007112 0.0086910510137 0.0025244574095 0.0086910510137 0.072537962012
          0.014085980759 -0.00030420784696 0.0014276570455 -0.00030420784696 0.017448293838 0.01481600832
          0.0014276570455 0.01481600832 0.076043973867 0.090751714699 -0.0010900197187 -0.0013363925832
          -0.0010900197187 0.017367159911 0.014199427055 -0.0013363925832 0.014199427055 0.071480329374
          0.092137876427 0.0082885877198 0.0042236486016 0.0082885877198 -0.0083808620023 0.010918491068
          0.0042236486016 0.010918491068 0.075029747586 0.075633207124 -0.0068934152774 0.00058554732298
          -0.0068934152774 0.015163194773 0.014010160608 0.00058554732298 0.014010160608 0.10745317207
          0.06009670345 0.0024494202773 -0.0026317138165 0.0024494202773 0.015483655066 0.010807399353
          -0.0026317138165 0.010807399353 0.11123122173 0.069933132881 0.0027979386516 -0.026175649804
          0.0027979386516 0.015478983378 0.0093387580531 -0.026175649804 0.0093387580531 0.14393494566
          0.031064919355 -0.020118190234 0.00085922262719 -0.020118190234 0.023291090806 0.014789930069
          0.00085922262719 0.014789930069 0.13028960171 0.1540981081 0.0019340609059 -0.025225340492
          0.0019340609059 -0.049164305277 0.0088712044344 -0.025225340492 0.0088712044344 -0.0099546517392
          0.1394605429 0.0039580252703 -0.020364493576 0.0039580252703 -0.048530409555 0.015482733335
          -0.020364493576 0.015482733335 0.046490076185 0.3811316757 0.036254126313 0.0073513110203
          0.036254126313 -0.011845340792 0.0099151030669 0.0073513110203 0.0099151030669 0.3510697748
          0.37943874653 0.017628166876 0.0086178544211 0.017628166876 -0.010140380524 0.021534888622
          0.0086178544211 0.021534888622 0.35014816236 0.37930025494 0.018768003118 0.0073768214083
          0.018768003118 -0.0096033683167 0.020931423782 0.0073768214083 0.020931423782 0.3508256821
          0.3793072367 0.018766869368 0.0075836991674 0.018766869368 -0.010169802574 0.019945499708
          0.0075836991674 0.019945499708 0.35535511603 0.37953534654 0.019449006128 0.0082563042313
          0.019449006128 -0.0094693053285 0.019543992727 0.0082563042313 0.019543992727 0.35299158655
          0.3749887368 0.019964920804 0.0066816062581 0.019964920804 -0.0072459165566 0.018122914182
          0.0066816062581 0.018122914182 0.35356772198 0.37497367306 0.019758619375 0.0064834567535
          0.019758619375 -0.0075668807307 0.018543105862 0.0064834567535 0.018543105862 0.35488289541
          0.37932704844 0.018836328278 0.0080251509315 0.018836328278 -0.010491309202 0.019113702303
          0.0080251509315 0.019113702303 0.35517084182 0.3746533551 0.020200823436 0.0063321073068
          0.020200823436 -0.0062760455345 0.018166566656 0.0063321073068 0.018166566656 0.35323950089
          0.37266982716 0.020008570785 0.0063120701311 0.020008570785 -0.0061451428254 0.018080279764
          0.0063120701311 0.018080279764 0.35328687237 0.3832837453 0.019467033975 0.0041085975078
          0.019467033975 -0.010316376791 0.020483074957 0.0041085975078 0.020483074957 0.35428009521
          0.37820894933 0.020402068384 0.0043799947874 0.020402068384 -0.010403964826 0.020555818969
          0.0043799947874 0.020555818969 0.35444348726 0.11154989051 0.0071171270807 0.011510517373
          0.0071171270807 -0.029094647595 0.014844800916 0.011510517373 0.014844800916 -0.026626781309
          0.099499200663 0.010469812967 0.0057289810368 0.010469812967 -0.035819427139 0.0057950563306
          0.0057289810368 0.0057950563306 -0.018460201474 0.11804082925 0.0044833346668 -0.012753739945
          0.0044833346668 -0.04529520793 0.0064081738669 -0.012753739945 0.0064081738669 -0.025064274124
          0.38063301721 0.017258989392 0.010624057233 0.017258989392 -0.0033293495504 0.024141639072
          0.010624057233 0.024141639072 0.3452977466 0.37976922108 0.020756395118 0.011032947769
          0.020756395118 -0.010072400434 0.018344037905 0.011032947769 0.018344037905 0.34741717587
          0.38201917371 0.020721710075 0.0085908422368 0.020721710075 -0.01280959554 0.015839418218
          0.0085908422368 0.015839418218 0.34770708542 0.38083116851 0.019868879732 0.0094594590866
          0.019868879732 -0.01270816596 0.01625747423 0.0094594590866 0.01625747423 0.3471311639
          0.38210129968 0.021726751074 0.0065744485778 0.021726751074 -0.013163321979 0.016253231342
          0.0065744485778 0.016253231342 0.34808254119 0.38070649225 0.021793526867 0.0052467314948
          0.021793526867 -0.013165844211 0.016269602668 0.0052467314948 0.016269602668 0.35011995995
          0.3829348113 0.021746674094 0.0059562777984 0.021746674094 -0.013164911626 0.01624489135
          0.0059562777984 0.01624489135 0.34852095543 0.38707295901 0.02006511068 0.0048622836607
          0.02006511068 -0.012871968443 0.017056423291 0.0048622836607 0.017056423291 0.34846518158
          0.38707487391 0.020049865833 0.0051044042034 0.020049865833 -0.012802344554 0.01636333669
          0.0051044042034 0.01636333669 0.34962703253 0.38738605819 0.026926992806 0.025988155119
          0.026926992806 -0.058391903871 0.029411357833 0.025988155119 0.029411357833 0.19225666843
          0.32233343273 0.027892843191 0.043956636761 0.027892843191 -0.047480695987 0.028825845838
          0.043956636761 0.028825845838 0.18730281065 0.28665642789 0.01854356949 0.019579804645
          0.01854356949 -0.049904677783 0.022743977572 0.019579804645 0.022743977572 0.17424859217
          0.32444628064 0.03852130376 0.044695797142 0.03852130376 -0.086629763619 -0.0083265539452
          0.044695797142 -0.0083265539452 0.14934869172 0.18070414052 0.0064192522018 -0.025970734604
          0.0064192522018 -0.034178109927 0.0041704592979 -0.025970734604 0.0041704592979 0.068475081586
          0.2085521235 -0.0045022500746 -0.015713557495 -0.0045022500746 -0.034950462247 0.00028980276978
          -0.015713557495 0.00028980276978 0.07224909137 0.21422867123 0.0014717579697 -0.0081806460473
          0.0014717579697 -0.05067214072 0.0041148998651 -0.0081806460473 0.0041148998651 0.081480702369
          0.20613902716 0.0050942238328 -0.01572367379 0.0050942238328 -0.050336105102 0.0026754599602
          -0.01572367379 0.0026754599602 0.0862977772 0.11865701081 0.012405922327 -0.033876187355
          0.012405922327 0.017949286888 -0.0075786487956 -0.033876187355 -0.0075786487956 0.076160981769
          0.11881118068 0.011201019627 -0.037159514737 0.011201019627 0.019671984563 0.0027700636134
          -0.037159514737 0.0027700636134 0.11561363276 0.18840820904 0.0033039477373 -0.013686490551
          0.0033039477373 -0.030162544709 0.0018814716079 -0.013686490551 0.0018814716079 0.086365265844
          0.21192126455 0.0033240027776 -0.0098633110416 0.0033240027776 -0.031828842741 0.0048724479011
          -0.0098633110416 0.0048724479011 0.081629911988 0.21159601802 0.00088097515124 -0.0095634869656
          0.00088097515124 -0.039643076636 0.0064755376694 -0.0095634869656 0.0064755376694 0.081393497944
          0.18373675297 0.0086681973769 -0.02061984821 0.0086681973769 -0.041807801766 0.0094732674079
          -0.02061984821 0.0094732674079 0.077724849421 0.1775307784 0.0028030734231 -0.018425391723
          0.0028030734231 -0.029999608997 0.0048824589427 -0.018425391723 0.0048824589427 0.079508864238
          -0.015356236161 0.072658196928 -0.095201689139 0.072658196928 -0.18726568441 -0.013881827611
          -0.095201689139 -0.013881827611 0.074904716435 -0.0078743927338 0.041554131793 -0.093419529058
          0.041554131793 -0.16411563727 -0.011050580976 -0.093419529058 -0.011050580976 0.074341440155
          0.037757954149 0.061737501262 -0.051772804957 0.061737501262 -0.1634088298 0.037226063414
          -0.051772804957 0.037226063414 0.0039141979299 0.044441587834 0.027795304483 -0.041224517648
          0.027795304483 -0.014101052822 -0.0049299857302 -0.041224517648 -0.0049299857302 0.014914847465
          0.04764775395 0.017321330765 -0.061694857541 0.017321330765 -0.024911803842 0.012871427311
          -0.061694857541 0.012871427311 -0.064014337949 0.012197601386 -0.0079098762822 -0.09680929301
          -0.0079098762822 -0.042772094741 -0.0089502869309 -0.09680929301 -0.0089502869309 0.0040854649588
          -0.052716465039 -0.087185165735 -0.055000217765 -0.087185165735 -0.12474896469 -0.0041899397036
          -0.055000217765 -0.0041899397036 0.12163145263 0.047870556702 0.016695693363 -0.080142753786
          0.016695693363 -0.028982448199 -0.023667157093 -0.080142753786 -0.023667157093 0.12426004911
          0.11071684778 -0.01537405323 -0.0042476693434 -0.01537405323 0.03930121934 0.060205383682
          -0.0042476693434 0.060205383682 0.16715227054 0.11165310386 -0.017867299437 -0.015362967542
          -0.017867299437 -0.01691336016 -0.0056966126374 -0.015362967542 -0.0056966126374 0.15400587715
          0.37344441986 0.020237273575 0.011751929972 0.020237273575 -0.0088605808628 0.016047173471
          0.011751929972 0.016047173471 0.34377005744 0.3731956243 0.018790120815 0.010256347932
          0.018790120815 -0.0094752290904 0.01544783879 0.010256347932 0.01544783879 0.34318791462
          0.37548378265 0.020578548245 0.0096110774685 0.020578548245 -0.011546164537 0.015200101798
          0.0096110774685 0.015200101798 0.34335090079 0.38115862254 0.019850323785 0.0048566594277
          0.019850323785 -0.011972957841 0.015808543087 0.0048566594277 0.015808543087 0.34733417801
          0.37516498158 0.017454927052 0.012351712292 0.017454927052 -0.015516219997 0.017448909315
          0.012351712292 0.017448909315 0.34373183059 0.37568421258 0.01788024159 0.01544747838
          0.01788024159 -0.015267790438 0.018647381814 0.01544747838 0.018647381814 0.3442966541
          0.37945181945 0.018369849482 0.014763598523 0.018369849482 -0.015948367252 0.015628940981
          0.014763598523 0.015628940981 0.33288847303 0.37921579577 0.015535520842 0.015566314885
          0.015535520842 -0.016150342797 0.022808128649 0.015566314885 0.022808128649 0.33033734663
          -0.091441630345 0.009687178849 -0.020021579449 0.009687178849 0.014929999938 -0.0032622852972
          -0.020021579449 -0.0032622852972 0.051169802995 0.3830781486 0.016307759952 0.0041226925796
          0.016307759952 -0.0096412883868 0.0184911258 0.0041226925796 0.0184911258 0.35310819615
          0.38216618082 0.016488138884 0.0059004628509 0.016488138884 -0.0080368961049 0.018485603938
          0.0059004628509 0.018485603938 0.35945967688 0.39553699528 0.014113684902 0.0080052042151
          0.014113684902 -0.032428637375 0.024451575403 0.0080052042151 0.024451575403 0.33022356943
          0.39897693644 0.013219438487 0.012532836657 0.013219438487 -0.027941483697 0.031420374087
          0.012532836657 0.031420374087 0.31886022361 0.39923742898 0.0082581226382 0.013756534653
          0.0082581226382 -0.023917339328 0.030032049094 0.013756534653 0.030032049094 0.31929853746
          0.40340006741 0.0068481396435 0.016217785925 0.0068481396435 -0.035798042755 0.03512516442
          0.016217785925 0.03512516442 0.28693234426 0.40352592763 0.0085561710558 0.012655056537
          0.0085561710558 -0.030709635286 0.023461289336 0.012655056537 0.023461289336 0.31339112344
          0.39966039514 0.015443492454 0.0087626573971 0.015443492454 -0.038376171219 0.02640080092
          0.0087626573971 0.02640080092 0.31293881297 0.39746641628 0.017024427667 0.012989779554
          0.017024427667 -0.033595053309 0.033059388612 0.012989779554 0.033059388612 0.32070216405
          0.16059893642 0.010859544568 -0.0065954319709 0.010859544568 -0.033793041453 0.0026372047697
          -0.0065954319709 0.0026372047697 -0.043664268237 0.17941103807 0.0057456119501 0.0041368414852
          0.0057456119501 -0.061345749807 0.0023730053974 0.0041368414852 0.0023730053974 -0.037175938291
          0.17344868975 0.0047409139806 0.00089462491369 0.0047409139806 -0.043160566133 0.013054962148
          0.00089462491369 0.013054962148 -0.021796678638 -0.02139330371 0.0038561030484 -0.010711376196
          0.0038561030484 0.0029414343373 0.022857960084 -0.010711376196 0.022857960084 0.030911539666
          0.15071106295 0.0029785260967 -0.02968135386 0.0029785260967 -0.02379750399 3.1409768908e-05
          -0.02968135386 3.1409768908e-05 0.10270720016 0.15540546072 0.0041477600503 -0.023819325675
          0.0041477600503 -0.011849860868 -0.0015691238334 -0.023819325675 -0.0015691238334 0.13519821956
          0.15943528665 0.004450998751 -0.015938367225 0.004450998751 -0.012011105342 0.00078233248785
          -0.015938367225 0.00078233248785 0.13381173069 0.18269305927 0.015246173304 -0.016586803017
          0.015246173304 -0.0077142842936 0.00024426511014 -0.016586803017 0.00024426511014 0.13375105656
          0.11850030127 0.0034260568824 -0.015285306705 0.0034260568824 -0.0016719873403 0.0081535649353
          -0.015285306705 0.0081535649353 0.1384064605 0.38060858864 0.018909767404 0.0036543570762
          0.018909767404 -0.009314635204 0.017745588576 0.0036543570762 0.017745588576 0.35218498804
          0.16942771953 0.011627688195 -0.004095468753 0.011627688195 -0.059323775558 -0.0066891408085
          -0.004095468753 -0.0066891408085 0.014068961241 0.046893199368 -0.0025899058212 -0.00048172102633
          -0.0025899058212 -0.021001413116 0.0019851602031 -0.00048172102633 0.0019851602031 -0.016184684221
          0.058256466796 0.0094515967213 -0.008136493025 0.0094515967213 -0.030928082683 -0.00012184534402
          -0.008136493025 -0.00012184534402 -0.012617392022 0.084515820788 0.004310518097 0.00036265520698
          0.004310518097 -0.031867818461 -0.0072492727765 0.00036265520698 -0.0072492727765 -0.025203319175
          0.054028164755 8.419935688e-05 0.0068838668795 8.419935688e-05 -0.027267960723 0.005957527752
          0.0068838668795 0.005957527752 0.0025894307758 0.038414705775 0.0036538731146 -0.0137950315
          0.0036538731146 -0.024112235136 0.00088277284523 -0.0137950315 0.00088277284523 -0.00060564004883
          0.039324252133 -0.0015127377834 -0.013658759618 -0.0015127377834 0.00473046274 0.0030380300257
          -0.013658759618 0.0030380300257 -0.01754868635 0.057328145695 -0.015050247383 -0.0087378358111
          -0.015050247383 -0.011682547924 0.0062646615704 -0.0087378358111 0.0062646615704 -0.018007973831
          0.003680241545 -0.014035400592 -0.0068982482978 -0.014035400592 -0.0055769914261 -0.002710563418
          -0.0068982482978 -0.002710563418 -0.00014195180149 0.30193730554 0.016693726383 0.027589635696
          0.016693726383 -0.063343332113 -0.014050233042 0.027589635696 -0.014050233042 0.21607502257
          0.22266724147 0.018384233274 0.053587306 0.018384233274 -0.063180347133 -0.012631092118
          0.053587306 -0.012631092118 0.22711780259 0.29099755429 0.033643139678 0.036885215368
          0.033643139678 -0.021314316074 -0.011009993874 0.036885215368 -0.011009993874 0.22863565654
          0.3757123257 0.019835684669 0.018085842817 0.019835684669 -0.029237864122 0.027853681715
          0.018085842817 0.027853681715 0.3032521523 0.38009105442 0.019833250579 0.0095337373724
          0.019833250579 -0.031216201654 0.019098889602 0.0095337373724 0.019098889602 0.28117040349
          0.37509266669 0.014999015137 0.0084635415852 0.014999015137 -0.03475212457 0.021459795719
          0.0084635415852 0.021459795719 0.29106149067 0.37322916719 0.019440145843 0.010685626723
          0.019440145843 -0.042115692312 0.019238326059 0.010685626723 0.019238326059 0.29134634396
          0.39079741544 0.017174296433 0.009562809145 0.017174296433 -0.045271720334 0.020155665602
          0.009562809145 0.020155665602 0.29124503404 0.38803165933 0.019038759647 0.012445780055
          0.019038759647 -0.037110825388 0.030778488574 0.012445780055 0.030778488574 0.30500732182
          0.36193652015 0.034967702242 0.033383739419 0.034967702242 -0.019695589407 0.012040175042
          0.033383739419 0.012040175042 0.30551422272 0.390888902 0.027915863282 0.0093134918053
          0.027915863282 -0.034215670833 0.021380433856 0.0093134918053 0.021380433856 0.2911804674
          0.37379320381 0.022210138193 0.01096645435 0.022210138193 -0.036078174414 0.022024424356
          0.01096645435 0.022024424356 0.29122453152 0.37084415643 0.021923628399 0.013572154504
          0.021923628399 -0.030328619581 0.019779108841 0.013572154504 0.019779108841 0.29000268174
          0.37434526301 0.021658604992 0.0088535613911 0.021658604992 -0.030734320539 0.019531201269
          0.0088535613911 0.019531201269 0.29550218229 0.37477270629 0.019595366908 0.010093260633
          0.019595366908 -0.02202286525 0.017374385484 0.010093260633 0.017374385484 0.28735804186
          0.37271865485 0.014437657704 0.011997190389 0.014437657704 -0.034732636565 0.02246347964
          0.011997190389 0.02246347964 0.28598742731 0.37085762177 0.023782145362 0.011066809376
          0.023782145362 -0.029314775329 0.017514500304 0.011066809376 0.017514500304 0.29426271248
          0.37027253603 0.023480744041 0.020211639739 0.023480744041 -0.029059710009 0.014094897385
          0.020211639739 0.014094897385 0.31243132664 0.23344288211 0.0028349755378 0.0070519801927
          0.0028349755378 -0.037959893593 0.018049120562 0.0070519801927 0.018049120562 0.051062786835
          0.21029778819 -0.0021244234311 -0.0002212366475 -0.0021244234311 -0.028202263357 0.014392901431
          -0.0002212366475 0.014392901431 0.10068369786 0.24194235512 0.0017939283656 0.019294884515
          0.0017939283656 -0.047267304514 0.0016206714002 0.019294884515 0.0016206714002 0.10115629601
          0.22581776783 -0.024178746512 0.011526613999 -0.024178746512 -0.045555087088 0.013729072989
          0.011526613999 0.013729072989 0.11133419355 0.11971699753 0.0053280081309 -0.043471500912
          0.0053280081309 0.010034558592 0.0023367970553 -0.043471500912 0.0023367970553 0.1047033185
          0.14633879505 -0.0024724313829 0.010583410782 -0.0024724313829 0.015332896971 0.011036642784
          0.010583410782 0.011036642784 0.18945751454 0.028473591799 0.0021059067834 -0.010228783161
          0.0021059067834 -0.0054897458028 0.004083115992 -0.010228783161 0.004083115992 -0.0028169704448
          0.057513210196 -0.0026977494891 -0.011704346705 -0.0026977494891 -0.022298800108 -0.019252050104
          -0.011704346705 -0.019252050104 -0.03432525291 0.056117420931 -0.0041287652018 -0.015142839991
          -0.0041287652018 -0.022481838807 -0.017646033821 -0.015142839991 -0.017646033821 -0.022291045616
          0.093859483017 0.0026327598208 -0.0076000948723 0.0026327598208 -0.021295351288 -0.01553223295
          -0.0076000948723 -0.01553223295 -0.044184817131 0.051554403479 -0.0080311138156 -0.010838437907
          -0.0080311138156 -0.02297767664 -0.012430839766 -0.010838437907 -0.012430839766 -0.025523332875
          0.21540998541 0.0083953054294 0.064712156049 0.0083953054294 -0.05725870534 0.015767343013
          0.064712156049 0.015767343013 0.21970650229 0.20170729818 0.032258279427 0.057941865378
          0.032258279427 -0.059948414996 0.018827276461 0.057941865378 0.018827276461 0.21832243747
          0.30859908842 0.033308320177 0.037930160316 0.033308320177 -0.060406148362 0.02128683238
          0.037930160316 0.02128683238 0.20699553384 0.30968894214 0.025521346486 0.040790812364
          0.025521346486 -0.059483529204 0.021510682308 0.040790812364 0.021510682308 0.20670076331
          0.29168462884 0.023095891556 0.03481098917 0.023095891556 -0.05843155992 0.028160249016
          0.03481098917 0.028160249016 0.24502692371 0.29042797068 0.022495670417 0.028168083183
          0.022495670417 -0.032718924716 -0.0010318532629 0.028168083183 -0.0010318532629 0.23595056747
          0.11896522137 0.009288240788 -0.0032858723512 0.009288240788 -0.05340927861 0.0080502043013
          -0.0032858723512 0.0080502043013 -0.052933461971 0.16079530446 0.021891972382 0.012767899062
          0.021891972382 -0.052346386894 0.018349020795 0.012767899062 0.018349020795 -0.057680194785
          0.15430442384 0.0090305179928 -0.003507226973 0.0090305179928 -0.064173614684 0.0042061127014
          -0.003507226973 0.0042061127014 -0.074485185499 0.13050395726 0.0036114335359 -0.0022155891517
          0.0036114335359 -0.062411168817 -0.0019881781769 -0.0022155891517 -0.0019881781769 -0.060504955545
          0.14238372808 0.0024384381966 -0.0014381596345 0.0024384381966 -0.062296033779 -0.0020898001466
          -0.0014381596345 -0.0020898001466 -0.061355974494 0.18075346729 0.0029695556568 -0.011665486664
          0.0029695556568 -0.062612691578 -0.0064646809815 -0.011665486664 -0.0064646809815 -0.11393982573
          0.14153185139 0.0048588789287 -0.0031052184214 0.0048588789287 -0.041219839743 7.9256678625e-05
          -0.0031052184214 7.9256678625e-05 0.054986068211 0.22869272833 0.00081604624029 -0.020800785899
          0.00081604624029 -0.05445860623 0.012240939558 -0.020800785899 0.012240939558 -0.031492131865
          0.17199493231 0.040024701432 -0.0011736442724 0.040024701432 -0.072374883969 -0.016522835075
          -0.0011736442724 -0.016522835075 -0.035134862687 0.16659572669 0.0057796372514 -0.013828305148
          0.0057796372514 -0.047745123476 0.0043673818325 -0.013828305148 0.0043673818325 -0.022484266311
          0.16364059674 0.0042457080474 -0.014308579453 0.0042457080474 -0.04670004224 0.0036633504678
          -0.014308579453 0.0036633504678 -0.022450019131 0.21241613363 0.0095685462399 -0.0093573739341
          0.0095685462399 -0.050220788746 0.011774450819 -0.0093573739341 0.011774450819 -0.035921568907
          0.38066483185 0.023015351716 0.011023147673 0.023015351716 -0.0096098159012 0.021533848621
          0.011023147673 0.021533848621 0.35001731704 0.37852132484 0.022169956716 0.0092129133009
          0.022169956716 -0.0099469046165 0.02196228275 0.0092129133009 0.02196228275 0.3516280101
          0.38491113933 0.020661716167 0.012742901155 0.020661716167 -0.012773462733 0.024540271283
          0.012742901155 0.024540271283 0.34995440184 -0.03957857393 -0.0038522401778 -0.018111914614
          -0.0038522401778 -0.0049719561705 -0.0026467231153 -0.018111914614 -0.0026467231153 0.027347881194
          -0.058052364681 0.020117863761 0.0025754872169 0.020117863761 0.021633058308 0.0025761994942
          0.0025754872169 0.0025761994942 0.021998950303 0.12550203226 0.022218006778 -0.030966649427
          0.022218006778 0.0013520471816 0.027209419447 -0.030966649427 0.027209419447 0.20753186435
          0.12468031559 0.020945512117 -0.014552686202 0.020945512117 0.010928445379 -0.0033913563159
          -0.014552686202 -0.0033913563159 0.15143168219 0.099377862955 0.012255304153 -0.027037089306
          0.012255304153 0.013572103156 0.0019993767748 -0.027037089306 0.0019993767748 0.1619151013
          0.1060223633 -0.010190369944 -0.0026427229258 -0.010190369944 -0.025661868206 -0.0062552834909
          -0.0026427229258 -0.0062552834909 -0.034888585833 0.14512258996 -0.048895173579 -0.019730697372
          -0.048895173579 4.8371712261e-05 0.0054702743244 -0.019730697372 0.0054702743244 -0.029557555068
          0.17489020843 0.058623766831 0.065635398592 0.058623766831 -0.013246696556 0.024518282077
          0.065635398592 0.024518282077 0.0068882228465 0.11704584107 0.038009068657 0.024855650787
          0.038009068657 -0.0071778599133 0.018330088746 0.024855650787 0.018330088746 -0.016670230536
          0.20155289743 0.0045263637597 -0.0085872415811 0.0045263637597 -0.03181992184 0.0027195349231
          -0.0085872415811 0.0027195349231 0.091667390377 0.38106100771 0.01975464899 0.010095309501
          0.01975464899 -0.012390048115 0.022225038229 0.010095309501 0.022225038229 0.35056160174
          0.3803269039 0.017506137054 0.012236008412 0.017506137054 -0.010534436672 0.018440011257
          0.012236008412 0.018440011257 0.35267202974 0.19227391519 0.0042333809131 -0.007525272538
          0.0042333809131 -0.050777012825 -0.0035231160737 -0.007525272538 -0.0035231160737 0.02229134685
          0.19514934438 0.0099489148069 -0.01826113058 0.0099489148069 -0.055104683919 0.013865577188
          -0.01826113058 0.013865577188 0.014166810646 0.38232414827 0.016991957319 0.003894592413
          0.016991957319 -0.0088412706262 0.019136132714 0.003894592413 0.019136132714 0.35906245148
          0.38798821185 0.017100186502 0.015855485232 0.017100186502 -0.011386983267 0.019830908301
          0.015855485232 0.019830908301 0.35179900302 0.3830689146 0.015785236354 0.018586362908
          0.015785236354 -0.011656119932 0.021697828602 0.018586362908 0.021697828602 0.35193958905
          0.38891131013 0.016483463244 0.014322388182 0.016483463244 -0.011578707338 0.02232210429
          0.014322388182 0.02232210429 0.34621500035 0.38774761071 0.02131266361 0.012279852518
          0.02131266361 -0.011323935829 0.019672119442 0.012279852518 0.019672119442 0.34915326044
          0.1231388809 0.081638900057 0.01928218901 0.081638900057 -0.042844058775 -0.042471174773
          0.01928218901 -0.042471174773 -0.055202777005 0.11477211922 0.23211792523 0.12823424587
          0.23211792523 0.10842667282 -0.090041515899 0.12823424587 -0.090041515899 -0.19475204581
          0.15967778118 0.079705661835 -0.068825029655 0.079705661835 -0.053742838599 -0.072982408502
          -0.068825029655 -0.072982408502 0.044796747083 0.33565928717 0.034453638958 0.018798274479
          0.034453638958 0.0086958097901 0.012464706786 0.018798274479 0.012464706786 0.358570665
          0.33250252822 0.030441396603 0.021911650432 0.030441396603 0.0054472806105 0.017324299879
          0.021911650432 0.017324299879 0.35594009455 0.31880827289 0.016864199182 0.013296205396
          0.016864199182 0.0046357555065 0.014332817347 0.013296205396 0.014332817347 0.35295520679
          0.33298399054 0.029314147395 0.011555221446 0.029314147395 0.014254146502 0.013270802053
          0.011555221446 0.013270802053 0.35300327573 0.13089786646 0.0080254375742 -0.031972114813
          0.0080254375742 -0.0048017132525 -0.0016916999952 -0.031972114813 -0.0016916999952 0.12756804202
          0.11357466017 0.0023036297192 -0.013420285162 0.0023036297192 0.0081076321707 -0.012528455433
          -0.013420285162 -0.012528455433 0.10444715764 0.10830726409 0.0082287136716 -0.014971885226
          0.0082287136716 0.003609788141 -0.0038828789905 -0.014971885226 -0.0038828789905 0.12596164914
          0.10704884855 0.0061104781937 -0.017907551639 0.0061104781937 0.00032510077896 -0.0066668462076
          -0.017907551639 -0.0066668462076 0.13568769138 0.10545011996 0.00026896831013 -0.016776013249
          0.00026896831013 -0.0014855788636 -0.00078921802474 -0.016776013249 -0.00078921802474 0.1350423783
          0.1456378722 0.0092606044375 -0.015345790633 0.0092606044375 0.00055154118797 -0.0060423954585
          -0.015345790633 -0.0060423954585 0.13024133029 0.14399985922 0.0042983350136 -0.01296852818
          0.0042983350136 -0.0091092102033 -0.0040635071171 -0.01296852818 -0.0040635071171 0.13186896058
          0.35970545628 0.021953380987 0.018202167335 0.021953380987 0.0018720811342 0.020713208273
          0.018202167335 0.020713208273 0.3407184883 0.27848648536 -0.013661671603 -0.0080581334428
          -0.013661671603 -0.050061639191 0.012617962493 -0.0080581334428 0.012617962493 0.11875365057
          0.31307590032 0.0024249203651 0.020184126268 0.0024249203651 -0.043791686831 0.027956775428
          0.020184126268 0.027956775428 0.13780341188 0.3049953667 0.0031111638048 0.0065592025087
          0.0031111638048 -0.043686941996 0.026045034751 0.0065592025087 0.026045034751 0.17259915656
          0.29720238389 -0.0026225925526 0.017656456465 -0.0026225925526 -0.045981043454 0.031636986677
          0.017656456465 0.031636986677 0.16023638747 0.29658448016 -0.0032764747596 0.016393116022
          -0.0032764747596 -0.031760000169 0.028368224894 0.016393116022 0.028368224894 0.15790367114
          0.26013593379 -0.0051571150105 2.8236894319e-05 -0.0051571150105 -0.029102792645 0.023296988062
          2.8236894319e-05 0.023296988062 0.15704290501 0.26724904955 -0.010534019704 0.0090481122411
          -0.010534019704 -0.038629737925 0.019659598669 0.0090481122411 0.019659598669 0.16773623933
          0.10925999199 -0.022682569932 -0.016838011305 -0.022682569932 0.0026488383083 -0.013471805109
          -0.016838011305 -0.013471805109 0.029873458889 0.14849485613 0.008316109538 0.014486527128
          0.008316109538 -0.012527651704 0.03012036246 0.014486527128 0.03012036246 0.045931471272
          0.14243736399 0.027699771319 -0.0017755026364 0.027699771319 -0.069121263755 0.063078389176
          -0.0017755026364 0.063078389176 0.069276816847 0.14257871271 0.01844457538 0.012596888815
          0.01844457538 -0.0072343215754 0.001632850768 0.012596888815 0.001632850768 0.10866648938
          0.23099392824 0.031498900104 0.03220009861 0.031498900104 -0.072952923443 0.10314671998
          0.03220009861 0.10314671998 -0.030762054665 0.22379837696 -0.032460541806 0.066415131927
          -0.032460541806 -0.029428495 0.033625741469 0.066415131927 0.033625741469 0.034655969081
          0.36303707266 -0.057167872706 0.22004487507 -0.057167872706 -0.013451147866 -0.022566166638
          0.22004487507 -0.022566166638 0.23170045145 0.17974727132 -0.008998719421 0.017258341838
          -0.008998719421 -0.0062806037121 0.011439227834 0.017258341838 0.011439227834 0.026103684627
          0.14220940116 0.02126075707 0.0091215679705 0.02126075707 -0.014273285287 0.0053930137993
          0.0091215679705 0.0053930137993 0.11178669298 -0.0099533595358 0.014365963363 -0.0071969019273
          0.014365963363 0.014371690545 -0.004244106813 -0.0071969019273 -0.004244106813 0.050837856487
          -0.046206005186 -0.005859316156 0.0043354273767 -0.005859316156 0.021120826608 -0.017298649435
          0.0043354273767 -0.017298649435 0.068230840197 -0.045242153032 -0.0092614368859 -0.00061106768312
          -0.0092614368859 0.017674429808 0.012256430385 -0.00061106768312 0.012256430385 0.084150153598
          0.032063512103 0.0076992596057 0.0011232392872 0.0076992596057 0.0057450100016 0.0002998550742
          0.0011232392872 0.0002998550742 0.048934601499 0.18719828764 0.0024839290635 -0.00020641052926
          0.0024839290635 -0.075438941141 0.016838396369 -0.00020641052926 0.016838396369 0.024090608552
          0.17648541438 -0.011886836028 -0.0058507853872 -0.011886836028 -0.069630679428 0.0098994280545
          -0.0058507853872 0.0098994280545 -0.030373820743 0.17889318951 -0.0021130081196 0.0092737223293
          -0.0021130081196 -0.067461693359 0.011008263445 0.0092737223293 0.011008263445 -0.032270629434
          0.14197299387 0.013657816345 -0.012044159723 0.013657816345 -0.063445256576 0.0073663583326
          -0.012044159723 0.0073663583326 -0.029466562014 0.14719077577 0.002553751659 -0.0097359820728
          0.002553751659 -0.043740773715 0.0092554782792 -0.0097359820728 0.0092554782792 -0.040226652042
          0.12283905723 -0.00305862783 0.0064629895605 -0.00305862783 -0.041778722141 0.0014925888783
          0.0064629895605 0.0014925888783 -0.010405546397 0.1987838695 0.068459981628 0.020970888746
          0.068459981628 -0.10032101757 0.0079591934915 0.020970888746 0.0079591934915 -0.0080453646072
          0.12272047828 -0.00082047432882 0.0065044741073 -0.00082047432882 -0.053009347712 0.0044996199719
          0.0065044741073 0.0044996199719 -0.0099569010902 0.1245734992 -0.0038590793511 -0.017073761871
          -0.0038590793511 -0.054510265579 -0.003771005802 -0.017073761871 -0.003771005802 -0.049696007689
          0.18500063508 -0.0055329200562 -0.0073843640038 -0.0055329200562 -0.06874364663 0.0046972948338
          -0.0073843640038 0.0046972948338 -0.063337019863 0.20657847794 0.0020707954803 -0.0091493343639
          0.0020707954803 -0.08615531057 -0.0059101711826 -0.0091493343639 -0.0059101711826 -0.0681555735
          0.19193733875 0.0090281197166 -0.0035450309496 0.0090281197166 -0.066096988027 -0.0026874269428
          -0.0035450309496 -0.0026874269428 -0.03947338149 0.1018914009 0.023302464094 -0.060748383756
          0.023302464094 0.0034658800895 0.019834036492 -0.060748383756 0.019834036492 0.08808329532
          0.10023752925 0.019817193596 -0.054168859052 0.019817193596 0.011243335205 0.027123776119
          -0.054168859052 0.027123776119 0.064767517806 0.097485938866 0.042838604049 -0.048819540144
          0.042838604049 -0.016456612526 -0.042268818368 -0.048819540144 -0.042268818368 0.058048693127
          0.36352465394 0.022452377035 0.014111671333 0.022452377035 -0.0060982524737 0.017859834083
          0.014111671333 0.017859834083 0.35015880407 0.36626739015 0.026827391742 0.01191998914
          0.026827391742 -0.0015615472677 0.015187728639 0.01191998914 0.015187728639 0.35163216829
          0.38502396842 0.022223350749 0.0081871873085 0.022223350749 -0.011022197722 0.021173525231
          0.0081871873085 0.021173525231 0.35136971808 0.040361152436 -0.025441070127 -0.0049728818149
          -0.025441070127 -0.0036104291883 -0.015138722979 -0.0049728818149 -0.015138722979 0.0074075724409
          -0.0075256602867 0.00020006844554 0.0063783089017 0.00020006844554 -0.0023998893804 -0.0075466194136
          0.0063783089017 -0.0075466194136 0.017224926022 0.01702443663 -0.0017227013148 -0.022039485607
          -0.0017227013148 -0.0022948690919 -0.0067775617812 -0.022039485607 -0.0067775617812 0.0035605304717
          0.060624468676 -0.021238954895 -0.0035283938919 -0.021238954895 0.0064179717863 -0.015675978572
          -0.0035283938919 -0.015675978572 -0.004870622213 0.0079053289154 0.0064953750907 -0.019768589559
          0.0064953750907 -0.0080101801355 -0.0085792993792 -0.019768589559 -0.0085792993792 0.0030304554953
          0.33443663772 0.0087398836336 0.0084158914495 0.0087398836336 0.0058412476755 0.02418769228
          0.0084158914495 0.02418769228 0.30860821366 0.31488216975 -0.015366492258 0.022507548763
          -0.015366492258 -0.0026636931252 0.025530320513 0.022507548763 0.025530320513 0.31056559859
          0.29965086412 -0.00070858161527 0.023700787254 -0.00070858161527 0.0026604214537 0.018157751525
          0.023700787254 0.018157751525 0.31246598758 0.33361953335 0.0062194095948 0.01447752259
          0.0062194095948 0.003656510548 0.021985861478 0.01447752259 0.021985861478 0.34725087055
          0.34362560829 0.015438490557 0.012428122777 0.015438490557 0.0034539280344 0.016571206002
          0.012428122777 0.016571206002 0.34624065203 0.34557633637 0.0098081780326 0.010656368488
          0.0098081780326 0.0080280188822 0.019170803315 0.010656368488 0.019170803315 0.3473085119
          0.31753813299 0.0028450579685 0.014435415709 0.0028450579685 0.0094340981291 0.020330493259
          0.014435415709 0.020330493259 0.34681476796 0.31687282072 0.0048096998322 0.013596351402
          0.0048096998322 0.0056780419621 0.020741988849 0.013596351402 0.020741988849 0.34784378798
          0.296298515 0.0014514325469 0.010243665894 0.0014514325469 0.015280523334 0.021305958574
          0.010243665894 0.021305958574 0.3462508583 0.10474807651 0.013468308139 -0.013025767839
          0.013468308139 -0.013853513055 -0.0079905716157 -0.013025767839 -0.0079905716157 0.070834722104
          0.016028880961 0.016668521042 -0.039137308219 0.016668521042 0.0039267151387 -0.0038481379034
          -0.039137308219 -0.0038481379034 0.044678516205 0.075645600533 0.0051034088873 -0.022032194881
          0.0051034088873 -0.012001760851 0.0036846374873 -0.022032194881 0.0036846374873 0.043106836007
          0.3776689377 0.019049838077 0.0041523493723 0.019049838077 -0.0083933615453 0.01830039358
          0.0041523493723 0.01830039358 0.34954551322 0.26657902281 0.0312627038 0.014674618393
          0.0312627038 0.0075264715063 0.017340568373 0.014674618393 0.017340568373 0.29173949769
          0.18626554319 0.0039618044673 -0.01550468265 0.0039618044673 -0.01917977125 -0.0047936986879
          -0.01550468265 -0.0047936986879 0.13057317883 0.01620569743 0.0067566527328 -0.038287774993
          0.0067566527328 0.01583060269 -0.0075651681555 -0.038287774993 -0.0075651681555 0.017422864958
          0.25892548072 0.026964998545 0.016742001377 0.026964998545 0.0051226234214 0.018602005193
          0.016742001377 0.018602005193 0.29225074962 0.083975114255 0.012012320506 -0.030935889306
          0.012012320506 -0.030056782355 0.0022494503649 -0.030935889306 0.0022494503649 0.015729085007
          0.1277393718 0.00019415464052 -0.031057227033 0.00019415464052 -0.039909041389 -0.014228669756
          -0.031057227033 -0.014228669756 -0.0051703480415 0.12550823906 0.001328511409 -0.030214843388
          0.001328511409 -0.030390646406 -0.013423877666 -0.030214843388 -0.013423877666 -0.0053377818666
          0.27366815064 0.018423472198 0.020469251722 0.018423472198 0.013675958951 0.024635866229
          0.020469251722 0.024635866229 0.33309618937 0.2824937399 0.025141281604 0.0094703711876
          0.025141281604 0.015829040757 0.021036114139 0.0094703711876 0.021036114139 0.33911017806
          0.29002183941 0.029357459413 0.0064698423611 0.029357459413 0.0029787100307 0.019957438261
          0.0064698423611 0.019957438261 0.31996422747 0.1724295762 0.001512995929 -0.030368420786
          0.001512995929 -0.012808188602 -0.00055223042164 -0.030368420786 -0.00055223042164 0.11857073848
          0.16813126464 0.00017003346467 -0.028917340093 0.00017003346467 -0.014491638578 0.0032231307719
          -0.028917340093 0.0032231307719 0.12673397546 0.17208518114 0.0026322496032 -0.030394814947
          0.0026322496032 -0.016365843184 -0.00099383449968 -0.030394814947 -0.00099383449968 0.12205314755
          0.1879904183 0.0055313145747 -0.02670077123 0.0055313145747 -0.018011032872 -0.0031789855223
          -0.02670077123 -0.0031789855223 0.11513529416 0.084681449044 0.036262575059 -0.049162185438
          0.036262575059 -0.0332422537 0.0019193591045 -0.049162185438 0.0019193591045 0.071959220927
          0.089877941438 0.010439850962 -0.065267652271 0.010439850962 -0.042217450863 0.010933317413
          -0.065267652271 0.010933317413 0.0851393465 0.12133618616 0.047557535663 -0.037159981046
          0.047557535663 -0.0053671118023 0.024352553173 -0.037159981046 0.024352553173 0.054116180257
          0.13037362818 0.038681794468 -0.057509663206 0.038681794468 -0.0067438717595 0.025593382271
          -0.057509663206 0.025593382271 0.06512731196 0.13200780334 0.045715045713 -0.065857699264
          0.045715045713 -0.0059383264006 0.013382219007 -0.065857699264 0.013382219007 0.088680979063
          0.12012145986 0.03059406109 -0.051549500437 0.03059406109 0.0040424468347 -0.01767093496
          -0.051549500437 -0.01767093496 0.15449439973 0.12735957754 0.028393469055 -0.043121546529
          0.028393469055 -0.0051022484827 -0.011573634748 -0.043121546529 -0.011573634748 0.15666652312
          0.12456159943 0.015735065373 -0.034099280634 0.015735065373 -0.040565671388 -0.0013057292891
          -0.034099280634 -0.0013057292891 0.17037615848 0.13497117426 0.02545220972 -0.083385583996
          0.02545220972 -0.038145126945 2.6395118502e-05 -0.083385583996 2.6395118502e-05 0.066740604094
          0.073608375405 0.02771924774 -0.038737160389 0.02771924774 -0.034702513835 -0.016786192637
          -0.038737160389 -0.016786192637 0.20158415761 0.1148157959 0.018423893027 -0.019708381378
          0.018423893027 -0.044732356028 -0.027910979733 -0.019708381378 -0.027910979733 0.2065217878
          0.13492457514 0.048924930539 -0.042547094019 0.048924930539 -0.032428519079 -0.011819679267
          -0.042547094019 -0.011819679267 0.15667090935 0.38234794311 0.0175785793 0.01704936035
          0.0175785793 -0.014932615285 0.023986258142 0.01704936035 0.023986258142 0.34434822154
          0.38662690539 0.021773033264 0.01574024864 0.021773033264 -0.012636043296 0.019220012383
          0.01574024864 0.019220012383 0.33806502797 0.39802595663 0.011385888702 0.013783779125
          0.011385888702 -0.029551299905 0.028066533364 0.013783779125 0.028066533364 0.33448072163
          0.39428043572 0.013547755544 0.01370788303 0.013547755544 -0.024347222982 0.037094729433
          0.01370788303 0.037094729433 0.32166523886 0.39535826482 0.019216953223 0.0075408020745
          0.019216953223 -0.020500263256 0.021778778829 0.0075408020745 0.021778778829 0.34576205235
          0.12546384873 -0.0030559838699 -0.017366124193 -0.0030559838699 -0.021980716152 -0.0014133651935
          -0.017366124193 -0.0014133651935 0.03720865193 0.11216772666 -0.0080343710579 -0.026328139729
          -0.0080343710579 -0.032047178892 -0.0064156136301 -0.026328139729 -0.0064156136301 0.038296262811
          0.10469121516 -0.0007987471903 -0.021470173598 -0.0007987471903 -0.016633932491 -0.0036144877048
          -0.021470173598 -0.0036144877048 0.037650850926 0.18005601005 0.0033296829601 -0.028675443512
          0.0033296829601 -0.018607297882 -0.0033941666653 -0.028675443512 -0.0033941666653 0.12220603431
          0.20241137407 0.013300471727 0.016662887251 0.013300471727 0.0041618465743 0.011834162644
          0.016662887251 0.011834162644 0.26351368295 0.15385532292 0.028343720975 0.013191143263
          0.028343720975 0.027757555716 -0.0041069471988 0.013191143263 -0.0041069471988 0.2775293558
          0.14944200276 0.0067236625069 -0.0030691639177 0.0067236625069 0.036646369099 0.0088622203272
          -0.0030691639177 0.0088622203272 0.29235346785 0.15204402774 0.0063912761286 0.003214164107
          0.0063912761286 0.029375557907 0.0061032251983 0.003214164107 0.0061032251983 0.30700300811
          0.10693434718 0.0075599314272 -0.0062789637764 0.0075599314272 -0.028321682497 0.0086282974929
          -0.0062789637764 0.0086282974929 -0.038611151196 0.064332846339 0.0037316804848 -0.0043972386324
          0.0037316804848 -0.026666040837 0.012412365647 -0.0043972386324 0.012412365647 -0.032159127857
          0.19154652364 0.0068584562261 -0.025733609638 0.0068584562261 -0.02683402103 -0.004582021295
          -0.025733609638 -0.004582021295 0.12280963842 0.19353113505 0.0048871593027 -0.029743322022
          0.0048871593027 -0.024953932876 -0.0010765514121 -0.029743322022 -0.0010765514121 0.12798903273
          0.19628033245 0.0047655041416 -0.019128500204 0.0047655041416 -0.026582628405 -0.0078721530762
          -0.019128500204 -0.0078721530762 0.13182284941 0.11103581381 -0.0066667745254 -0.028033654075
          -0.0066667745254 -0.025882731867 -0.008758354218 -0.028033654075 -0.008758354218 0.067793142881
          0.022233107849 0.0036500886759 0.014228972141 0.0036500886759 -0.003118144795 0.0097391174251
          0.014228972141 0.0097391174251 0.018773317843 0.12634744997 -0.0014458909914 -0.025132467496
          -0.0014458909914 -0.025412209184 -0.0083686438293 -0.025132467496 -0.0083686438293 0.068068407346
          0.28910190508 0.0086176761004 0.013558627096 0.0086176761004 0.0058628001527 0.024653057422
          0.013558627096 0.024653057422 0.31734092695 0.27643180382 0.0084007765447 0.0084831892452
          0.0084007765447 0.008425974943 0.01653560082 0.0084831892452 0.01653560082 0.34043161923
          0.28341548634 0.00015617972561 0.0035731912985 0.00015617972561 0.015956528929 0.021366674376
          0.0035731912985 0.021366674376 0.34346051798 0.39870565241 0.018383348003 0.0048706243796
          0.018383348003 -0.021225754757 0.024347769602 0.0048706243796 0.024347769602 0.34552508022
          -0.097942884927 -0.0068323384788 0.00412871721 -0.0068323384788 0.018322387888 0.0045915253382
          0.00412871721 0.0045915253382 0.024574961501 0.3899547946 0.019370495805 0.00930513211
          0.019370495805 -0.018154505084 0.022980461291 0.00930513211 0.022980461291 0.35095443379
          0.38909817652 0.017878494254 0.011468148857 0.017878494254 -0.010921326653 0.020503410184
          0.011468148857 0.020503410184 0.34945868246 0.38435838709 0.021843564611 0.0095330238885
          0.021843564611 -0.014037501209 0.022349998505 0.0095330238885 0.022349998505 0.34892695759
          0.38015630478 0.01873071747 0.011430260812 0.01873071747 -0.013068293462 0.024057429988
          0.011430260812 0.024057429988 0.34809820068 0.38667965646 0.017052585665 0.004070211416
          0.017052585665 -0.015319139247 0.023521240358 0.004070211416 0.023521240358 0.35420182747
          0.38910215936 0.023490355034 0.0037071605041 0.023490355034 -0.010731969573 0.020366626414
          0.0037071605041 0.020366626414 0.3538732617 0.38868893705 0.020148207854 0.0063834834681
          0.020148207854 -0.018565411371 0.025441561328 0.0063834834681 0.025441561328 0.35084338045
          0.38859605565 0.019763947866 0.0055802563506 0.019763947866 -0.01997225554 0.022851331238
          0.0055802563506 0.022851331238 0.34683354041 0.11756217061 0.013227387438 -0.012909215246
          0.013227387438 0.0082950108929 -0.0058519172492 -0.012909215246 -0.0058519172492 0.1084493685
          0.11895509634 0.014019736718 -0.011871968343 0.014019736718 0.0083361534427 -0.0050416450491
          -0.011871968343 -0.0050416450491 0.10910332187 0.11953108774 0.013739917315 -0.013293626702
          0.013739917315 0.0083208692134 -0.0053852667046 -0.013293626702 -0.0053852667046 0.10553843923
          0.12809766334 0.019794284598 -0.021003215915 0.019794284598 0.0050785852485 -0.014845050453
          -0.021003215915 -0.014845050453 0.11033763607 0.16129077405 0.012488974884 0.0098621890539
          0.012488974884 -0.044827429686 0.0077702665317 0.0098621890539 0.0077702665317 -0.021107426984
          0.11665798411 0.0038756834361 -0.03780094635 0.0038756834361 0.0095305820823 -0.027195531074
          -0.03780094635 -0.027195531074 0.083339747519 0.13076522118 0.020977927253 -0.018506578928
          0.020977927253 0.028042181529 0.0015891912458 -0.018506578928 0.0015891912458 0.096630888392
          0.12747601538 0.012388756885 -0.018230478726 0.012388756885 0.020515150507 -0.0082013308283
          -0.018230478726 -0.0082013308283 0.10402225176 0.12766850605 0.012439175311 -0.018112244755
          0.012439175311 0.018684128001 -0.006613494212 -0.018112244755 -0.006613494212 0.10278059195
          0.12305457678 0.0039783988969 -0.010661542702 0.0039783988969 0.013878078461 0.0043503981784
          -0.010661542702 0.0043503981784 0.091429132065 0.13127703353 0.013640092762 -0.017988461041
          0.013640092762 0.015734185215 -0.016067580718 -0.017988461041 -0.016067580718 0.096265059257
          0.3671335062 0.013996843464 0.022401668322 0.013996843464 -0.0271240747 0.021397528692
          0.022401668322 0.021397528692 0.28225968446 0.37079526668 0.014991137123 0.018607891996
          0.014991137123 -0.030464370561 0.016459467765 0.018607891996 0.016459467765 0.2819601379
          0.36636793878 0.013011740548 0.020726486782 0.013011740548 -0.031224088107 0.019438867572
          0.020726486782 0.019438867572 0.31392109096 0.13256088827 0.016459249196 -0.01871932892
          0.016459249196 0.018242239098 0.018223129999 -0.01871932892 0.018223129999 0.078555769376
          0.12503173154 0.011303538361 -0.020362163998 0.011303538361 0.016568187374 0.018990904727
          -0.020362163998 0.018990904727 0.080127080386 0.14918789182 0.015565868197 -0.0016582043462
          0.015565868197 -0.022176895406 0.013641036827 -0.0016582043462 0.013641036827 0.077750149647
          0.14840284641 0.011093842447 0.0040402775778 0.011093842447 -0.0058071859203 0.017143569009
          0.0040402775778 0.017143569009 0.056427358801 0.14486897621 0.010740381859 0.0044981922291
          0.010740381859 -0.0038579704246 0.0061936746305 0.0044981922291 0.0061936746305 0.117290733
          0.058916383121 -0.0028382824654 -0.0031076187792 -0.0028382824654 -0.0056790979821 0.004915903941
          -0.0031076187792 0.004915903941 0.11663563466 0.10747505275 0.011759270593 0.021682837343
          0.011759270593 -0.0069309833672 0.024668742182 0.021682837343 0.024668742182 0.10246628601
          0.10383981544 0.0079388536949 0.010151269543 0.0079388536949 -0.0019627861012 0.011023314224
          0.010151269543 0.011023314224 0.066145639708 0.077842286353 0.018753018334 -0.0090088075901
          0.018753018334 0.014232724778 -0.0010690127942 -0.0090088075901 -0.0010690127942 0.11835732544
          0.32176361551 -0.0040005368827 0.018535606697 -0.0040005368827 -0.0086133883053 0.027612534232
          0.018535606697 0.027612534232 0.26148862073 0.30640017359 0.007141562941 0.016032641878
          0.007141562941 -0.015886747592 0.02645385499 0.016032641878 0.02645385499 0.27203640903
          0.30834628581 0.0062122961114 0.022076485787 0.0062122961114 -0.015443690139 0.023431518936
          0.022076485787 0.023431518936 0.26289432964 0.18805073173 0.0037509445248 -0.016434532419
          0.0037509445248 -0.029859731848 0.00033102065528 -0.016434532419 0.00033102065528 0.094096417991
          0.18526400418 0.0043429460172 -0.022358974911 0.0043429460172 -0.02972204149 0.0036197257746
          -0.022358974911 0.0036197257746 0.097145393948 0.093069030996 0.0023905741316 0.009396338623
          0.0023905741316 0.0048643193891 0.0039210244412 0.009396338623 0.0039210244412 0.10348172236
          0.095540410746 -0.00061672110926 -0.021408656884 -0.00061672110926 0.0040599021917 -0.0013079955728
          -0.021408656884 -0.0013079955728 0.078730282733 0.053822568867 0.00023716827265 0.0071864636706
          0.00023716827265 -0.0070625361418 0.0010817635299 0.0071864636706 0.0010817635299 -0.031026826823
          0.02581847098 -0.002483380103 -0.011953988196 -0.002483380103 -0.0073065807739 0.00026315611272
          -0.011953988196 0.00026315611272 0.0093861772935 0.053808246301 -0.0018639418185 0.0053645870125
          -0.0018639418185 -0.019955595784 0.0096538968844 0.0053645870125 0.0096538968844 -0.0051461864393
          0.034222406868 -0.0046819229409 -0.013307240612 -0.0046819229409 -0.00032702157584 0.011065320046
          -0.013307240612 0.011065320046 -0.023744496311 0.028115024051 -0.014795028167 0.0043837823797
          -0.014795028167 -0.0068048116545 0.013410990995 0.0043837823797 0.013410990995 -0.0042645177873
          0.048416272861 0.0065973831928 -0.011266476215 0.0065973831928 -0.026064905017 0.018435723889
          -0.011266476215 0.018435723889 -0.014613878943 0.10351347371 -0.0043976510098 -0.028415982718
          -0.0043976510098 -0.016915559473 -0.0037304120607 -0.028415982718 -0.0037304120607 0.086993191081
          0.10054108438 -0.018708871566 -0.017618875547 -0.018708871566 -0.0081116041206 -0.0059769072486
          -0.017618875547 -0.0059769072486 0.08562040214 0.13294428118 -0.0013218417913 -0.01744184404
          -0.0013218417913 -0.0045268872257 -0.0071008179186 -0.01744184404 -0.0071008179186 0.085362752274
          0.1449405137 -0.0069320137074 -0.038211002345 -0.0069320137074 -0.022717341907 -0.012048404236
          -0.038211002345 -0.012048404236 0.061962163666 0.13433613154 -0.010650473009 -0.018495424153
          -0.010650473009 -0.015314974582 -0.013884375272 -0.018495424153 -0.013884375272 0.06464458395
          0.11645518006 -0.015215002377 -0.021898972456 -0.015215002377 -0.014549040635 -0.013748060639
          -0.021898972456 -0.013748060639 0.064519912614 0.11105911059 -0.015154533047 -0.033038876539
          -0.015154533047 -0.012615218628 -0.0055954822343 -0.033038876539 -0.0055954822343 0.090076858399
          0.35110940488 -0.00011620703922 0.030283329024 -0.00011620703922 -0.029048817266 0.020692590251
          0.030283329024 0.020692590251 0.27478588852 0.36754910406 0.0056442383309 0.020140820919
          0.0056442383309 -0.03786160313 0.021011480348 0.020140820919 0.021011480348 0.27965857197
          0.098359804027 0.0097589168697 -0.0098392735339 0.0097589168697 0.0094251692259 0.0051982333148
          -0.0098392735339 0.0051982333148 0.14797866685 0.099069131373 0.0077779780982 -0.012213455685
          0.0077779780982 0.014782481382 0.012390694301 -0.012213455685 0.012390694301 0.15411843763
          0.14658292694 0.023499739797 -0.0071311522742 0.023499739797 0.0083122450607 0.0050647853462
          -0.0071311522742 0.0050647853462 0.21050838295 0.39339554808 0.01336801601 0.016558927312
          0.01336801601 -0.01748382266 0.021482749028 0.016558927312 0.021482749028 0.33746046913
          0.354919941 0.02301394652 0.022859709218 0.02301394652 -0.02237317922 0.0021849881935
          0.022859709218 0.0021849881935 0.29341510516 0.3935848601 0.020297444434 0.010422581792
          0.020297444434 -0.026808268754 0.017208556141 0.010422581792 0.017208556141 0.33033901278
          0.39388761485 0.018607862819 0.0085507188163 0.018607862819 -0.021413461712 0.021549301572
          0.0085507188163 0.021549301572 0.33267195525 0.39211648441 0.020068754776 0.0077479521723
          0.020068754776 -0.020202123655 0.022312159679 0.0077479521723 0.022312159679 0.33231229772
          0.39142927066 0.022404401474 0.010019848292 0.022404401474 -0.026679365418 0.017419483296
          0.010019848292 0.017419483296 0.33027902593 0.3907703759 0.02092717577 0.0097126759179
          0.02092717577 -0.020473015026 0.017297654611 0.0097126759179 0.017297654611 0.33016958169
          0.39034305264 0.019453343762 0.0064737196895 0.019453343762 -0.019338882975 0.021933099108
          0.0064737196895 0.021933099108 0.34580490982 0.38489475645 0.019572565626 0.012396145095
          0.019572565626 -0.014185786021 0.018686961351 0.012396145095 0.018686961351 0.34031736057
          0.097373861478 0.0089452053518 -0.0082749301081 0.0089452053518 0.0022514661178 0.0068909118029
          -0.0082749301081 0.0068909118029 0.13622692487 0.32514468249 0.002344317008 -0.00094982000818
          0.002344317008 -0.081326857874 0.033438353873 -0.00094982000818 0.033438353873 0.11071312459
          0.30997411218 0.0031008431534 0.0032744427691 0.0031008431534 -0.062205953778 0.027058069173
          0.0032744427691 0.027058069173 0.11152367148 0.31726966354 0.012714034851 0.013786179946
          0.012714034851 -0.072555567645 0.020648881618 0.013786179946 0.020648881618 0.10883547378
          0.097332929865 0.010651298236 -0.013532103954 0.010651298236 0.0068297697841 -0.00014023086903
          -0.013532103954 -0.00014023086903 0.13674877488 0.11629251526 0.0053665034404 -0.020326464718
          0.0053665034404 0.0080216430769 -0.00057362361357 -0.020326464718 -0.00057362361357 0.11992362623
          0.002063459038 -0.008727333161 0.00081183723872 -0.008727333161 0.013197347894 -0.0038069059635
          0.00081183723872 -0.0038069059635 0.070427026609 0.023544998829 -0.013213219251 -0.025952857492
          -0.013213219251 0.012273034877 -0.0089664277424 -0.025952857492 -0.0089664277424 0.041695292163
          0.026847019618 -0.011981738814 -0.018680646147 -0.011981738814 0.009676484657 -0.011382454552
          -0.018680646147 -0.011382454552 0.049105333185 0.029627789881 -0.013001483557 -0.017657621263
          -0.013001483557 0.0064520947407 -0.016102036433 -0.017657621263 -0.016102036433 0.044236496698
          0.075098200686 -0.0052123022564 -0.013946842555 -0.0052123022564 0.0054228047852 -0.01850136849
          -0.013946842555 -0.01850136849 0.040642210189 0.088042958093 -0.0030985367847 -0.0012358108783
          -0.0030985367847 -0.0050561903122 -0.013108910789 -0.0012358108783 -0.013108910789 0.05210734787
          0.031175746028 -0.010900623392 -0.011150199625 -0.010900623392 -0.0053470878014 -0.012392283267
          -0.011150199625 -0.012392283267 0.055912098669 0.028668478327 -0.013210569653 -0.01678453489
          -0.013210569653 0.0092518579245 -0.015754139017 -0.01678453489 -0.015754139017 0.043450615173
          0.032351256153 0.0014652310497 -0.0016210312918 0.0014652310497 0.0027212630406 -0.004166925586
          -0.0016210312918 -0.004166925586 0.06376480892 0.030853936287 0.0018716565932 -0.0042307418453
          0.0018716565932 0.014799555458 -0.00054374908502 -0.0042307418453 -0.00054374908502 0.059913342265
          0.023191137583 -0.020364432226 -0.018652927404 -0.020364432226 0.0030538547054 -0.011167700888
          -0.018652927404 -0.011167700888 0.077126806915 0.089162575644 -0.014875478224 -0.013872882942
          -0.014875478224 -0.0037514680857 -0.010984976058 -0.013872882942 -0.010984976058 0.077466786732
          0.078695570466 -0.0059725585383 -0.033984641632 -0.0059725585383 -0.0031649408564 -0.0094533124462
          -0.033984641632 -0.0094533124462 0.068553749476 0.074564231928 -0.0091805275803 -0.025334743883
          -0.0091805275803 -0.0035837992903 -0.0085318702259 -0.025334743883 -0.0085318702259 0.0666507984
          0.073262491007 -0.0038556395185 -0.0057148107727 -0.0038556395185 -0.0030224009083 -0.0079982119942
          -0.0057148107727 -0.0079982119942 0.082205167353 0.073955443147 -0.00085384172771 -0.0028946782427
          -0.00085384172771 0.0096576522296 0.0032932666578 -0.0028946782427 0.0032932666578 0.091036604789
          0.066325236413 -0.012739835779 -0.0062498995743 -0.012739835779 0.007727859162 -0.0029237387088
          -0.0062498995743 -0.0029237387088 0.089620357442 0.071543999273 -0.0075431890246 -0.0086124326361
          -0.0075431890246 0.0050908576753 0.0044335740423 -0.0086124326361 0.0044335740423 0.078620573517
          0.19705405912 0.0073234976316 -0.014621321948 0.0073234976316 -0.036896399849 -0.00018903779407
          -0.014621321948 -0.00018903779407 0.097846815937 0.20462693753 0.001347152967 -0.0061576292969
          0.001347152967 -0.034073636489 -0.0042698389833 -0.0061576292969 -0.0042698389833 0.10374022336
          0.2064053236 0.0072390543081 0.0023865237462 0.0072390543081 0.0078487704971 0.028412999532
          0.0023865237462 0.028412999532 0.25856643681 0.27074886445 0.010099830767 0.019016882334
          0.010099830767 0.0060595170035 0.025605798548 0.019016882334 0.025605798548 0.25630135842
          0.27410119871 0.0096784422419 0.019144607088 0.0096784422419 -0.009566627002 0.027056336512
          0.019144607088 0.027056336512 0.25616904258 0.26743348824 0.013272210763 0.02343487451
          0.013272210763 0.015358276553 0.015404546676 0.02343487451 0.015404546676 0.25665567237
          0.21213097013 -0.0019316783892 0.010578089079 -0.0019316783892 0.015687418172 0.0067181309726
          0.010578089079 0.0067181309726 0.25955291473 0.20915757049 0.0010992470624 0.017660026774
          0.0010992470624 0.015357315075 0.0030902507049 0.017660026774 0.0030902507049 0.24735870578
          0.20820721893 -0.0094085468912 0.00073952426158 -0.0094085468912 0.023491994791 0.021469766419
          0.00073952426158 0.021469766419 0.28568209949 0.19829324639 0.0019966192641 -0.0095009923952
          0.0019966192641 0.029321879779 0.019048256902 -0.0095009923952 0.019048256902 0.28574811471
          0.21505175051 -0.0068523098317 0.00644197735 -0.0068523098317 0.019879332694 0.022872843936
          0.00644197735 0.022872843936 0.29031744126 0.27172871244 0.010632987894 0.020397940613
          0.010632987894 -0.00076490201679 0.0096164099592 0.020397940613 0.0096164099592 0.28673092341
          0.26687575201 0.0094647381249 0.022468518949 0.0094647381249 0.010805732535 0.013416748379
          0.022468518949 0.013416748379 0.28676737954 0.041009876417 0.0046376030888 -0.010219903785
          0.0046376030888 0.0049086370096 0.0054073353359 -0.010219903785 0.0054073353359 0.098985375548
          0.044616815783 -0.0056274420191 -0.0015892526392 -0.0056274420191 0.012608708896 0.0020497286926
          -0.0015892526392 0.0020497286926 0.098736666686 0.063717095455 -0.015293845979 0.0025845649381
          -0.015293845979 0.017302066138 -0.00088289312566 0.0025845649381 -0.00088289312566 0.096261941479
          0.058274697665 -0.003151083082 -0.0070543137835 -0.003151083082 0.0083842033732 0.0035706783892
          -0.0070543137835 0.0035706783892 0.095189994549 0.052333819775 -0.015758912251 -0.021672209028
          -0.015758912251 -0.0062109554888 -0.011678863009 -0.021672209028 -0.011678863009 0.07967841061
          0.1092659468 -0.017234828726 -0.029193537913 -0.017234828726 -0.006980952924 -0.01001806904
          -0.029193537913 -0.01001806904 0.078013752791 0.095529470563 -0.0005894581794 -0.021843318952
          -0.0005894581794 0.0039920147757 -0.00017584882777 -0.021843318952 -0.00017584882777 0.10776226633
          0.092908932645 -0.0058154992397 -0.026933953692 -0.0058154992397 -0.0051043874913 0.0017483398486
          -0.026933953692 0.0017483398486 0.090882902872 0.060861413775 -0.0056810135274 -0.024376563236
          -0.0056810135274 0.020028028626 0.0077263062789 -0.024376563236 0.0077263062789 0.10719435916
          0.086249458692 0.00056790614539 -0.011274964748 0.00056790614539 0.018066080047 0.008771547482
          -0.011274964748 0.008771547482 0.11259825003 0.084892281175 -0.004460086607 -0.017547444762
          -0.004460086607 0.011245450036 0.0048734070513 -0.017547444762 0.0048734070513 0.11528766386
          0.20099430987 0.0039278541651 -0.018098866379 0.0039278541651 -0.02840724806 0.0059290996202
          -0.018098866379 0.0059290996202 0.10657367813 0.1745625006 -0.0055578634868 -0.02352990919
          -0.0055578634868 -0.028128021215 0.0037343365762 -0.02352990919 0.0037343365762 0.10547413032
          0.17735561275 -0.001374351137 -0.027771046116 -0.001374351137 -0.022484778505 -0.002351038304
          -0.027771046116 -0.002351038304 0.11179953723 0.19430246504 -0.00087476360734 -0.015711343059
          -0.00087476360734 -0.022493753098 -0.0023066606354 -0.015711343059 -0.0023066606354 0.11629715593
          0.20394931575 0.001679503225 -0.011593746532 0.001679503225 -0.028238434572 -0.0036564551332
          -0.011593746532 -0.0036564551332 0.11361244529 0.181402557 0.0001862352198 -0.032742850762
          0.0001862352198 -0.027848500469 -0.0071181480154 -0.032742850762 -0.0071181480154 0.10246379657
          0.17123204909 -0.0027230786036 -0.02498241985 -0.0027230786036 -0.028658156368 -0.0044983967343
          -0.02498241985 -0.0044983967343 0.1036276964 0.17735412365 0.00057525635291 -0.026937285725
          0.00057525635291 -0.028098461104 -0.00023230935475 -0.026937285725 -0.00023230935475 0.081008311449
          0.17954009106 -0.0017445574349 -0.015004794285 -0.0017445574349 -0.030727036906 0.004114973527
          -0.015004794285 0.004114973527 0.089301275771 0.17607789896 0.0049599859386 -0.015790842723
          0.0049599859386 -0.031527803978 0.0025572365966 -0.015790842723 0.0025572365966 0.089901457967
          0.17649093747 0.0037036472038 -0.014517672303 0.0037036472038 -0.028347486176 -0.0045080850156
          -0.014517672303 -0.0045080850156 0.077925639195 0.17716723285 0.0013005648174 -0.022911131372
          0.0013005648174 -0.025317980666 0.0069781261238 -0.022911131372 0.0069781261238 0.087469938969
          0.17154249543 -0.0005689360256 -0.02541328506 -0.0005689360256 -0.02102211377 -0.0021360271285
          -0.02541328506 -0.0021360271285 0.10030778212 0.17095935035 0.0085127582092 -0.026000366626
          0.0085127582092 -0.020220697757 0.003223747925 -0.026000366626 0.003223747925 0.076484663375
          0.15756483876 1.6005871805e-05 -0.0264972555 1.6005871805e-05 -0.022046977721 -0.0052338740711
          -0.0264972555 -0.0052338740711 0.095070748211 0.075294155341 0.0027528603142 -0.02071979743
          0.0027528603142 -0.019122095814 0.0028495223747 -0.02071979743 0.0028495223747 0.066762147077
          0.079554790375 0.01626349962 -0.042276525816 0.01626349962 -0.0061166176218 0.0060461042183
          -0.042276525816 0.0060461042183 0.050074287258 0.10440916245 0.026751179399 -0.0064965571257
          0.026751179399 0.034314409123 0.002569907874 -0.0064965571257 0.002569907874 0.24123107625
          0.1299910249 0.032064218151 0.023738744961 0.032064218151 0.035262590118 0.010637533884
          0.023738744961 0.010637533884 0.256374094 0.17913527285 0.030361292979 0.005459274607
          0.030361292979 0.02535265842 0.012920269704 0.005459274607 0.012920269704 0.26290036809
          0.18191740699 0.028976222956 0.022270424265 0.028976222956 0.023785638786 -0.006565337693
          0.022270424265 -0.006565337693 0.30972160005 0.087184246051 0.0034439837138 -0.035533494004
          0.0034439837138 -0.019296522874 -0.0013384627577 -0.035533494004 -0.0013384627577 0.033641151661
          0.091165175575 0.0050668604739 -0.041844800351 0.0050668604739 -0.020394805102 -0.0081557921367
          -0.041844800351 -0.0081557921367 0.033410266538 0.090953101126 0.0040233079718 -0.045260830976
          0.0040233079718 -0.011959313659 0.0062952871975 -0.045260830976 0.0062952871975 0.050395572593
          0.12022871866 0.0015798296213 0.0085800067846 0.0015798296213 -0.046962473763 0.021266083208
          0.0085800067846 0.021266083208 -0.048756137144 0.11666734082 0.00037497343786 -0.015207873104
          0.00037497343786 -0.047095787993 0.019786975631 -0.015207873104 0.019786975631 -0.050349213907
          0.14887311896 0.0066207665279 -0.032246114709 0.0066207665279 -0.008312698199 -0.004322452477
          -0.032246114709 -0.004322452477 0.11175227411 0.14846053969 0.0051510136593 -0.030718846349
          0.0051510136593 -0.0095004591707 0.0045347574159 -0.030718846349 0.0045347574159 0.10898227063
          0.15675676711 0.0047168115745 -0.028648503197 0.0047168115745 -0.013199565276 0.0012607576882
          -0.028648503197 0.0012607576882 0.10680635736 0.14603874453 0.0098304468908 -0.03011442316
          0.0098304468908 -0.009131429112 -0.0018739930072 -0.03011442316 -0.0018739930072 0.11854518119
          0.15110298206 0.0080726264727 -0.027651122106 0.0080726264727 -0.013281203896 0.0024849018967
          -0.027651122106 0.0024849018967 0.11403214255 0.1696587827 0.0067737620327 -0.03906683476
          0.0067737620327 -0.013239766914 0.0033162173167 -0.03906683476 0.0033162173167 0.1210341942
          0.16598366406 0.0025913405648 -0.028926093946 0.0025913405648 -0.0080260143253 -0.0033293193745
          -0.028926093946 -0.0033293193745 0.12621408936 0.38295345213 0.022540269121 0.013357219495
          0.022540269121 -0.022734448115 0.02014337729 0.013357219495 0.02014337729 0.31934126181
          0.13672739104 -0.0047317654267 -0.032161014056 -0.0047317654267 -0.0062847720081 0.0015461112927
          -0.032161014056 0.0015461112927 0.12460917847 0.37863919775 0.021542777517 0.0095334271321
          0.021542777517 -0.0094244867887 0.018868870284 0.0095334271321 0.018868870284 0.35237237299
          0.3786684149 0.021082010921 0.0094048176566 0.021082010921 -0.0093169698856 0.019676269545
          0.0094048176566 0.019676269545 0.35273030376 0.37755849163 0.020158115179 0.0097545858134
          0.020158115179 -0.0097886565006 0.020323185447 0.0097545858134 0.020323185447 0.35304573519
          0.1080421076 0.011140175824 -0.023430749124 0.011140175824 0.0082148716026 0.0032745071073
          -0.023430749124 0.0032745071073 0.1628662335 0.11624703639 0.017116996781 -0.035557999559
          0.017116996781 0.004678603995 0.0033807916962 -0.035557999559 0.0033807916962 0.17066050457
          0.3761769263 0.017023281884 0.010387399147 0.017023281884 -0.011461772242 0.019953421675
          0.010387399147 0.019953421675 0.35332815139 0.065608664388 -0.0054507084458 -0.025931427416
          -0.0054507084458 0.0018667879033 0.0035671532763 -0.025931427416 0.0035671532763 0.043814919628
          -0.04058130483 0.05923643274 0.0070429930679 0.05923643274 0.025622942343 -0.014699093581
          0.0070429930679 -0.014699093581 0.033628083703 0.058947665919 -0.00416058202 -0.040663298185
          -0.00416058202 -0.0066601879617 -0.0034767651278 -0.040663298185 -0.0034767651278 0.051439950643
          0.0020994811482 0.0057714800654 -0.027605218908 0.0057714800654 -0.0025539093614 -0.0047741420315
          -0.027605218908 -0.0047741420315 0.048606260915 -0.011117963668 0.0015898401403 -0.024073729474
          0.0015898401403 0.020613884555 0.0016185426127 -0.024073729474 0.0016185426127 0.048799052087
          0.0025145138914 -0.0033171365605 -0.025308879874 -0.0033171365605 0.0042155182471 0.00010505704087
          -0.025308879874 0.00010505704087 0.048699888253 0.040306574525 -0.0036665248921 -0.019273984295
          -0.0036665248921 -0.0063595065381 0.0090517497156 -0.019273984295 0.0090517497156 0.0093119186454
          0.045770095185 0.00077126582035 -0.027546417453 0.00077126582035 -0.01148909881 0.00040096162983
          -0.027546417453 0.00040096162983 0.021410280206 0.043568463566 0.0010921416866 -0.036242913171
          0.0010921416866 -0.011520723797 0.00097471915991 -0.036242913171 0.00097471915991 0.018842499378
          0.061233694619 -0.0084342156899 -0.038587495414 -0.0084342156899 -0.030410702731 0.0045962147405
          -0.038587495414 0.0045962147405 0.018922439738 0.035527511339 -0.0032498107625 -0.033365852435
          -0.0032498107625 -0.0062889715113 0.012900986008 -0.033365852435 0.012900986008 0.032014327408
          0.11966516921 -0.012096509737 -0.035604124835 -0.012096509737 -0.010289702345 0.0014218335377
          -0.035604124835 0.0014218335377 0.0042434889512 0.063202047569 -0.0044398932674 -0.034807751656
          -0.0044398932674 -0.0067414113348 -0.0059486628949 -0.034807751656 -0.0059486628949 0.015731944505
          0.33034478635 0.024433963194 0.014611687812 0.024433963194 0.0024207245992 0.019681359149
          0.014611687812 0.019681359149 0.33800309546 0.28658191572 0.031859771192 0.011623260036
          0.031859771192 0.001732432564 0.020041431807 0.011623260036 0.020041431807 0.33783682664
          0.33101621291 0.017245188601 0.015915694282 0.017245188601 0.001330535484 0.0034136690658
          0.015915694282 0.0034136690658 0.34046753522 0.32811277238 0.025372109109 0.025473081122
          0.025372109109 -0.0076668317244 0.01447558573 0.025473081122 0.01447558573 0.31110757175
          0.17164515139 0.0060886617271 -0.028030034786 0.0060886617271 -0.016468647429 -0.0013892806375
          -0.028030034786 -0.0013892806375 0.12459565614 0.18384952342 0.0042796466023 -0.026600218613
          0.0042796466023 -0.017681350542 -0.00091966617441 -0.026600218613 -0.00091966617441 0.12444948762
          0.18271614897 0.0051927884818 -0.026738392773 0.0051927884818 -0.018398316548 -0.00083233302304
          -0.026738392773 -0.00083233302304 0.12446336044 0.18878930309 0.0016211183357 -0.017001999166
          0.0016211183357 -0.017176268516 -0.0037167672553 -0.017001999166 -0.0037167672553 0.13088083656
          0.15455699602 0.00039383683539 -0.013311126923 0.00039383683539 -0.035220844807 -0.0091509364503
          -0.013311126923 -0.0091509364503 0.0018676073374 0.14441162004 -0.0034307837271 -0.0016692721655
          -0.0034307837271 -0.033035332932 -0.013843144916 -0.0016692721655 -0.013843144916 0.011242679693
          0.12262164303 -0.012732703347 0.023334933293 -0.012732703347 -0.031568590206 0.015617509569
          0.023334933293 0.015617509569 0.047456399036 0.1200853049 -0.0050770476749 0.028962988816
          -0.0050770476749 -0.014637868559 0.0057505431681 0.028962988816 0.0057505431681 0.036234308394
          0.091065358215 -0.0091251813028 -0.013697035702 -0.0091251813028 -0.014548315707 0.005491782694
          -0.013697035702 0.005491782694 0.023045540794 0.095587718265 0.01717096185 -0.0021999633365
          0.01717096185 -0.022635259023 -0.0042785521241 -0.0021999633365 -0.0042785521241 0.015806496819
          0.158210879 -0.0034679658637 0.014898335026 -0.0034679658637 -0.047780561985 0.011185078251
          0.014898335026 0.011185078251 0.023581739345 0.078621867369 0.0024429418984 -0.025070083855
          0.0024429418984 -0.012865744293 0.0066886522183 -0.025070083855 0.0066886522183 0.029709714663
          0.097169413203 0.006162649793 -0.0085451254059 0.006162649793 -0.012715295319 0.0059677423329
          -0.0085451254059 0.0059677423329 0.017094121501 0.11587381919 0.0093294068828 -0.011648097986
          0.0093294068828 -0.028685057695 -0.0003306655299 -0.011648097986 -0.0003306655299 0.015589722696
          0.10358206019 0.0032487753459 -0.0062446922019 0.0032487753459 -0.021183135473 -0.0057731312424
          -0.0062446922019 -0.0057731312424 0.019480950419 0.10840284992 0.018657596507 -0.0065237350224
          0.018657596507 -0.031742005953 -0.0020586921051 -0.0065237350224 -0.0020586921051 0.019142340681
          0.1123825891 0.010120856439 -0.0039906184881 0.010120856439 -0.015257133984 -0.0026963354076
          -0.0039906184881 -0.0026963354076 0.0081638102042 0.096616364305 0.0081831729331 -0.032983942707
          0.0081831729331 -0.015471164391 -0.0048709819465 -0.032983942707 -0.0048709819465 0.034820013468
          0.12496255649 -0.011158499628 -0.00965112257 -0.011158499628 -0.021977941533 -0.013215211924
          -0.00965112257 -0.013215211924 0.051112801888 0.16217238491 0.010269509117 -0.031712703215
          0.010269509117 -0.030331178376 0.0025221280767 -0.031712703215 0.0025221280767 0.02510037203
          0.13264969472 0.0013983892921 -0.017214402727 0.0013983892921 -0.031216669693 0.0041816660456
          -0.017214402727 0.0041816660456 0.022066418701 0.1481441398 0.0079438874023 -0.0031369313893
          0.0079438874023 -0.034340347406 8.5284400644e-05 -0.0031369313893 8.5284400644e-05 0.017727671925
          0.14063835401 0.013818794666 -0.017008924489 0.013818794666 -0.0130752737 0.0010405035413
          -0.017008924489 0.0010405035413 0.011829597427 0.11598704535 0.010400202002 -0.0089498676042
          0.010400202002 -0.029042985169 -0.0046777640247 -0.0089498676042 -0.0046777640247 0.053394569691
          0.37896781818 0.019390981986 0.0042115281371 0.019390981986 -0.0089778551223 0.017866306954
          0.0042115281371 0.017866306954 0.35216470445 0.37796700958 0.01926691022 0.005786429055
          0.01926691022 -0.0089837724062 0.017899938903 0.005786429055 0.017899938903 0.35244610197
          0.37701963748 0.02007563144 0.0069470012496 0.02007563144 -0.0091957826949 0.01701502492
          0.0069470012496 0.01701502492 0.35104775291 0.37556044405 0.020013029132 0.0081238384626
          0.020013029132 -0.0081527524724 0.018872668697 0.0081238384626 0.018872668697 0.35322167243
          0.37679066968 0.02008104197 0.0073818556467 0.02008104197 -0.0082252237343 0.018941797379
          0.0073818556467 0.018941797379 0.3535100247 0.37944929196 0.017568004686 0.0048870575268
          0.017568004686 -0.0063079018685 0.020997120197 0.0048870575268 0.020997120197 0.35565086556
          0.38200905457 0.01907689117 0.0055638998153 0.01907689117 -0.0093254882756 0.017698295591
          0.0055638998153 0.017698295591 0.35233005273 0.37660340868 0.01967339339 0.0069109514377
          0.01967339339 -0.0090080839763 0.018452109507 0.0069109514377 0.018452109507 0.35506786316
          0.37657508737 0.019207994233 0.0060872008961 0.019207994233 -0.0086833172337 0.017787644326
          0.0060872008961 0.017787644326 0.35065304075 0.1746487431 0.035032874927 0.0048980846886
          0.035032874927 0.012504183527 -0.0042573805259 0.0048980846886 -0.0042573805259 0.25592835064
          0.16816759909 0.012021109243 -0.020311567793 0.012021109243 -0.015991582942 -0.00047575643434
          -0.020311567793 -0.00047575643434 0.13495113961 0.16257864401 0.0093597277863 -0.01672927241
          0.0093597277863 -0.013096741975 -0.0011026713542 -0.01672927241 -0.0011026713542 0.13396246582
          0.15288268673 0.0068345797346 -0.017190586386 0.0068345797346 -0.010247667006 -0.00061800908922
          -0.017190586386 -0.00061800908922 0.13404482826 0.15134251096 0.012028925609 -0.016814645986
          0.012028925609 -0.0078552082078 -0.0043146540102 -0.016814645986 -0.0043146540102 0.13424933144
          0.16867121439 0.0074185986986 -0.018782909463 0.0074185986986 -0.013399663937 -0.00081700180736
          -0.018782909463 -0.00081700180736 0.13316665024 0.18666259751 0.0010337177684 -0.019611570074
          0.0010337177684 -0.021718272199 -0.0020809940919 -0.019611570074 -0.0020809940919 0.12905410249
          0.18796616303 0.0044839678111 -0.021155593299 0.0044839678111 -0.018428036485 -0.0025274366555
          -0.021155593299 -0.0025274366555 0.12861456959 0.1840203571 0.0069201088942 -0.012418213138
          0.0069201088942 -0.017958615699 -0.00066307468006 -0.012418213138 -0.00066307468006 0.13596606587
          0.1844349615 0.0068326036824 -0.012871146517 0.0068326036824 -0.019180921973 0.0013284315417
          -0.012871146517 0.0013284315417 0.1335639077 0.27425215675 0.0093181692727 0.0078290298575
          0.0093181692727 -0.0049089932799 0.023652063186 0.0078290298575 0.023652063186 0.22627187005
          0.268776114 0.012942208849 0.001440780371 0.012942208849 0.00027417317963 0.015692763277
          0.001440780371 0.015692763277 0.23840962375 0.25602953723 -0.00063288393218 0.0056962164698
          -0.00063288393218 7.9213585061e-05 0.025314123176 0.0056962164698 0.025314123176 0.23880498559
          0.24218203844 0.019349897535 0.022007568063 0.019349897535 -0.019846780179 0.011394581737
          0.022007568063 0.011394581737 0.22997479184 0.26924389354 0.013564496013 0.021414902737
          0.013564496013 0.00072606657259 0.02458784121 0.021414902737 0.02458784121 0.26015190371
          0.27374138613 0.010252047509 0.017782426741 0.010252047509 -0.0041759437614 0.029160475935
          0.017782426741 0.029160475935 0.26259542718 0.30673845189 0.00052551651961 0.022383968497
          0.00052551651961 -0.0040558123011 0.028008124915 0.022383968497 0.028008124915 0.26322196992
          0.17905762874 0.0031579293451 -0.030673301263 0.0031579293451 -0.020211667695 0.0038565662698
          -0.030673301263 0.0038565662698 0.10482064991 0.1741755542 0.0061507041597 -0.028479204158
          0.0061507041597 -0.01979779155 -0.00087987688669 -0.028479204158 -0.00087987688669 0.1089499433
          0.18535916326 0.0032459820144 -0.021520697955 0.0032459820144 -0.019047192684 -0.0029168327817
          -0.021520697955 -0.0029168327817 0.099568494145 0.2906041086 0.0012063142913 0.011342350374
          0.0012063142913 -0.08310461223 0.010013665168 0.011342350374 0.010013665168 0.082587980156
          0.24334291894 0.0039295550882 -0.0099063929371 0.0039295550882 -0.075842281629 0.006827764319
          -0.0099063929371 0.006827764319 0.07565612706 0.24822728789 -0.0073136599941 -0.013645887082
          -0.0073136599941 -0.055836200787 0.01017611122 -0.013645887082 0.01017611122 0.073810133416
          0.2510446235 -0.0019339314867 -0.012571307391 -0.0019339314867 -0.046502501305 0.010666280048
          -0.012571307391 0.010666280048 0.07162232127 0.22399382848 -0.0064342399421 0.011630454271
          -0.0064342399421 -0.045674786419 0.019560594444 0.011630454271 0.019560594444 0.06500197328
          0.20947594318 -0.0080856808322 -0.0019727578478 -0.0080856808322 -0.045850831487 0.017213774609
          -0.0019727578478 0.017213774609 0.10636971315 0.23005602666 -0.0035186677537 0.011785918757
          -0.0035186677537 -0.047716505238 0.020281413481 0.011785918757 0.020281413481 0.064884767695
          0.24314688329 0.014797266144 -0.013612780668 0.014797266144 -0.045965651506 0.02192801704
          -0.013612780668 0.02192801704 0.062892748481 0.29435909144 0.014206998197 0.0083527709652
          0.014206998197 -0.062369994782 0.0072183403079 0.0083527709652 0.0072183403079 0.082616843491
          0.27360187982 0.0037330185916 -0.0012775594861 0.0037330185916 -0.049800543637 0.02657016253
          -0.0012775594861 0.02657016253 0.11097988068 0.26673584872 0.0055608254641 0.0068500640809
          0.0055608254641 -0.050136007713 0.02560701104 0.0068500640809 0.02560701104 0.11089592781
          0.27296994044 -0.014010756307 0.0072907394266 -0.014010756307 -0.039221087905 0.0077008217342
          0.0072907394266 0.0077008217342 0.10552423515 0.27328093072 0.0011943366843 -0.0018341739727
          0.0011943366843 -0.065691981626 0.013685660033 -0.0018341739727 0.013685660033 0.12718666229
          0.22052622466 0.013554504217 -0.00036298400461 0.013554504217 -0.019281555892 0.0010636010858
          -0.00036298400461 0.0010636010858 0.12458932789 0.21788440208 0.021126644713 0.0078659947357
          0.021126644713 -0.014686490742 0.009863538055 0.0078659947357 0.009863538055 0.13883994714
          0.2275070514 -0.0011880299645 0.023963551994 -0.0011880299645 -0.0283812026 -0.0048233317755
          0.023963551994 -0.0048233317755 0.15793477938 0.37547818738 0.019675070033 0.010767815216
          0.019675070033 -0.0068093883796 0.019891683834 0.010767815216 0.019891683834 0.35591524087
          0.3750710638 0.018879691894 0.012165463424 0.018879691894 -0.0059804120183 0.018801568722
          0.012165463424 0.018801568722 0.35724305136 0.37335829426 0.015162470271 0.014643150393
          0.015162470271 -0.0094075786803 0.020347386324 0.014643150393 0.020347386324 0.35682250581
          0.14824982392 0.006830122243 0.0008197426598 0.006830122243 -0.058708092966 0.0024939796449
          0.0008197426598 0.0024939796449 -0.030163602736 0.13860305127 0.0015625526975 -0.00037337285727
          0.0015625526975 -0.052224546352 0.0059865352557 -0.00037337285727 0.0059865352557 -0.028476404795
          0.37044149336 0.017330027951 0.019722354097 0.017330027951 -0.0068254221534 0.021671112998
          0.019722354097 0.021671112998 0.34824858219 0.10612350745 0.0070982360131 -0.02452854676
          0.0070982360131 0.010353235433 0.0032505269834 -0.02452854676 0.0032505269834 0.16014279968
          0.064194527518 0.0054861809154 -0.010280958421 0.0054861809154 0.024170397975 0.020687347806
          -0.010280958421 0.020687347806 0.15917632148 0.093496854043 0.008071243501 -0.030215688164
          0.008071243501 0.013749179204 0.00024088173678 -0.030215688164 0.00024088173678 0.13994395496
          0.087787258097 0.010571671663 -0.03088385446 0.010571671663 0.01268774023 0.0013458996899
          -0.03088385446 0.0013458996899 0.15951780188 0.091974520269 0.0079920820011 -0.037445932604
          0.0079920820011 0.01569920917 -0.0053701722508 -0.037445932604 -0.0053701722508 0.11962886131
          0.093082265122 0.011377015479 -0.035827817035 0.011377015479 0.014146118039 0.001772686139
          -0.035827817035 0.001772686139 0.12158624216 0.38281394933 0.02038131077 0.0092579930454
          0.02038131077 -0.011749677642 0.018355408653 0.0092579930454 0.018355408653 0.3498957005
          0.38646995334 0.020744296174 0.010593394245 0.020744296174 -0.014115363331 0.021007145743
          0.010593394245 0.021007145743 0.34774115145 0.38481583603 0.022870784864 0.012025833031
          0.022870784864 -0.013490093888 0.017518330713 0.012025833031 0.017518330713 0.34730854516
          0.38303372568 0.020996652418 0.0099470100759 0.020996652418 -0.010523356039 0.01977333371
          0.0099470100759 0.01977333371 0.35152949331 0.37843714523 0.018789831027 0.011676632971
          0.018789831027 -0.0098618606007 0.019892448131 0.011676632971 0.019892448131 0.35117263117
          0.38050055217 0.020360679596 0.015079143173 0.020360679596 -0.012471044431 0.020748707146
          0.015079143173 0.020748707146 0.35053979113 0.2065108303 0.006679681914 -0.011119960143
          0.006679681914 -0.076860688879 0.030230013462 -0.011119960143 0.030230013462 -0.0957825096
          0.16705241491 -0.0048427355871 -0.0043770482635 -0.0048427355871 -0.052286280025 0.0085414206993
          -0.0043770482635 0.0085414206993 -0.076902549557 0.14556597464 0.0055952238632 -0.015416829338
          0.0055952238632 -0.048444178687 -0.0050696727234 -0.015416829338 -0.0050696727234 -0.042181390554
          0.1481016318 0.006529169204 -0.0065620310992 0.006529169204 -0.057687772334 0.011966350109
          -0.0065620310992 0.011966350109 -0.031049518994 0.13260229649 0.0036451387329 0.0058639974367
          0.0036451387329 -0.048737417323 -0.0017957450239 0.0058639974367 -0.0017957450239 -0.02746377834
          0.12695661609 0.0023468280605 -0.045651916366 0.0023468280605 0.006106706712 -0.024784410791
          -0.045651916366 -0.024784410791 0.11227942255 0.12527868192 0.0029003916108 -0.038225550288
          0.0029003916108 0.01309570708 -0.019135967119 -0.038225550288 -0.019135967119 0.08855615587
          0.11837287329 0.003132181433 -0.040784945792 0.003132181433 0.013747818139 -0.014931361563
          -0.040784945792 -0.014931361563 0.11331442284 0.11569285183 -0.0004000116955 -0.038636722524
          -0.0004000116955 0.010113975612 -0.015217477219 -0.038636722524 -0.015217477219 0.12110629855
          0.1251883125 0.0048133031709 -0.018909838072 0.0048133031709 -0.037137241331 -0.011765084314
          -0.018909838072 -0.011765084314 -0.0092908955276 0.12915662005 0.0054755957142 -0.012173201802
          0.0054755957142 -0.038414668541 -0.0030020591461 -0.012173201802 -0.0030020591461 -0.03989474282
          0.17820306702 0.007698761903 0.0015477981376 0.007698761903 -0.039832261482 -0.004136581394
          0.0015477981376 -0.004136581394 -0.03808812392 0.14920674647 0.0030084252604 -0.0045122180236
          0.0030084252604 -0.037029195166 -0.013564394478 -0.0045122180236 -0.013564394478 -0.019319178446
          0.13565402253 0.0046415194115 -0.017463326532 0.0046415194115 -0.02622573062 -0.01522180143
          -0.017463326532 -0.01522180143 -0.022936869217 0.1475003527 0.017708673274 -0.0034714109749
          0.017708673274 -0.031474421142 0.0098249132019 -0.0034714109749 0.0098249132019 -0.011110431242
          0.14510138484 -0.016766043618 -0.034106060999 -0.016766043618 0.0016587322921 -0.047107614953
          -0.034106060999 -0.047107614953 0.14083541643 0.012956088551 -0.0010347142688 -0.045173337431
          -0.0010347142688 -0.010785433085 0.0034576418283 -0.045173337431 0.0034576418283 0.067806527295
          0.07983672878 0.016968962973 -0.043307085607 0.016968962973 -0.011137509586 0.032374131886
          -0.043307085607 0.032374131886 0.081983666678 0.089622765823 0.0079937756689 -0.018326121022
          0.0079937756689 -0.00290626235 0.0096243513575 -0.018326121022 0.0096243513575 0.051321888511
          0.020196915834 -0.0011055309019 -0.031177710554 -0.0011055309019 0.00038051300172 0.00030212651083
          -0.031177710554 0.00030212651083 0.061966238333 0.010762287431 0.015234981725 -0.010233816003
          0.015234981725 0.00083093955836 -0.0034205786168 -0.010233816003 -0.0034205786168 0.052326477741
          0.013794586217 0.0083164141336 -0.019652671386 0.0083164141336 0.012278720092 0.014116061211
          -0.019652671386 0.014116061211 0.077979575666 0.17059642016 0.0073473808521 -0.02642441536
          0.0073473808521 -0.037316843211 -0.013231486514 -0.02642441536 -0.013231486514 0.067655398348
          0.16941191831 0.002779762847 -0.025334932468 0.002779762847 -0.029305616453 0.0010428178262
          -0.025334932468 0.0010428178262 0.070613062352 0.16256343559 0.0064782009655 -0.027837426675
          0.0064782009655 -0.026580173283 -0.0016566189737 -0.027837426675 -0.0016566189737 0.073173225805
          0.1545203054 0.0015527741244 -0.033319885665 0.0015527741244 -0.02412204171 -0.0027048001422
          -0.033319885665 -0.0027048001422 0.070410232258 0.15545560269 0.0012795580148 -0.038062284011
          0.0012795580148 -0.024044247108 -0.0014288355446 -0.038062284011 -0.0014288355446 0.088524270275
          0.14270072549 -0.0026353602117 -0.032588323337 -0.0026353602117 -0.019965224704 -0.0071729818846
          -0.032588323337 -0.0071729818846 0.096613178944 0.15076553077 0.0038549379356 -0.020032521049
          0.0038549379356 -0.023713361041 -0.010007762795 -0.020032521049 -0.010007762795 0.097498580043
          0.16002518317 0.0035115585756 -0.024354517084 0.0035115585756 -0.026169869278 -0.0085416672624
          -0.024354517084 -0.0085416672624 0.098825332746 0.16159419793 -0.00034195052312 -0.029944184799
          -0.00034195052312 -0.016716836922 0.005276050973 -0.029944184799 0.005276050973 0.11802459878
          0.16135282586 0.0013912297968 -0.028474471242 0.0013912297968 -0.018157688078 -0.0041141172061
          -0.028474471242 -0.0041141172061 0.10919846543 0.17090670262 0.0020290367919 -0.025151763647
          0.0020290367919 -0.015652208401 -0.00035790834602 -0.025151763647 -0.00035790834602 0.12841340957
          0.17186131276 0.0032266578971 -0.031099813597 0.0032266578971 -0.015878469388 0.0005245364188
          -0.031099813597 0.0005245364188 0.12519541434 0.18085866126 0.0040489392307 -0.024394217971
          0.0040489392307 -0.015651705303 0.00079553693417 -0.024394217971 0.00079553693417 0.12689765071
          0.16532394801 0.00027306174854 -0.036625848551 0.00027306174854 -0.015830197367 -6.6212805236e-05
          -0.036625848551 -6.6212805236e-05 0.11070199226 0.16711221885 0.00098141037978 -0.032203898697
          0.00098141037978 -0.015554162309 0.0018130780731 -0.032203898697 0.0018130780731 0.11804930853
          0.14988375519 0.0003026944621 -0.034393080029 0.0003026944621 -0.015473743088 0.0011266363892
          -0.034393080029 0.0011266363892 0.12113290947 0.15089432412 -0.0061794867009 -0.028878979259
          -0.0061794867009 -0.012024618012 -0.0012956502184 -0.028878979259 -0.0012956502184 0.12275126707
          0.16716373709 0.00040417861065 -0.031557948191 0.00040417861065 -0.010998646161 -0.0029645145546
          -0.031557948191 -0.0029645145546 0.12298364984 0.16703090601 -0.0023025464609 -0.03136220165
          -0.0023025464609 -0.017008502934 -0.00019071608807 -0.03136220165 -0.00019071608807 0.12272522408
          0.15832774062 0.00051911578992 -0.025131840234 0.00051911578992 -0.018957434623 0.0017088956808
          -0.025131840234 0.0017088956808 0.11256371063 0.17440873425 0.0015385718781 -0.032062353473
          0.0015385718781 -0.018943777485 0.0016288259285 -0.032062353473 0.0016288259285 0.11301799633
          0.17220974721 0.001317729895 -0.030496524908 0.001317729895 -0.014609123977 -0.00033413023244
          -0.030496524908 -0.00033413023244 0.11293479992 0.15965315198 -0.0023483263306 -0.030438007368
          -0.0023483263306 -0.013436237859 -0.00082478889174 -0.030438007368 -0.00082478889174 0.11304945198
          0.15439509301 -0.0034517705173 -0.036545717797 -0.0034517705173 -0.012854867108 -0.0034508517674
          -0.036545717797 -0.0034508517674 0.10817781663 0.15384853374 -0.0033801475178 -0.030389747273
          -0.0033801475178 -0.012440630111 0.0012697857273 -0.030389747273 0.0012697857273 0.11096178189
          0.159504947 -0.002344212198 -0.027588751911 -0.002344212198 -0.01287265686 0.0041402961155
          -0.027588751911 0.0041402961155 0.10340965533 0.38287664018 0.021218081075 0.013214752005
          0.021218081075 -0.023094085811 0.015816796061 0.013214752005 0.015816796061 0.31923384303
          0.37599528704 0.022210676425 0.01459801063 0.022210676425 -0.021933191471 0.016784527272
          0.01459801063 0.016784527272 0.32000058585 0.37606287347 0.021706810784 0.014129976306
          0.021706810784 -0.018874058493 0.02005325283 0.014129976306 0.02005325283 0.32317196058
          0.38116920395 0.020548125091 0.013621471795 0.020548125091 -0.012490073601 0.022385674122
          0.013621471795 0.022385674122 0.33889054871 0.39436312476 0.015160736276 0.01318008232
          0.015160736276 -0.02164885265 0.02847767152 0.01318008232 0.02847767152 0.33428425724
          0.39386467742 0.013324532783 0.013183036137 0.013324532783 -0.027801536304 0.028982524016
          0.013183036137 0.028982524016 0.3346832001 0.39547959939 0.019811698202 0.0090198562295
          0.019811698202 -0.016938926679 0.020100006769 0.0090198562295 0.020100006769 0.34136983805
          0.38647220079 0.015135938668 0.0086585525995 0.015135938668 -0.014468431862 0.020934609001
          0.0086585525995 0.020934609001 0.34156867095 0.39223826479 0.015472198632 0.012153667907
          0.015472198632 -0.018422955909 0.021795186342 0.012153667907 0.021795186342 0.34357871178
          0.39847308395 0.024755076213 0.014367334144 0.024755076213 -0.019239700956 0.018295910921
          0.014367334144 0.018295910921 0.34011418859 0.39198223995 0.011878875386 0.0084734973874
          0.011878875386 -0.016766796276 0.02802909386 0.0084734973874 0.02802909386 0.35114711901
          0.38655677861 0.019156510982 0.015271940854 0.019156510982 -0.016612528614 0.023070753217
          0.015271940854 0.023070753217 0.34437422878 0.39440495056 0.018093637459 0.0078435841206
          0.018093637459 -0.016635845274 0.023778044383 0.0078435841206 0.023778044383 0.35087170273
          0.39396824242 0.015165408167 0.011375814943 0.015165408167 -0.02157617656 0.027169993164
          0.011375814943 0.027169993164 0.35032568602 0.35461270595 0.020669875102 0.017323762792
          0.020669875102 -0.0074252175838 0.014362959936 0.017323762792 0.014362959936 0.34804360478
          0.35515374922 0.020465528239 0.017589739695 0.020465528239 -0.0088490021653 0.01691489172
          0.017589739695 0.01691489172 0.34348726205 0.35571860069 0.018359813879 0.019360899341
          0.018359813879 -0.0019854959101 0.012333239152 0.019360899341 0.012333239152 0.34489992684
          0.3572034049 0.016073517082 0.019399200971 0.016073517082 -0.0095445133569 0.014208304846
          0.019399200971 0.014208304846 0.34456330603 0.37347802119 0.020788363204 0.016277716602
          0.020788363204 -0.013035262478 0.014145061055 0.016277716602 0.014145061055 0.34501635489
          0.37506582726 0.017536106628 0.014619401895 0.017536106628 -0.0067785810212 0.017481952286
          0.014619401895 0.017481952286 0.34673947972 0.36941240793 0.018586981777 0.01158730971
          0.018586981777 -0.0062340717247 0.017045949952 0.01158730971 0.017045949952 0.34646387276
          0.3696717153 0.018981318491 0.010082664211 0.018981318491 -0.005657603816 0.014661239167
          0.010082664211 0.014661239167 0.35479306522 0.36843410932 0.021060118682 0.015146736975
          0.021060118682 -0.0083878221841 0.01486584651 0.015146736975 0.01486584651 0.34485615144
          0.36753797168 0.0083695057841 0.018468102298 0.0083695057841 -0.0099779198713 0.019482009145
          0.018468102298 0.019482009145 0.34264782971 0.36924714085 0.020395581315 0.012238863785
          0.020395581315 -0.0075063345518 0.016061147001 0.012238863785 0.016061147001 0.34547277922
          0.37335626632 0.022095521756 0.014041779431 0.022095521756 -0.0071984114267 0.015949183899
          0.014041779431 0.015949183899 0.34440247228 0.3675761591 0.019015308602 0.016129928125
          0.019015308602 -0.0086875499254 0.017091553832 0.016129928125 0.017091553832 0.34365384967
          0.30365777314 0.0062563797641 0.010013007593 0.0062563797641 -0.0082784015497 0.025915328519
          0.010013007593 0.025915328519 0.29756362111 0.14098211344 0.036032037556 0.0026790708004
          0.036032037556 0.027094313161 -0.0033745903116 0.0026790708004 -0.0033745903116 0.20885707918
          0.12075087058 0.018282507735 -0.012286815503 0.018282507735 0.026763037807 0.0093464035623
          -0.012286815503 0.0093464035623 0.24163361173 0.12524346823 -0.018665150799 0.0050882601342
          -0.018665150799 0.026069348133 0.03660216153 0.0050882601342 0.03660216153 0.21377115532
          0.10765266291 0.0038562780941 -0.0081111616691 0.0038562780941 -0.016922416596 -0.0038209561047
          -0.0081111616691 -0.0038209561047 0.045255846065 0.12461668219 -0.00034989724147 -0.037480192873
          -0.00034989724147 -0.019282968179 -0.0083837671613 -0.037480192873 -0.0083837671613 0.054878763507
          0.2210263919 -0.028711673336 0.028668181338 -0.028711673336 -0.043688849048 -0.026655437298
          0.028668181338 -0.026655437298 0.10022122703 0.16505693787 -0.0067029045491 -0.015254276051
          -0.0067029045491 -0.030880891898 -0.010532758327 -0.015254276051 -0.010532758327 0.065814240812
          0.18057235664 0.044067246282 -0.054161570662 0.044067246282 -0.036886642866 0.011755970443
          -0.054161570662 0.011755970443 0.033362550661 0.14929440292 0.008206462128 -0.015375999528
          0.008206462128 -0.033881134294 -0.0050530394565 -0.015375999528 -0.0050530394565 0.070373205499
          0.14799552683 0.0065484780364 -0.017827324734 0.0065484780364 -0.023801186923 -0.0025720046386
          -0.017827324734 -0.0025720046386 0.068327444694 0.1330393238 -0.014090317919 -0.00068090826278
          -0.014090317919 -0.031398612718 0.0026727261104 -0.00068090826278 0.0026727261104 0.064911258194
          0.13036892838 0.0039783733723 -0.027384886244 0.0039783733723 -0.024127351146 -0.0045639009404
          -0.027384886244 -0.0045639009404 0.070514471194 0.22096263661 -0.025239873867 0.01544386051
          -0.025239873867 -0.036905218671 -0.0065370743804 0.01544386051 -0.0065370743804 0.084447808524
          0.10967515426 -0.0013948720028 -0.035736787246 -0.0013948720028 -0.014309465175 -0.0022542387614
          -0.035736787246 -0.0022542387614 0.062522305496 0.12997268797 0.0069824302607 -0.029562117726
          0.0069824302607 -0.011184716133 0.00038600871056 -0.029562117726 0.00038600871056 0.06437536095
          0.15898627413 -0.0045407868194 -0.014612126494 -0.0045407868194 -0.029593417123 -0.0077312803232
          -0.014612126494 -0.0077312803232 0.07020895487 0.13095861522 0.0046214061703 -0.0042867948072
          0.0046214061703 0.042589056886 0.018070141936 -0.0042867948072 0.018070141936 0.021017941252
          0.12643521076 0.015307428635 -0.0070500828859 0.015307428635 0.017442905935 0.027163833758
          -0.0070500828859 0.027163833758 0.086266441824 0.12636344237 0.01552519611 -0.010998729857
          0.01552519611 0.018642569143 0.019841007846 -0.010998729857 0.019841007846 0.069319024714
          0.13260326843 0.005219217653 -0.011540367222 0.005219217653 0.017456276442 -0.019529000981
          -0.011540367222 -0.019529000981 0.0047890829973 0.2285398578 0.076959105986 0.0070698891089
          0.076959105986 0.07527971875 0.054368257481 0.0070698891089 0.054368257481 0.0088005136453
          0.002412704613 0.0062885749761 0.0098740539549 0.0062885749761 0.0095964355508 -0.0053609830294
          0.0098740539549 -0.0053609830294 0.0047192648756 0.0066386287135 0.0017779959723 0.0034114735132
          0.0017779959723 0.013871392383 0.00072409100287 0.0034114735132 0.00072409100287 0.013377576003
          0.012432318002 0.0037297935235 0.015791130985 0.0037297935235 0.014490307972 0.0051342145331
          0.015791130985 0.0051342145331 0.038342733202 -0.031483883653 -0.030641083464 -0.0077067448405
          -0.030641083464 0.023766720719 0.0097947667178 -0.0077067448405 0.0097947667178 0.040457639713
          -0.068083433861 0.019424803665 -0.010048917885 0.019424803665 0.011824966884 0.0081197599154
          -0.010048917885 0.0081197599154 0.04072872914 -0.023104111587 -0.014925266298 -0.0033863573117
          -0.014925266298 0.032774397565 0.0038115116481 -0.0033863573117 0.0038115116481 0.041600506782
          -0.00087635793713 0.011544544232 -0.011909749733 0.011544544232 0.024911405897 -0.0013598515467
          -0.011909749733 -0.0013598515467 0.040530431724 0.011249351754 0.0034974998694 0.013074152729
          0.0034974998694 0.022093021691 0.0017767215262 0.013074152729 0.0017767215262 0.044358741593
          0.0067457198876 0.0085500894974 -0.0037548080546 0.0085500894974 -0.0025064917557 0.0049673333896
          -0.0037548080546 0.0049673333896 0.022351866741 0.18388472985 0.00080956666764 0.0080018269964
          0.00080956666764 -0.068522679623 -0.00098240820695 0.0080018269964 -0.00098240820695 -0.059068057266
          0.15293881197 -0.0076354513327 -0.012371426759 -0.0076354513327 -0.054571823553 0.0020777208494
          -0.012371426759 0.0020777208494 -0.067909850725 0.18993338428 0.0012447309299 -0.018433476476
          0.0012447309299 -0.021293766583 0.0017627059035 -0.018433476476 0.0017627059035 0.12877343604
          0.1942210591 0.0042161463182 -0.014316803695 0.0042161463182 -0.023043114935 -0.0032213703609
          -0.014316803695 -0.0032213703609 0.11583908758 0.083725132331 0.030824643485 0.011355726609
          0.030824643485 -0.054529621339 -0.00090264630208 0.011355726609 -0.00090264630208 -0.065146075413
          0.15137842842 0.004009993399 -0.008764766777 0.004009993399 -0.064628577784 0.0006479280233
          -0.008764766777 0.0006479280233 -0.06115329417 0.12334001693 0.0057993916722 -0.0074000345814
          0.0057993916722 -0.048856536977 -0.005046925605 -0.0074000345814 -0.005046925605 -0.063970547696
          0.12661144352 0.0014931175298 -0.015464893483 0.0014931175298 -0.043389635358 0.0077778528928
          -0.015464893483 0.0077778528928 -0.068291737691 0.10881953382 -0.021496951999 -0.030136881047
          -0.021496951999 -0.061792501235 -0.0022148225177 -0.030136881047 -0.0022148225177 -0.073279475472
          0.15029404885 -0.0019555527518 -0.0037314585702 -0.0019555527518 -0.052734552867 0.011234384406
          -0.0037314585702 0.011234384406 -0.063271504357 0.1524455157 0.0069461372183 0.0016672225886
          0.0069461372183 -0.042881340751 0.0081046954649 0.0016672225886 0.0081046954649 -0.073765118023
          0.17486546127 -0.0072511388149 0.00019202613293 -0.0072511388149 -0.064593566229 -0.005114585658
          0.00019202613293 -0.005114585658 -0.074528526705 0.17323899128 0.00025757118927 0.0051388089141
          0.00025757118927 -0.083747524691 -0.01133653044 0.0051388089141 -0.01133653044 -0.071775186608
          0.1943578391 0.00094071056565 -0.015078930796 0.00094071056565 -0.022389457357 -0.00017582498422
          -0.015078930796 -0.00017582498422 0.11721651224 0.19723698091 -0.0017327889688 -0.019759367783
          -0.0017327889688 -0.02032084191 0.0068059965964 -0.019759367783 0.0068059965964 0.10804256898
          0.19828469631 0.00033160470383 -0.020265887502 0.00033160470383 -0.030598106551 0.00013336233351
          -0.020265887502 0.00013336233351 0.10604267065 0.20064027452 -0.0066138493253 -0.013664797312
          -0.0066138493253 -0.025817263863 -0.0072424268065 -0.013664797312 -0.0072424268065 0.11523342751
          0.1910970482 0.0051192441741 -0.015826194085 0.0051192441741 -0.023607185279 -0.002267554369
          -0.015826194085 -0.002267554369 0.11911110999 0.12659364695 0.010125593787 -0.0334882418
          0.010125593787 -0.037874322989 -0.019903279767 -0.0334882418 -0.019903279767 -0.019291573186
          0.11838137807 0.013639590514 -0.056001356939 0.013639590514 -0.038419262907 -0.0015671898512
          -0.056001356939 -0.0015671898512 -0.0020059731205 0.11702568236 0.026246015445 -0.058477668563
          0.026246015445 -0.037208267198 -0.018725914133 -0.058477668563 -0.018725914133 0.0071058203881
          0.1145721285 0.020729459356 -0.050235192525 0.020729459356 -0.047560063582 -0.005507869273
          -0.050235192525 -0.005507869273 -0.0068182667847 0.16129352754 0.0017243559996 -0.0096843021288
          0.0017243559996 -0.068149560139 0.011960693003 -0.0096843021288 0.011960693003 -0.012354502043
          0.1603397619 0.0057446462049 -0.018698991722 0.0057446462049 -0.062258734903 0.0046168039716
          -0.018698991722 0.0046168039716 -0.0075323151071 0.13260599751 0.029371901366 0.0088762918764
          0.029371901366 -0.038055473161 -0.024366128212 0.0088762918764 -0.024366128212 -0.038328211606
          0.38353175892 0.016518588948 0.01654103076 0.016518588948 -0.01049674243 0.018631685726
          0.01654103076 0.018631685726 0.34917088887 0.3832624776 0.015998367793 0.018360471916
          0.015998367793 -0.011481717081 0.02234591815 0.018360471916 0.02234591815 0.33885975028
          0.38007964294 0.017385431107 0.014931938253 0.017385431107 -0.012413680075 0.023093066259
          0.014931938253 0.023093066259 0.34955540765 0.38048159978 0.01583458256 0.014845966749
          0.01583458256 -0.014428162218 0.022580215989 0.014845966749 0.022580215989 0.34948461559
          0.38163518614 0.017507758146 0.0145931125 0.017507758146 -0.012058193295 0.021990045102
          0.0145931125 0.021990045102 0.34866155268 0.38591072352 0.018715440029 0.012007171495
          0.018715440029 -0.013889404922 0.020646973306 0.012007171495 0.020646973306 0.350784879
          0.38587116405 0.018999512242 0.011644664216 0.018999512242 -0.010812307462 0.018804303203
          0.011644664216 0.018804303203 0.3513256478 0.38587033763 0.019598598045 0.011098381133
          0.019598598045 -0.015023450504 0.023108193708 0.011098381133 0.023108193708 0.34697857361
          0.38744262001 0.020114297465 0.014449165338 0.020114297465 -0.015421149631 0.025349862957
          0.014449165338 0.025349862957 0.35181634305 0.38743029621 0.019296544442 0.013423809438
          0.019296544442 -0.017746663569 0.022446376776 0.013423809438 0.022446376776 0.34819130728
          0.39092947626 0.020282105385 0.0100310553 0.020282105385 -0.021176528231 0.024443276965
          0.0100310553 0.024443276965 0.3491296159 0.38542449259 0.020236265523 0.012399661013
          0.020236265523 -0.015112687206 0.023540024217 0.012399661013 0.023540024217 0.3495707516
          0.38541024731 0.021155689586 0.011615941686 0.021155689586 -0.010834216432 0.020542225524
          0.011615941686 0.020542225524 0.35157934391 -0.025237311453 -0.008625886975 -0.0085685681894
          -0.008625886975 0.0080540439847 0.0092830433405 -0.0085685681894 0.0092830433405 0.025070132014
          -0.029422981505 0.0062315109061 -0.0032115552293 0.0062315109061 0.021840046278 -0.0048316369863
          -0.0032115552293 -0.0048316369863 0.018574978718 0.14188499247 0.0064262876465 -0.032868848635
          0.0064262876465 -0.0096514800266 0.00060590384853 -0.032868848635 0.00060590384853 0.12809019309
          0.14322704325 0.005932233172 -0.025346017554 0.005932233172 -0.0094708957056 -0.0019087196488
          -0.025346017554 -0.0019087196488 0.12008888658 0.1648064431 0.0085791328536 -0.027607999929
          0.0085791328536 -0.010682696275 -0.00017247161973 -0.027607999929 -0.00017247161973 0.12798484631
          0.16660206916 0.003813410329 -0.034567397622 0.003813410329 -0.016319977186 0.00025654969735
          -0.034567397622 0.00025654969735 0.1227728611
        </DataArray>
        <DataArray type="Float64" Name="vonMisesStress_forMV_lambda140000_mu50000" format="ascii" RangeMin="974.45500005" RangeMax="57373.520658">
          37121.087604 18593.37871 3986.0872009 25080.210466 35894.19042 14716.932035
          38938.050069 14237.042844 54896.071702 18504.876631 22491.933808 7489.0027499
          7712.5168363 17423.675354 35955.23876 12036.449511 24526.288623 24360.96363
          34776.862661 9208.7493852 37156.644482 19633.847681 30788.46877 28035.705384
          37447.783181 32973.954887 4953.0946429 21333.851894 6944.7535857 22322.565758
          34917.251368 28957.369247 23696.780242 21670.951346 18117.786117 12081.798127
          22688.533019 27814.26257 11654.784425 35118.86301 17207.28835 18836.407719
          37424.578195 37400.287015 14764.687168 13919.97113 18103.986135 4042.8861235
          38027.655799 15244.97674 22245.174579 22829.738274 8994.2103929 37851.454384
          13090.892492 8411.4849697 6266.6840727 9704.2246674 17037.963331 12843.848439
          16254.268681 11443.10192 22050.548491 13682.93662 21576.462205 15172.075852
          17859.147991 15598.496449 37875.949176 39447.863762 5571.2436118 7998.1102338
          6347.9168457 12549.360462 36383.379883 31413.307974 39061.523539 35541.915141
          24439.949466 5003.9696746 37738.604056 37729.009102 15596.360241 22838.531498
          20601.833615 21547.096627 14853.274823 37561.211185 17895.822748 16730.552589
          24003.202015 30911.974321 37477.477623 22605.673416 36721.136055 11339.89157
          5871.3342349 37978.619652 12794.729539 18508.493146 38049.077799 38463.916351
          12769.396401 20854.81408 17712.495962 27887.188601 23352.902982 9989.1940041
          19882.612065 8632.5348507 31624.252168 8034.8053757 18948.432921 37496.316511
          14316.945029 20135.063519 8510.2601571 10028.926134 10486.372019 11434.019472
          37482.86095 18179.092635 13668.267251 19031.301894 19770.632814 18562.443244
          34376.396571 6135.762514 15713.032451 37968.178809 36247.155017 21670.094238
          5790.9534164 13280.306898 13155.028922 13122.220228 29086.638161 17740.929692
          17195.307957 38616.861165 38067.057449 18159.062883 6003.523176 9602.3806411
          24314.077119 12222.955414 9790.0280424 35147.123222 22089.605593 14992.577268
          14211.914874 10959.345468 10266.525589 8937.1366959 17838.615985 9620.3446373
          36762.621513 18044.697965 38454.213288 11662.009039 11247.490576 17745.450637
          21117.718329 18011.030752 38169.514127 38013.079077 9567.0583854 32115.052699
          17547.146567 38386.556333 3428.0008127 32709.512803 6676.6221027 36337.434527
          11400.906474 17839.58513 37931.819295 37926.302639 29020.489914 11776.140051
          38166.64694 36911.451522 4485.938505 15731.286283 15700.152651 18134.053492
          16487.783058 24025.611197 38553.478012 23807.520297 38403.449282 15792.954372
          6130.5235556 10786.525 12610.120229 26691.252659 4744.4907049 13471.017632
          12999.492428 20028.969315 21334.514717 35821.081539 38545.895958 18428.64603
          37481.996249 29435.5139 12542.757432 17858.674979 16134.630522 4800.9902665
          13810.252636 37383.959704 8663.2658989 14725.608951 4460.9365133 25501.154634
          18754.194409 32392.087359 17726.933905 30531.788458 37879.799812 17987.720399
          7015.9907348 8056.4209345 34275.35162 13403.39364 38298.070444 20939.610414
          8731.6791395 41210.415642 6297.4234397 9145.2260177 21800.525248 15494.341909
          38451.16832 10234.27476 36044.501481 38741.78241 31065.659278 13838.839067
          19503.519966 18106.628243 11442.536989 18361.146307 15537.860145 38575.792101
          37557.337542 7598.0439247 9120.2027489 39340.354097 33241.51862 16225.030106
          18434.375332 39618.805328 15613.429188 15709.244523 13933.935086 18239.017245
          22835.881283 18972.343078 20164.109792 12044.364165 27381.083771 24668.944104
          18635.560523 21698.927633 35460.603533 37390.355647 35063.026626 37560.76924
          31799.591879 34702.261724 4688.1017794 15297.441761 12392.952832 17014.015531
          37790.945106 33777.314181 8993.7924122 18449.571816 17141.897196 10037.043459
          10521.350753 18148.233074 14276.832628 35280.635343 10889.120645 17713.274873
          18368.178921 19457.045032 16304.160018 18390.124136 24647.244288 28674.478784
          37849.979491 18713.049443 21360.287241 12965.553875 13993.910172 26574.47601
          22421.711899 2579.723217 19706.248273 21279.556223 37768.880624 36150.344944
          37134.121616 37764.011699 21289.434323 32601.820674 19113.307582 37845.599938
          4808.9645425 29058.722717 37575.223531 22368.97793 31863.057577 12290.302325
          20030.051685 20323.792325 16672.147489 15173.643068 11460.985946 19773.595147
          21171.808395 19513.655158 3615.1721548 28608.720056 24174.318854 17797.982048
          6841.1134979 15821.266785 18974.995018 15843.843213 17304.356607 39097.876853
          12546.811673 6301.6406378 38391.614459 8050.8119048 38707.568402 14445.540382
          19649.305636 10018.764818 14773.317348 35579.307912 15297.441761 11644.183032
          17560.437551 12223.456982 7475.3039641 13172.376651 22599.600051 17180.882929
          13685.19042 5307.3129722 10492.041948 34914.54367 37995.477783 38287.278591
          32955.992299 37162.99708 37113.714008 17965.767992 36689.01107 37776.652054
          21846.883954 19820.244821 11719.557776 15856.503102 11537.26653 36090.012597
          18490.201608 37449.979951 9792.6106161 36815.653238 10131.961149 9259.4687308
          18044.239009 37764.750753 28366.930666 38085.936797 8519.8638725 31487.85581
          17017.16521 17210.209718 35053.908939 30883.887387 9905.4151238 36941.071845
          11658.054161 3853.1238185 38320.862751 16055.240069 20141.797205 14184.346582
          15302.623962 17223.260333 12646.383992 18991.429524 17961.200674 15750.116619
          36004.313113 28676.932173 21515.950088 35595.514696 4939.8270222 9252.0627935
          21178.50777 18115.777626 18153.516683 17148.34946 7104.3460094 17598.123468
          15665.100506 29136.591333 20851.855173 9363.8969271 14037.005387 15937.536903
          33487.627901 49578.158349 19101.942548 17209.311612 12531.255659 33972.97874
          8017.3733228 17066.42459 31259.975216 19189.60602 38318.463747 8655.4097382
          39190.312363 40378.524432 19057.431196 25244.521667 38258.373688 12752.155082
          17144.366595 6960.3964094 8919.8739802 24075.415428 33054.693952 22065.433128
          14817.58813 35717.770946 14117.74595 6356.2453321 37998.377551 21419.482477
          35427.248572 11281.161706 17398.612234 10450.717074 24395.01457 37858.011621
          11422.878474 5339.4524856 22550.469074 7051.34809 17520.753832 12824.310861
          13176.299276 13247.798072 34235.858615 11239.895971 18554.929372 36039.688468
          10530.949458 10457.939898 12599.343207 29006.483831 19168.053163 16785.626329
          17966.577861 36833.500243 38265.675043 17251.615396 19440.631325 1619.60376
          18938.900486 4786.5388853 13412.763405 17518.673012 25682.079523 20625.273155
          12594.601073 28713.174982 35524.942112 30565.390649 39251.192016 9626.3538343
          19350.997201 36494.693061 10928.192058 30776.656323 38499.723256 11001.026019
          37831.57218 8593.2774092 14201.906814 14587.753926 17342.281889 31895.881978
          31016.262753 16378.9264 36664.642287 21806.478293 25702.648846 19089.742939
          13703.471484 38236.332792 19105.073865 15666.748345 8659.6859905 35370.60249
          19542.042153 21020.057685 30900.65248 19169.759478 18004.68795 38037.167505
          11741.326536 40896.056758 22500.6333 10439.161455 11272.640495 6127.8341509
          10337.438317 36607.239943 36665.703897 13362.210588 17431.991463 12848.410271
          22221.789176 9764.1069626 15064.848307 14417.041047 30130.635229 24977.834947
          36864.847172 36247.566577 21656.613978 38906.635029 53598.187103 10133.580072
          13823.227257 3004.2355925 12724.574021 18679.318955 35715.133361 15877.319985
          5819.2226072 17051.242164 27691.534225 13485.64246 38269.143206 6082.7148958
          16609.332684 3117.3609755 18051.439789 19062.98582 23888.193815 9805.0590533
          18819.857473 20816.389257 20785.606405 16878.082297 18256.271797 11328.105402
          19722.562804 12940.302087 22174.926356 15214.050671 37410.07218 38143.711827
          14467.682632 12395.452424 16666.313714 16030.700987 14411.990187 13368.440992
          6477.3017627 16795.541142 7877.5224251 25586.89771 10941.231438 10463.24645
          28226.413087 12260.812141 25948.190847 38428.61406 27928.900699 34288.019267
          12681.407352 16648.018624 34964.725197 6442.5895305 5502.3216303 37646.332998
          18241.086747 35036.518697 10013.345621 8431.6426123 23848.640661 24736.215063
          16743.798317 11020.607482 12219.529071 3890.0795371 18270.657334 34696.404076
          19449.993351 4046.4061807 10330.986824 18475.869134 22473.178042 20052.617204
          17858.209957 25329.119356 30963.371293 21924.032853 15596.964203 16764.316817
          38722.871837 10046.4289 17543.52561 16315.052147 34786.975554 10181.120291
          37737.542796 32916.539088 12751.420509 30954.592146 15275.819748 26616.546702
          33023.810132 18217.555481 16124.098312 17925.046109 30643.222861 11439.496094
          34204.76121 18950.129389 33690.982756 12394.079295 14186.138019 17724.515484
          11116.587391 21386.821121 33121.635573 16731.20952 17392.159486 38711.304311
          15759.181424 26478.880668 22631.411705 30934.697917 37706.432693 29088.814513
          30411.99232 16429.964538 17455.230396 37949.222076 22560.718641 9746.3400711
          28095.347249 40162.731913 38601.857031 11617.949262 18779.164309 24345.354008
          9446.9550738 36644.506474 12909.231864 19066.738157 15941.94501 9995.2637116
          14834.762071 9590.0405282 16354.771228 18817.914072 12956.596991 38805.933669
          10634.394353 29772.092913 39301.342771 17357.943035 13588.694552 30767.487432
          22358.093624 29702.92598 22621.246739 31655.360011 18267.405058 13312.591941
          35505.593286 14379.712685 37958.518479 11305.697431 18552.23635 18385.572497
          30349.880517 35484.495718 35353.693177 37666.205234 23586.392529 18608.132439
          34010.548414 16320.104356 16741.631321 17615.676693 12259.046716 19406.625538
          23608.181925 17278.083117 16764.331331 11150.713221 17267.785105 14436.604932
          37863.407487 23736.368075 16580.671333 18608.017577 32092.009051 14985.979128
          11711.030537 38561.104786 11516.10269 19207.680089 37440.267295 18340.915513
          8307.0998554 17608.406163 36156.631401 7663.2096801 35509.902793 37832.800687
          26580.992139 11072.266517 10564.934979 18562.002101 8785.4537142 17384.008574
          31730.021634 23289.166196 18610.416513 30466.732853 22660.278726 36319.388337
          18652.716304 17887.078605 14884.222705 17532.309888 18950.757873 24415.828418
          34491.34232 18191.978155 17213.468062 2793.8529327 4001.0023852 17659.781187
          35850.687387 3178.1642308 13346.7578 6329.0664605 16987.65091 9835.2084633
          19793.657517 14540.747464 28594.180214 12299.329966 10134.559062 11733.95131
          18823.153958 11884.504803 29160.61906 26697.355594 37575.733605 36729.002163
          14037.182827 33325.680883 21179.686773 37043.699846 16375.550104 13302.769294
          17433.130006 9557.1501705 25824.67933 38905.805936 26590.797176 21973.316804
          38908.280622 7279.4145237 16129.968092 37391.726163 7005.9913296 7604.7023756
          36903.639915 5046.9440832 5796.406492 32955.767903 12173.263949 38288.21495
          15802.585113 26291.098752 8530.9813416 19530.741769 10915.633708 4956.6580157
          35766.65184 37769.461965 12535.967603 42122.384262 5289.3743901 19700.491829
          37076.196247 4890.78447 5867.2552335 8039.6608388 12578.521018 19600.426168
          39446.331696 16537.14714 17471.875272 17744.019786 20242.213568 15945.644649
          12757.11395 34069.994997 17341.39143 13874.908868 38186.751864 12795.930827
          17839.949311 25682.275815 14694.014594 29634.489922 37964.69613 13202.417959
          32895.014818 19656.365273 19728.204534 11751.656296 16309.733771 37902.348309
          37922.146707 5422.8683972 13072.259307 34784.875316 29743.29093 16771.144254
          40058.663587 11479.785685 16741.073092 37419.060967 18423.48043 27578.396195
          30941.40255 38312.461891 34708.565809 9357.0851479 14164.528836 16572.625095
          27035.993238 5279.141913 7075.2125797 16098.66566 34220.664875 30765.069284
          17374.920563 3088.1992299 27266.411871 29021.142171 12353.036923 15584.004722
          30586.357399 19502.319589 14191.68754 37294.177691 7719.3515804 32303.233753
          34108.880458 14081.711371 27579.379708 19959.380643 19807.597565 30018.471626
          37405.204465 37622.001472 38231.441752 35103.002552 38320.029219 37434.255171
          37115.559375 14662.567389 38096.007994 16743.986609 21070.422433 10134.928974
          17590.917111 8991.9594237 15270.224151 37499.198038 19328.36457 17891.8122
          19048.870561 23750.63068 18582.11798 24451.723577 21764.515003 28724.725251
          13154.108314 10821.054735 44968.448893 38248.634977 13091.517541 37276.995551
          34057.223308 37869.653787 38272.267256 23592.391537 38460.741705 16154.843664
          15721.000811 13700.56194 18494.314493 18073.471222 15898.147824 18935.333646
          39224.234645 36311.032119 8575.74922 25877.924055 21069.060026 22714.131144
          30463.042577 36006.134015 27196.815239 6184.3744131 38411.359064 30523.068453
          8698.2784351 38586.30708 17437.031866 14702.511384 33691.573651 34184.893824
          21596.441512 13397.253296 37811.031093 41273.9327 28646.766084 39866.567004
          22348.029733 11106.609336 16825.232465 17842.734752 16798.1273 5361.188905
          24415.73714 23251.549927 13137.815134 28606.182415 33759.023596 37247.046731
          38055.264974 37659.75491 38160.643109 17146.903381 12819.028438 17014.361034
          37360.646422 4996.5873991 16836.491505 29236.141453 4807.207373 15847.223788
          36268.094436 12145.027181 9404.767808 33329.835281 36899.202844 38546.262193
          21358.434146 10593.143423 21883.918788 37424.845333 37311.774646 37285.325112
          18520.244722 38835.640475 14101.41721 37460.011376 17186.400157 36112.618808
          28936.99904 16257.081798 18459.834013 37871.669966 18402.34113 10781.504519
          28593.03108 37640.756938 5212.5965213 7822.0380584 21324.746861 6746.7592644
          12289.723357 15768.665034 13419.989964 16366.555856 35690.218884 10937.982253
          36993.407973 4933.9236696 20570.882275 34257.501076 23106.345885 15778.728828
          37385.333226 13456.840549 37465.386265 7381.2654513 28821.007613 37710.821302
          5521.6187677 33178.554817 19755.599416 38562.1057 6181.5058199 9453.5152584
          23191.886924 15372.443761 17858.416229 19566.226378 18713.628629 11440.065095
          16668.405999 38748.142545 5517.5184237 18879.642084 17236.372446 13995.982351
          11575.415605 7585.6365949 26197.195501 14288.025089 35285.435779 13940.347797
          4762.1618129 37189.226269 28407.742087 38775.168165 33202.146019 38369.618927
          34955.159338 19097.644468 17117.226756 9737.8506063 16961.801352 36371.2024
          15076.940055 13765.261912 34898.279059 37810.739629 26225.206185 10880.909133
          17551.514052 31562.294435 20268.708297 38570.50403 25062.250255 36195.985181
          9831.2429403 39322.251368 36032.389079 14393.844626 16348.70117 29043.428559
          5230.0304711 6903.4377419 16117.324453 34968.264635 13980.980091 10344.456024
          20452.908938 34227.582788 36645.008038 15596.541466 20817.996361 11678.270285
          7013.6693177 19850.12083 49584.850491 17552.152011 20042.10063 19381.367275
          16753.040387 3709.5919516 18376.987837 5815.3254171 23742.447432 10868.169163
          34107.468138 35557.761586 32326.183713 39490.756217 8004.125964 16392.415481
          28187.877483 9703.0176637 17740.951363 4814.0483104 37577.754341 16828.172697
          8049.705609 15542.723372 39599.949439 34882.894933 35470.028104 34623.368147
          38527.079271 5982.7624378 34667.923547 18649.30981 25205.377138 10675.558851
          17163.138029 38607.077832 19258.888482 18517.320395 32787.953523 13073.57669
          5897.7364998 9711.5080945 27624.124441 41562.221449 11723.943985 38471.016268
          37312.361248 11882.997628 22768.665629 38355.832066 4412.5114166 18576.032736
          17732.766359 34007.807851 36385.808911 16739.04623 13374.736498 12133.820791
          5259.7134747 9669.2588933 36354.125222 23404.078088 17656.630158 19835.670654
          5677.7160331 39633.862683 18013.22301 22816.189408 19866.430702 23011.388987
          6308.3967069 29186.519529 7053.4457825 18574.656371 39048.741376 36861.614744
          15866.262145 8250.9081469 20213.962175 36694.417114 11610.597015 13718.036472
          14886.351289 11729.517342 19713.855884 11148.69458 20757.804814 11312.535476
          34240.258907 32146.823417 35091.431724 18071.342819 13055.626697 9852.6571597
          12927.593482 13031.031731 16207.016248 18875.876182 35853.885268 16354.980979
          23107.325174 39119.604888 15859.216337 18253.743301 13596.166919 20835.917711
          14888.670215 14943.374975 36636.354743 12316.480079 15871.10124 10216.279061
          25212.910424 22998.437534 5089.3788326 36361.306808 38301.974405 30071.022061
          37360.405773 33818.403165 21294.21368 9389.6105328 35767.12905 38190.493778
          26982.634067 10323.442396 8790.9512064 17413.06884 37647.999008 22595.107061
          35992.078019 16452.686053 33036.743493 37885.736869 24020.055209 34886.766799
          31616.595411 4352.1997636 10227.151313 38036.337228 16106.76 19503.747272
          37322.148132 19232.727888 38476.370613 37617.647756 19361.254571 26525.511675
          5068.0721092 36921.535735 22206.74005 15751.54296 37243.369399 13720.833795
          37468.774128 13863.260234 4323.87423 19058.364543 37852.822161 6209.4657398
          17261.441519 19098.272624 38203.706823 24759.268178 18927.278996 16876.26876
          21303.687135 15873.100675 22186.459747 20725.478279 20522.421584 14980.108981
          37459.152825 36063.14923 29961.330456 26292.383194 18048.011127 40099.948679
          10043.564278 7553.7421498 23915.722836 19659.658277 14816.837111 38264.031098
          17537.639177 15869.271312 36960.886741 32537.073465 12184.225013 19184.856939
          16649.199411 18729.601011 12848.460717 37306.092406 13716.244171 37047.028029
          20270.187794 18331.108881 11830.258808 3110.7427295 21834.741275 18162.970424
          38883.452332 21893.448136 48059.420458 18242.119201 17571.99861 36330.350441
          12113.973112 10983.903578 35412.129807 39051.667455 19218.789934 8572.5498228
          20769.332103 19576.574794 31740.021881 12382.768623 17023.180169 38270.267344
          23110.006518 9658.0098731 7985.7987773 16433.126596 36399.696378 35737.205868
          10841.887989 11337.03886 17197.53743 19519.818493 8988.7085321 18208.867191
          24773.450103 35394.770757 10950.967302 38208.824481 14955.850006 6398.6984793
          28688.289248 8392.2143637 34282.862141 17054.486306 33791.578838 6379.8219669
          35692.466295 38804.449864 12369.814561 5837.387631 23823.4436 14000.715084
          19863.500674 13317.465441 5004.5550783 9626.3538343 14594.742943 13235.992584
          30725.678422 35265.441194 15786.846508 13213.519849 3071.3763038 14728.284391
          37925.611854 37198.744442 12128.086056 40467.755337 39866.330482 11207.851249
          34011.067146 39613.210991 36945.396257 20968.675672 25226.696346 24630.503075
          11805.128092 35523.199342 38284.954939 18347.607899 2516.6555804 12575.684903
          13368.034714 33397.086332 21385.208623 13139.694654 8268.2058883 8435.1508442
          12604.953566 37451.746787 35455.191252 19264.12086 18638.933034 17846.865135
          22484.801691 18600.058494 8784.805057 12418.132194 16795.982935 18108.423569
          38516.412006 14958.32392 8655.512936 37818.039952 5565.8223065 16479.782165
          22727.835831 10890.888925 18037.232753 32976.967394 15159.695451 18541.127465
          9853.2808555 34482.241755 8395.3725106 9880.1011016 37877.264311 33087.716372
          6873.6286837 33352.397197 16430.128164 35805.339612 8037.648719 36467.723514
          17906.174721 37826.47919 12950.856939 38104.108205 6532.4389849 22374.737895
          38831.843731 38528.360863 14549.666909 39263.354515 4819.5154534 4205.9825967
          2397.0732901 11567.235314 37959.385609 38111.418044 13495.427657 23006.522015
          15146.176935 39230.837836 21124.718428 18415.489412 5373.4183273 15671.174879
          20887.076354 9626.3538343 28889.84722 36723.465064 11061.361909 10601.550428
          3604.0093175 4018.7023465 23648.117166 15336.914206 26298.379871 7083.5731761
          26014.668879 9920.7499229 38327.454253 10270.238399 32900.791339 38733.462429
          26452.297574 35497.091311 41601.177579 34856.485735 21770.366442 37582.198595
          4435.1093118 38143.387574 10972.690123 35967.235574 30030.497889 20069.69016
          7013.6422453 17025.203963 11649.863494 17856.942144 19094.77689 18358.751056
          18852.413552 18487.422337 17213.927406 24158.837912 12997.439729 7790.4938015
          17768.018862 35527.296855 11432.169575 36141.208047 37945.892001 37582.101275
          13554.048675 37905.658384 17927.590744 17826.530896 37670.249757 38492.384971
          17694.004916 36916.747483 9085.2942275 10944.843777 37430.317826 37862.706998
          23047.031823 14629.146456 9405.7648666 19485.095357 18369.496563 32983.613661
          15040.15591 18925.444026 37107.345241 7825.0617443 14148.381077 31247.314582
          11973.48866 27835.725386 20714.272613 34172.644044 38499.352384 16634.197391
          37941.488315 5627.0697286 21645.138483 35512.233176 14779.509301 22605.669024
          28624.252263 43245.49743 17841.69839 12736.338673 17250.807311 36155.611393
          19277.172984 38190.663724 34003.587892 14251.992368 4317.1246214 18558.760916
          16418.456455 29638.254596 26448.116397 23248.501691 22846.687272 38121.103296
          27205.918481 38459.590777 23186.052383 16856.532139 16247.377055 5537.4158662
          36295.038974 36599.11507 38854.590669 23188.973299 15224.030592 35918.413092
          18676.184495 38523.789551 13717.513851 20691.488551 38254.239495 5332.8486333
          10486.834617 23814.269761 10692.209362 31839.194877 13918.246897 8221.9425715
          21281.253786 6169.2525135 17850.413937 19089.028555 39511.694159 17700.439179
          20633.884313 8162.5103255 11020.929339 12276.423954 27499.826368 16243.898354
          24820.72605 15718.750501 14429.420091 18733.492057 22912.139385 28188.957484
          6192.1789651 23658.415276 18172.609408 16830.242903 15081.730628 35570.664493
          24000.841244 12818.434953 9953.1739013 37545.925022 17737.805998 9665.6715563
          36706.399444 20139.6343 18799.414782 14339.636945 23381.556222 34029.20785
          7549.8466771 18025.924062 37114.596972 9176.1519388 38154.425605 38284.054744
          18586.019768 37600.851626 13296.285234 16714.176301 10450.557527 37936.894036
          17938.763246 5763.6069287 36026.691017 19065.988493 33965.881944 39605.62863
          19456.375179 37837.440114 20394.711253 37665.373183 16483.938466 36394.555589
          13372.553737 16279.245367 37503.585868 18044.579046 26059.872967 3660.3006907
          23983.447736 5084.4695439 39452.205147 37192.885322 2983.1319194 17504.889137
          15291.674831 15205.550518 20579.43705 10693.859657 28668.842176 14651.596488
          38526.173878 18537.351184 29993.008143 7128.3249762 38021.158968 3306.1283582
          23621.478573 31235.451211 32680.604277 28267.849665 9264.6629408 24654.493065
          20604.46208 20671.573976 9910.0787741 9019.6035496 32666.799675 22013.123246
          18256.085725 11407.801532 39168.478896 16085.333377 38095.552997 36963.263546
          31598.636624 17658.942427 35705.993302 21567.643153 18345.847625 17885.785891
          20924.514344 18406.534086 11047.005855 37638.857904 38333.819762 38207.186601
          35789.349543 9128.5910913 13516.585802 36165.561712 12890.197871 37687.581815
          18341.261603 33276.718635 14907.926953 11174.876717 21414.301268 28422.719972
          36299.71181 9803.8974785 7046.1367049 11728.209236 37641.766533 29781.09748
          16266.169214 20623.449027 8391.5128463 34263.549027 18708.721935 37596.250299
          36804.337768 38054.593565 9710.1308709 7931.9820399 15878.723203 35475.089058
          11438.353537 21657.279287 38167.739875 36219.01453 8364.5252656 19749.865733
          19051.648817 36534.807271 10529.676723 10794.018349 39780.00701 38547.949799
          16127.618755 38222.566104 7252.7715274 8228.6413161 17748.971828 18994.449755
          18127.558196 3247.8870371 17978.798937 12677.398766 15498.094351 16957.452131
          35793.447979 17758.985095 26679.125496 13823.660999 30377.234112 37884.430987
          19970.985877 36677.631618 8191.7870441 33621.181584 36941.485868 9603.7968052
          39045.548282 18150.881273 34679.688774 18049.216902 36218.244755 31381.46627
          38120.348373 35435.218398 35798.562989 3488.8962278 13602.317268 18365.710475
          11530.009527 38544.09392 38936.921507 36361.733253 10729.67435 15392.436757
          34226.899288 19691.769248 11190.332228 20104.378498 36827.789194 38431.354761
          12558.477214 15292.651055 8133.3524637 7532.0096696 20185.507289 8490.6513531
          12653.040251 35600.307374 21307.68763 26283.256477 38612.798659 7069.8290217
          22349.279928 8907.0537552 13956.707281 29468.034468 19854.675649 38158.123166
          19026.628634 18143.52722 38514.631708 13743.989453 23110.756301 8297.959917
          33647.357332 14137.812171 12520.569651 14217.671401 30811.317909 22249.59854
          17317.902614 36015.217929 10866.57876 17013.050113 38662.551753 6559.6037603
          10951.095079 2767.0346448 14470.197302 13434.046124 8680.7698461 14342.348733
          39066.220061 30837.079474 11136.373479 16280.436251 16789.183176 5928.1462335
          23640.563878 5731.8804295 21631.220728 37731.964307 7832.5277461 20151.602685
          15215.195155 36749.865747 27992.058298 16393.80825 36281.143166 16560.4132
          16333.140569 10006.161405 33591.2708 34860.057897 34442.856938 8190.4519678
          13444.881814 33140.536535 36134.010435 38130.633605 37717.304161 37042.488322
          15753.414048 9404.931944 10067.586166 17723.300497 15757.557149 17987.146211
          41155.358065 17905.845803 35965.696056 10880.643155 37222.942402 4825.3540515
          36835.28312 35741.600536 25996.413193 18001.077786 20369.499427 37491.843704
          15649.175561 17515.373078 18342.520831 35729.250125 13569.114431 15415.827659
          18384.2742 38316.61875 12686.592815 25392.052518 18790.843843 13646.961884
          38221.968834 31659.105695 37372.485526 25984.979625 7903.8241924 12675.75642
          20873.036672 38543.362907 7737.2988029 36299.412789 9619.1024191 34126.217766
          14714.365188 37293.282973 34926.638181 6033.5406935 37973.44289 23832.104518
          34408.683463 37769.855808 7387.4499611 7575.2778931 38642.765528 8625.2313775
          3295.7648153 21000.039447 8510.5049844 2810.3113702 11309.58695 36971.29971
          14255.386981 16873.119661 38908.286749 21740.61347 24640.168275 19362.19601
          18417.73885 37707.142208 16164.664776 7674.3001087 36224.367308 10986.475458
          35940.197647 33206.875581 37308.829572 37607.529939 17457.815023 36131.149086
          37666.723292 13253.255495 14723.805761 22633.167653 17185.908911 11581.37642
          14746.964186 15724.241547 18640.930539 36649.867124 38823.890638 20290.456888
          8808.4393481 15256.715071 14809.106256 17233.804105 33578.209778 7418.5376882
          19610.7521 20914.546431 12874.969953 14034.138377 29580.483683 15729.495402
          17747.079145 40244.002349 11604.512126 17205.38411 5369.6610515 20941.836474
          11960.181686 15810.315119 19764.179254 15575.026469 23280.246862 17461.317892
          20378.423478 22582.676128 29216.175969 37633.869014 14283.27066 13947.521217
          13907.755099 29333.306869 2894.8669164 14860.964134 29568.653338 22731.840675
          9996.7597427 37657.91909 19625.050595 36779.614836 8708.705254 37625.371785
          10898.081706 6797.089253 12108.851461 17862.983212 5472.5013473 18491.49158
          37556.654694 38343.047085 16033.557301 35623.583222 9072.6319576 9385.8123238
          38733.4706 8441.0769787 26135.970712 18872.292636 16299.132966 10748.57245
          15759.844579 16364.286569 14099.826283 11017.900678 38888.047135 14380.000875
          37810.575694 37286.222833 30173.016428 26565.050414 9053.4796919 12604.852525
          38718.350232 29855.672542 38109.132217 7912.1228516 21559.885178 37955.57299
          10732.317461 11014.527231 36415.349107 5655.7255516 17011.108731 11477.059058
          10505.76068 15692.488976 38558.806166 36593.289447 38369.044354 9784.2896068
          12838.457161 37483.199942 16025.080155 20051.625023 17089.671995 20334.172952
          17026.246058 36850.834653 38064.324142 21698.396793 29130.380404 31486.220266
          3134.4231783 37763.866657 39197.702222 33440.457002 38186.857578 18466.475552
          33650.060302 37180.006556 27770.545601 7552.4345243 19865.747633 17745.237104
          36272.620235 12512.084855 36959.095774 19401.28256 35018.292756 37604.051973
          15843.080144 19591.752101 12678.749892 32428.218234 12770.557065 20709.93731
          18081.243334 36253.154851 36089.033942 13254.772779 13512.4313 7140.4359209
          14431.230244 18737.174477 2584.6981675 18271.17578 10811.323516 20493.782794
          18669.048137 39810.604818 38435.648746 6493.817719 11615.092563 38719.443682
          17140.204957 36298.464703 4901.7293537 56829.395528 37306.033582 9926.624226
          36930.641127 27247.212454 21057.849856 28298.114807 24062.831159 15616.900647
          15264.511457 28978.900132 37916.864276 37939.577864 16256.652292 17134.914958
          19929.137123 18185.064351 27797.141846 10145.752203 12920.905215 15038.117751
          19365.49586 45126.708191 36733.202704 17379.963126 4567.793505 39405.199878
          8130.2862257 37684.315895 38086.837437 38309.210745 38902.456529 21962.592823
          9203.5424219 38382.257626 37399.499359 34145.545952 39803.43599 24461.426675
          38038.667182 30266.982013 17647.107611 8037.1815405 7120.6551965 18040.254372
          20459.272246 34251.825102 7719.2239348 15111.883298 19114.630419 10837.823573
          38944.120833 16516.23268 5732.5346579 14184.388743 33885.804786 11671.792041
          34346.101044 17655.507415 36047.63332 39591.329009 39692.978353 33987.028512
          11805.158076 32781.080431 39268.346266 21984.824943 21275.656502 20686.290089
          9444.4883159 18063.13786 20869.158058 18287.158521 2906.5549446 10992.926637
          15775.505559 19424.919843 12097.203313 26065.640461 23335.952258 15763.492594
          16564.676169 14490.161979 22070.773485 13381.116128 11835.551269 12968.711372
          16614.943146 18700.852091 33550.29626 4923.0142366 13985.050129 25909.611781
          39178.177546 11144.821482 38464.793536 32630.212178 9636.3354903 8477.7447788
          18240.008722 11012.653023 17570.497555 17578.561895 27871.598172 37652.548905
          36409.307956 14698.917974 20943.946243 30306.083686 36260.401723 33337.479958
          1901.3641965 14869.044676 24084.995134 6671.3883087 12752.769968 9309.0163376
          36372.565745 34869.919932 35374.797013 16714.147763 32452.754253 23065.727266
          16472.382551 38231.005998 13492.19477 18018.279598 13402.598604 28048.440313
          37987.411302 9442.67925 37448.267961 38052.602807 18123.502509 11510.179311
          39076.993255 23517.445319 38703.646075 8973.9311568 4479.0664272 18847.932511
          37414.635561 18076.771458 6623.0604836 13143.285266 4547.2688054 37720.268124
          9879.3397052 37730.17336 33269.242402 38592.487349 38162.512084 18279.877274
          34939.953178 16594.949291 38055.978469 13993.079828 38105.845847 25846.61444
          13712.563185 38179.768426 24835.767761 37504.96448 18204.855858 33662.834091
          33946.497605 14661.812142 11101.334588 38445.037367 15692.519753 38530.411151
          15686.088084 34782.36512 37482.698901 36849.795666 21973.153207 17868.597866
          21291.386616 37134.150492 35996.108988 13449.492662 36035.159289 35152.317736
          3196.9244065 28742.207897 24571.313471 18964.227402 39317.176066 38403.613374
          33917.379257 32901.132544 10517.921139 6563.1320463 37222.610454 12156.069693
          16452.505157 38572.050033 18082.225854 33482.297201 20882.941264 37413.923678
          39273.303943 16497.238635 22280.034397 18975.953044 17941.493735 18356.7464
          20381.860348 12346.849139 17727.392273 15121.528432 12232.303716 37823.640372
          10381.870199 9401.1738701 27960.824588 8936.3952887 25030.870108 19583.421713
          11317.118629 19637.622562 29012.50464 4049.0302053 16257.364197 25846.391147
          15671.736554 25487.612704 38552.240611 39051.248467 27661.911181 12247.475561
          16978.131621 35476.035167 15340.909912 35095.874193 17109.292656 11504.113986
          18708.833963 38949.560309 12182.224946 38138.257618 18544.529501 13470.540904
          20885.767871 19292.774536 37971.796308 26789.083174 25618.979061 23080.804734
          37494.33292 37878.408546 12215.145921 24430.919512 36868.380286 35973.835337
          17112.533188 9838.6958227 23868.856689 33964.534443 28009.726889 11178.342989
          18032.714342 6792.3227599 10696.19667 2789.6381568 36838.070001 37015.561796
          15962.096363 14240.029871 15405.795131 15957.967537 18261.183665 34869.114164
          10564.567596 36161.897928 8437.1183878 12691.831927 17759.010174 6690.7685001
          26049.604445 4511.6954576 23370.00162 18286.056355 38748.509553 36383.021996
          11765.44291 13023.846055 25960.168161 10317.682295 31631.832845 12873.932511
          12397.692333 29006.725961 19483.827905 14809.820276 17860.446127 15250.908896
          9032.9097004 11070.338183 18587.506432 12878.589406 5567.5481196 17145.498236
          13958.621985 37021.211367 17512.625959 14872.555739 23141.512943 4891.944522
          10652.41514 26725.994304 20281.582316 20733.474963 36922.467968 4365.6288115
          35963.439619 31013.44317 38809.566677 22915.669074 20436.084496 12495.732819
          39806.571339 37305.754973 2755.0394995 12019.513118 16374.85307 8737.2897852
          11066.595034 37793.85169 10420.022643 13384.538916 37680.03747 18750.999957
          16401.337812 18331.351542 19780.649822 35827.36933 8600.3956001 6699.0032761
          6815.3957949 23598.107788 15565.07895 16155.85554 9655.7951071 14351.657631
          33109.795969 18127.848451 19872.199766 34664.135117 51958.961042 10596.803777
          39178.792086 17227.980383 14909.349137 12389.980534 37276.403916 38298.764617
          7665.3187433 22477.84008 31182.535604 27522.892501 18372.425849 38077.604125
          17719.669868 14546.959101 26020.051048 12993.484177 36407.321433 18715.913263
          36702.922322 9683.708947 30866.769834 23753.535148 24814.952369 38032.320479
          21993.570326 38202.992983 38171.876637 28324.290013 23015.207419 10583.59857
          11737.97625 25914.899263 12024.996593 37924.326282 38746.080549 39151.93919
          15132.306935 14762.170581 11112.013354 14430.147551 37938.520227 38281.125064
          36580.090157 39762.464369 20688.911766 3451.0058654 36540.190223 17843.921544
          3805.6109586 10376.447884 8852.2900034 5016.3852313 16005.777417 9028.3759047
          18755.901422 37482.664731 19475.292579 18052.363031 22280.123471 19498.091957
          5474.6734479 15752.237077 23595.230226 16914.360479 5015.5199888 18297.040842
          37161.52883 18402.359625 20555.963852 30651.056182 26847.219477 10885.853926
          26157.009324 36345.100626 5340.0238801 14788.16331 37617.971315 33366.686465
          11420.654677 12208.978367 37271.723718 20123.147438 36241.295178 12388.335922
          12617.04855 16280.816327 17738.724597 5591.9827325 37333.777163 17478.850456
          17217.756333 15281.430764 16943.401884 7602.1710379 38473.06979 29434.129978
          37833.03932 16302.935672 18912.523666 20183.304842 36747.63005 11414.967356
          25347.657801 12073.496671 32760.828225 32208.313729 28731.847553 26102.633229
          29661.79981 17479.345188 23908.002521 16253.321598 11724.07406 11923.299351
          9935.8646247 9389.3727155 29592.470451 36011.254612 17445.928648 38988.511786
          8641.7020696 8905.1190252 3115.7313251 11046.269125 18078.558748 11542.449692
          15516.186193 36266.382041 37631.406126 16120.971915 36875.904189 19791.028804
          36463.903205 12246.421577 23851.609323 31500.451558 12116.839625 23270.657171
          8079.3227703 18678.482528 9250.6383381 36926.097503 22835.874823 15982.998874
          9766.7520938 18021.752327 35029.612048 37303.05615 39195.223776 10447.873947
          25148.657294 17101.063311 26656.546337 38088.134992 4548.5517639 3951.1990573
          5287.9367335 17707.003423 12993.484177 23721.161466 2251.1097088 9289.0345029
          22989.977479 32992.095481 22240.365441 22681.167441 15584.438641 15560.801984
          37256.408409 36740.445117 31252.252282 15171.691126 38055.338032 11630.351999
          19668.590453 13441.218344 22691.773562 15832.42358 13512.739787 35733.503317
          4892.9795692 3883.8927563 17180.317797 5178.605472 33404.957451 36962.497404
          11937.209106 22372.716002 17906.881747 17891.15433 12184.461834 25819.899152
          26468.943466 35457.290451 12153.718701 12668.51179 12378.922398 34460.729645
          38118.142314 37452.228766 14064.298454 38729.441294 36309.300245 10550.354033
          22157.327913 10773.525592 12313.071393 35124.677449 13441.494571 13912.606172
          2636.1832439 36465.721651 7394.5856082 18489.41014 38902.0042 9463.2396364
          37475.351603 39046.812913 38350.663633 13175.355877 14182.797568 19056.972193
          44861.881331 34525.231328 4643.4458633 51305.820491 35127.078051 33104.756323
          38511.960639 20462.364717 16181.286187 37398.520959 36749.344843 3384.2950031
          12213.892885 8666.2912077 38508.955148 12058.086329 13228.27654 35630.538341
          37006.282019 12838.693531 26458.765798 23716.217305 29135.841159 39981.050909
          30213.248979 18341.081832 14508.508435 13927.152829 6540.8849129 42170.283504
          38838.450605 42474.468508 17720.414778 11625.702412 36606.395202 30516.786588
          34252.321631 36310.125508 15103.941751 17233.626344 25858.79801 4719.848592
          17611.011825 15947.243446 34399.020916 12985.638462 9296.895957 26187.493721
          16238.971294 10979.562745 11917.56049 30372.405272 20049.396138 16123.10214
          19864.055398 18618.263725 18046.833957 37803.898321 37733.114815 5152.6292077
          19612.262863 18063.370543 30313.718176 32818.009569 20280.972206 37085.846832
          14907.3154 19172.823979 5864.9132767 38627.77655 16825.140066 10863.268583
          17250.312956 11847.401076 37913.860098 13679.372257 11150.475762 11719.27146
          36252.475394 27611.082662 35621.261357 8264.7543091 29070.023602 6298.7752714
          28933.625401 18037.736269 16083.144841 29185.086167 18295.605398 6426.5913745
          12703.407705 5464.711867 19320.138705 6614.6779491 13681.807305 16829.726727
          37479.207163 5351.2271673 31066.910812 29584.513274 30150.254366 17253.48023
          28573.886074 34577.036684 19303.014376 18478.056042 17700.937916 3276.0426266
          16694.190567 8342.0884788 15190.156762 18475.679494 26138.593638 36100.629233
          17498.16273 10489.511117 37751.876595 38304.802357 18562.48245 13341.85694
          31492.211365 36124.04739 16917.535005 9768.8914001 34988.635811 17279.830831
          38335.166649 14189.375158 43204.890414 9456.7516936 15288.93276 15651.847946
          25211.576924 24202.406707 33892.212589 37607.863698 8186.9494393 12090.992881
          37934.757335 20522.497959 2875.7396248 37866.067602 14340.995046 23670.976962
          25351.272983 24765.875237 8668.1571994 11814.558874 15808.189228 21486.34851
          21294.780541 9555.3608505 16675.260944 18579.561073 36485.311595 37313.56876
          37394.421069 19289.911982 30534.450376 36280.917606 35105.143029 34520.56006
          38873.226211 34814.391888 16999.193918 4136.7946638 7597.6646757 15891.091267
          15530.058014 15748.120743 32678.859893 20081.890899 19439.539463 29083.365492
          6144.6238523 15425.100297 9555.3909395 24814.122472 13043.092528 35854.169234
          35602.31305 3734.1486265 12895.49134 40325.019204 35916.576873 36900.94922
          16773.359465 35791.557945 10361.600319 34831.789669 14527.56734 37941.091846
          2633.6965048 11329.168938 7799.613885 8618.5168414 37605.110799 22028.424722
          19777.993184 18230.453679 38676.576562 2896.6426654 24792.992378 37938.178155
          37332.003901 16150.271319 11930.476377 10180.649834 24092.565949 24139.31682
          34679.131733 22998.775396 15620.435215 27105.636964 39598.370746 40064.731556
          38243.902374 8007.03369 15441.585467 12750.329682 24420.585909 20257.861549
          19249.430836 11086.931723 33557.550678 16977.693421 19923.807063 20912.616423
          18168.196233 11836.323125 37679.72093 32692.360528 1994.2330197 17534.856929
          27710.877553 7706.1026306 37748.425534 32948.569117 38240.074056 33941.126318
          7397.7102683 14410.349583 12978.278743 11830.637203 13978.275688 18685.313391
          55433.105075 13453.934979 22532.822382 19630.306287 12363.880897 27377.785291
          30111.18709 36625.005237 10502.618187 18931.478573 28248.414149 34747.018918
          20407.518697 19025.348252 37176.141854 10979.0098 27427.05364 11775.07011
          20495.481541 35698.124224 24043.006041 2745.0608311 10828.042901 36775.994511
          21347.804981 17240.585667 1842.3909286 2574.3872908 17995.199051 9644.5637161
          8913.4051239 12681.696959 9195.2166783 37707.202901 39163.724743 17071.553722
          37683.665788 39000.304532 39049.648731 13414.831704 37624.827437 5045.014391
          10430.627585 34020.679035 36374.280337 21264.468934 38275.120036 7125.7510315
          11033.084523 11612.382698 8842.0732636 18387.896342 21230.614263 39352.457623
          34617.674974 31042.640874 33665.85947 24996.214076 25294.015021 38775.304085
          23184.266442 38469.714648 25558.676525 22117.716616 23745.15274 11387.328761
          15518.180826 18811.135482 37353.336368 17339.699741 20808.587852 27721.542282
          16036.16165 9741.7983046 24417.797754 5742.7498299 19784.601283 20944.569522
          14891.824044 13858.598337 14521.160447 18174.341843 18256.349943 9011.9406433
          31805.130858 22399.778523 18653.694775 17803.041295 32833.283923 18467.555364
          12119.434544 39054.893487 32974.924777 15951.058354 20205.124854 18805.40678
          5753.807353 38659.649707 38223.807404 13431.352448 10836.628198 18942.271445
          17875.842187 31527.694566 32995.082893 33288.609933 34793.962349 35832.781779
          21496.540166 17592.79866 15596.160929 24261.413578 38939.781488 15095.958741
          33305.269119 16780.887689 10339.428671 10295.821413 12044.41093 38947.441212
          38635.961346 3265.3984459 18776.237688 24403.807373 11191.084986 29643.818419
          35664.439402 7256.7049877 16206.981557 15188.174235 21564.658941 8608.7879271
          16840.098683 14107.707788 30308.444573 14350.026342 18861.511098 18822.368626
          21837.449058 18726.507362 18473.258728 8409.0845615 7715.8436018 10201.158407
          17655.595755 19320.007327 10433.978645 10047.454408 17909.065337 35684.535047
          14895.708469 35145.240261 35619.922216 22149.285408 19312.663278 15202.632842
          18843.059583 37790.242532 12326.715707 10981.481559 14968.33943 20053.261842
          20751.241806 8847.7650697 34820.648751 39233.952037 23038.75071 36794.148018
          18549.268365 37091.20994 11625.402382 37985.924376 17473.142343 13933.936994
          18113.999619 27245.078498 25238.188584 14377.025517 7461.3529379 36709.579647
          37155.968842 37983.299046 21127.147373 21917.931781 23511.670471 15623.1055
          36753.671272 37406.337107 15842.247482 39492.997876 38580.781171 11192.325407
          9805.8912944 36621.171926 35993.958269 6309.9706977 4318.872678 6361.3603289
          5630.8423706 26245.485432 38337.574771 22794.652323 40638.744016 13653.482902
          5890.5611147 32176.364474 29080.138924 37087.942416 13704.0549 13996.042512
          10223.535248 35867.664037 36840.594758 38749.403093 38313.409892 37892.623453
          38598.457975 18340.646187 10193.499568 15297.441761 31877.876947 18150.647899
          12176.222479 11007.555935 37239.770952 22470.621635 10183.238379 12169.583316
          14414.616018 24076.093517 25528.463459 16903.547568 37170.746439 37989.325436
          39211.942085 17712.027643 18415.180176 16107.301256 16765.432321 24660.083619
          18394.163487 11517.208638 17358.681193 8410.3018384 13397.20189 25565.761252
          6781.9152592 32531.926934 10323.808857 7218.8411113 21562.359335 12939.131641
          31312.110859 33667.104505 11910.251415 29362.035849 15309.728796 18013.132221
          34005.006419 24109.648455 2046.6370152 1987.8981467 11430.748831 27214.287857
          37049.786858 12826.64757 37580.690564 37328.207257 36451.932764 15970.376422
          22091.282458 31650.545248 7453.3041981 9245.9048457 5946.8423089 13683.477877
          11248.684247 32223.27633 26305.572334 37479.965663 14507.059803 16834.094197
          17350.912663 17979.172041 13574.932538 19323.927894 32726.07334 18652.245478
          38762.873434 26186.489757 22553.598434 11263.668613 11859.320185 21886.670289
          25055.899459 27019.076422 15124.784863 16803.898127 15959.068811 14705.207784
          9313.5849005 18978.216002 20844.382041 37966.459047 25768.40389 13482.133345
          37231.410553 20960.655992 27687.83603 26251.181637 35068.369013 14334.791618
          17956.375177 18067.985553 10985.048859 13385.00085 18053.207645 14134.588681
          10427.545926 10554.227122 8529.2805688 9768.0334873 10402.171591 14120.186823
          9877.1284338 21771.147933 30914.544997 33424.727094 31744.843381 8205.6290015
          9844.9986963 38144.313345 35139.397208 34696.833613 25290.003751 36537.182579
          17290.395415 18431.892363 37919.018103 19856.089377 38210.978465 38448.567453
          12616.291456 10450.019474 9227.2077255 23001.97572 9298.3482247 9581.2036655
          9607.9859744 34161.618413 14109.725119 19169.039257 13912.205543 21096.388963
          16108.590318 13442.296343 11161.287651 37464.083246 37591.297851 19357.79103
          18338.202549 13526.703255 23831.101151 16892.74878 8365.6277516 21234.468101
          16074.736724 16235.991806 18364.219908 38038.423579 18630.286293 16378.453076
          16388.499059 26225.903845 10834.707689 2804.3117334 38409.310078 39192.725446
          12285.181266 29007.508758 12697.909916 30167.279511 24900.502552 20139.800691
          37786.09006 38469.348479 12207.123841 33118.121727 33615.021747 20129.705829
          33986.092049 39171.748929 37729.452065 37464.644851 34104.259167 31852.200198
          32384.628966 9965.176409 16062.764691 31464.67827 35463.2814 36606.594445
          36772.307464 26911.728013 35847.829795 36841.065209 14004.9811 38569.719639
          12014.169683 8074.484569 17491.286323 32815.610246 22579.622152 36623.727433
          34349.497148 38095.469975 10063.489056 38153.425203 34958.375632 9581.6858972
          2293.3956228 7209.9993891 24852.529575 15976.144437 15805.093898 16521.105527
          36210.432292 35967.984731 18522.124467 18581.990588 18354.213193 18516.275691
          21370.241287 12683.785187 30543.04387 39297.450815 10757.206737 38213.402561
          8926.30635 17448.163945 32722.717853 33331.260375 30876.726775 14003.034724
          31505.27794 30156.154325 34035.593292 21141.1102 14956.675463 3035.9647453
          37753.878138 38315.452747 20576.573276 14266.130278 37924.580181 38076.444533
          37444.77016 33183.520516 30504.945624 12201.508275 18153.918294 11386.100819
          33112.471612 33494.886106 31783.701555 13484.4988 29470.363518 22144.200526
          15360.968205 28342.72338 12647.520687 14503.309131 8596.3154342 37490.355357
          18223.442951 16130.599169 39615.775804 17609.329455 29926.08414 29996.679806
          15791.691503 11581.590951 14115.686093 15648.263027 9814.9150026 11753.96219
          17033.517352 37379.395183 37680.941403 38398.733932 20233.285277 35397.420158
          14897.147496 7222.7351706 19266.050772 25278.911981 18029.704777 36353.722013
          21493.326889 11826.062633 14656.785737 13896.102065 30667.082899 17903.199909
          28913.432409 4618.9264009 38044.088823 11386.63076 15426.401855 11402.789822
          38615.878078 11940.85756 17511.427333 16874.085006 8172.9988997 8512.2338311
          33956.822883 10402.506119 9395.1372436 15966.098504 15513.237431 15436.10242
          17420.913235 5818.7452182 18597.229696 19896.791539 21769.158518 24135.957061
          15764.189276 17075.012127 38120.898315 37774.163265 37528.820636 8800.4769826
          4742.21299 37910.19073 13154.757744 37652.133115 37677.349779 26295.797301
          27440.410482 19284.742252 35331.157824 23514.734687 19506.338053 25397.004077
          24675.651308 26797.620878 21126.939897 24678.34857 36452.420535 35726.907903
          37075.396523 35257.256682 35429.099841 37578.423811 38134.894412 1191.1045833
          37372.730034 37319.520963 31222.660768 28871.36211 26832.528831 35609.590919
          36914.017366 33710.113845 36557.763402 37281.04221 37367.155286 14453.111133
          18568.958815 29980.859404 28365.380271 3287.5528099 38026.997181 11573.619291
          38980.477938 5748.8722733 18912.784573 25512.5321 8628.9418259 4409.0467378
          13476.087985 3696.7804997 5647.4536147 5439.9574775 31121.268545 30253.83086
          4461.3783574 2586.5690474 37634.572718 19014.706549 18205.705915 18267.748768
          18126.326715 18593.368645 38888.361051 38255.296096 18711.267859 17824.767908
          20605.769688 26822.700644 9992.4452377 18145.093538 12214.973064 24467.313394
          22711.160687 6655.2858815 37900.613482 36421.539254 39551.103001 41386.01214
          38499.042716 37191.018463 37430.065697 37267.791148 37964.148879 38248.25143
          9140.9464831 38307.848506 38662.502928 38533.172459 20380.45994 9749.810001
          36857.090578 38834.581922 30848.64654 38807.721982 24683.498944 2840.0582249
          19911.465126 29114.443338 26692.597352 22336.74489 23667.056907 30285.950787
          17939.561267 17038.00129 20631.706577 11315.052735 18560.120493 20435.452787
          24421.891521 15107.737327 16743.649563 39922.35165 15999.415568 16699.146373
          17344.115556 21468.744163 15872.714382 17113.570344 16366.638568 20449.249861
          20973.56151 20200.045457 19401.244169 16272.477398 15834.784807 13180.333058
          32227.269086 31509.476527 33216.449301 10376.087955 8550.410435 8365.5556416
          8908.8290725 10143.544785 8738.614891 30678.211156 17205.635993 21576.06862
          33186.322656 33274.27326 35616.003692 30674.921279 30789.805885 12565.88461
          12472.207859 24980.586771 21205.768513 18423.167493 17057.524981 18297.272743
          4699.1412979 19468.991968 17950.3891 38018.977988 37822.844082 19381.774731
          24237.52803 29209.452235 24242.263439 18720.204126 20398.030895 34194.823123
          34201.277034 22238.24086 21964.525098 19692.471506 16053.057077 14891.46502
          19358.875725 28437.78855 29402.195481 27708.721887 27326.014679 7389.1870988
          16582.583589 20472.849937 35443.526669 35300.382808 35946.432649 35789.802069
          35301.563949 35664.063593 35169.723982 34795.885191 33189.703912 10907.003809
          2951.8190573 9812.827005 11717.47634 7845.7083744 7175.9320147 8407.5363106
          14713.452235 5071.7018282 9653.9344997 23564.330376 9080.8258862 8975.2325808
          10358.708353 38432.880611 38318.175549 9618.3058288 14237.184743 13081.410908
          10280.509863 9944.5369762 30431.871211 15248.633872 26863.109441 22920.154741
          24841.83911 18183.527013 17965.362217 27940.103287 29744.189694 31574.278504
          18374.751928 18143.493823 18253.260716 22317.982497 15496.408612 3866.0677023
          3209.5534375 3950.051702 8805.9637145 17917.828086 17108.536851 9975.246121
          15798.043817 8711.671546 9582.7479437 21836.781452 22136.950357 13952.619026
          8952.6203713 16129.19123 9706.8688426 10704.300986 10513.018311 13878.446417
          19398.920009 20792.258236 25897.800489 7580.017683 18871.235617 8409.8780987
          11585.041013 7281.6359625 37205.674624 37363.948813 15394.5623 37471.986063
          7154.4751471 16573.395318 9681.1661911 37470.627915 37671.269881 38207.922881
          37717.231896 36513.132846 37389.606612 37839.094236 37665.053271 11488.217084
          16672.021262 15056.314984 15195.557629 7212.0892691 8144.7112196 8029.8499382
          30567.053049 26095.91024 10537.036016 13436.475273 17980.003111 39627.061097
          32550.470538 30802.893309 13088.096263 12083.099916 31358.601205 14562.075382
          9166.2485851 17732.30766 18522.540822 4468.8638427 18804.461225 29288.128413
          30937.878326 31090.607225 32203.711574 31654.488765 20459.231283 36374.230237
          33020.547156 25095.85374 11457.26649 16445.796685 37956.448611 16685.419605
          16290.45947 17220.692404 9928.5529945 9876.7249433 20698.792376 18365.905247
          18634.470118 38148.104562 20598.888218 17798.845389 18170.807194 14462.973003
          14925.410868 15279.446005 37005.954381 14008.309631 29684.506774 34835.309707
          19010.99955 23675.795621 8302.5994998 26818.305382 29177.040263 10397.924432
          17439.374212 22390.391922 23185.748039 11203.989665 9853.8546875 30003.408679
          11447.730413 14265.274294 15931.339805 12389.449517 15330.228747 9341.0018548
          10011.594086 14010.624754 16520.564176 38111.344034 17525.848483 12997.022926
          18495.082191 18000.236934 19055.038038 19140.844706 37055.828583 36487.816961
          36103.731173 19059.838729 18583.533417 19076.875615 29690.712516 22823.271341
          29770.086525 27025.843119 29115.237635 26776.821059 37833.509463 38694.621638
          8149.440488 6026.7609622 10174.866044 10685.776054 8568.5330192 18655.235447
          15917.158951 24263.354413 20684.974207 15106.353419 13067.241953 37818.067079
          7304.3033983 9573.3672996 7902.7029475 11747.215884 6249.7923681 6249.7923681
          6218.7251865 7029.7450052 30367.926744 7114.7397754 9343.408419 10766.77747
          27048.494656 7217.9271719 20135.745703 22357.445104 19447.677055 16445.921672
          23301.931547 12107.932348 1822.5696694 38325.998384 17759.142779 16356.825085
          37832.098399 12922.511664 37252.651519 36632.002024 38177.880231 8261.209019
          2449.8873521 18788.66868 37644.20907 38283.732993 37916.561726 16243.299657
          18654.164435 24846.387483 39564.68013 9763.9731155 8129.767906 14062.988187
          15937.486071 13705.453571 19175.25994 12153.264042 12657.665869 34386.851043
          11738.923776 23046.081296 21620.297771 21335.772181 16990.556968 22459.179646
          32102.753727 21119.731514 10028.650459 33032.536668 34435.995688 33405.092023
          32503.291384 18193.31538 9684.1944807 31684.520073 11467.060992 12804.308232
          10807.529171 12517.355924 37618.787049 12594.29054 5232.9004849 6161.0862108
          11921.343337 5955.3390663 5365.2378911 4561.3411525 8119.7191539 11069.220005
          10562.342903 10687.855674 10090.709483 9981.1714414 10088.905808 9817.1444054
          19613.309038 9739.2690548 12599.131328 12963.020333 16634.213825 19578.845847
          18993.514129 18872.742083 16622.643958 16233.722995 27093.496342 32535.622264
          13128.91178 15899.576158 36694.606156 37095.180191 30957.579713 29244.697353
          27295.770989 13445.065763 37694.043611 38092.875034 37679.965293 31089.627298
          36950.382394 18326.144609 37085.0954 18625.948167 18628.094301 17016.599914
          11492.693544 37701.667518 38018.646631 19017.71227 16734.67584 17606.87834
          33313.512322 34215.462557 38588.468453 35084.175261 16561.659286 36152.586145
          35849.937231 35448.834288 34314.895467 35829.335813 30845.023714 16018.509229
          12966.100783 12474.08272 11960.554081 17460.515401 15243.744763 13611.937774
          7363.6388912 11175.241967 13229.764974 14642.076113 14621.096889 14235.112283
          12156.878585 38070.792621 9603.2894372 10348.111195 11287.961647 19322.947691
          11362.703039 11725.055341 12089.079175 8189.8307434 17713.48088 20630.948162
          37371.233909 38379.651307 38774.313211 38441.384365 36895.310035 37134.040078
          35996.031239 17367.17923 19536.489707 19284.300605 28681.987596 35167.545598
          35188.814345 34502.571242 35035.090592 15886.303609 37689.53815 37665.288402
          37875.853396 4074.092785 8165.9165447 11188.169823 37779.395511 37640.411691
          37524.46251 37555.318972 4516.5393576 17597.716505 17668.189937 15118.334724
          26698.009828 7146.7602355 8724.014552 20031.359948 21577.952071 21634.441243
          21495.351653 21430.591757 24055.173323 24805.675056 24610.362743 26422.811067
          25407.472687 27680.710546 25704.60446 26521.772547 24044.366788 13501.917519
          3657.4318298 27499.097457 12618.126057 11256.533311 13026.394793 12142.108602
          17705.439692 22699.784634 36851.828517 14713.674767 37880.864386 8916.0657995
          7813.7412078 13279.337616 38272.395991 20855.478308 19429.017005 26664.609149
          17705.952508 16902.776199 19643.159786 18896.093164 52827.263638 12744.690871
          10847.313813 10885.770909 19288.349312 35554.777957 16028.480921 20976.098772
          38128.53805 38051.456718 38497.375381 38195.786478 38381.114301 38786.415405
          38633.932982 38723.295204 38434.698489 38559.39365 10276.914461 7199.9790407
          20349.661182 21163.764673 19635.288356 32028.6578 38472.820564 20537.755837
          16245.736662 24962.051728 17962.761462 19514.377156 39613.284917 14726.608485
          17162.386657 10852.465103 16517.866863 15760.728401 15706.711903 15578.624548
          16672.004793 18399.665833 12129.026823 37598.428115 19748.683352 27566.339977
          16028.797223 20547.004184 19050.999667 18851.615773 18730.941291 12690.082466
          19133.261509 10062.398497 18848.049054 18160.432348 18099.390558 18335.900091
          36667.183708 19073.253966 19795.705371 19498.887763 28900.18662 28660.04517
          16734.938997 20319.986935 20857.876079 18896.401215 18793.534017 19644.045362
          19814.849193 19614.370699 15853.680383 38131.528056 19643.529785 19873.209653
          26523.470138 37817.984101 38586.120449 36933.513637 36955.288976 36781.542281
          38128.36021 35849.954829 36188.177593 36210.047448 36379.239704 37115.247886
          37146.043007 37178.927411 38683.195554 37361.963777 36898.828763 37169.121781
          36687.093827 36802.214866 13474.996174 14516.103001 15075.262981 15565.988425
          38490.089945 15666.680499 14965.064023 14200.606083 37188.259029 14796.683362
          13416.158931 5105.9028332 9951.2371902 10546.324533 12440.35915 8680.9125295
          7897.2973504 16866.795992 18588.700876 12662.784877 13154.226017 20596.890606
          38197.163073 15453.151941 16349.748818 16077.331272 18815.239268 14011.858797
          13880.543081 19423.994964 14834.409494 38515.192698 16858.274393 38018.585162
          37672.427357 17844.092133 17217.386196 25978.30854 15008.4946 23528.266755
          20095.950254 16854.065993 17052.011123 11537.197698 17227.79394 37653.983258
          37933.044987 38066.666611 37830.706825 4664.6562542 8555.7968173 13840.134467
          9595.8376321 9035.8011048 9531.4698355 11400.284093 9083.0713705 11149.773573
          11929.630807 36818.901758 36756.178179 37541.987548 37230.951627 38420.130793
          38884.377675 39686.021783 38705.346991 2546.2966863 5667.5413557 19094.312319
          17517.855601 17129.41587 16941.433128 16828.370823 12419.396968 10981.446081
          14245.32839 12193.96577 11679.406977 10998.507668 11998.606243 10453.511479
          10117.042141 27521.272618 26611.639509 29490.477059 27371.101956 26945.267146
          27417.983592 22356.478192 23988.51003 24150.551556 23356.946798 18607.800151
          15918.401141 6721.3092627 6275.6431828 9693.7640893 9911.8038291 13115.98032
          17483.382077 13510.579986 13837.659793 11537.081202 11944.193731 10834.147574
          11298.618764 13546.95864 37893.484658 21226.653027 18675.121713 18491.839576
          18360.131426 18618.90157 17798.097068 19384.289942 19713.362577 21439.490706
          23484.046928 22989.082874 12297.89323 30154.832726 33296.125842 23128.74923
          23989.107121 25880.59634 25401.402934 27613.691878 16697.592322 17322.938151
          11621.843813 14173.352764 12870.288392 13868.986784 12851.747423 11427.516189
          14678.610466 17420.56981 37893.007585 37835.311949 15300.74442 23600.33983
          16309.061497 16239.858374 17141.686974 2504.5232384 8538.9297483 2058.6063868
          3460.9921986 37520.111778 38464.201259 38360.507476 10222.903371 10863.272025
          11983.073936 13692.296116 37498.372916 37630.528104 9275.2363707 10465.271214
          24265.009854 18514.778778 18904.791574 38163.473226 17331.757455 38133.854695
          38374.967401 37853.816783 38148.962532 37975.650987 37964.99715 37793.474597
          39781.775478 42445.250594 43328.413161 40748.675965 40510.620157 39481.237335
          40732.86402 12020.804333 7295.4169534 11767.191054 10956.424955 7871.6389535
          20263.458611 20666.114508 37354.314807 37916.752896 16066.817401 15465.011845
          16549.291816 16100.909561 37411.71517 16604.602877 17752.581994 18652.592666
          20105.599629 23219.128282 24379.425744 24169.060348 20680.202149 23151.273909
          16271.469033 14114.079736 15613.770849 15206.739287 38781.228435 38173.726652
          38499.599172 38238.273602 37856.042787 37658.23812 37361.399279 37954.950515
          14903.675554 37007.627589 37458.046223 35415.470964 33560.846279 31225.052704
          16154.394589 19982.262401 14294.871516 13055.319763 13084.557027 37805.324006
          37984.163095 38184.458719 13893.525058 37928.748324 7032.4577824 38397.648613
          37846.114466 37931.457475 37953.282131 25248.359634 13586.709123 13919.133421
          11862.986323 10799.382059 9157.9125367 8913.3043648 9703.4999189 6734.9839858
          5867.8337592 22684.04432 16337.274024 16940.788623 17378.15859 37300.286548
          36909.728476 37276.612899 37479.305625 37277.051261 36907.820831 36993.228674
          36976.653318 19314.180249 19791.535064 11322.589906 19225.610343 28263.289847
          4018.2522348 4684.4574102 5080.8246804 2702.6061546 1677.704965 6528.5990362
          6345.0494883 7848.8017207 12939.066081 13268.449495 5078.0772578 13257.375852
          13093.714078 10655.211115 6447.2604393 7893.167524 17805.490458 18994.151383
          17915.100083 21427.725178 20985.103817 16162.549703 15003.047595 15792.592539
          17086.116329 15212.533255 13014.649728 14141.542259 12184.315362 18052.274744
          27518.502429 12553.561849 26431.727466 24258.141283 24966.32835 12107.940585
          13861.620108 16182.441199 21549.90117 38507.437105 38075.06692 38718.468881
          38114.570644 37550.928472 37333.748231 38003.1258 37786.850227 5334.7885142
          7451.8029453 8357.1518705 9031.0234165 21830.525226 8336.0642295 6175.9443012
          22198.943057 10500.594034 36062.44767 24168.322465 23576.098932 24885.482491
          36554.458996 27330.659924 26014.895833 27867.02192 38606.633399 11444.83135
          18497.453997 21175.589083 20923.072367 22679.454507 37660.497708 37363.89896
          37585.009588 20447.952885 19221.322793 19460.329487 13375.199945 17447.901929
          13309.157804 16905.171955 38070.63419 23612.487575 37615.131081 19597.441494
          18321.800717 30805.3414 17860.808492 16547.979419 15785.839074 17104.557427
          15759.81731 10931.830743 10108.21044 15840.988637 16025.502123 19360.892894
          18950.310354 19291.981652 19655.593626 17134.941046 21681.473813 11061.061853
          37817.967523 15221.219933 14027.517692 17936.260751 18577.716869 17039.860829
          15068.706101 12714.693621 14305.125883 21868.200553 22590.620952 35819.787874
          22602.781367 34494.729722 22920.615592 21677.944629 21315.15519 23817.167416
          37726.687646 27116.955117 26937.351777 17303.801756 15786.089097 32552.846227
          19157.754943 29572.019933 30153.419478 29723.907252 31983.689007 35052.401078
          25665.734527 24397.284227 26769.563781 12404.513091 12060.259921 10246.266508
          8078.2498182 10268.947208 17667.011472 7339.8152613 14174.435602 3267.2124914
          4690.931379 12707.033076 12014.685808 20088.556121 21116.886486 20191.004797
          19213.593372 19336.083396 19044.519548 34319.206941 35210.615604 28976.384966
          30698.973254 31982.215666 32453.574769 33371.84434 35113.239024 31696.648018
          38419.830795 44968.460436 28542.895612 15121.628145 19250.929133 19084.6829
          25857.699883 5951.042202 6727.3218134 6363.8547221 5837.3968676 7209.1192275
          6136.6372726 9264.8592056 9033.5283768 9117.6103805 8735.9223408 8355.3786094
          8687.5918594 8835.5483654 7971.0328528 11468.208621 10749.056834 9979.3172053
          40786.590382 40290.372748 34679.062829 42474.857901 53995.483362 17747.707126
          33207.025807 35308.27939 35797.063176 18358.452043 18336.605938 8417.0669503
          37755.779355 8797.911517 27545.982279 27268.808138 30689.918539 34158.898426
          33079.134333 29673.376784 33623.935417 11803.205123 33988.485734 33215.128033
          31822.9029 32107.665341 15711.109818 36139.844727 35447.360315 16517.608005
          34143.353417 35068.243873 35438.100342 31947.8236 37433.973607 28340.169901
          28647.027432 34442.449111 34661.051552 15119.151803 15363.986722 14127.73279
          31153.103357 32447.485493 14795.745713 31834.44041 30649.275547 16048.730819
          15313.09551 14795.88128 33666.104681 35711.505715 35998.765802 36034.389357
          35703.073161 30065.692169 35502.020673 35503.644487 37915.531221 37671.561806
          17663.671319 17219.569429 16805.029378 16402.491574 16159.913635 15766.363494
          15376.55952 15521.478282 27723.828744 28006.554207 23632.163469 22185.555743
          21187.21359 20865.797329 7235.9003912 9270.7063242 10213.699898 10871.654635
          11551.089314 37857.349208 37673.156444 38218.075471 38074.201638 38088.992103
          37258.111578 37664.530079 37552.163953 19409.29584 18817.362675 18756.457098
          17002.767145 18077.8424 19713.794566 19392.474289 19599.566607 37551.996623
          11643.580849 14769.58131 37380.261416 37638.000215 38102.400434 12192.257804
          37950.63706 38005.717916 37872.56186 6102.1210076 5286.426927 8569.9375858
          8604.0605915 5715.8434916 19102.064211 38371.152897 30213.660421 17750.849883
          11863.914364 9770.895014 38172.714609 12243.31394 9371.3430093 10798.532889
          10167.611008 10114.038411 29444.003894 35539.98877 37512.908284 37978.155721
          38581.797105 37118.620858 38099.587269 36696.494486 35248.939395 35645.883241
          34338.143502 34090.27942 35369.660363 33441.858823 35059.117823 35471.138032
          35435.626161 37230.490063 39432.854699 39105.827948 39905.971512 41252.565997
          38710.219256 36978.022004 38264.790209 37970.699795 37130.493147 37338.954964
          12021.381484 11226.199698 14696.396867 14604.579675 14771.371643 13621.942597
          35360.274031 35318.696566 34822.505886 13215.221235 34720.763055 34135.291895
          35923.94021 32323.644339 17957.084528 15091.433543 12470.76604 17275.779116
          17794.963723 32137.354337 17613.212071 22955.87873 24009.588511 25868.092473
          18121.376032 19946.09087 7229.9095255 3355.1922616 9953.665636 6214.525484
          4465.6890419 6967.719886 6798.4932401 12611.333933 10895.634202 10823.810581
          39677.974565 39806.503057 15826.022763 41374.12351 37452.563216 18684.696459
          3528.7734569 37277.903204 38376.594331 30040.804675 8559.6146744 7013.1765167
          7108.351942 5966.2279574 6562.5531902 7040.0643405 9640.6832451 8559.0455993
          8529.6577647 12170.392345 11202.674362 19245.629843 16886.912115 38460.519419
          37916.374784 37883.67785 38126.088138 37972.192247 37508.583252 37601.094733
          38141.705948 37382.238263 37260.592043 38313.526938 38068.771991 14370.255884
          12958.205819 15638.088042 37160.321909 37825.67167 38181.397809 38077.854239
          38247.001609 38252.493039 38309.902104 38491.172607 38524.930184 39573.414542
          34012.189706 30300.224027 37191.002336 19197.121199 21326.906821 22997.278752
          22415.652474 10837.479628 11859.046789 19101.743829 21219.71822 21855.050359
          19992.15797 18288.850043 31116.305938 27521.715531 24174.036026 10029.720594
          14982.333912 17659.470986 28297.719297 19848.860271 15476.691315 15978.540938
          37162.955324 37140.955819 37500.53229 38000.220104 37897.838221 37983.651228
          37748.819058 37734.628992 13416.101049 38109.258123 38191.498279 40255.683018
          39803.507512 39382.959466 39992.296623 39987.053085 40551.979722 40406.818195
          20077.28127 22999.181403 20815.738185 6333.5770335 16446.912048 16359.702195
          16272.900995 17565.375569 13477.900467 37923.939433 20375.280085 6586.7221931
          8439.6591743 11413.904011 7295.1313546 6004.7329519 5529.9639141 7915.3812243
          2864.7843726 33637.817861 30513.637152 29965.338228 37997.567164 37525.887766
          37797.569518 38443.879172 39878.96824 39589.905443 36707.018745 39017.769899
          37982.296232 37176.837876 37570.576747 36436.995235 37519.470865 37193.820234
          37840.395576 24202.090098 20830.196924 25274.624705 24166.064418 12798.347582
          15934.353714 3804.050093 9496.9368654 8852.1682508 13167.469589 8222.3678433
          29842.664225 29554.050364 34351.086565 34235.697005 34064.254517 30608.688669
          17354.192139 22255.691347 22455.836751 19214.019508 20430.228134 27370.22676
          15865.603381 27558.789346 24006.69987 20468.702479 20109.45736 25764.390782
          38031.22287 37994.709784 38606.709113 6641.0309317 8736.7338942 19724.32298
          13668.990792 13890.70639 13816.928368 18613.968771 23885.242683 15458.416764
          20297.359564 38300.426222 38094.200961 21659.70843 22795.670676 38270.429606
          38622.320763 38429.8882 38476.111839 38512.564983 23722.552786 57373.520658
          28892.379446 34642.260661 34684.380465 33555.665958 33448.034114 14574.657717
          10616.531265 11850.08262 12835.101035 12775.681489 14186.809739 14947.142446
          35403.104239 28672.441236 31481.809251 30844.291463 30575.91716 29113.581634
          25724.843238 27342.965361 11019.614901 15326.853116 22108.756735 14148.548183
          34546.316015 26793.432008 51588.509499 17652.133531 14948.132793 6030.8348201
          10479.091557 11519.134837 4004.0099227 23154.591854 23080.959594 23215.209377
          19372.389684 19067.557148 15191.697304 29316.909609 15924.374328 17942.657391
          25172.427641 28480.996499 24642.364982 14966.448089 13494.265544 16751.137418
          36732.285682 36524.847075 38429.703881 6537.5018173 2837.2912505 4356.9770844
          7619.402216 4146.3911451 31992.453567 32197.33635 30797.616733 34022.67192
          34440.587191 34096.685285 32664.182314 33068.726419 31174.798329 11153.035674
          8238.395848 8639.4508748 37566.309402 28060.532461 18629.249379 6861.9182915
          27936.505409 11488.135251 16428.63741 15592.017649 30112.20335 30480.478752
          30950.140124 17323.861718 17333.39474 17715.442032 18707.512775 15418.929538
          17410.021092 15735.993511 17460.776103 18640.852426 17424.879262 17517.39181
          20289.750354 21357.845021 22276.068322 23025.58838 21248.553852 38432.324086
          38164.628598 40374.731444 39416.462762 39683.057131 13211.694483 13415.741667
          11182.366663 18399.925738 23860.778793 22310.009433 22285.831856 24152.371717
          14249.510803 9681.3326467 19898.436939 20109.859992 20201.292521 13197.353659
          3871.5084376 14033.649019 30268.440668 30712.101065 30431.441285 39962.710183
          12057.401584 39386.232147 38515.577129 38608.491431 38239.772924 39010.717902
          38725.147921 39390.041828 39299.000111 11024.606572 11105.205813 11041.241881
          12815.718035 19773.485028 12477.049796 10279.139265 10555.259939 10660.292436
          9955.9969723 11328.73203 36420.771531 36848.43698 37803.165187 11256.874368
          10779.321402 15336.459552 13912.792279 13892.620225 10657.452209 12724.666541
          9741.4890575 9780.9610399 31021.708953 31144.54975 30889.147096 19155.044816
          19140.344772 9557.7639122 9216.686037 7680.4731352 3564.2271752 7031.6260324
          5929.1100386 4889.8227286 7972.885642 12372.841328 11178.269746 12526.131117
          16137.683715 13699.567761 12552.230876 13114.205511 35407.113856 37294.477012
          12426.360865 12595.305213 18420.231065 38950.128576 35510.356041 39571.776931
          39172.775123 38962.372969 39459.361052 38777.104273 39278.578052 38225.686267
          12182.59192 35694.991943 32603.482902 34130.611095 11916.984653 11599.909912
          6565.3197633 5870.8518767 5512.45279 5752.7483151 7302.8013393 8462.9545132
          6355.6305036 5473.4210802 5349.7148348 4042.0499798 8404.0243037 9636.5591658
          9906.4436155 8915.2063322 8316.2711195 7472.6932221 7727.2808961 7340.6739115
          20534.768443 20796.217152 23473.093361 26420.256638 28156.513019 25264.439116
          22502.650305 21769.051227 23681.83199 22879.755167 24552.361263 28360.302926
          27089.565411 8498.8379051 7616.3881116 7381.1757428 7688.2053877 9132.0160347
          12085.554069 10526.648567 10816.229274 8811.6955527 8805.0801945 9818.8209578
          20252.04783 18343.545989 18294.526752 19217.952291 20383.47441 19200.964775
          18157.177888 18405.648783 18470.628951 18296.792387 17949.46947 18058.075058
          17432.8404 17230.855485 16471.106089 9755.3510863 10930.753997 18846.03796
          20501.859551 21657.085331 25629.194636 11105.202544 12193.299095 11989.614858
          17274.56882 17096.950485 15348.439035 15246.775901 15945.072462 15358.574761
          15751.294463 17796.673714 16584.405721 38222.923923 14847.09087 37924.029827
          37934.418208 37932.485069 14316.277637 16181.947956 37988.978063 7275.6038516
          12767.507662 9442.9326303 6968.0703146 6670.6495086 6334.0999321 5561.1013621
          6896.2850277 7893.752855 10514.331344 7405.9990276 13949.489551 8732.3028915
          33719.106073 32096.984497 33702.376172 33441.533 17670.272008 18534.377427
          18534.490988 18645.264238 17645.355854 16189.358641 14382.745837 12875.461304
          9746.9139002 10892.063834 18412.579389 9124.2375857 10063.540891 13086.515432
          11133.327713 12760.614269 11928.066773 11398.112388 13179.78407 18114.101183
          14801.11461 16348.981552 14786.463269 12846.858188 37810.17807 37773.297772
          37686.676146 37633.926658 37718.086307 37751.126478 38017.560709 37839.331541
          37586.767424 22334.846208 17485.05107 16661.223117 15786.443467 15573.38313
          17079.676224 18949.104368 18786.567466 18440.819601 18528.757217 26260.512147
          25711.762425 25183.24454 26186.873141 27108.041789 27942.723044 29802.584735
          18254.676683 17826.110189 18180.317233 32539.608055 27740.854224 26621.761726
          26108.754477 23833.235157 22493.027254 24545.256033 25810.694588 31229.303218
          28391.427728 27841.204144 27230.962517 29546.646967 21038.110242 20921.353136
          23305.183042 37648.908084 37589.692145 37819.151994 19467.790449 18045.111301
          37138.526422 13874.895569 12695.008347 12310.826759 13919.155941 11479.006537
          11637.01863 38247.851058 38653.054815 38475.809338 38245.697918 37893.010035
          38310.303428 29877.371772 23336.971478 19325.67666 19561.098288 17213.831219
          14545.78955 12377.92073 12700.887053 13008.202789 15544.237554 16997.614357
          21771.195797 17983.169799 16540.28874 17340.285879 17598.984129 10504.966618
          13457.651645 8922.8701673 7671.4882436 5731.1517764 7863.3751241 18762.700547
          17767.618728 17122.274644 16529.306458 17042.031608 15636.043483 15979.751713
          17045.295763 16940.48947 16754.347752 17490.847226 17775.415851 18099.870397
          17300.284365 17302.039252 16422.021833 15928.325997 16981.47599 17506.079897
          16527.39947 17995.279238 17359.9509 16390.008343 16265.603562 15864.892332
          15982.014247 38164.190866 37704.774708 37563.6764 37873.261234 39411.359784
          39990.496438 39157.968958 38339.671793 39193.646298 39619.994696 39376.081472
          38822.09933 39473.868501 39967.391463 36268.071462 36253.348474 35607.792462
          36405.736681 37668.737882 37184.924162 36786.858338 37086.35678 36925.307505
          36893.542488 36881.230732 37075.728386 36862.879976 31284.716697 17105.026045
          19111.664037 17774.786179 10920.169118 14128.251511 24445.713276 17309.25474
          22800.843984 16221.375364 15256.583269 14524.758945 14340.199234 22953.046715
          12490.710413 13318.160558 16608.380401 10620.505607 11036.507832 10478.542708
          12846.510553 25472.053587 2318.8494333 974.45500005 3861.5483593 8681.0261623
          10565.574356 6663.1626473 4628.8724222 3759.9969693 2844.6048203 24821.245493
          21599.388196 19097.684557 19239.862898 15470.823857 21494.274052 18117.467207
          18617.069523 18795.212444 20953.000043 21328.14181 24506.054331 25213.815396
          19208.037589 19287.658647 20252.362133 20021.260993 19149.32065 17087.760588
          17371.436608 17970.688782 17404.611436 20898.535942 20389.93806 18378.676219
          38155.051397 37887.20719 38233.191878 38420.896679 38224.254625 38703.082902
          38392.457386 38698.932187 39113.149828 39112.468357 39709.066067 38820.991637
          38439.865491 5163.6748302 5185.2222981 15629.862526 14954.147131 16792.253118
          17604.739355
        </DataArray>
      </CellData>
      <Points>
        <DataArray type="Float32" Name="Points" NumberOfComponents="3" format="ascii" RangeMin="0.44149347727" RangeMax="5.8387396234">
          3.147439003 -0.0024279970676 0.66096997261 3.179639101 -0.31765601039 0.58325701952
          3.0362560749 -0.12312699854 0.36283898354 2.846298933 -0.090493999422 0.57238131762
          0.43711400032 0.35662287474 -0.86431020498 0.62536001205 0.067611642182 -0.78804123402
          0.36555799842 0.082396402955 -0.88094812632 0.40944099426 0.2642891109 -0.64370203018
          -0.76539498568 -0.02696910128 -0.88151800632 -0.6984680295 -0.26326191425 -0.85958302021
          -0.54605597258 0.061542298645 -0.81870001554 -0.55270302296 -0.11456199735 -0.98753702641
          -0.028528999537 0.095570899546 -1.5219500065 -0.19496299326 0.017406899482 -1.3360270262
          -0.14396199584 -0.17642790079 -1.5491399765 -0.25447899103 0.057270798832 -1.5596300364
          1.4943079948 -0.043684996665 -0.058169994503 1.8810739517 -0.025785999373 0.24052999914
          1.8071659803 -0.10879799724 -0.12797890604 1.6178350449 -0.15927900374 0.18571281433
          -2.1019701958 -0.27823245525 -1.0662670135 -2.1722934246 -0.49265837669 -1.1914629936
          -2.214564085 -0.50244742632 -0.93670272827 -1.9633500576 -0.49727156758 -1.0658731461
          2.430131197 0.43304201961 1.193819046 2.3321909904 0.63398498297 0.92614901066
          2.5400059223 0.47935000062 0.92150700092 2.5734648705 0.64016002417 1.1225880384
          5.1484160423 0.71598798037 1.853268981 4.8522830009 0.69435501099 2.1452889442
          5.0743060112 0.70134097338 2.1695489883 4.9700350761 0.50200498104 1.9810703993
          4.3718128204 0.25128540397 2.104501009 4.1495599747 0.35503801703 2.2919700146
          4.402616024 0.45689401031 2.1667981148 4.3538961411 0.35973498225 2.428800106
          -3.1669573784 -0.19655050337 -0.74350303411 -3.0438988209 -0.31679549813 -0.92314600945
          -3.223610878 -0.51225572824 -0.90670001507 -3.1503348351 -0.51121389866 -0.73205798864
          0.79733598232 0.39415538311 -0.3318169713 0.73966902494 0.57453459501 -0.50246399641
          0.66420590878 0.58173090219 -0.24965699017 0.56680697203 0.35435029864 -0.45947599411
          -4.7578816414 0.28667363524 -0.042721800506 -4.5005278587 0.48635560274 -0.11545810103
          -4.5223350525 0.28749448061 0.00038830153062 -4.5983519554 0.47850579023 0.11985320598
          -1.6519750357 0.49484336376 -0.84614998102 -1.86886096 0.2922372818 -1.0309972763
          -1.6665450335 0.31891724467 -0.9786170125 -1.9395580292 0.48136660457 -1.0315306187
          4.561398983 0.70336198807 1.6810460091 4.4522380829 0.45779499412 1.8534209728
          4.7563681602 0.41457000375 1.7243119478 4.7165417671 0.53939402103 1.5485489368
          1.6178350449 -0.15927900374 0.18571281433 1.4943079948 -0.043684996665 -0.058169994503
          1.8810739517 -0.025785999373 0.24052999914 1.6255400181 0.14701509476 0.17244631052
          -4.0016961098 -0.32739970088 -0.24166919291 -4.1456823349 -0.32185968757 -0.5048879981
          -4.2499485016 -0.19019518793 -0.35626098514 -4.2212285995 -0.30168271065 -0.17994959652
          4.3275651932 -0.10407299548 1.3448059559 4.2373199463 -0.093296997249 1.6291577816
          4.1369771957 0.033024005592 1.3592270613 4.4501152039 0.014983006753 1.5191400051
          0.93293100595 -0.41566240788 -0.55624979734 0.76676100492 -0.1134057045 -0.50795000792
          0.75424200296 -0.42280769348 -0.65912491083 0.88520997763 -0.23278620839 -0.74979001284
          1.4527050257 -0.19449299574 -0.29091629386 1.6111949682 -0.21885199845 -0.057695001364
          1.6162129641 -0.37938898802 -0.35376280546 1.4818120003 -0.39234900475 -0.097535997629
          0.0018850000342 -0.13561350107 -0.81675201654 -0.025832999498 0.026944899932 -0.47304499149
          0.16142000258 0.02375430055 -0.62841498852 0.10708110034 -0.12076699734 -0.43617299199
          3.3571829796 0.56413400173 0.35071998835 3.0115010738 0.44793599844 0.41370400786
          3.4906380177 0.39700400829 0.43757998943 3.1855530739 0.35112899542 0.20670999587
          -2.4950749874 0.26449760795 -1.1571450233 -2.6722416878 0.17765410244 -0.99963802099
          -2.6970658302 0.28316840529 -1.292855978 -2.8611981869 0.29218497872 -1.0245879889
          0.64788299799 -0.0059197037481 -1.3478369713 0.39721819758 -0.010242197663 -1.4243580103
          0.53313398361 0.019717698917 -1.1568260193 0.52286428213 -0.16449649632 -1.3978669643
          0.99458998442 -0.022154798731 -0.49672108889 0.88520997763 -0.23278620839 -0.74979001284
          1.0504629612 -0.041896902025 -0.74770897627 0.84206402302 0.052923899144 -0.65382301807
          4.0440011024 0.18789739907 1.9961689711 3.9322690964 0.15276029706 2.1537098885
          3.8050630093 0.010312004946 2.0734400749 3.804297924 0.13001829386 1.8220219612
          1.2570589781 -0.21799020469 -0.084225989878 1.4527050257 -0.19449299574 -0.29091629386
          1.2482960224 -0.40534371138 -0.12569999695 1.4818120003 -0.39234900475 -0.097535997629
          -0.97820800543 0.24167840183 -0.90613996983 -1.0788140297 0.51180261374 -0.85813999176
          -1.0079799891 0.43430522084 -0.63536000252 -1.1999200583 0.31322172284 -0.84429401159
          -2.4277570248 0.29319447279 -1.3836899996 -2.6970658302 0.28316840529 -1.292855978
          -2.4950749874 0.26449760795 -1.1571450233 -2.5362904072 0.058985300362 -1.3469660282
          -0.9426779747 -0.20086880028 -0.89714598656 -1.0050040483 -0.23432028294 -1.1520009041
          -0.91781198978 -0.47875839472 -1.088809967 -0.74982398748 -0.23088718951 -1.0935233831
          -4.0919470787 -0.29832312465 0.34250101447 -4.4078559875 -0.44284930825 0.41885921359
          -4.0046038628 -0.48754239082 0.27641901374 -4.323428154 -0.48470199108 0.21382179856
          3.4407179356 -0.10024298728 1.6149629354 3.4261219501 -0.31478399038 1.2515799999
          3.5614540577 -0.13416200876 1.2109525204 3.4360439777 -0.0026910067536 1.3680689335
          1.0204950571 -0.39697799087 -0.86901700497 1.108948946 -0.40205231309 -0.65256047249
          0.93293100595 -0.41566240788 -0.55624979734 0.88520997763 -0.23278620839 -0.74979001284
          0.74059998989 0.11394579709 -1.0505290031 0.62536001205 0.067611642182 -0.78804123402
          0.82348799706 -0.019467899576 -0.88339298964 0.61579799652 -0.14052461088 -1.0343459845
          -0.51359897852 0.26363918185 -1.5916399956 -0.72984099388 0.28546023369 -1.3866969347
          -0.38828599453 0.11242230237 -1.4058929682 -0.679880023 0.069117903709 -1.6021100283
          -2.7287049294 -0.2789902091 -0.37658300996 -2.8640635014 -0.32550418377 -0.67871928215
          -2.8012299538 -0.51003861427 -0.44231700897 -2.7047069073 -0.50918275118 -0.67922121286
          5.1686019897 0.14154189825 2.0466096401 5.199947834 0.37635299563 2.0466771126
          5.0139088631 0.39100199938 2.2078499794 4.9558830261 0.24193349481 1.938804388
          -1.5631556511 -0.15877270699 -1.5688300133 -1.4234830141 -0.38737499714 -1.5921599865
          -1.5521390438 -0.22336211801 -1.3013720512 -1.288203001 -0.24603740871 -1.60145998
          0.74059998989 0.11394579709 -1.0505290031 0.93579101562 0.2607139945 -0.85697698593
          0.67646998167 0.33598598838 -0.95468699932 0.90016597509 0.3842356205 -1.0304160118
          5.2030038834 -0.095155008137 2.0543687344 5.4175891876 0.055754002184 2.0606226921
          5.3534770012 -0.30086100101 1.9398570061 5.3548870087 -0.21426801383 2.2027084827
          4.5017971992 -0.076010011137 2.1854460239 4.5650310516 0.20493909717 2.2137980461
          4.5205311775 0.023049006239 2.42572999 4.3237462044 0.042966000736 2.3439700603
          -4.0129318237 -0.49603816867 0.055561993271 -3.7831549644 -0.23498553038 -0.042289998382
          -3.9805979729 -0.2818211019 0.12366101146 -4.0016961098 -0.32739970088 -0.24166919291
          0.36511561275 -0.21865269542 -1.2138979435 0.22415600717 -0.082622297108 -1.3033210039
          0.26428851485 -0.064987801015 -1.0606349707 0.059512998909 -0.21327769756 -1.0408661366
          1.8810739517 -0.025785999373 0.24052999914 2.0858280659 0.031003998592 0.38727900386
          1.9639710188 -0.12883301079 0.49361902475 1.8012125492 0.13252429664 0.42392399907
          3.6058731079 0.68220502138 1.2335082293 3.1671938896 0.66265797615 1.2060799599
          3.4408869743 0.48258000612 1.1898485422 3.4043519497 0.68294101954 0.87328398228
          0.47422000766 0.57532548904 -0.38774099946 0.36111998558 0.56500959396 -0.54083001614
          0.36366090178 0.26720348001 -0.30314698815 0.56680697203 0.35435029864 -0.45947599411
          -2.2852199078 -0.19466769695 -0.68211597204 -2.4275128841 0.11600639671 -0.53692299128
          -2.526927948 -0.09825039655 -0.49015599489 -2.548101902 -0.012899150141 -0.78901946545
          -2.7823200226 0.016783099622 -0.68633919954 -2.6722416878 0.17765410244 -0.99963802099
          -2.7856142521 0.29197818041 -0.82188498974 -2.9588835239 0.10583119839 -0.81790500879
          -1.6519750357 0.49484336376 -0.84614998102 -1.7904880047 0.17986288667 -0.85320198536
          -1.6226379871 0.13752751052 -0.73393601179 -1.6665450335 0.31891724467 -0.9786170125
          2.8959798813 0.32024499774 1.0456169844 2.7450699806 0.13935770094 1.1011400223
          2.7515289783 0.13377730548 0.70048117638 2.5839250088 0.25846800208 0.93122702837
          -3.517005682 0.27712589502 -0.40882021189 -3.6499538422 0.47699010372 -0.48393499851
          -3.7126243114 0.24968840182 -0.29950919747 -3.648727417 0.16803780198 -0.52384102345
          -2.2719159126 -0.063200898468 -1.4239000082 -2.2354676723 -0.21959285438 -1.2453320026
          -2.1130719185 -0.047264300287 -1.1963629723 -2.0357840061 -0.027981799096 -1.4841450453
          0.34664174914 0.52966880798 -1.3116159439 0.24196699262 0.39278018475 -1.4639049768
          0.015014999546 0.52284687757 -1.2964439392 0.046897001565 0.32769879699 -1.3547029495
          -1.8855940104 -0.082297004759 -0.4747030139 -1.9904079437 0.054340101779 -0.69911700487
          -2.0667660236 -0.090073294938 -0.4165340066 -1.9959019423 -0.25378808379 -0.72344702482
          1.8257160187 0.17760980129 -0.11040610075 2.1084809303 0.16455329955 -0.24006199837
          2.0466160774 0.12520329654 0.090647503734 2.2037799358 0.33316999674 -0.035911995918
          -4.007420063 0.42113360763 -0.76628297567 -3.7752130032 0.42797881365 -0.85966801643
          -3.7815887928 0.27240249515 -0.66369998455 -3.8207867146 0.48162639141 -0.65821701288
          -1.9959019423 -0.25378808379 -0.72344702482 -2.0028738976 -0.28446289897 -0.43915998936
          -1.8573379517 -0.51496881247 -0.5290030241 -2.1525170803 -0.34244281054 -0.58914798498
          -1.1999200583 0.31322172284 -0.84429401159 -1.4006630182 0.27366858721 -1.0899891853
          -1.2363820076 0.13768835366 -0.99496001005 -1.1732499599 0.28154438734 -1.1781251431
          -0.38811999559 -0.14212410152 -1.2827340364 -0.61719799042 -0.039664398879 -1.1887242794
          -0.42777499557 0.06476470083 -1.0590546131 -0.33131301403 -0.1156719923 -1.0455411673
          -2.5134499073 -0.51176577806 -0.47904199362 -2.7287049294 -0.2789902091 -0.37658300996
          -2.8012299538 -0.51003861427 -0.44231700897 -2.7047069073 -0.50918275118 -0.67922121286
          5.1873960495 0.42186701298 1.8164199591 5.199947834 0.37635299563 2.0466771126
          5.1686019897 0.14154189825 2.0466096401 4.9558830261 0.24193349481 1.938804388
          -3.5356121063 0.44416579604 -0.95966500044 -3.3199958801 0.47254309058 -0.92196601629
          -3.2916152477 0.47306519747 -0.70392102003 -3.6143445969 0.47693321109 -0.66685003042
          -1.7501699924 -0.19925332069 -0.86327397823 -1.8356319666 0.0078969011083 -1.0082437992
          -2.0607159138 -0.073489099741 -0.92311251163 -1.9235659838 -0.32769143581 -0.93234062195
          -2.1506009102 0.25718417764 -1.2337720394 -2.2146024704 0.15617579222 -1.4417170286
          -2.041049242 0.1184957996 -1.4851289988 -1.972568512 0.25535020232 -1.5025000572
          -0.53049099445 -0.25941371918 -1.4260540009 -0.63469898701 -0.45314198732 -1.3848659992
          -0.57344698906 -0.46036499739 -1.2049913406 -0.36334300041 -0.45349159837 -1.1892901659
          0.85404402018 -0.22467930615 -0.32312399149 0.76676100492 -0.1134057045 -0.50795000792
          0.86870998144 0.033326499164 -0.31085899472 0.69095832109 -0.066606298089 -0.12778200209
          -2.4884090424 -0.28845638037 -0.25028300285 -2.504308939 -0.50290739536 -0.24516999722
          -2.4078168869 -0.30346369743 -0.49435901642 -2.5134499073 -0.51176577806 -0.47904199362
          -2.7894101143 -0.19218939543 -0.12471599877 -2.9889519215 -0.24136529863 -0.040991000831
          -2.8496210575 -0.34875020385 -0.099053002894 -2.9584069252 -0.33283078671 -0.35879898071
          -3.5465004444 -0.0025727003813 -0.37637498975 -3.8436272144 -0.0084195006639 -0.544039011
          -3.8458154202 -0.0071441796608 -0.27063637972 -3.6200819016 -0.16615739465 -0.5608189702
          2.2042989731 -0.13768899441 0.32803380489 2.2867779732 -0.35515400767 0.54491502047
          2.5268170834 -0.3430339992 0.35616520047 2.087033987 -0.36293101311 0.27580299973
          4.819275856 0.2937990129 2.4843699932 4.8466658592 0.47665601969 2.4843699932
          5.0139088631 0.39100199938 2.2078499794 5.0230960846 0.41076001525 2.4843699932
          -1.715157032 -0.23626880348 -0.5269600153 -1.7985810041 -0.32161590457 -0.69973397255
          -1.7501699924 -0.19925332069 -0.86327397823 -1.7705160379 -0.013670380227 -0.72984999418
          -4.3519821167 -0.3447792232 -0.6417530179 -4.1456823349 -0.32185968757 -0.5048879981
          -4.1995658875 -0.52305787802 -0.58140099049 -4.3169722557 -0.515429914 -0.37853601575
          -4.7962985039 -0.27623388171 -0.034645497799 -4.9766492844 -0.50082987547 -0.16668698192
          -5 -0.39700898528 0.035171099007 -4.7719397545 -0.50261425972 -0.082141898572
          -0.061303000897 0.37349951267 -1.1732430458 -0.07988999784 0.53172880411 -1.0493973494
          -0.26240199804 0.35430929065 -1.093870163 -0.20239399374 0.51886868477 -1.2246849537
          1.8012125492 0.13252429664 0.42392399907 1.5937000513 -0.15697298944 0.5264647007
          1.8810739517 -0.025785999373 0.24052999914 1.5375082493 0.031310401857 0.49632260203
          0.64630901814 0.29072648287 -1.3438220024 0.74059998989 0.11394579709 -1.0505290031
          0.8697130084 0.27566960454 -1.2600489855 0.64788299799 -0.0059197037481 -1.3478369713
          2.8278307915 0.37164700031 1.4777669907 3.1057059765 0.21902000904 1.2990050316
          3.0577402115 0.15238833427 1.6229300499 3.138158083 0.46699899435 1.4169000387
          5.2658262253 -0.21781501174 2.420085907 5.1007847786 -0.14746299386 2.5408000946
          4.9569368362 -0.29035300016 2.514621973 5.0993762016 -0.30616301298 2.320991993
          -4.7829651833 -0.03583727777 0.25068509579 -5 0.15884299576 0.21330599487
          -4.8289003372 0.15818049014 0.46990901232 -5 0.07584580034 0.38386198878
          -0.36743998528 -0.0037765994202 -0.87996399403 -0.42486399412 0.21323770285 -0.57991999388
          -0.54605597258 0.061542298645 -0.81870001554 -0.38182199001 0.22295188904 -0.90033400059
          2.7515289783 0.13377730548 0.70048117638 2.387912035 0.31022301316 0.66756099463
          2.7781450748 0.40818598866 0.68238705397 2.5839250088 0.25846800208 0.93122702837
          1.8810739517 -0.025785999373 0.24052999914 2.2042989731 -0.13768899441 0.32803380489
          1.9639710188 -0.12883301079 0.49361902475 2.0858280659 0.031003998592 0.38727900386
          4.690433979 -0.097899012268 1.9307255745 4.7630262375 -0.078894995153 2.2290580273
          4.8643531799 -0.29935500026 2.0071020126 4.6318750381 -0.28834098577 2.005959034
          0.74059998989 0.11394579709 -1.0505290031 0.4462980032 0.22514030337 -1.0646909475
          0.62536001205 0.067611642182 -0.78804123402 0.36555799842 0.082396402955 -0.88094812632
          -3.4544520378 -0.502204597 -0.077600002289 -3.5015048981 -0.45679572225 0.16008099914
          -3.3116250038 -0.30738094449 0.088941000402 -3.2368340492 -0.50209462643 0.021059993654
          -0.0416380018 -0.36202129722 -1.5427700281 -0.19379499555 -0.24117720127 -1.3589559793
          -0.14396199584 -0.17642790079 -1.5491399765 -0.0075119999237 -0.13963499665 -1.2594619989
          -0.012586000375 -0.43688291311 -1.2338080406 -0.2076960057 -0.44123241305 -1.3097250462
          -0.19269900024 -0.26168438792 -1.0995333195 -0.36334300041 -0.45349159837 -1.1892901659
          2.2042989731 -0.13768899441 0.32803380489 2.087033987 -0.36293101311 0.27580299973
          2.5268170834 -0.3430339992 0.35616520047 2.204267025 -0.35545799136 0.084110699594
          -3.1012940407 0.47349649668 -0.42684000731 -3.2346680164 0.26355689764 -0.22137200832
          -3.2987422943 0.26889032125 -0.46421080828 -3.3044788837 0.4724803865 -0.1253259927
          -3.2953541279 -0.00062000047183 -0.49288973212 -3.6200819016 -0.16615739465 -0.5608189702
          -3.3584003448 -0.26359349489 -0.49015578628 -3.4256296158 -0.04080190137 -0.73200601339
          0.73507022858 0.4539988935 -0.073164001107 0.71466517448 0.27138009667 -0.094232998788
          0.79733598232 0.39415538311 -0.3318169713 0.56200027466 0.3923317194 -0.18788799644
          3.8552589417 -0.056183006614 1.3705922365 4.0616660118 -0.29908099771 1.2974100113
          4.0087571144 -0.073222987354 1.1375299692 3.8409628868 -0.30274599791 1.1827360392
          3.1324748993 -0.012670002878 1.333466053 3.2109239101 -0.32089099288 1.1309139729
          3.2492110729 -0.32095301151 1.4265520573 3.2712409496 -0.069230996072 1.0871679783
          4.4501152039 0.014983006753 1.5191400051 4.344976902 0.097388997674 1.2805169821
          4.5587711334 0.13435800374 1.2057100534 4.4385910034 0.24091610312 1.4270139933
          1.6138050556 0.3192229867 -0.46323099732 1.8257160187 0.17760980129 -0.11040610075
          1.7167700529 0.42090001702 -0.091850601137 1.9701869488 0.36129301786 -0.32886689901
          5.0016570091 -0.09311401844 1.6771680117 5.327480793 -0.087410993874 1.7155309916
          5.1637601852 -0.29948699474 1.865844965 5.1593341827 -0.012515998445 1.8333879709
          -4.7962985039 -0.27623388171 -0.034645497799 -5 -0.39700898528 0.035171099007
          -4.8224816322 -0.4885019958 0.14574058354 -4.7719397545 -0.50261425972 -0.082141898572
          3.1671938896 0.66265797615 1.2060799599 3.0001080036 0.49131900072 1.1801650524
          3.2219541073 0.45492699742 0.97522252798 2.968873024 0.46700000763 0.87133789062
          -3.7469959259 0.18661350012 -0.87160599232 -3.8928060532 -0.036693397909 -0.81056702137
          -3.6431386471 0.012811898254 -0.67573601007 -3.683809042 -0.017515730113 -0.89673197269
          -3.5159258842 -0.18312910199 -0.2097529918 -3.7831549644 -0.23498553038 -0.042289998382
          -3.6423470974 -0.017455210909 -0.0356920138 -3.564964056 -0.31996080279 -0.046510994434
          2.0427997112 -0.2558940053 0.86032700539 1.9808440208 -0.36953899264 0.4755859971
          2.2867779732 -0.35515400767 0.54491502047 2.1764740944 -0.18138699234 0.65020596981
          3.89149189 -0.08670001477 1.8603260517 3.8050630093 0.010312004946 2.0734400749
          3.961992979 -0.15715098381 2.1520600319 3.7283027172 -0.27364698052 2.022769928
          -0.9426779747 -0.20086880028 -0.89714598656 -1.0281820297 -0.050216499716 -0.63028001785
          -0.76539498568 -0.02696910128 -0.88151800632 -0.78097099066 -0.028601998463 -0.62437999249
          4.5017971992 -0.076010011137 2.1854460239 4.659427166 0.057737004012 2.0819699764
          4.690433979 -0.097899012268 1.9307255745 4.7630262375 -0.078894995153 2.2290580273
          -0.51359897852 0.26363918185 -1.5916399956 -0.72984099388 0.28546023369 -1.3866969347
          -0.44964700937 0.30215507746 -1.3843599558 -0.38828599453 0.11242230237 -1.4058929682
          0.84206402302 0.052923899144 -0.65382301807 1.1057879925 0.14166979492 -0.59393042326
          1.0504629612 -0.041896902025 -0.74770897627 0.99458998442 -0.022154798731 -0.49672108889
          -4.4093670845 -0.040471538901 0.40553438663 -4.4544172287 -0.23605190217 0.42361399531
          -4.1633501053 -0.0074493000284 0.35350400209 -4.3315758705 -0.16536140442 0.15697599947
          -1.7756780386 0.41514155269 -0.51559001207 -1.8314759731 0.27363407612 -0.6662620306
          -1.8522150517 0.15278969705 -0.4879719913 -1.6158000231 0.28506198525 -0.55510002375
          -3.4544520378 -0.502204597 -0.077600002289 -3.564964056 -0.31996080279 -0.046510994434
          -3.3219630718 -0.30692452192 -0.14970101416 -3.3116250038 -0.30738094449 0.088941000402
          -0.55270302296 -0.11456199735 -0.98753702641 -0.61719799042 -0.039664398879 -1.1887242794
          -0.56551098824 -0.25506937504 -1.2119810581 -0.33131301403 -0.1156719923 -1.0455411673
          4.0328669548 -0.29927301407 1.0428249836 4.0087571144 -0.073222987354 1.1375299692
          3.8110458851 -0.30123400688 0.9321950078 3.902930975 -0.018859993666 0.7255499959
          -1.9680509567 0.31546962261 -0.45382100344 -2.0342888832 0.096592001617 -0.42942199111
          -1.8522150517 0.15278969705 -0.4879719913 -2.0370030403 0.2986676991 -0.69848400354
          0.51021200418 -0.21610671282 -0.49635899067 0.56557297707 -0.05147189647 -0.61882799864
          0.76676100492 -0.1134057045 -0.50795000792 0.49385619164 -0.061818897724 -0.24398499727
          2.5302391052 -0.34590399265 0.74713200331 2.5706369877 -0.14441801608 0.49783235788
          2.5268170834 -0.3430339992 0.35616520047 2.7344648838 -0.33579298854 0.55702829361
          -3.8458154202 -0.0071441796608 -0.27063637972 -4.0705108643 0.13585180044 0.0080800065771
          -3.9098739624 -0.045701097697 0.062531001866 -4.0898427963 -0.054189000279 -0.25348520279
          -2.4806556702 -0.1127384007 -1.363214016 -2.6741175652 -0.17868329585 -1.2965600491
          -2.6269614697 -0.066813401878 -1.0421299934 -2.3660526276 -0.18054547906 -1.0520470142
          -0.84249997139 0.26520928741 -1.1529723406 -1.1318500042 0.052193719894 -1.1925956011
          -0.97820800543 0.24167840183 -0.90613996983 -0.89497202635 0.0030651004054 -1.1271020174
          -0.4916779995 0.53283828497 -0.76185595989 -0.3437409997 0.53887301683 -0.68746000528
          -0.42486399412 0.21323770285 -0.57991999388 -0.55409598351 0.49938008189 -0.60413002968
          0.018631000072 -0.44565591216 -1.0280195475 -0.012586000375 -0.43688291311 -1.2338080406
          0.059512998909 -0.21327769756 -1.0408661366 -0.19269900024 -0.26168438792 -1.0995333195
          -0.39273399115 0.0064351009205 -0.57656002045 -0.23330500722 -0.099709004164 -0.54330998659
          -0.29678198695 -0.19139230251 -0.85894298553 -0.42572999001 -0.2455662936 -0.58765000105
          3.4833610058 0.65569698811 1.6809769869 3.3933129311 0.66335201263 1.4056479931
          3.5121660233 0.42270597816 1.6780580282 3.6373169422 0.67194199562 1.4793165922
          -2.8852050304 -0.13799700141 -0.5307559967 -3.0457994938 0.036590598524 -0.58276486397
          -3.0899682045 -0.29772499204 -0.5357632041 -2.9707868099 -0.088433094323 -0.74900501966
          5.2506189346 0.27369219065 2.5230898857 5.0148458481 0.15865379572 2.5250399113
          5.2068247795 0.041992999613 2.5940599442 5.0963821411 0.18064403534 2.290708065
          -0.0075119999237 -0.13963499665 -1.2594619989 -0.19379499555 -0.24117720127 -1.3589559793
          -0.14396199584 -0.17642790079 -1.5491399765 -0.19496299326 0.017406899482 -1.3360270262
          -3.564964056 -0.31996080279 -0.046510994434 -3.5088529587 -0.28569889069 0.1608529985
          -3.4230210781 -0.045196000487 0.12691999972 -3.4188709259 -0.052383501083 -0.084667012095
          4.3538961411 0.35973498225 2.428800106 4.4526658058 0.17872619629 2.428800106
          4.6255760193 0.29108199477 2.428800106 4.5650310516 0.20493909717 2.2137980461
          3.7064490318 -0.11200299114 0.86057698727 3.7195839882 0.0037419972941 1.0903520584
          3.8409628868 -0.30274599791 1.1827360392 3.5614540577 -0.13416200876 1.2109525204
          -0.098812997341 0.27493330836 -0.95051121712 -0.33649298549 0.53052771091 -0.93731302023
          -0.38182199001 0.22295188904 -0.90033400059 -0.26240199804 0.35430929065 -1.093870163
          -3.5090770721 0.16754239798 -0.19926699996 -3.7126243114 0.24968840182 -0.29950919747
          -3.5110230446 0.47337430716 -0.19270299375 -3.4597270489 0.28559470177 -0.035445000976
          2.8278307915 0.37164700031 1.4777669907 2.5472946167 0.21848860383 1.2638469934
          2.7450699806 0.13935770094 1.1011400223 2.8959798813 0.32024499774 1.0456169844
          3.4043519497 0.68294101954 0.87328398228 3.526293993 0.69815999269 0.49317902327
          3.7212340832 0.54067403078 0.62415999174 3.8292720318 0.70746701956 0.84424501657
          -1.3583359718 0.17316421866 -1.3048620224 -1.5296863317 0.075993299484 -1.5737700462
          -1.1884590387 0.063980542123 -1.4178910255 -1.206567049 0.2027631104 -1.6014900208
          -1.182997942 0.50088942051 -1.0786180496 -1.4724910259 0.49207678437 -1.0708984137
          -1.4006630182 0.27366858721 -1.0899891853 -1.3278859854 0.48927980661 -1.2198700905
          -3.7752130032 0.42797881365 -0.85966801643 -3.5222220421 0.2613735199 -0.7316250205
          -3.7469959259 0.18661350012 -0.87160599232 -3.7815887928 0.27240249515 -0.66369998455
          -0.91159600019 0.073344998062 -0.62898999453 -1.0616509914 0.19502159953 -0.62691998482
          -0.97820800543 0.24167840183 -0.90613996983 -0.80769598484 0.2091087997 -0.62626999617
          -4.1674909592 0.13877829909 -0.35717999935 -4.1666903496 0.27508330345 -0.13123139739
          -3.9515781403 0.22483050823 -0.22432824969 -4.2035307884 0.079204000533 -0.13781389594
          3.9769608974 0.41242301464 1.2358649969 4.2114582062 0.52715998888 1.3034000397
          4.2172560692 0.35686299205 1.4943759441 3.9962799549 0.50118601322 1.5290913582
          -3.2624089718 0.0626033023 -1.0726950169 -3.2104935646 -0.0044391001575 -0.70767199993
          -3.1125445366 -0.042645700276 -0.91890496016 -3.4256296158 -0.04080190137 -0.73200601339
          -3.5465004444 -0.0025727003813 -0.37637498975 -3.5159258842 -0.18312910199 -0.2097529918
          -3.2953541279 -0.00062000047183 -0.49288973212 -3.3584003448 -0.26359349489 -0.49015578628
          2.832775116 0.65263402462 1.0032349825 2.5400059223 0.47935000062 0.92150700092
          2.6370809078 0.64847302437 0.76524597406 2.5734648705 0.64016002417 1.1225880384
          2.547467947 0.16419440508 0.46359831095 2.7568380833 0.32088699937 0.34903898835
          2.4331591129 0.31312698126 0.30493488908 2.7543749809 0.16338352859 0.14366000891
          -2.7823200226 0.016783099622 -0.68633919954 -2.7856142521 0.29197818041 -0.82188498974
          -2.9227018356 0.26947918534 -0.61335587502 -2.9588835239 0.10583119839 -0.81790500879
          -0.3437409997 0.53887301683 -0.68746000528 -0.4916779995 0.53283828497 -0.76185595989
          -0.24963200092 0.28975039721 -0.72652798891 -0.33649298549 0.53052771091 -0.93731302023
          5.1873960495 0.42186701298 1.8164199591 5.4411177635 0.54534596205 2.004693985
          5.5018949509 0.57858800888 1.8484350443 5.4586992264 0.38369700313 1.9621009827
          -2.2719159126 -0.063200898468 -1.4239000082 -2.1257388592 -0.27721267939 -1.4604820013
          -2.3369340897 -0.31915336847 -1.4069160223 -2.2354676723 -0.21959285438 -1.2453320026
          4.9558830261 0.24193349481 1.938804388 4.9700350761 0.50200498104 1.9810703993
          5.0139088631 0.39100199938 2.2078499794 4.7842068672 0.23646980524 2.2136070728
          -4.1338410378 -0.23460809886 -0.7192620039 -3.9709320068 -0.19345550239 -0.77938902378
          -4.0158720016 -0.37966567278 -0.75769299269 -3.9470174313 -0.23043839633 -0.45734000206
          1.4418599606 0.28709000349 -0.062245994806 1.7167700529 0.42090001702 -0.091850601137
          1.3428349495 0.40458348393 -0.38063567877 1.6138050556 0.3192229867 -0.46323099732
          -0.86909997463 0.24614109099 -1.6085100174 -1.0434730053 0.12597134709 -1.60631001
          -1.0088479519 0.19115871191 -1.3418680429 -0.85848498344 0.10293919593 -1.6076999903
          4.7806420326 0.47793102264 2.2329978943 4.8932499886 0.67041701078 2.498333931
          4.8522830009 0.69435501099 2.1452889442 5.0721921921 0.69339102507 2.3749821186
          4.6009202003 -0.29254201055 1.7585229874 4.7825579643 0.012594994158 1.737795949
          4.838329792 -0.29386898875 1.6861670017 4.690433979 -0.097899012268 1.9307255745
          0.18104350567 0.33106470108 -0.62392002344 0.049058001488 0.54692262411 -0.80024498701
          0.21853539348 0.33637189865 -0.98886328936 0.27174431086 0.54942148924 -0.87269937992
          -4.6376662254 0.16694931686 -0.24515900016 -4.827589035 0.26959607005 -0.53942549229
          -4.6492214203 0.036135789007 -0.56955337524 -4.6478972435 0.31442570686 -0.57184767723
          -4.4442939758 -0.11693099886 -0.6205059886 -4.4922027588 -0.20494790375 -0.36291068792
          -4.626159668 -0.03600018099 -0.37031018734 -4.436715126 0.026354400441 -0.37169200182
          0.21853539348 0.33637189865 -0.98886328936 0.27174431086 0.54942148924 -0.87269937992
          0.12977400422 0.53239011765 -1.1151189804 0.35893088579 0.54108428955 -1.083673954
          -1.9959019423 -0.25378808379 -0.72344702482 -2.1335361004 -0.33587309718 -0.85573190451
          -2.1525170803 -0.34244281054 -0.58914798498 -2.0830700397 -0.51125961542 -0.71200299263
          1.3935819864 0.57705062628 -0.88371801376 1.2616900206 0.31878641248 -0.65477597713
          1.6266590357 0.45401710272 -0.88460201025 1.3943749666 0.35700458288 -1.0173640251
          -3.275526762 0.18115669489 -0.7455739975 -2.9588835239 0.10583119839 -0.81790500879
          -3.2104935646 -0.0044391001575 -0.70767199993 -3.0457994938 0.036590598524 -0.58276486397
          2.0367250443 -0.15883000195 0.10807870328 1.9658960104 -0.19827999175 -0.2762555182
          2.2337059975 -0.17428898811 -0.25786739588 2.1427390575 -0.046670995653 -0.085950896144
          -3.8436272144 -0.0084195006639 -0.544039011 -3.9709320068 -0.19345550239 -0.77938902378
          -4.0872659683 -0.040365900844 -0.50246196985 -3.9470174313 -0.23043839633 -0.45734000206
          -4.4355773926 0.16414380074 -0.62573999166 -4.6492214203 0.036135789007 -0.56955337524
          -4.436715126 0.026354400441 -0.37169200182 -4.4442939758 -0.11693099886 -0.6205059886
          -1.5521390438 -0.22336211801 -1.3013720512 -1.199491024 -0.2731808126 -1.4120750427
          -1.4067959785 -0.070061728358 -1.4117490053 -1.288203001 -0.24603740871 -1.60145998
          -3.4597270489 0.28559470177 -0.035445000976 -3.5249319077 0.4702565074 0.015981996432
          -3.3263669014 0.39029639959 0.092840000987 -3.5363500118 0.303062886 0.16877999902
          -2.548101902 -0.012899150141 -0.78901946545 -2.82984519 -0.19690430164 -0.8898460269
          -2.5444853306 -0.19624508917 -0.90569740534 -2.6269614697 -0.066813401878 -1.0421299934
          2.8988199234 0.66676598787 0.13199600577 3.0115010738 0.44793599844 0.41370400786
          3.1383700371 0.67821002007 0.30272898078 3.0825920105 0.52345901728 0.14255799353
          2.6370809078 0.64847302437 0.76524597406 2.5486719608 0.4433940053 0.48740598559
          2.7781450748 0.40818598866 0.68238705397 2.7105460167 0.65613901615 0.34329998493
          -1.3339209557 -0.1199079901 -0.60588997602 -1.542323947 -0.10029046237 -0.56713998318
          -1.5145759583 -0.018870471045 -0.82699400187 -1.4412750006 0.12191697955 -0.58430999517
          1.2570589781 -0.21799020469 -0.084225989878 1.4527050257 -0.19449299574 -0.29091629386
          1.2987240553 -0.39872199297 -0.33902829885 1.2482960224 -0.40534371138 -0.12569999695
          -0.2076960057 -0.44123241305 -1.3097250462 -0.27238899469 -0.43512588739 -1.4818589687
          -0.53049099445 -0.25941371918 -1.4260540009 -0.36334300041 -0.45349159837 -1.1892901659
          1.8443030119 0.60612398386 -0.54030299187 1.6138050556 0.3192229867 -0.46323099732
          1.9594429731 0.31532198191 -0.67937397957 1.8531999588 0.48722600937 -0.73915499449
          -1.3524429798 -0.2001490891 -0.93651300669 -1.3387739658 0.1015701443 -0.80373698473
          -1.3339209557 -0.1199079901 -0.60588997602 -1.5145759583 -0.018870471045 -0.82699400187
          4.0328669548 -0.29927301407 1.0428249836 3.902930975 -0.018859993666 0.7255499959
          3.8110458851 -0.30123400688 0.9321950078 3.8696250916 -0.23204101622 0.68651998043
          -4.6802415848 -0.16959774494 -0.21772760153 -4.6099963188 -0.51237237453 -0.2558003962
          -4.6228103638 -0.50389355421 -0.10335719585 -4.4366278648 -0.28509175777 -0.13918270171
          1.8071659803 -0.10879799724 -0.12797890604 1.8173689842 -0.37339198589 -0.084958538413
          1.6162129641 -0.37938898802 -0.35376280546 1.6111949682 -0.21885199845 -0.057695001364
          5.3040738106 0.50984299183 1.5398700237 5.1873960495 0.42186701298 1.8164199591
          4.9762878418 0.4914059937 1.7501740456 5.3054409027 0.72630798817 1.6629229784
          -3.4962136745 -0.50891906023 -0.35148981214 -3.5159258842 -0.18312910199 -0.2097529918
          -3.5607392788 -0.34819129109 -0.49605900049 -3.3584003448 -0.26359349489 -0.49015578628
          2.7388780117 0.4845879972 0.20156900585 2.7105460167 0.65613901615 0.34329998493
          2.8988199234 0.66676598787 0.13199600577 3.0115010738 0.44793599844 0.41370400786
          2.6370809078 0.64847302437 0.76524597406 3.0083858967 0.66490697861 0.78671127558
          2.968873024 0.46700000763 0.87133789062 2.832775116 0.65263402462 1.0032349825
          0.64630901814 0.29072648287 -1.3438220024 0.51523089409 0.14683929086 -1.3929450512
          0.24196699262 0.39278018475 -1.4639049768 0.30814930797 0.31706541777 -1.2523280382
          -0.59738898277 -0.2561981082 -0.61395001411 -0.7906640172 -0.26609754562 -0.63226997852
          -0.62982201576 -0.48794570565 -0.79209601879 -0.6984680295 -0.26326191425 -0.85958302021
          3.1671938896 0.66265797615 1.2060799599 2.832775116 0.65263402462 1.0032349825
          3.0001080036 0.49131900072 1.1801650524 2.968873024 0.46700000763 0.87133789062
          3.3454549313 -0.14016999304 0.62486702204 3.179639101 -0.31765601039 0.58325701952
          3.2719910145 -0.31246700883 0.38419899344 3.0362560749 -0.12312699854 0.36283898354
          -0.62982201576 -0.48794570565 -0.79209601879 -0.6984680295 -0.26326191425 -0.85958302021
          -0.49013099074 -0.27833321691 -0.80703800917 -0.59738898277 -0.2561981082 -0.61395001411
          4.690433979 -0.097899012268 1.9307255745 4.908780098 -0.05460799858 1.9473679066
          4.9833068848 -0.29716300964 1.80032897 4.8643531799 -0.29935500026 2.0071020126
          -1.2506010532 -0.14467050135 -1.2530030012 -1.4465429783 -0.48274430633 -1.2523479462
          -1.2170039415 -0.47567608953 -1.2552779913 -1.199491024 -0.2731808126 -1.4120750427
          -3.1669573784 -0.19655050337 -0.74350303411 -3.223610878 -0.51225572824 -0.90670001507
          -3.3740890026 -0.51318377256 -0.76919901371 -3.1503348351 -0.51121389866 -0.73205798864
          -2.0755507946 0.47351419926 -1.1557840109 -2.3987627029 0.46843078732 -1.1548199654
          -2.1977200508 0.47695589066 -0.94357067347 -2.1506009102 0.25718417764 -1.2337720394
          0.93579101562 0.2607139945 -0.85697698593 0.62536001205 0.067611642182 -0.78804123402
          0.84206402302 0.052923899144 -0.65382301807 0.82348799706 -0.019467899576 -0.88339298964
          2.4627220631 0.06453820318 0.024974999949 2.7389440536 0.18060749769 -0.13687500358
          2.4272270203 0.24140749872 -0.088780999184 2.4711270332 0.1866299957 -0.33196899295
          0.69095832109 -0.066606298089 -0.12778200209 0.86870998144 0.033326499164 -0.31085899472
          0.96178209782 -0.10965040326 0.053582999855 0.79737359285 0.10921870172 -0.047456
          1.9902969599 0.62398999929 0.42160499096 1.7462838888 0.61548000574 0.6637160182
          1.8868869543 0.43748298287 0.51323801279 1.669698596 0.61242300272 0.38457930088
          -0.18521800637 0.03266672045 -1.0619240999 -0.0075119999237 -0.13963499665 -1.2594619989
          -0.38811999559 -0.14212410152 -1.2827340364 -0.19269900024 -0.26168438792 -1.0995333195
          -4.5366792679 0.30343410373 -0.3805705905 -4.6492214203 0.036135789007 -0.56955337524
          -4.6376662254 0.16694931686 -0.24515900016 -4.626159668 -0.03600018099 -0.37031018734
          4.5017971992 -0.076010011137 2.1854460239 4.6464409828 -0.13010598719 2.42572999
          4.7630262375 -0.078894995153 2.2290580273 4.6169447899 -0.28709799051 2.2023260593
          -0.42572999001 -0.2455662936 -0.58765000105 -0.23330500722 -0.099709004164 -0.54330998659
          -0.13618600368 -0.29588839412 -0.75555801392 -0.1767269969 -0.26826900244 -0.53143000603
          4.4067840576 -0.28270500898 2.1856250763 4.5017971992 -0.076010011137 2.1854460239
          4.5203971863 -0.28261700273 2.3645069599 4.2298059464 -0.09465200454 2.2884199619
          -0.42743900418 -0.29611000419 -1.0441720486 -0.29678198695 -0.19139230251 -0.85894298553
          -0.17229199409 -0.45925500989 -0.92756402493 -0.31607699394 -0.47428938746 -0.76736098528
          5.0874519348 0.48010200262 1.4636000395 5.1873960495 0.42186701298 1.8164199591
          4.9762878418 0.4914059937 1.7501740456 5.3040738106 0.50984299183 1.5398700237
          -4.1666903496 0.27508330345 -0.13123139739 -4.0705108643 0.13585180044 0.0080800065771
          -3.9515781403 0.22483050823 -0.22432824969 -4.2035307884 0.079204000533 -0.13781389594
          -3.0221710205 -0.28878861666 -1.1663730145 -3.3226380348 -0.42967289686 -1.0436520576
          -3.0438988209 -0.31679549813 -0.92314600945 -3.0530843735 -0.50840169191 -1.0475519896
          0.67646998167 0.33598598838 -0.95468699932 0.62536001205 0.067611642182 -0.78804123402
          0.4462980032 0.22514030337 -1.0646909475 0.43711400032 0.35662287474 -0.86431020498
          2.4627220631 0.06453820318 0.024974999949 2.4272270203 0.24140749872 -0.088780999184
          2.1427390575 -0.046670995653 -0.085950896144 2.1084809303 0.16455329955 -0.24006199837
          1.8443030119 0.60612398386 -0.54030299187 1.9701869488 0.36129301786 -0.32886689901
          1.7609839439 0.60800498724 -0.30019900203 2.0917739868 0.6197360158 -0.41446819901
          -0.38828599453 0.11242230237 -1.4058929682 -0.72984099388 0.28546023369 -1.3866969347
          -0.53547698259 0.15860010684 -1.2386740446 -0.55726397038 -0.032617900521 -1.40318501
          2.7568380833 0.32088699937 0.34903898835 2.547467947 0.16419440508 0.46359831095
          2.9617218971 0.11532790214 0.41656598449 2.6742250919 -0.012311006896 0.2936809957
          4.2633280754 0.48635900021 1.6941789389 4.1660380363 0.37686598301 1.8869049549
          4.2132930756 0.66276198626 1.9194359779 4.4522380829 0.45779499412 1.8534209728
          -2.4275128841 0.11600639671 -0.53692299128 -2.3634879589 0.31209561229 -0.49861198664
          -2.1832900047 0.29363209009 -0.3768529892 -2.3957979679 0.17064259946 -0.29074698687
          -2.9465370178 0.2871569097 -0.061487998813 -3.0915300846 0.47361189127 -0.20009501278
          -2.8824410439 0.47557380795 -0.10396198928 -3.1058139801 0.41758540273 0.0045389998704
          5.3548870087 -0.21426801383 2.2027084827 5.2890958786 -0.018920002505 2.382846117
          5.2658262253 -0.21781501174 2.420085907 5.0791130066 -0.098838992417 2.3361620903
          -4.7995986938 0.015869349241 -0.30273678899 -4.7578816414 0.28667363524 -0.042721800506
          -5 0.1004910022 -0.10199099779 -4.7940740585 0.30425521731 -0.31099230051
          -3.7126243114 0.24968840182 -0.29950919747 -3.648727417 0.16803780198 -0.52384102345
          -3.93171525 0.23039670289 -0.4976850152 -3.8458154202 -0.0071441796608 -0.27063637972
          1.7609839439 0.60800498724 -0.30019900203 1.5018340349 0.60006701946 -0.26044872403
          1.6138050556 0.3192229867 -0.46323099732 1.446663022 0.5864855051 -0.62758201361
          -0.21260130405 0.41750350595 -0.52818000317 -0.24963200092 0.28975039721 -0.72652798891
          -0.04825539887 0.29193970561 -0.48039200902 -0.032131001353 0.33743911982 -0.72442996502
          -2.2852199078 -0.19466769695 -0.68211597204 -2.548101902 -0.012899150141 -0.78901946545
          -2.526927948 -0.09825039655 -0.49015599489 -2.5790920258 -0.26749420166 -0.70352119207
          -1.182997942 0.50088942051 -1.0786180496 -1.0788140297 0.51180261374 -0.85813999176
          -1.1999200583 0.31322172284 -0.84429401159 -1.3283799887 0.50588327646 -0.82055300474
          4.3348088264 0.0020780034829 2.0050890446 4.5017971992 -0.076010011137 2.1854460239
          4.659427166 0.057737004012 2.0819699764 4.690433979 -0.097899012268 1.9307255745
          -4.3315758705 -0.16536140442 0.15697599947 -4.0919470787 -0.29832312465 0.34250101447
          -3.9805979729 -0.2818211019 0.12366101146 -4.2066240311 -0.3275590539 0.070990994573
          1.3628020287 0.069748699665 -0.7095310092 1.1057879925 0.14166979492 -0.59393042326
          1.1473189592 0.12026190013 -0.89047002792 1.2616900206 0.31878641248 -0.65477597713
          -4.0883383751 -0.19288347661 -0.063150003552 -3.9098739624 -0.045701097697 0.062531001866
          -3.7831549644 -0.23498553038 -0.042289998382 -3.9805979729 -0.2818211019 0.12366101146
          -4.4093670845 -0.040471538901 0.40553438663 -4.6756920815 -0.17933808267 0.46103820205
          -4.4544172287 -0.23605190217 0.42361399531 -4.5542583466 -0.14354543388 0.282918185
          2.6742250919 -0.012311006896 0.2936809957 2.5706369877 -0.14441801608 0.49783235788
          2.8178238869 -0.16496701539 0.18457700312 2.457036972 -0.14717501402 0.22073699534
          -3.3199958801 0.47254309058 -0.92196601629 -2.9768784046 0.46844089031 -1.0279990435
          -3.0947728157 0.28662750125 -0.90678101778 -2.9246742725 0.47127839923 -0.80925703049
          -4.6802415848 -0.16959774494 -0.21772760153 -4.6228103638 -0.50389355421 -0.10335719585
          -4.7666764259 -0.51139259338 -0.25473800302 -4.7962985039 -0.27623388171 -0.034645497799
          -4.0872659683 -0.040365900844 -0.50246196985 -3.9470174313 -0.23043839633 -0.45734000206
          -4.1456823349 -0.32185968757 -0.5048879981 -4.2499485016 -0.19019518793 -0.35626098514
          3.8110458851 -0.30123400688 0.9321950078 3.7064490318 -0.11200299114 0.86057698727
          3.5614540577 -0.13416200876 1.2109525204 3.5389170647 -0.30982100964 1.044885993
          -4.2499485016 -0.19019518793 -0.35626098514 -4.0898427963 -0.054189000279 -0.25348520279
          -4.3956904411 -0.0096592828631 -0.099004216492 -4.2035307884 0.079204000533 -0.13781389594
          2.7543749809 0.16338352859 0.14366000891 2.7389440536 0.18060749769 -0.13687500358
          2.9922840595 0.30892300606 0.059962000698 2.8823029995 0.46633699536 -0.010378999636
          0.4462980032 0.22514030337 -1.0646909475 0.30460509658 0.093160197139 -1.2340450287
          0.30814930797 0.31706541777 -1.2523280382 0.081534996629 0.22075429559 -1.1755410433
          -4.1674909592 0.13877829909 -0.35717999935 -4.0872659683 -0.040365900844 -0.50246196985
          -4.2499485016 -0.19019518793 -0.35626098514 -4.0898427963 -0.054189000279 -0.25348520279
          4.0440011024 0.18789739907 1.9961689711 4.1495599747 0.35503801703 2.2919700146
          4.3718128204 0.25128540397 2.104501009 4.1594829559 0.12733019888 2.2602200508
          -1.4412750006 0.12191697955 -0.58430999517 -1.6226379871 0.13752751052 -0.73393601179
          -1.542323947 -0.10029046237 -0.56713998318 -1.5145759583 -0.018870471045 -0.82699400187
          -4.2408308983 0.48058089614 -0.10947950184 -4.3753991127 0.47727328539 0.067836903036
          -4.5223350525 0.28749448061 0.00038830153062 -4.5005278587 0.48635560274 -0.11545810103
          -1.8249877691 -0.34991788864 -1.5306500196 -1.925401926 -0.48173299432 -1.4075479507
          -1.7574769258 -0.32169941068 -1.3376590014 -1.6306117773 -0.45637950301 -1.5653500557
          -2.3013501167 -0.0029451001901 -0.87519747019 -2.5444853306 -0.19624508917 -0.90569740534
          -2.6269614697 -0.066813401878 -1.0421299934 -2.548101902 -0.012899150141 -0.78901946545
          2.9097163677 -0.086468994617 1.5041099787 2.9196689129 -0.13256700337 1.2476739883
          3.1324748993 -0.012670002878 1.333466053 2.78916049 0.10995809734 1.4312570095
          -1.4917390347 0.24093736708 -0.86661797762 -1.4990010262 0.46406769753 -0.58357000351
          -1.2614649534 0.29969120026 -0.61504000425 -1.4412750006 0.12191697955 -0.58430999517
          3.5387530327 0.16991350055 1.193629384 3.6544830799 0.36574301124 1.0680350065
          3.4408869743 0.48258000612 1.1898485422 3.427726984 0.34208199382 0.94024497271
          2.832775116 0.65263402462 1.0032349825 2.7331340313 0.47387900949 1.1153179407
          2.5400059223 0.47935000062 0.92150700092 2.5734648705 0.64016002417 1.1225880384
          1.3120340109 -0.15288600326 -0.5459626317 0.99458998442 -0.022154798731 -0.49672108889
          1.1057879925 0.14166979492 -0.59393042326 1.303779006 0.10932320356 -0.39463099837
          -4.6802415848 -0.16959774494 -0.21772760153 -4.8024878502 -0.29730415344 -0.34576281905
          -4.6099963188 -0.51237237453 -0.2558003962 -4.4922027588 -0.20494790375 -0.36291068792
          4.561398983 0.70336198807 1.6810460091 4.4522380829 0.45779499412 1.8534209728
          4.7165417671 0.53939402103 1.5485489368 4.5152788162 0.44570598006 1.5512629747
          -3.4521927834 -0.28309810162 -0.73375397921 -3.223610878 -0.51225572824 -0.90670001507
          -3.3740890026 -0.51318377256 -0.76919901371 -3.1669573784 -0.19655050337 -0.74350303411
          -4.2499485016 -0.19019518793 -0.35626098514 -4.0898427963 -0.054189000279 -0.25348520279
          -4.2035307884 0.079204000533 -0.13781389594 -4.436715126 0.026354400441 -0.37169200182
          -2.8605468273 0.030474800617 -1.0333030224 -2.82984519 -0.19690430164 -0.8898460269
          -2.9707868099 -0.088433094323 -0.74900501966 -2.7823200226 0.016783099622 -0.68633919954
          -2.4344344139 0.47441139817 -0.8509837985 -2.6776423454 0.47449350357 -0.75034171343
          -2.3374700546 0.48206248879 -0.62753897905 -2.5196659565 0.24592778087 -0.72205346823
          2.4272270203 0.24140749872 -0.088780999184 2.2037799358 0.33316999674 -0.035911995918
          2.0466160774 0.12520329654 0.090647503734 2.1084809303 0.16455329955 -0.24006199837
          3.3571829796 0.56413400173 0.35071998835 3.3829259872 0.46805399656 0.71429997683
          3.4906380177 0.39700400829 0.43757998943 3.1142799854 0.34143099189 0.65826201439
          -0.18521800637 0.03266672045 -1.0619240999 -0.19269900024 -0.26168438792 -1.0995333195
          -0.29678198695 -0.19139230251 -0.85894298553 0.0018850000342 -0.13561350107 -0.81675201654
          5.4086022377 0.24544849992 2.0854845047 5.3432278633 0.22682979703 2.2597339153
          5.4175891876 0.055754002184 2.0606226921 5.1686019897 0.14154189825 2.0466096401
          3.1580340862 -0.10009101033 1.6749999523 3.1324748993 -0.012670002878 1.333466053
          3.0577402115 0.15238833427 1.6229300499 2.9097163677 -0.086468994617 1.5041099787
          1.4334243536 0.60390299559 0.081108003855 1.2312122583 0.39813408256 -0.034452985972
          1.2371704578 0.59994918108 0.042260996997 1.2316360474 0.45880398154 0.28732401133
          -2.5444853306 -0.19624508917 -0.90569740534 -2.3013501167 -0.0029451001901 -0.87519747019
          -2.354665041 -0.32262691855 -0.86674439907 -2.2852199078 -0.19466769695 -0.68211597204
          -4.8224816322 -0.4885019958 0.14574058354 -4.777050972 -0.31894397736 0.2911812067
          -4.5533809662 -0.4828903079 0.2240357995 -4.6614847183 -0.47366380692 0.40119040012
          2.1685369015 0.31989699602 -0.53797519207 2.1847960949 0.4558160007 -0.22780369222
          2.2756080627 0.47857099771 -0.45266869664 2.3722069263 0.33220499754 -0.39323601127
          0.081534996629 0.22075429559 -1.1755410433 -0.098812997341 0.27493330836 -0.95051121712
          -0.18521800637 0.03266672045 -1.0619240999 -0.2287349999 0.24483269453 -1.2839930058
          4.7117071152 0.64353197813 1.3227100372 4.7165417671 0.53939402103 1.5485489368
          4.8287091255 0.72349202633 1.5618569851 4.8885669708 0.54565501213 1.3964899778
          -1.8587261438 -0.19973695278 -1.1918489933 -2.1019701958 -0.27823245525 -1.0662670135
          -1.9235659838 -0.32769143581 -0.93234062195 -1.9633500576 -0.49727156758 -1.0658731461
          -1.721953392 0.25095880032 -1.5497900248 -1.795637846 0.26627320051 -1.3385109901
          -1.5488374233 0.27182540298 -1.3903579712 -1.6338564157 0.02010091953 -1.3360049725
          -4.4574508667 0.019598178566 0.2031301856 -4.4056830406 0.16206969321 0.40360671282
          -4.1633501053 -0.0074493000284 0.35350400209 -4.4093670845 -0.040471538901 0.40553438663
          -3.0872220993 0.1026121974 -1.1435060501 -3.1125445366 -0.042645700276 -0.91890496016
          -3.0489430428 -0.05935529992 -1.1577789783 -3.2624089718 0.0626033023 -1.0726950169
          4.4385910034 0.24091610312 1.4270139933 4.4501152039 0.014983006753 1.5191400051
          4.6735458374 0.19949239492 1.5503569841 4.5587711334 0.13435800374 1.2057100534
          -4.2212285995 -0.30168271065 -0.17994959652 -4.0898427963 -0.054189000279 -0.25348520279
          -4.2499485016 -0.19019518793 -0.35626098514 -4.0016961098 -0.32739970088 -0.24166919291
          4.1866950989 -0.16452099383 0.93571001291 4.3275651932 -0.10407299548 1.3448059559
          4.2537708282 -0.29642701149 1.1315799952 4.0087571144 -0.073222987354 1.1375299692
          -1.4937491417 0.34081637859 -1.5808500051 -1.7796988487 0.44841960073 -1.5478500128
          -1.5488374233 0.27182540298 -1.3903579712 -1.721953392 0.25095880032 -1.5497900248
          0.47422000766 0.57532548904 -0.38774099946 0.56680697203 0.35435029864 -0.45947599411
          0.73966902494 0.57453459501 -0.50246399641 0.4528760016 0.56065458059 -0.71604299545
          0.61579799652 -0.14052461088 -1.0343459845 0.53313398361 0.019717698917 -1.1568260193
          0.47868400812 -0.085507400334 -0.87584412098 0.26428851485 -0.064987801015 -1.0606349707
          3.7013010979 -0.30448499322 1.5550149679 3.4261219501 -0.31478399038 1.2515799999
          3.658107996 -0.30566099286 1.332764864 3.4407179356 -0.10024298728 1.6149629354
          2.9196689129 -0.13256700337 1.2476739883 3.2109239101 -0.32089099288 1.1309139729
          3.1324748993 -0.012670002878 1.333466053 3.2712409496 -0.069230996072 1.0871679783
          3.9701340199 -0.29213601351 1.9327290058 3.6907598972 -0.3027870059 1.7716159821
          3.89149189 -0.08670001477 1.8603260517 3.7283027172 -0.27364698052 2.022769928
          1.9639710188 -0.12883301079 0.49361902475 1.5937000513 -0.15697298944 0.5264647007
          1.8012125492 0.13252429664 0.42392399907 1.7765240669 0.044387601316 0.68126302958
          5.0139088631 0.39100199938 2.2078499794 5.1783838272 0.53621798754 2.2175490856
          5.3057627678 0.47182801366 2.3657300472 5.0230960846 0.41076001525 2.4843699932
          1.6553009748 -0.058208007365 -0.42940098047 1.6323230267 0.075184799731 -0.62727099657
          1.303779006 0.10932320356 -0.39463099837 1.3628020287 0.069748699665 -0.7095310092
          -0.96335202456 -0.23516255617 -0.63407999277 -1.1560570002 -0.29963886738 -0.85426801443
          -1.0522500277 -0.4041929543 -0.63874000311 -0.9426779747 -0.20086880028 -0.89714598656
          -5 -0.004447159823 0.13623799384 -5 0.15884299576 0.21330599487
          -4.7829651833 -0.03583727777 0.25068509579 -5 0.07584580034 0.38386198878
          5.1484160423 0.71598798037 1.853268981 4.9700350761 0.50200498104 1.9810703993
          5.2246007919 0.71275597811 2.0305790901 5.1873960495 0.42186701298 1.8164199591
          4.659427166 0.057737004012 2.0819699764 4.690433979 -0.097899012268 1.9307255745
          4.7131490707 0.21425390244 1.868008852 4.5158967972 -0.051814988256 1.7898253202
          3.4360439777 -0.0026910067536 1.3680689335 3.2844669819 0.18207931519 1.0159295797
          3.1057059765 0.21902000904 1.2990050316 3.1324748993 -0.012670002878 1.333466053
          1.303779006 0.10932320356 -0.39463099837 1.6553009748 -0.058208007365 -0.42940098047
          1.2925460339 -0.051271595061 -0.25956600904 1.5832170248 0.13898870349 -0.2907756865
          -4.3393721581 0.42342635989 -0.65198898315 -4.3347187042 0.29005420208 -0.44296199083
          -4.1460008621 0.48432341218 -0.41542598605 -4.1332221031 0.29565098882 -0.49425297976
          -3.1937348843 0.42899999022 -1.1060760021 -2.9768784046 0.46844089031 -1.0279990435
          -3.0947728157 0.28662750125 -0.90678101778 -3.3199958801 0.47254309058 -0.92196601629
          -3.5607392788 -0.34819129109 -0.49605900049 -3.5159258842 -0.18312910199 -0.2097529918
          -3.6200819016 -0.16615739465 -0.5608189702 -3.3584003448 -0.26359349489 -0.49015578628
          -1.7501699924 -0.19925332069 -0.86327397823 -2.0607159138 -0.073489099741 -0.92311251163
          -1.9959019423 -0.25378808379 -0.72344702482 -1.9235659838 -0.32769143581 -0.93234062195
          5.1484160423 0.71598798037 1.853268981 5.1873960495 0.42186701298 1.8164199591
          5.4411177635 0.54534596205 2.004693985 5.5018949509 0.57858800888 1.8484350443
          0.56557297707 -0.05147189647 -0.61882799864 0.38312900066 0.045982599258 -0.55516397953
          0.60305899382 0.11440300196 -0.49014899135 0.49385619164 -0.061818897724 -0.24398499727
          4.838329792 -0.29386898875 1.6861670017 4.690433979 -0.097899012268 1.9307255745
          4.9833068848 -0.29716300964 1.80032897 4.8643531799 -0.29935500026 2.0071020126
          1.3497146368 0.084297902882 0.35733398795 1.5715531111 0.22482000291 0.53529620171
          1.3238321543 0.31234300137 0.3489010036 1.6255400181 0.14701509476 0.17244631052
          -4.0872659683 -0.040365900844 -0.50246196985 -3.9470174313 -0.23043839633 -0.45734000206
          -4.1338410378 -0.23460809886 -0.7192620039 -4.1456823349 -0.32185968757 -0.5048879981
          -3.2987422943 0.26889032125 -0.46421080828 -3.5090770721 0.16754239798 -0.19926699996
          -3.517005682 0.27712589502 -0.40882021189 -3.2346680164 0.26355689764 -0.22137200832
          0.61579799652 -0.14052461088 -1.0343459845 0.47868400812 -0.085507400334 -0.87584412098
          0.61227500439 -0.20498250425 -0.7539935708 0.36515200138 -0.25333359838 -0.93256372213
          -1.201603055 0.29143372178 -1.4187309742 -1.5488374233 0.27182540298 -1.3903579712
          -1.2948549986 0.4837462008 -1.4094699621 -1.3583359718 0.17316421866 -1.3048620224
          -2.707750082 0.14897160232 -0.50897496939 -2.6534280777 0.29591062665 -0.18428100646
          -2.6104540825 0.0081983003765 -0.20189599693 -2.825469017 0.27062919736 -0.34245297313
          0.27352508903 -0.21387378871 -0.36756598949 0.49385619164 -0.061818897724 -0.24398499727
          0.51021200418 -0.21610671282 -0.49635899067 0.5607355237 -0.26477059722 -0.21746100485
          4.344976902 0.097388997674 1.2805169821 4.3814492226 0.23643480241 1.0975799561
          4.4385910034 0.24091610312 1.4270139933 4.1762018204 0.27362239361 1.2485419512
          1.1987409592 0.59465539455 -0.16085501015 0.92953801155 0.58331018686 -0.38244798779
          1.1137839556 0.31430581212 -0.23879601061 1.108150959 0.58133798838 -0.50853699446
          2.6742250919 -0.012311006896 0.2936809957 2.457036972 -0.14717501402 0.22073699534
          2.8178238869 -0.16496701539 0.18457700312 2.7524430752 -0.1180730015 -0.14809599519
          -3.3584003448 -0.26359349489 -0.49015578628 -3.3031389713 -0.50743067265 -0.25414600968
          -3.1492960453 -0.20950199664 -0.30492499471 -3.2427380085 -0.50958657265 -0.51888477802
          -1.4234830141 -0.38737499714 -1.5921599865 -1.2205280066 -0.4554925859 -1.6110960245
          -1.326851964 -0.47103399038 -1.4058600664 -1.199491024 -0.2731808126 -1.4120750427
          -2.2919089794 -0.51172739267 -0.61034798622 -2.1525170803 -0.34244281054 -0.58914798498
          -2.2511439323 -0.51482909918 -0.38649699092 -2.4078168869 -0.30346369743 -0.49435901642
          -3.8436272144 -0.0084195006639 -0.544039011 -3.8928060532 -0.036693397909 -0.81056702137
          -3.6200819016 -0.16615739465 -0.5608189702 -3.6431386471 0.012811898254 -0.67573601007
          0.96178209782 -0.10965040326 0.053582999855 0.79737359285 0.10921870172 -0.047456
          0.86870998144 0.033326499164 -0.31085899472 1.1920820475 0.066462799907 -0.092215999961
          5.0230960846 0.41076001525 2.4843699932 5.0721921921 0.69339102507 2.3749821186
          5.1834688187 0.66452199221 2.560806036 4.8932499886 0.67041701078 2.498333931
          -0.76539498568 -0.02696910128 -0.88151800632 -0.96815401316 0.02664539963 -0.92440497875
          -0.9426779747 -0.20086880028 -0.89714598656 -0.89497202635 0.0030651004054 -1.1271020174
          -3.6301288605 -0.50444597006 -0.18104600906 -3.564964056 -0.31996080279 -0.046510994434
          -3.4962136745 -0.50891906023 -0.35148981214 -3.3219630718 -0.30692452192 -0.14970101416
          -4.4078559875 -0.44284930825 0.41885921359 -4.4544172287 -0.23605190217 0.42361399531
          -4.6614847183 -0.47366380692 0.40119040012 -4.5533809662 -0.4828903079 0.2240357995
          1.9673910141 0.42298001051 0.05929357931 1.7167700529 0.42090001702 -0.091850601137
          1.8911110163 0.31002601981 0.28474500775 1.8257160187 0.17760980129 -0.11040610075
          3.3760828972 -0.31359198689 0.77911198139 3.232765913 -0.12802201509 0.84651488066
          3.2109239101 -0.32089099288 1.1309139729 3.1706290245 -0.32041600347 0.80434769392
          3.4906380177 0.39700400829 0.43757998943 3.1142799854 0.34143099189 0.65826201439
          3.241795063 0.17628619075 0.51923000813 3.1855530739 0.35112899542 0.20670999587
          3.1580340862 -0.10009101033 1.6749999523 3.4407179356 -0.10024298728 1.6149629354
          3.1324748993 -0.012670002878 1.333466053 3.2492110729 -0.32095301151 1.4265520573
          -1.5631556511 -0.15877270699 -1.5688300133 -1.856298089 -0.15979887545 -1.5231399536
          -1.7574769258 -0.32169941068 -1.3376590014 -1.8249877691 -0.34991788864 -1.5306500196
          1.3628020287 0.069748699665 -0.7095310092 1.2825410366 -0.16882799566 -0.83733904362
          1.0504629612 -0.041896902025 -0.74770897627 1.3120340109 -0.15288600326 -0.5459626317
          0.5607355237 -0.26477059722 -0.21746100485 0.32017090917 -0.4122928977 -0.35579401255
          0.51021200418 -0.21610671282 -0.49635899067 0.27352508903 -0.21387378871 -0.36756598949
          1.9673910141 0.42298001051 0.05929357931 1.8911110163 0.31002601981 0.28474500775
          2.0226778984 0.62434697151 0.18275760114 2.2181119919 0.41253200173 0.3796235919
          -0.69384098053 0.20343409479 -0.94639998674 -0.42777499557 0.06476470083 -1.0590546131
          -0.38182199001 0.22295188904 -0.90033400059 -0.50188398361 0.32205638289 -1.0782203674
          4.1369771957 0.033024005592 1.3592270613 4.0616660118 -0.29908099771 1.2974100113
          3.8552589417 -0.056183006614 1.3705922365 3.9827311039 -0.10510598868 1.5950082541
          1.8071659803 -0.10879799724 -0.12797890604 1.6162129641 -0.37938898802 -0.35376280546
          1.8301340342 -0.19138199091 -0.51286798716 1.6553009748 -0.058208007365 -0.42940098047
          -4.4553132057 0.33380118012 0.41776010394 -4.5313487053 0.23166209459 0.25894141197
          -4.5989289284 0.15179400146 0.43534138799 -4.4056830406 0.16206969321 0.40360671282
          3.7856199741 0.69599997997 1.1387779713 3.9791870117 0.71098798513 1.0759580135
          3.8493919373 0.50689595938 1.0418950319 3.9909090996 0.69799000025 1.3503149748
          5.2795748711 0.19745920599 1.7484179735 5.0031938553 0.28169769049 1.6652870178
          4.9797067642 0.10058799386 1.780706048 5.1202697754 0.12177520245 1.4594299793
          -3.4597270489 0.28559470177 -0.035445000976 -3.5638709068 0.10706090182 0.17637899518
          -3.3653941154 0.12199870497 0.10548699647 -3.6423470974 -0.017455210909 -0.0356920138
          0.36511561275 -0.21865269542 -1.2138979435 0.22415600717 -0.082622297108 -1.3033210039
          -0.0075119999237 -0.13963499665 -1.2594619989 0.24705900252 -0.42054501176 -1.2698409557
          5.0031938553 0.28169769049 1.6652870178 4.7563681602 0.41457000375 1.7243119478
          4.7131490707 0.21425390244 1.868008852 4.8711438179 0.14351969957 1.5897270441
          -3.7752130032 0.42797881365 -0.85966801643 -3.5356121063 0.44416579604 -0.95966500044
          -3.5222220421 0.2613735199 -0.7316250205 -3.6143445969 0.47693321109 -0.66685003042
          -3.93171525 0.23039670289 -0.4976850152 -4.1332221031 0.29565098882 -0.49425297976
          -3.9811484814 0.47856000066 -0.21228690445 -3.9515781403 0.22483050823 -0.22432824969
          -3.91289711 0.46681961417 0.26801300049 -4.162466526 0.47085979581 0.13769200444
          -4.3193311691 0.46817699075 0.36364999413 -4.1121020317 0.25860318542 0.34374800324
          0.84206402302 0.052923899144 -0.65382301807 0.60305899382 0.11440300196 -0.49014899135
          0.62536001205 0.067611642182 -0.78804123402 0.69450002909 0.33520320058 -0.69070541859
          -4.0705108643 0.13585180044 0.0080800065771 -4.0016899109 0.29823037982 0.14048601687
          -3.7828290462 0.0534854047 0.25001400709 -3.9893488884 0.10838919878 0.30875301361
          -0.7906640172 -0.26609754562 -0.63226997852 -0.9426779747 -0.20086880028 -0.89714598656
          -0.6984680295 -0.26326191425 -0.85958302021 -0.76539498568 -0.02696910128 -0.88151800632
          4.1762018204 0.27362239361 1.2485419512 4.1369771957 0.033024005592 1.3592270613
          4.344976902 0.097388997674 1.2805169821 4.1854190826 0.098016999662 0.94669002295
          0.93579101562 0.2607139945 -0.85697698593 0.62536001205 0.067611642182 -0.78804123402
          0.82348799706 -0.019467899576 -0.88339298964 0.74059998989 0.11394579709 -1.0505290031
          -3.3199958801 0.47254309058 -0.92196601629 -2.9246742725 0.47127839923 -0.80925703049
          -3.0947728157 0.28662750125 -0.90678101778 -3.2916152477 0.47306519747 -0.70392102003
          -1.1560570002 -0.29963886738 -0.85426801443 -1.225301981 -0.29465007782 -1.0979983807
          -1.0521889925 -0.48985919356 -0.94649702311 -1.0050040483 -0.23432028294 -1.1520009041
          -3.6143445969 0.47693321109 -0.66685003042 -3.5222220421 0.2613735199 -0.7316250205
          -3.517005682 0.27712589502 -0.40882021189 -3.4917843342 0.47428500652 -0.40278941393
          -3.7306609154 -0.49806988239 0.0059669911861 -4.0129318237 -0.49603816867 0.055561993271
          -3.7831549644 -0.23498553038 -0.042289998382 -3.9805979729 -0.2818211019 0.12366101146
          4.9762878418 0.4914059937 1.7501740456 4.7576980591 0.49129199982 1.9305694103
          4.7495179176 0.70579200983 1.7540500164 4.9495658875 0.71378302574 1.7495089769
          -3.5090770721 0.16754239798 -0.19926699996 -3.7695140839 0.20615190268 -0.025571003556
          -3.6423470974 -0.017455210909 -0.0356920138 -3.8458154202 -0.0071441796608 -0.27063637972
          2.5734648705 0.64016002417 1.1225880384 2.8616578579 0.64741098881 1.2881900072
          2.832775116 0.65263402462 1.0032349825 2.7331340313 0.47387900949 1.1153179407
          0.19523879886 -0.052128598094 -0.8603233695 0.36515200138 -0.25333359838 -0.93256372213
          0.14480470121 -0.27436679602 -0.68005996943 0.3360530138 -0.12368449569 -0.71136599779
          -0.9426779747 -0.20086880028 -0.89714598656 -1.0522500277 -0.4041929543 -0.63874000311
          -0.81605601311 -0.49181076884 -0.80724596977 -1.0521889925 -0.48985919356 -0.94649702311
          2.2337059975 -0.17428898811 -0.25786739588 1.9658960104 -0.19827999175 -0.2762555182
          2.2598950863 -0.19575500488 -0.50656956434 1.9952529669 -0.028272999451 -0.39336639643
          5.4800391197 0.18614250422 1.908427 5.4586992264 0.38369700313 1.9621009827
          5.4746980667 0.36210200191 1.5940099955 5.5534300804 0.16041310132 1.7146040201
          2.7388780117 0.4845879972 0.20156900585 2.8823029995 0.46633699536 -0.010378999636
          2.5381810665 0.37671899796 0.083356015384 2.7543749809 0.16338352859 0.14366000891
          -0.19269900024 -0.26168438792 -1.0995333195 -0.012586000375 -0.43688291311 -1.2338080406
          -0.36334300041 -0.45349159837 -1.1892901659 -0.17229199409 -0.45925500989 -0.92756402493
          -3.1945888996 0.20945261419 0.039181999862 -3.2346680164 0.26355689764 -0.22137200832
          -3.3263669014 0.39029639959 0.092840000987 -3.4597270489 0.28559470177 -0.035445000976
          -0.21260130405 0.41750350595 -0.52818000317 -0.04825539887 0.29193970561 -0.48039200902
          -0.0096544995904 0.55562412739 -0.53859198093 -0.032131001353 0.33743911982 -0.72442996502
          -2.707750082 0.14897160232 -0.50897496939 -2.6534280777 0.29591062665 -0.18428100646
          -2.3957979679 0.17064259946 -0.29074698687 -2.6104540825 0.0081983003765 -0.20189599693
          3.427726984 0.34208199382 0.94024497271 3.6095719337 0.49926799536 0.86267101765
          3.4640750885 0.2319137007 0.72248202562 3.6721630096 0.17420139909 0.90603202581
          -5 -0.004447159823 0.13623799384 -5 -0.26007699966 0.21836000681
          -5 -0.12896800041 0.37591099739 -4.7829651833 -0.03583727777 0.25068509579
          5.0874519348 0.48010200262 1.4636000395 4.8287091255 0.72349202633 1.5618569851
          5.1064062119 0.72903001308 1.5365300179 4.9762878418 0.4914059937 1.7501740456
          4.838329792 -0.29386898875 1.6861670017 4.908780098 -0.05460799858 1.9473679066
          4.9833068848 -0.29716300964 1.80032897 4.690433979 -0.097899012268 1.9307255745
          -4.0158720016 -0.37966567278 -0.75769299269 -3.8355240822 -0.29797300696 -0.83261597157
          -3.9198260307 -0.52072381973 -0.66412502527 -3.779299736 -0.33174827695 -0.59858602285
          -4.7775506973 -0.01067915 -0.02922873944 -4.5885467529 0.081544041634 -0.058668099344
          -4.6497826576 -0.19200108945 0.12126010656 -4.6535224915 0.13568019867 0.13374620676
          -1.1732499599 0.28154438734 -1.1781251431 -1.201603055 0.29143372178 -1.4187309742
          -1.3278859854 0.48927980661 -1.2198700905 -1.3583359718 0.17316421866 -1.3048620224
          4.4501152039 0.014983006753 1.5191400051 4.3275651932 -0.10407299548 1.3448059559
          4.344976902 0.097388997674 1.2805169821 4.1369771957 0.033024005592 1.3592270613
          -3.5090770721 0.16754239798 -0.19926699996 -3.7126243114 0.24968840182 -0.29950919747
          -3.4597270489 0.28559470177 -0.035445000976 -3.7695140839 0.20615190268 -0.025571003556
          4.7298440933 -0.29282999039 1.5341100693 4.8788080215 -0.15261600912 1.3581800461
          4.838329792 -0.29386898875 1.6861670017 4.6791539192 -0.064878001809 1.5370919704
          -0.24963200092 0.28975039721 -0.72652798891 -0.42486399412 0.21323770285 -0.57991999388
          -0.38182199001 0.22295188904 -0.90033400059 -0.5591750145 0.32877069712 -0.824015975
          -4.626159668 -0.03600018099 -0.37031018734 -4.6802415848 -0.16959774494 -0.21772760153
          -4.7995986938 0.015869349241 -0.30273678899 -4.6376662254 0.16694931686 -0.24515900016
          3.6721630096 0.17420139909 0.90603202581 3.4617619514 -0.034863006324 0.83526402712
          3.5387530327 0.16991350055 1.193629384 3.7195839882 0.0037419972941 1.0903520584
          2.7568380833 0.32088699937 0.34903898835 2.7105460167 0.65613901615 0.34329998493
          2.7388780117 0.4845879972 0.20156900585 3.0115010738 0.44793599844 0.41370400786
          2.7568380833 0.32088699937 0.34903898835 2.9922840595 0.30892300606 0.059962000698
          2.7388780117 0.4845879972 0.20156900585 2.7543749809 0.16338352859 0.14366000891
          1.4418599606 0.28709000349 -0.062245994806 1.3428349495 0.40458348393 -0.38063567877
          1.1137839556 0.31430581212 -0.23879601061 1.303779006 0.10932320356 -0.39463099837
          3.1671938896 0.66265797615 1.2060799599 3.2219541073 0.45492699742 0.97522252798
          3.220927 0.38111701608 1.2094409466 3.4408869743 0.48258000612 1.1898485422
          3.147439003 -0.0024279970676 0.66096997261 3.0274419785 0.16455459595 0.84069955349
          3.232765913 -0.12802201509 0.84651488066 2.9822580814 -0.12804400921 0.81096309423
          -3.1945888996 0.20945261419 0.039181999862 -3.3044788837 0.4724803865 -0.1253259927
          -3.3263669014 0.39029639959 0.092840000987 -3.2346680164 0.26355689764 -0.22137200832
          1.7167700529 0.42090001702 -0.091850601137 1.7609839439 0.60800498724 -0.30019900203
          1.5018340349 0.60006701946 -0.26044872403 1.6138050556 0.3192229867 -0.46323099732
          2.2042989731 -0.13768899441 0.32803380489 2.4130580425 -0.0050789942034 0.39745768905
          2.3737831116 -0.031773991883 0.64508098364 2.0858280659 0.031003998592 0.38727900386
          -4.8289003372 0.15818049014 0.46990901232 -4.5989289284 0.15179400146 0.43534138799
          -4.6675491333 0.29210668802 0.45158019662 -4.7318658829 0.32032591105 0.23805809021
          -1.4937491417 0.34081637859 -1.5808500051 -1.201603055 0.29143372178 -1.4187309742
          -1.206567049 0.2027631104 -1.6014900208 -1.5488374233 0.27182540298 -1.3903579712
          -4.0872659683 -0.040365900844 -0.50246196985 -3.8436272144 -0.0084195006639 -0.544039011
          -3.9470174313 -0.23043839633 -0.45734000206 -3.8458154202 -0.0071441796608 -0.27063637972
          4.659427166 0.057737004012 2.0819699764 4.9558830261 0.24193349481 1.938804388
          4.908780098 -0.05460799858 1.9473679066 4.9883351326 -0.0025349962525 2.1726241112
          5.1637601852 -0.29948699474 1.865844965 5.1593341827 -0.012515998445 1.8333879709
          5.3534770012 -0.30086100101 1.9398570061 5.2030038834 -0.095155008137 2.0543687344
          1.4418599606 0.28709000349 -0.062245994806 1.6138050556 0.3192229867 -0.46323099732
          1.3428349495 0.40458348393 -0.38063567877 1.5832170248 0.13898870349 -0.2907756865
          -2.6201217175 0.47078740597 -0.97456198931 -2.9246742725 0.47127839923 -0.80925703049
          -2.8611981869 0.29218497872 -1.0245879889 -2.9768784046 0.46844089031 -1.0279990435
          2.7568380833 0.32088699937 0.34903898835 2.9922840595 0.30892300606 0.059962000698
          2.9617218971 0.11532790214 0.41656598449 3.1855530739 0.35112899542 0.20670999587
          -4.3956904411 -0.0096592828631 -0.099004216492 -4.2212285995 -0.30168271065 -0.17994959652
          -4.2499485016 -0.19019518793 -0.35626098514 -4.4366278648 -0.28509175777 -0.13918270171
          3.4043519497 0.68294101954 0.87328398228 3.2219541073 0.45492699742 0.97522252798
          3.6095719337 0.49926799536 0.86267101765 3.3829259872 0.46805399656 0.71429997683
          -1.3278859854 0.48927980661 -1.2198700905 -1.6238960028 0.24829168618 -1.1837819815
          -1.4006630182 0.27366858721 -1.0899891853 -1.5488374233 0.27182540298 -1.3903579712
          -4.3519821167 -0.3447792232 -0.6417530179 -4.1995658875 -0.52305787802 -0.58140099049
          -4.4819908142 -0.52308231592 -0.52997338772 -4.3169722557 -0.515429914 -0.37853601575
          -2.7894101143 -0.19218939543 -0.12471599877 -2.9584069252 -0.33283078671 -0.35879898071
          -2.7287049294 -0.2789902091 -0.37658300996 -2.9494459629 -0.043818198144 -0.28794598579
          3.4407179356 -0.10024298728 1.6149629354 3.4360439777 -0.0026910067536 1.3680689335
          3.718173027 -0.032231997699 1.6364309788 3.5908029079 0.19661930203 1.6370530128
          0.96178209782 -0.10965040326 0.053582999855 0.95458650589 0.18395619094 0.067213997245
          1.1920820475 0.066462799907 -0.092215999961 1.1257488728 0.21291010082 0.19439199567
          2.2181119919 0.41253200173 0.3796235919 2.1254868507 0.43120700121 0.6656140089
          2.387912035 0.31022301316 0.66756099463 2.0687611103 0.17121970654 0.57191699743
          -1.1732499599 0.28154438734 -1.1781251431 -1.4006630182 0.27366858721 -1.0899891853
          -1.3583359718 0.17316421866 -1.3048620224 -1.3278859854 0.48927980661 -1.2198700905
          1.0504629612 -0.041896902025 -0.74770897627 0.94502300024 -0.16622328758 -1.0062910318
          1.2825410366 -0.16882799566 -0.83733904362 1.1473189592 0.12026190013 -0.89047002792
          -3.0457994938 0.036590598524 -0.58276486397 -2.7312269211 -0.032895799726 -0.39067798853
          -2.8852050304 -0.13799700141 -0.5307559967 -2.9494459629 -0.043818198144 -0.28794598579
          -1.5521390438 -0.22336211801 -1.3013720512 -1.326851964 -0.47103399038 -1.4058600664
          -1.199491024 -0.2731808126 -1.4120750427 -1.4234830141 -0.38737499714 -1.5921599865
          3.9701340199 -0.29213601351 1.9327290058 3.89149189 -0.08670001477 1.8603260517
          3.961992979 -0.15715098381 2.1520600319 3.7283027172 -0.27364698052 2.022769928
          1.3120340109 -0.15288600326 -0.5459626317 1.2925460339 -0.051271595061 -0.25956600904
          0.99458998442 -0.022154798731 -0.49672108889 1.303779006 0.10932320356 -0.39463099837
          -1.542323947 -0.10029046237 -0.56713998318 -1.715157032 -0.23626880348 -0.5269600153
          -1.4142980576 -0.3536285162 -0.59887999296 -1.5314699411 -0.26643535495 -0.78901797533
          1.6178350449 -0.15927900374 0.18571281433 1.8810739517 -0.025785999373 0.24052999914
          1.8311589956 -0.37597900629 0.21240459383 1.9639710188 -0.12883301079 0.49361902475
          5.3040738106 0.50984299183 1.5398700237 5.5018949509 0.57858800888 1.8484350443
          5.1873960495 0.42186701298 1.8164199591 5.3054409027 0.72630798817 1.6629229784
          -1.5769430399 -0.27982699871 -1.0531499386 -1.5145759583 -0.018870471045 -0.82699400187
          -1.3524429798 -0.2001490891 -0.93651300669 -1.5314699411 -0.26643535495 -0.78901797533
          2.9196689129 -0.13256700337 1.2476739883 3.1324748993 -0.012670002878 1.333466053
          3.2492110729 -0.32095301151 1.4265520573 2.9097163677 -0.086468994617 1.5041099787
          -1.1318500042 0.052193719894 -1.1925956011 -1.1884590387 0.063980542123 -1.4178910255
          -0.99887502193 -0.062538303435 -1.3665850163 -1.0088479519 0.19115871191 -1.3418680429
          -2.5362904072 0.058985300362 -1.3469660282 -2.6269614697 -0.066813401878 -1.0421299934
          -2.7324504852 0.10715190321 -1.2788300514 -2.6722416878 0.17765410244 -0.99963802099
          -2.2852199078 -0.19466769695 -0.68211597204 -2.3013501167 -0.0029451001901 -0.87519747019
          -2.2290380001 -0.01067822054 -0.56298202276 -2.548101902 -0.012899150141 -0.78901946545
          0.36111998558 0.56500959396 -0.54083001614 0.21305389702 0.5571166873 -0.6557880044
          0.40944099426 0.2642891109 -0.64370203018 0.4528760016 0.56065458059 -0.71604299545
          -3.4902799129 0.19203700125 -0.97851699591 -3.2964999676 0.25800848007 -1.0607520342
          -3.2624089718 0.0626033023 -1.0726950169 -3.275526762 0.18115669489 -0.7455739975
          -4.7995986938 0.015869349241 -0.30273678899 -4.626159668 -0.03600018099 -0.37031018734
          -4.8524708748 -0.16640077531 -0.5321289897 -4.8024878502 -0.29730415344 -0.34576281905
          -2.9588835239 0.10583119839 -0.81790500879 -2.8611981869 0.29218497872 -1.0245879889
          -2.8605468273 0.030474800617 -1.0333030224 -2.6722416878 0.17765410244 -0.99963802099
          0.30814930797 0.31706541777 -1.2523280382 0.21853539348 0.33637189865 -0.98886328936
          0.12977400422 0.53239011765 -1.1151189804 0.35893088579 0.54108428955 -1.083673954
          0.39233699441 -0.44935038686 -0.54869902134 0.51021200418 -0.21610671282 -0.49635899067
          0.44525501132 -0.44013750553 -0.72802501917 0.57541400194 -0.43666920066 -0.55330497026
          1.6178350449 -0.15927900374 0.18571281433 1.3497146368 0.084297902882 0.35733398795
          1.6255400181 0.14701509476 0.17244631052 1.5375082493 0.031310401857 0.49632260203
          4.4522380829 0.45779499412 1.8534209728 4.3718128204 0.25128540397 2.104501009
          4.4655342102 0.20313693583 1.8080023527 4.1660380363 0.37686598301 1.8869049549
          0.30814930797 0.31706541777 -1.2523280382 0.046897001565 0.32769879699 -1.3547029495
          0.015014999546 0.52284687757 -1.2964439392 0.12977400422 0.53239011765 -1.1151189804
          1.3943749666 0.35700458288 -1.0173640251 1.2616900206 0.31878641248 -0.65477597713
          1.6266590357 0.45401710272 -0.88460201025 1.5066930056 0.24949200451 -0.69261598587
          -0.9426779747 -0.20086880028 -0.89714598656 -1.0521889925 -0.48985919356 -0.94649702311
          -0.81605601311 -0.49181076884 -0.80724596977 -0.91781198978 -0.47875839472 -1.088809967
          -1.715157032 -0.23626880348 -0.5269600153 -1.7985810041 -0.32161590457 -0.69973397255
          -1.8573379517 -0.51496881247 -0.5290030241 -1.7413209677 -0.51405978203 -0.64742702246
          0.69450002909 0.33520320058 -0.69070541859 0.67646998167 0.33598598838 -0.95468699932
          0.53923499584 0.55213999748 -0.9251576066 0.43711400032 0.35662287474 -0.86431020498
          -3.0457994938 0.036590598524 -0.58276486397 -3.275526762 0.18115669489 -0.7455739975
          -3.2953541279 -0.00062000047183 -0.49288973212 -3.2104935646 -0.0044391001575 -0.70767199993
          -2.8640635014 -0.32550418377 -0.67871928215 -2.8852050304 -0.13799700141 -0.5307559967
          -2.9707868099 -0.088433094323 -0.74900501966 -2.82984519 -0.19690430164 -0.8898460269
          -2.3186562061 0.14272490144 -1.0617469549 -2.3114500046 0.28709989786 -0.8894675374
          -2.4830985069 0.14539518952 -0.90576428175 -2.4950749874 0.26449760795 -1.1571450233
          -1.9904079437 0.054340101779 -0.69911700487 -2.0596408844 0.23887120187 -0.93493187428
          -1.7904880047 0.17986288667 -0.85320198536 -2.0370030403 0.2986676991 -0.69848400354
          -2.7090830803 0.31708621979 -0.6229904294 -2.7856142521 0.29197818041 -0.82188498974
          -2.9227018356 0.26947918534 -0.61335587502 -2.7823200226 0.016783099622 -0.68633919954
          4.8643531799 -0.29935500026 2.0071020126 5.0844421387 -0.30479300022 2.0486927032
          4.908780098 -0.05460799858 1.9473679066 4.9833068848 -0.29716300964 1.80032897
          4.2127790451 0.64916598797 1.0111500025 3.9909090996 0.69799000025 1.3503149748
          4.3628559113 0.71818900108 1.3685749769 4.2114582062 0.52715998888 1.3034000397
          -2.4950749874 0.26449760795 -1.1571450233 -2.7324504852 0.10715190321 -1.2788300514
          -2.6722416878 0.17765410244 -0.99963802099 -2.5362904072 0.058985300362 -1.3469660282
          -0.23330500722 -0.099709004164 -0.54330998659 -0.29678198695 -0.19139230251 -0.85894298553
          -0.19524599612 0.051735099405 -0.78870302439 -0.39273399115 0.0064351009205 -0.57656002045
          -1.5521390438 -0.22336211801 -1.3013720512 -1.5769430399 -0.27982699871 -1.0531499386
          -1.4465429783 -0.48274430633 -1.2523479462 -1.6530690193 -0.4847458899 -1.2544569969
          -3.6431386471 0.012811898254 -0.67573601007 -3.6200819016 -0.16615739465 -0.5608189702
          -3.5465004444 -0.0025727003813 -0.37637498975 -3.4256296158 -0.04080190137 -0.73200601339
          1.303779006 0.10932320356 -0.39463099837 1.1920820475 0.066462799907 -0.092215999961
          1.5832170248 0.13898870349 -0.2907756865 1.2925460339 -0.051271595061 -0.25956600904
          4.0440011024 0.18789739907 1.9961689711 4.1495599747 0.35503801703 2.2919700146
          4.1594829559 0.12733019888 2.2602200508 3.9322690964 0.15276029706 2.1537098885
          -0.12036799639 0.50918620825 -1.5231349468 -0.20239399374 0.51886868477 -1.2246849537
          -0.2287349999 0.24483269453 -1.2839930058 -0.3715389967 0.50824278593 -1.3971790075
          -2.0755507946 0.47351419926 -1.1557840109 -2.1687932014 0.46246668696 -1.4244270325
          -2.1506009102 0.25718417764 -1.2337720394 -1.8760517836 0.47185769677 -1.3252899647
          -4.6376662254 0.16694931686 -0.24515900016 -4.7775506973 -0.01067915 -0.02922873944
          -4.5885467529 0.081544041634 -0.058668099344 -4.7995986938 0.015869349241 -0.30273678899
          1.4026149511 -0.25017899275 0.37467199564 1.5088090897 -0.39408099651 0.20298700035
          1.220471859 -0.14656609297 0.24174399674 1.2357423306 -0.37867379189 0.23501800001
          -0.55270302296 -0.11456199735 -0.98753702641 -0.56551098824 -0.25506937504 -1.2119810581
          -0.42743900418 -0.29611000419 -1.0441720486 -0.33131301403 -0.1156719923 -1.0455411673
          -2.526927948 -0.09825039655 -0.49015599489 -2.7823200226 0.016783099622 -0.68633919954
          -2.8852050304 -0.13799700141 -0.5307559967 -2.5790920258 -0.26749420166 -0.70352119207
          4.1866950989 -0.16452099383 0.93571001291 3.902930975 -0.018859993666 0.7255499959
          4.0328669548 -0.29927301407 1.0428249836 3.8696250916 -0.23204101622 0.68651998043
          -2.3633306026 -0.018299350515 -1.2072839737 -2.4806556702 -0.1127384007 -1.363214016
          -2.6269614697 -0.066813401878 -1.0421299934 -2.3660526276 -0.18054547906 -1.0520470142
          1.9902969599 0.62398999929 0.42160499096 2.2181119919 0.41253200173 0.3796235919
          2.2841498852 0.63460797071 0.62853097916 2.4290430546 0.64191198349 0.39004901052
          -0.04825539887 0.29193970561 -0.48039200902 0.18104350567 0.33106470108 -0.62392002344
          -0.032131001353 0.33743911982 -0.72442996502 -0.027907999232 0.12770339847 -0.67658001184
          2.1685369015 0.31989699602 -0.53797519207 2.2489070892 0.1272508949 -0.49432817101
          1.9594429731 0.31532198191 -0.67937397957 1.8443620205 0.16656500101 -0.47324600816
          1.9701869488 0.36129301786 -0.32886689901 2.1685369015 0.31989699602 -0.53797519207
          1.9594429731 0.31532198191 -0.67937397957 1.8443620205 0.16656500101 -0.47324600816
          -2.6201217175 0.47078740597 -0.97456198931 -2.9768784046 0.46844089031 -1.0279990435
          -2.8611981869 0.29218497872 -1.0245879889 -2.7583801746 0.46716481447 -1.1447130442
          0.85404402018 -0.22467930615 -0.32312399149 0.99458998442 -0.022154798731 -0.49672108889
          0.76676100492 -0.1134057045 -0.50795000792 1.0542720556 -0.20917788148 -0.54995292425
          3.6058731079 0.68220502138 1.2335082293 3.4408869743 0.48258000612 1.1898485422
          3.6306459904 0.69331997633 0.9852989912 3.4043519497 0.68294101954 0.87328398228
          -2.3374700546 0.48206248879 -0.62753897905 -2.4234828949 0.48320311308 -0.38506999612
          -2.1107180119 0.488994807 -0.53275901079 -2.3634879589 0.31209561229 -0.49861198664
          -3.0384581089 0.17068129778 -0.37494298816 -2.7312269211 -0.032895799726 -0.39067798853
          -3.0457994938 0.036590598524 -0.58276486397 -2.9494459629 -0.043818198144 -0.28794598579
          -4.7094054222 0.49808984995 -0.25924840569 -4.7578816414 0.28667363524 -0.042721800506
          -4.6376662254 0.16694931686 -0.24515900016 -4.7940740585 0.30425521731 -0.31099230051
          -1.0088479519 0.19115871191 -1.3418680429 -1.1318500042 0.052193719894 -1.1925956011
          -0.84249997139 0.26520928741 -1.1529723406 -0.89497202635 0.0030651004054 -1.1271020174
          4.1697688103 0.64373600483 2.1378290653 4.1113681793 0.48997598886 2.274960041
          4.2911319733 0.6131169796 2.3516499996 4.402616024 0.45689401031 2.1667981148
          1.0837780237 0.56879729033 -0.83355396986 1.108150959 0.58133798838 -0.50853699446
          1.446663022 0.5864855051 -0.62758201361 1.2616900206 0.31878641248 -0.65477597713
          0.26467600465 -0.18822538853 -1.4712239504 0.045462999493 -0.42505168915 -1.3999569416
          -0.0075119999237 -0.13963499665 -1.2594619989 0.24705900252 -0.42054501176 -1.2698409557
          -2.548101902 -0.012899150141 -0.78901946545 -2.707750082 0.14897160232 -0.50897496939
          -2.4275128841 0.11600639671 -0.53692299128 -2.526927948 -0.09825039655 -0.49015599489
          1.0951930285 0.35682529211 -1.1645820141 1.1649719477 0.37054440379 -0.89170503616
          1.3943749666 0.35700458288 -1.0173640251 1.2157520056 0.1916974932 -1.1104990244
          -3.6431386471 0.012811898254 -0.67573601007 -3.8436272144 -0.0084195006639 -0.544039011
          -3.5465004444 -0.0025727003813 -0.37637498975 -3.6200819016 -0.16615739465 -0.5608189702
          -1.3387739658 0.1015701443 -0.80373698473 -1.4412750006 0.12191697955 -0.58430999517
          -1.6226379871 0.13752751052 -0.73393601179 -1.4917390347 0.24093736708 -0.86661797762
          2.5438802242 0.032495997846 1.2491639853 2.355743885 -0.0222629942 1.108060956
          2.5839250088 0.25846800208 0.93122702837 2.2918043137 0.21171090007 1.0770230293
          4.5158967972 -0.051814988256 1.7898253202 4.6009202003 -0.29254201055 1.7585229874
          4.4976420403 -0.29328599572 1.5345549583 4.3472771645 -0.29031598568 1.7298301458
          3.8409628868 -0.30274599791 1.1827360392 3.5614540577 -0.13416200876 1.2109525204
          3.658107996 -0.30566099286 1.332764864 3.5389170647 -0.30982100964 1.044885993
          5.1873960495 0.42186701298 1.8164199591 5.199947834 0.37635299563 2.0466771126
          5.2246007919 0.71275597811 2.0305790901 5.4411177635 0.54534596205 2.004693985
          -4.4754362106 -0.32264238596 0.12133580446 -4.3315758705 -0.16536140442 0.15697599947
          -4.4366278648 -0.28509175777 -0.13918270171 -4.2066240311 -0.3275590539 0.070990994573
          -2.2290380001 -0.01067822054 -0.56298202276 -1.9904079437 0.054340101779 -0.69911700487
          -2.2852199078 -0.19466769695 -0.68211597204 -1.9959019423 -0.25378808379 -0.72344702482
          -1.721953392 0.25095880032 -1.5497900248 -1.8180626631 0.066226676106 -1.5300899744
          -1.6338564157 0.02010091953 -1.3360049725 -1.5296863317 0.075993299484 -1.5737700462
          2.0367250443 -0.15883000195 0.10807870328 2.2337059975 -0.17428898811 -0.25786739588
          2.204267025 -0.35545799136 0.084110699594 2.1427390575 -0.046670995653 -0.085950896144
          -1.9829889536 0.48603790998 -0.84902697802 -2.1107180119 0.488994807 -0.53275901079
          -2.0370030403 0.2986676991 -0.69848400354 -2.3374700546 0.48206248879 -0.62753897905
          -1.182997942 0.50088942051 -1.0786180496 -1.4006630182 0.27366858721 -1.0899891853
          -1.4724910259 0.49207678437 -1.0708984137 -1.3283799887 0.50588327646 -0.82055300474
          -2.1506009102 0.25718417764 -1.2337720394 -2.4277570248 0.29319447279 -1.3836899996
          -2.2146024704 0.15617579222 -1.4417170286 -2.1687932014 0.46246668696 -1.4244270325
          -4.4366278648 -0.28509175777 -0.13918270171 -4.6099963188 -0.51237237453 -0.2558003962
          -4.6228103638 -0.50389355421 -0.10335719585 -4.4421896935 -0.50854843855 -0.17462399602
          -2.1506009102 0.25718417764 -1.2337720394 -2.3987627029 0.46843078732 -1.1548199654
          -2.3114500046 0.28709989786 -0.8894675374 -2.3186562061 0.14272490144 -1.0617469549
          4.9700350761 0.50200498104 1.9810703993 5.1783838272 0.53621798754 2.2175490856
          5.199947834 0.37635299563 2.0466771126 5.0139088631 0.39100199938 2.2078499794
          -0.55233097076 -0.44661706686 -0.61871999502 -0.59738898277 -0.2561981082 -0.61395001411
          -0.49013099074 -0.27833321691 -0.80703800917 -0.42572999001 -0.2455662936 -0.58765000105
          -1.3583359718 0.17316421866 -1.3048620224 -1.4067959785 -0.070061728358 -1.4117490053
          -1.3511379957 -0.033111680299 -1.0856614113 -1.2506010532 -0.14467050135 -1.2530030012
          1.4527050257 -0.19449299574 -0.29091629386 1.6162129641 -0.37938898802 -0.35376280546
          1.2987240553 -0.39872199297 -0.33902829885 1.4818120003 -0.39234900475 -0.097535997629
          -2.3957979679 0.17064259946 -0.29074698687 -2.2290380001 -0.01067822054 -0.56298202276
          -2.247385025 -0.11254110187 -0.34903201461 -2.0342888832 0.096592001617 -0.42942199111
          -3.275526762 0.18115669489 -0.7455739975 -3.0947728157 0.28662750125 -0.90678101778
          -3.2624089718 0.0626033023 -1.0726950169 -3.1125445366 -0.042645700276 -0.91890496016
          1.5832170248 0.13898870349 -0.2907756865 1.7167700529 0.42090001702 -0.091850601137
          1.4418599606 0.28709000349 -0.062245994806 1.6138050556 0.3192229867 -0.46323099732
          -4.0016961098 -0.32739970088 -0.24166919291 -4.1456823349 -0.32185968757 -0.5048879981
          -4.2212285995 -0.30168271065 -0.17994959652 -4.0726661682 -0.51234167814 -0.36274200678
          -4.1338410378 -0.23460809886 -0.7192620039 -4.0158720016 -0.37966567278 -0.75769299269
          -4.1456823349 -0.32185968757 -0.5048879981 -3.9470174313 -0.23043839633 -0.45734000206
          4.908780098 -0.05460799858 1.9473679066 5.1686019897 0.14154189825 2.0466096401
          5.2030038834 -0.095155008137 2.0543687344 4.9883351326 -0.0025349962525 2.1726241112
          0.61579799652 -0.14052461088 -1.0343459845 0.77250897884 -0.18823230267 -1.3146259785
          0.94502300024 -0.16622328758 -1.0062910318 0.88432902098 -0.0070595997386 -1.2622259855
          -3.061948061 0.073819994926 -0.013481999747 -3.2346680164 0.26355689764 -0.22137200832
          -2.9465370178 0.2871569097 -0.061487998813 -3.1945888996 0.20945261419 0.039181999862
          -4.5803985596 0.47174561024 0.34353449941 -4.4579524994 0.47279408574 0.21904788911
          -4.7318658829 0.32032591105 0.23805809021 -4.5313487053 0.23166209459 0.25894141197
          0.36515200138 -0.25333359838 -0.93256372213 0.44525501132 -0.44013750553 -0.72802501917
          0.61227500439 -0.20498250425 -0.7539935708 0.56030297279 -0.42190849781 -0.92723238468
          3.3829259872 0.46805399656 0.71429997683 3.241795063 0.17628619075 0.51923000813
          3.1142799854 0.34143099189 0.65826201439 3.4640750885 0.2319137007 0.72248202562
          2.4782733917 -0.16793499887 1.1878299713 2.355743885 -0.0222629942 1.108060956
          2.6176869869 -0.096157990396 0.89440202713 2.5438802242 0.032495997846 1.2491639853
          0.69450002909 0.33520320058 -0.69070541859 0.40944099426 0.2642891109 -0.64370203018
          0.43711400032 0.35662287474 -0.86431020498 0.4528760016 0.56065458059 -0.71604299545
          -3.5159258842 -0.18312910199 -0.2097529918 -3.564964056 -0.31996080279 -0.046510994434
          -3.4188709259 -0.052383501083 -0.084667012095 -3.3219630718 -0.30692452192 -0.14970101416
          -0.97820800543 0.24167840183 -0.90613996983 -1.2363820076 0.13768835366 -0.99496001005
          -1.1171029806 0.13310749829 -0.81390601397 -0.96815401316 0.02664539963 -0.92440497875
          -3.2964999676 0.25800848007 -1.0607520342 -2.9489409924 0.21040900052 -1.2003070116
          -3.0872220993 0.1026121974 -1.1435060501 -3.0947728157 0.28662750125 -0.90678101778
          -0.72162300348 -0.47146120667 -1.0738427639 -0.47427800298 -0.47527450323 -0.90863901377
          -0.42743900418 -0.29611000419 -1.0441720486 -0.57344698906 -0.46036499739 -1.2049913406
          -1.3182120323 -0.50291794538 -0.77375298738 -1.1560570002 -0.29963886738 -0.85426801443
          -1.1546920538 -0.21682497859 -0.62265998125 -1.4142980576 -0.3536285162 -0.59887999296
          0.44525501132 -0.44013750553 -0.72802501917 0.19156980515 -0.44301488996 -0.90191078186
          0.56030297279 -0.42190849781 -0.92723238468 0.36515200138 -0.25333359838 -0.93256372213
          -0.50069600344 -0.11491009593 -1.5895299911 -0.53049099445 -0.25941371918 -1.4260540009
          -0.78262102604 -0.069029003382 -1.6080299616 -0.55726397038 -0.032617900521 -1.40318501
          -2.3660526276 -0.18054547906 -1.0520470142 -2.5419068336 -0.2821674943 -1.3411229849
          -2.6741175652 -0.17868329585 -1.2965600491 -2.6056780815 -0.30553308129 -1.0694279671
          -4.7995986938 0.015869349241 -0.30273678899 -4.626159668 -0.03600018099 -0.37031018734
          -4.6492214203 0.036135789007 -0.56955337524 -4.6876730919 -0.14474339783 -0.56215977669
          1.2570589781 -0.21799020469 -0.084225989878 0.94075733423 -0.2887121141 0.026029000059
          1.0725090504 -0.1251232028 -0.30668699741 0.96178209782 -0.10965040326 0.053582999855
          3.4360439777 -0.0026910067536 1.3680689335 3.4261219501 -0.31478399038 1.2515799999
          3.5614540577 -0.13416200876 1.2109525204 3.2712409496 -0.069230996072 1.0871679783
          4.0760598183 -0.29790601134 1.5380973816 4.0616660118 -0.29908099771 1.2974100113
          3.9827311039 -0.10510598868 1.5950082541 3.8821690083 -0.30057999492 1.4447215796
          2.6483149529 0.51224297285 1.3579260111 2.8616578579 0.64741098881 1.2881900072
          3.0001080036 0.49131900072 1.1801650524 2.8278307915 0.37164700031 1.4777669907
          -5 0.1004910022 -0.10199099779 -5 -0.16616299748 -0.067754097283
          -5 -0.004447159823 0.13623799384 -4.7775506973 -0.01067915 -0.02922873944
          4.659427166 0.057737004012 2.0819699764 4.7630262375 -0.078894995153 2.2290580273
          4.5017971992 -0.076010011137 2.1854460239 4.5205311775 0.023049006239 2.42572999
          3.147439003 -0.0024279970676 0.66096997261 3.232765913 -0.12802201509 0.84651488066
          3.3454549313 -0.14016999304 0.62486702204 3.179639101 -0.31765601039 0.58325701952
          5.2246007919 0.71275597811 2.0305790901 5.3322758675 0.71096599102 2.2698550224
          5.4279828072 0.71865099669 2.021269083 5.3812499046 0.50339800119 2.1557321548
          0.90016597509 0.3842356205 -1.0304160118 0.93579101562 0.2607139945 -0.85697698593
          1.0180549622 0.17184720933 -1.2025079727 0.74059998989 0.11394579709 -1.0505290031
          2.7300450802 -0.33142000437 0.036656998098 2.4003479481 -0.15540499985 -0.052411012352
          2.4867670536 -0.33938100934 -0.20310901105 2.7524430752 -0.1180730015 -0.14809599519
          -0.38811999559 -0.14212410152 -1.2827340364 -0.33131301403 -0.1156719923 -1.0455411673
          -0.18521800637 0.03266672045 -1.0619240999 -0.19269900024 -0.26168438792 -1.0995333195
          2.7781450748 0.40818598866 0.68238705397 2.387912035 0.31022301316 0.66756099463
          2.7515289783 0.13377730548 0.70048117638 2.547467947 0.16419440508 0.46359831095
          -1.6408480406 -0.49996328354 -0.93084400892 -1.7501699924 -0.19925332069 -0.86327397823
          -1.8400460482 -0.50811260939 -0.77786999941 -1.9235659838 -0.32769143581 -0.93234062195
          -3.7815887928 0.27240249515 -0.66369998455 -3.5222220421 0.2613735199 -0.7316250205
          -3.7469959259 0.18661350012 -0.87160599232 -3.6431386471 0.012811898254 -0.67573601007
          -2.2919089794 -0.51172739267 -0.61034798622 -2.4078168869 -0.30346369743 -0.49435901642
          -2.2511439323 -0.51482909918 -0.38649699092 -2.5134499073 -0.51176577806 -0.47904199362
          -2.3186562061 0.14272490144 -1.0617469549 -2.1130719185 -0.047264300287 -1.1963629723
          -2.1116633415 0.079452298582 -1.0412242413 -2.1506009102 0.25718417764 -1.2337720394
          3.7163519859 0.46678900719 1.408038497 3.9769608974 0.41242301464 1.2358649969
          3.7856199741 0.69599997997 1.1387779713 3.8493919373 0.50689595938 1.0418950319
          1.220471859 -0.14656609297 0.24174399674 1.2357423306 -0.37867379189 0.23501800001
          1.2570589781 -0.21799020469 -0.084225989878 1.0781804323 -0.41856110096 0.0092310095206
          -3.5090770721 0.16754239798 -0.19926699996 -3.6423470974 -0.017455210909 -0.0356920138
          -3.5465004444 -0.0025727003813 -0.37637498975 -3.8458154202 -0.0071441796608 -0.27063637972
          3.3829259872 0.46805399656 0.71429997683 3.427726984 0.34208199382 0.94024497271
          3.1142799854 0.34143099189 0.65826201439 3.2219541073 0.45492699742 0.97522252798
          0.34664174914 0.52966880798 -1.3116159439 0.24196699262 0.39278018475 -1.4639049768
          0.046897001565 0.32769879699 -1.3547029495 0.30814930797 0.31706541777 -1.2523280382
          0.73966902494 0.57453459501 -0.50246399641 0.98193901777 0.39114138484 -0.63054037094
          0.83301800489 0.56610417366 -0.74389237165 0.69450002909 0.33520320058 -0.69070541859
          -4.3315758705 -0.16536140442 0.15697599947 -4.0919470787 -0.29832312465 0.34250101447
          -4.2066240311 -0.3275590539 0.070990994573 -4.323428154 -0.48470199108 0.21382179856
          -0.78097099066 -0.028601998463 -0.62437999249 -0.54605597258 0.061542298645 -0.81870001554
          -0.76539498568 -0.02696910128 -0.88151800632 -0.57054299116 -0.063641503453 -0.60666000843
          2.968873024 0.46700000763 0.87133789062 2.7781450748 0.40818598866 0.68238705397
          2.6370809078 0.64847302437 0.76524597406 2.5400059223 0.47935000062 0.92150700092
          -4.2066240311 -0.3275590539 0.070990994573 -4.0919470787 -0.29832312465 0.34250101447
          -4.0046038628 -0.48754239082 0.27641901374 -4.323428154 -0.48470199108 0.21382179856
          0.059512998909 -0.21327769756 -1.0408661366 0.060910001397 0.064430199564 -1.0059714317
          0.26428851485 -0.064987801015 -1.0606349707 0.19523879886 -0.052128598094 -0.8603233695
          -0.20871029794 0.16622160375 -0.5290799737 -0.027907999232 0.12770339847 -0.67658001184
          -0.032131001353 0.33743911982 -0.72442996502 -0.24963200092 0.28975039721 -0.72652798891
          3.4408869743 0.48258000612 1.1898485422 3.7163519859 0.46678900719 1.408038497
          3.6058731079 0.68220502138 1.2335082293 3.6544830799 0.36574301124 1.0680350065
          -2.4950749874 0.26449760795 -1.1571450233 -2.6970658302 0.28316840529 -1.292855978
          -2.6722416878 0.17765410244 -0.99963802099 -2.7324504852 0.10715190321 -1.2788300514
          -2.5362904072 0.058985300362 -1.3469660282 -2.6269614697 -0.066813401878 -1.0421299934
          -2.7915763855 -0.063147902489 -1.2559100389 -2.7324504852 0.10715190321 -1.2788300514
          1.2312122583 0.39813408256 -0.034452985972 1.0784057379 0.39947220683 0.1701080054
          0.95458650589 0.18395619094 0.067213997245 0.9058868885 0.3652240932 0.037831000984
          -2.6056780815 -0.30553308129 -1.0694279671 -2.82984519 -0.19690430164 -0.8898460269
          -2.6584146023 -0.50556856394 -0.92454200983 -2.8428041935 -0.50505828857 -1.0089069605
          -3.9805979729 -0.2818211019 0.12366101146 -4.1473436356 -0.025500500575 0.13780200481
          -4.2066240311 -0.3275590539 0.070990994573 -4.0883383751 -0.19288347661 -0.063150003552
          2.355743885 -0.0222629942 1.108060956 2.1027405262 -0.096268005669 0.91622400284
          2.2197947502 -0.2277380079 0.99411600828 2.3880560398 -0.17542900145 0.81797897816
          5.0963821411 0.18064403534 2.290708065 5.3432278633 0.22682979703 2.2597339153
          5.1686019897 0.14154189825 2.0466096401 5.2890958786 -0.018920002505 2.382846117
          1.9952529669 -0.028272999451 -0.39336639643 1.9303309917 -0.028858006001 -0.71749800444
          2.0414140224 -0.19573998451 -0.65807902813 2.2489070892 0.1272508949 -0.49432817101
          0.34664174914 0.52966880798 -1.3116159439 0.30814930797 0.31706541777 -1.2523280382
          0.015014999546 0.52284687757 -1.2964439392 0.12977400422 0.53239011765 -1.1151189804
          -4.436715126 0.026354400441 -0.37169200182 -4.626159668 -0.03600018099 -0.37031018734
          -4.5885467529 0.081544041634 -0.058668099344 -4.3956904411 -0.0096592828631 -0.099004216492
          -4.247215271 -0.5039280057 -0.16240300238 -4.3332242966 -0.49554929137 0.023328900337
          -4.4366278648 -0.28509175777 -0.13918270171 -4.2212285995 -0.30168271065 -0.17994959652
          -1.8200160265 0.49221810699 -0.71408998966 -1.6665450335 0.31891724467 -0.9786170125
          -1.7904880047 0.17986288667 -0.85320198536 -1.6519750357 0.49484336376 -0.84614998102
          -4.626159668 -0.03600018099 -0.37031018734 -4.7995986938 0.015869349241 -0.30273678899
          -4.6492214203 0.036135789007 -0.56955337524 -4.6376662254 0.16694931686 -0.24515900016
          3.4043519497 0.68294101954 0.87328398228 3.526293993 0.69815999269 0.49317902327
          3.3829259872 0.46805399656 0.71429997683 3.7212340832 0.54067403078 0.62415999174
          3.3571829796 0.56413400173 0.35071998835 3.3829259872 0.46805399656 0.71429997683
          3.526293993 0.69815999269 0.49317902327 3.4906380177 0.39700400829 0.43757998943
          -2.3957979679 0.17064259946 -0.29074698687 -2.4275128841 0.11600639671 -0.53692299128
          -2.247385025 -0.11254110187 -0.34903201461 -2.2290380001 -0.01067822054 -0.56298202276
          -3.7485210896 0.47213810682 -0.081793002784 -3.6804521084 0.46754148602 0.19479499757
          -3.7695140839 0.20615190268 -0.025571003556 -4.0016899109 0.29823037982 0.14048601687
          4.838329792 -0.29386898875 1.6861670017 5.0016570091 -0.09311401844 1.6771680117
          4.9763240814 -0.29127800465 1.5377320051 4.9833068848 -0.29716300964 1.80032897
          0.86870998144 0.033326499164 -0.31085899472 0.60305899382 0.11440300196 -0.49014899135
          0.89858132601 0.2298887074 -0.23391401768 0.58858072758 0.152926296 -0.17830699682
          -4.1749300957 0.29747289419 -0.70561802387 -3.9523050785 0.21237049997 -0.78943997622
          -3.93171525 0.23039670289 -0.4976850152 -4.007420063 0.42113360763 -0.76628297567
          0.36366090178 0.26720348001 -0.30314698815 0.20369489491 0.076197303832 -0.38421198726
          0.32963371277 -0.040354099125 -0.32682800293 0.38312900066 0.045982599258 -0.55516397953
          -2.3957979679 0.17064259946 -0.29074698687 -2.6104540825 0.0081983003765 -0.20189599693
          -2.526927948 -0.09825039655 -0.49015599489 -2.4275128841 0.11600639671 -0.53692299128
          0.15763199329 -0.010675301775 -1.4892460108 0.26467600465 -0.18822538853 -1.4712239504
          0.22415600717 -0.082622297108 -1.3033210039 0.39721819758 -0.010242197663 -1.4243580103
          4.0760598183 -0.29790601134 1.5380973816 4.2373199463 -0.093296997249 1.6291577816
          4.1369771957 0.033024005592 1.3592270613 4.3275651932 -0.10407299548 1.3448059559
          1.8012125492 0.13252429664 0.42392399907 1.5937000513 -0.15697298944 0.5264647007
          1.5375082493 0.031310401857 0.49632260203 1.7765240669 0.044387601316 0.68126302958
          3.4408869743 0.48258000612 1.1898485422 3.2219541073 0.45492699742 0.97522252798
          3.427726984 0.34208199382 0.94024497271 3.6095719337 0.49926799536 0.86267101765
          -0.53049099445 -0.25941371918 -1.4260540009 -0.95317101479 -0.27932810783 -1.4066259861
          -0.73458898067 -0.17205369473 -1.327262044 -0.63469898701 -0.45314198732 -1.3848659992
          2.7331340313 0.47387900949 1.1153179407 2.8616578579 0.64741098881 1.2881900072
          2.832775116 0.65263402462 1.0032349825 3.0001080036 0.49131900072 1.1801650524
          4.3237462044 0.042966000736 2.3439700603 4.5650310516 0.20493909717 2.2137980461
          4.5205311775 0.023049006239 2.42572999 4.4526658058 0.17872619629 2.428800106
          0.14480470121 -0.27436679602 -0.68005996943 0.0018850000342 -0.13561350107 -0.81675201654
          0.19523879886 -0.052128598094 -0.8603233695 0.16142000258 0.02375430055 -0.62841498852
          -2.3957979679 0.17064259946 -0.29074698687 -2.6104540825 0.0081983003765 -0.20189599693
          -2.247385025 -0.11254110187 -0.34903201461 -2.526927948 -0.09825039655 -0.49015599489
          -1.2363820076 0.13768835366 -0.99496001005 -1.1318500042 0.052193719894 -1.1925956011
          -1.1468379498 -0.10479596257 -1.0598422289 -0.96815401316 0.02664539963 -0.92440497875
          -1.9235659838 -0.32769143581 -0.93234062195 -2.0607159138 -0.073489099741 -0.92311251163
          -1.9959019423 -0.25378808379 -0.72344702482 -2.1335361004 -0.33587309718 -0.85573190451
          -3.9805979729 -0.2818211019 0.12366101146 -4.1473436356 -0.025500500575 0.13780200481
          -4.3315758705 -0.16536140442 0.15697599947 -4.2066240311 -0.3275590539 0.070990994573
          3.6373169422 0.67194199562 1.4793165922 3.6058731079 0.68220502138 1.2335082293
          3.4408869743 0.48258000612 1.1898485422 3.7163519859 0.46678900719 1.408038497
          4.659427166 0.057737004012 2.0819699764 4.7842068672 0.23646980524 2.2136070728
          4.9558830261 0.24193349481 1.938804388 4.9883351326 -0.0025349962525 2.1726241112
          -1.3182120323 -0.50291794538 -0.77375298738 -1.4523919821 -0.49702548981 -0.96172600985
          -1.5314699411 -0.26643535495 -0.78901797533 -1.5094130039 -0.50609952211 -0.78413200378
          -3.0384581089 0.17068129778 -0.37494298816 -2.707750082 0.14897160232 -0.50897496939
          -3.0457994938 0.036590598524 -0.58276486397 -2.7312269211 -0.032895799726 -0.39067798853
          0.2478390038 0.18538750708 -1.4635369778 -0.080162003636 0.27255320549 -1.5318399668
          0.046897001565 0.32769879699 -1.3547029495 -0.028528999537 0.095570899546 -1.5219500065
          -1.5769430399 -0.27982699871 -1.0531499386 -1.4523919821 -0.49702548981 -0.96172600985
          -1.4465429783 -0.48274430633 -1.2523479462 -1.6530690193 -0.4847458899 -1.2544569969
          2.6370809078 0.64847302437 0.76524597406 2.2841498852 0.63460797071 0.62853097916
          2.5400059223 0.47935000062 0.92150700092 2.5486719608 0.4433940053 0.48740598559
          -1.542323947 -0.10029046237 -0.56713998318 -1.6775929928 0.07707464695 -0.53350001574
          -1.7705160379 -0.013670380227 -0.72984999418 -1.6226379871 0.13752751052 -0.73393601179
          -1.199491024 -0.2731808126 -1.4120750427 -1.326851964 -0.47103399038 -1.4058600664
          -1.2170039415 -0.47567608953 -1.2552779913 -1.1043089628 -0.46415549517 -1.4246920347
          -0.54605597258 0.061542298645 -0.81870001554 -0.6984680295 -0.26326191425 -0.85958302021
          -0.49013099074 -0.27833321691 -0.80703800917 -0.55270302296 -0.11456199735 -0.98753702641
          0.44525501132 -0.44013750553 -0.72802501917 0.61227500439 -0.20498250425 -0.7539935708
          0.57541400194 -0.43666920066 -0.55330497026 0.51021200418 -0.21610671282 -0.49635899067
          0.72347742319 -0.43865519762 -0.25590199232 0.52299612761 -0.44770920277 -0.3446649909
          0.76020401716 -0.4297708869 -0.45740100741 0.5607355237 -0.26477059722 -0.21746100485
          0.9384559989 -0.42108929157 -0.3525930047 0.72347742319 -0.43865519762 -0.25590199232
          0.76020401716 -0.4297708869 -0.45740100741 0.85404402018 -0.22467930615 -0.32312399149
          -0.74982398748 -0.23088718951 -1.0935233831 -0.79623502493 -0.46506458521 -1.2561719418
          -0.72162300348 -0.47146120667 -1.0738427639 -0.57344698906 -0.46036499739 -1.2049913406
          -0.86909997463 0.24614109099 -1.6085100174 -1.0088479519 0.19115871191 -1.3418680429
          -0.72984099388 0.28546023369 -1.3866969347 -0.85848498344 0.10293919593 -1.6076999903
          -3.564964056 -0.31996080279 -0.046510994434 -3.5088529587 -0.28569889069 0.1608529985
          -3.4188709259 -0.052383501083 -0.084667012095 -3.2750339508 -0.14621569216 0.072559997439
          0.83301800489 0.56610417366 -0.74389237165 0.69450002909 0.33520320058 -0.69070541859
          0.53923499584 0.55213999748 -0.9251576066 0.4528760016 0.56065458059 -0.71604299545
          -0.2287349999 0.24483269453 -1.2839930058 -0.41940999031 0.51631212234 -1.1652537584
          -0.26240199804 0.35430929065 -1.093870163 -0.44964700937 0.30215507746 -1.3843599558
          -1.4937491417 0.34081637859 -1.5808500051 -1.5488374233 0.27182540298 -1.3903579712
          -1.2948549986 0.4837462008 -1.4094699621 -1.201603055 0.29143372178 -1.4187309742
          0.018631000072 -0.44565591216 -1.0280195475 -0.012586000375 -0.43688291311 -1.2338080406
          -0.19269900024 -0.26168438792 -1.0995333195 -0.17229199409 -0.45925500989 -0.92756402493
          0.66420590878 0.58173090219 -0.24965699017 0.56680697203 0.35435029864 -0.45947599411
          0.47422000766 0.57532548904 -0.38774099946 0.56200027466 0.3923317194 -0.18788799644
          -3.683809042 -0.017515730113 -0.89673197269 -3.8355240822 -0.29797300696 -0.83261597157
          -3.8928060532 -0.036693397909 -0.81056702137 -3.6431386471 0.012811898254 -0.67573601007
          -5 -0.49631300569 0.38468599319 -4.6614847183 -0.47366380692 0.40119040012
          -4.777050972 -0.31894397736 0.2911812067 -4.8224816322 -0.4885019958 0.14574058354
          0.14116099477 -0.43207919598 -1.1435899734 0.059512998909 -0.21327769756 -1.0408661366
          0.36515200138 -0.25333359838 -0.93256372213 0.19156980515 -0.44301488996 -0.90191078186
          3.5524427891 0.59926497936 1.9792000055 3.4833610058 0.65569698811 1.6809769869
          3.5121660233 0.42270597816 1.6780580282 3.6992878914 0.65348899364 1.8166350126
          2.5839250088 0.25846800208 0.93122702837 2.3112504482 0.13608121872 0.81553798914
          2.2918043137 0.21171090007 1.0770230293 2.355743885 -0.0222629942 1.108060956
          -4.0016961098 -0.32739970088 -0.24166919291 -3.8530523777 -0.50708895922 -0.23963859677
          -3.7178936005 -0.30012491345 -0.34045830369 -3.8315455914 -0.51438689232 -0.46247899532
          -0.42572999001 -0.2455662936 -0.58765000105 -0.1767269969 -0.26826900244 -0.53143000603
          -0.13618600368 -0.29588839412 -0.75555801392 -0.26960200071 -0.41726079583 -0.56349998713
          4.9558830261 0.24193349481 1.938804388 4.7576980591 0.49129199982 1.9305694103
          4.6265969276 0.37918898463 2.0835940838 4.7131490707 0.21425390244 1.868008852
          -3.6143445969 0.47693321109 -0.66685003042 -3.2916152477 0.47306519747 -0.70392102003
          -3.5222220421 0.2613735199 -0.7316250205 -3.4917843342 0.47428500652 -0.40278941393
          0.36366090178 0.26720348001 -0.30314698815 0.13325339556 0.2185369879 -0.41051501036
          0.20369489491 0.076197303832 -0.38421198726 0.38312900066 0.045982599258 -0.55516397953
          -1.1546920538 -0.21682497859 -0.62265998125 -1.1518950462 -0.061164274812 -0.8551800251
          -0.96335202456 -0.23516255617 -0.63407999277 -1.0281820297 -0.050216499716 -0.63028001785
          -0.96335202456 -0.23516255617 -0.63407999277 -1.1518950462 -0.061164274812 -0.8551800251
          -0.9426779747 -0.20086880028 -0.89714598656 -1.0281820297 -0.050216499716 -0.63028001785
          -2.5196659565 0.24592778087 -0.72205346823 -2.548101902 -0.012899150141 -0.78901946545
          -2.4830985069 0.14539518952 -0.90576428175 -2.7823200226 0.016783099622 -0.68633919954
          -4.3347187042 0.29005420208 -0.44296199083 -4.3393721581 0.42342635989 -0.65198898315
          -4.1460008621 0.48432341218 -0.41542598605 -4.4399366379 0.49330413342 -0.36716800928
          0.9058868885 0.3652240932 0.037831000984 0.71466517448 0.27138009667 -0.094232998788
          0.89858132601 0.2298887074 -0.23391401768 0.73507022858 0.4539988935 -0.073164001107
          -1.7501699924 -0.19925332069 -0.86327397823 -1.8356319666 0.0078969011083 -1.0082437992
          -1.9235659838 -0.32769143581 -0.93234062195 -1.8587261438 -0.19973695278 -1.1918489933
          -1.6158000231 0.28506198525 -0.55510002375 -1.8200160265 0.49221810699 -0.71408998966
          -1.4990010262 0.46406769753 -0.58357000351 -1.7756780386 0.41514155269 -0.51559001207
          0.69177097082 -0.40261080861 -1.2026339769 0.77250897884 -0.18823230267 -1.3146259785
          0.94502300024 -0.16622328758 -1.0062910318 0.61579799652 -0.14052461088 -1.0343459845
          5.0031938553 0.28169769049 1.6652870178 5.1873960495 0.42186701298 1.8164199591
          5.2795748711 0.19745920599 1.7484179735 4.9558830261 0.24193349481 1.938804388
          0.22415600717 -0.082622297108 -1.3033210039 0.39721819758 -0.010242197663 -1.4243580103
          0.52286428213 -0.16449649632 -1.3978669643 0.36511561275 -0.21865269542 -1.2138979435
          2.5839250088 0.25846800208 0.93122702837 2.7450699806 0.13935770094 1.1011400223
          2.5438802242 0.032495997846 1.2491639853 2.5472946167 0.21848860383 1.2638469934
          0.26467600465 -0.18822538853 -1.4712239504 -0.14396199584 -0.17642790079 -1.5491399765
          0.15763199329 -0.010675301775 -1.4892460108 -0.0075119999237 -0.13963499665 -1.2594619989
          3.9363288879 -0.29490798712 1.6831860542 3.6907598972 -0.3027870059 1.7716159821
          3.718173027 -0.032231997699 1.6364309788 3.89149189 -0.08670001477 1.8603260517
          -0.55233097076 -0.44661706686 -0.61871999502 -0.42572999001 -0.2455662936 -0.58765000105
          -0.31607699394 -0.47428938746 -0.76736098528 -0.26960200071 -0.41726079583 -0.56349998713
          4.8643531799 -0.29935500026 2.0071020126 4.6169447899 -0.28709799051 2.2023260593
          4.6318750381 -0.28834098577 2.005959034 4.7630262375 -0.078894995153 2.2290580273
          3.718173027 -0.032231997699 1.6364309788 3.7013010979 -0.30448499322 1.5550149679
          3.8552589417 -0.056183006614 1.3705922365 3.658107996 -0.30566099286 1.332764864
          -0.5591750145 0.32877069712 -0.824015975 -0.61500298977 0.28469419479 -0.60780000687
          -0.69384098053 0.20343409479 -0.94639998674 -0.76281398535 0.3376955986 -0.79411798716
          -1.1560570002 -0.29963886738 -0.85426801443 -1.3335059881 -0.48872581124 -1.1038045883
          -1.0521889925 -0.48985919356 -0.94649702311 -1.225301981 -0.29465007782 -1.0979983807
          1.8045516014 -0.25807699561 0.68097501993 1.9808440208 -0.36953899264 0.4755859971
          1.9639710188 -0.12883301079 0.49361902475 1.6754965782 -0.38479599357 0.46163770556
          4.659427166 0.057737004012 2.0819699764 4.7842068672 0.23646980524 2.2136070728
          4.5650310516 0.20493909717 2.2137980461 4.6265969276 0.37918898463 2.0835940838
          3.8120110035 0.1275023967 0.66295999289 3.6721630096 0.17420139909 0.90603202581
          3.7064490318 -0.11200299114 0.86057698727 3.678497076 -0.014678004198 0.55156999826
          -0.54605597258 0.061542298645 -0.81870001554 -0.80769598484 0.2091087997 -0.62626999617
          -0.76281398535 0.3376955986 -0.79411798716 -0.61500298977 0.28469419479 -0.60780000687
          -4.2544279099 -0.066851697862 -0.67942899466 -4.0872659683 -0.040365900844 -0.50246196985
          -4.2499485016 -0.19019518793 -0.35626098514 -4.436715126 0.026354400441 -0.37169200182
          4.3538961411 0.35973498225 2.428800106 4.4526658058 0.17872619629 2.428800106
          4.5650310516 0.20493909717 2.2137980461 4.3718128204 0.25128540397 2.104501009
          4.4522380829 0.45779499412 1.8534209728 4.2132930756 0.66276198626 1.9194359779
          4.2633280754 0.48635900021 1.6941789389 4.3931241035 0.68594300747 1.8131175041
          4.7165417671 0.53939402103 1.5485489368 4.6735458374 0.19949239492 1.5503569841
          4.8979010582 0.32311931252 1.3858200312 4.7479839325 0.46574398875 1.3275200129
          -4.2408308983 0.48058089614 -0.10947950184 -4.1666903496 0.27508330345 -0.13123139739
          -4.3815760612 0.24617770314 -0.19512629509 -4.5223350525 0.28749448061 0.00038830153062
          -1.1560570002 -0.29963886738 -0.85426801443 -1.3339209557 -0.1199079901 -0.60588997602
          -1.1546920538 -0.21682497859 -0.62265998125 -1.4142980576 -0.3536285162 -0.59887999296
          -1.2363820076 0.13768835366 -0.99496001005 -1.4917390347 0.24093736708 -0.86661797762
          -1.3511379957 -0.033111680299 -1.0856614113 -1.4006630182 0.27366858721 -1.0899891853
          -2.3660526276 -0.18054547906 -1.0520470142 -2.6741175652 -0.17868329585 -1.2965600491
          -2.6269614697 -0.066813401878 -1.0421299934 -2.6056780815 -0.30553308129 -1.0694279671
          1.5088090897 -0.39408099651 0.20298700035 1.2570589781 -0.21799020469 -0.084225989878
          1.4818120003 -0.39234900475 -0.097535997629 1.6111949682 -0.21885199845 -0.057695001364
          -4.0705108643 0.13585180044 0.0080800065771 -4.1121020317 0.25860318542 0.34374800324
          -4.0016899109 0.29823037982 0.14048601687 -3.9893488884 0.10838919878 0.30875301361
          -0.24963200092 0.28975039721 -0.72652798891 -0.42486399412 0.21323770285 -0.57991999388
          -0.5591750145 0.32877069712 -0.824015975 -0.3437409997 0.53887301683 -0.68746000528
          0.13939720392 0.18482199311 -0.80818897486 0.18104350567 0.33106470108 -0.62392002344
          -0.032131001353 0.33743911982 -0.72442996502 0.21853539348 0.33637189865 -0.98886328936
          -0.72984099388 0.28546023369 -1.3866969347 -0.7670930028 0.060932602733 -1.3277369738
          -0.55726397038 -0.032617900521 -1.40318501 -0.679880023 0.069117903709 -1.6021100283
          -2.4806556702 -0.1127384007 -1.363214016 -2.3369340897 -0.31915336847 -1.4069160223
          -2.5419068336 -0.2821674943 -1.3411229849 -2.2354676723 -0.21959285438 -1.2453320026
          -0.34433600307 -0.26983401179 -1.5834399462 -0.27238899469 -0.43512588739 -1.4818589687
          -0.53049099445 -0.25941371918 -1.4260540009 -0.19379499555 -0.24117720127 -1.3589559793
          4.4501152039 0.014983006753 1.5191400051 4.5728478432 -0.045872993767 1.2065700293
          4.725110054 0.0005410007434 1.2883199453 4.5587711334 0.13435800374 1.2057100534
          -0.50069600344 -0.11491009593 -1.5895299911 -0.53049099445 -0.25941371918 -1.4260540009
          -0.55726397038 -0.032617900521 -1.40318501 -0.304708004 -0.090819396079 -1.572059989
          0.64788299799 -0.0059197037481 -1.3478369713 0.51523089409 0.14683929086 -1.3929450512
          0.53313398361 0.019717698917 -1.1568260193 0.39721819758 -0.010242197663 -1.4243580103
          0.30814930797 0.31706541777 -1.2523280382 0.2478390038 0.18538750708 -1.4635369778
          0.046897001565 0.32769879699 -1.3547029495 0.081534996629 0.22075429559 -1.1755410433
          -3.5356121063 0.44416579604 -0.95966500044 -3.3199958801 0.47254309058 -0.92196601629
          -3.4902799129 0.19203700125 -0.97851699591 -3.5222220421 0.2613735199 -0.7316250205
          -3.5222220421 0.2613735199 -0.7316250205 -3.2916152477 0.47306519747 -0.70392102003
          -3.275526762 0.18115669489 -0.7455739975 -3.2987422943 0.26889032125 -0.46421080828
          1.9902969599 0.62398999929 0.42160499096 2.1254868507 0.43120700121 0.6656140089
          2.2841498852 0.63460797071 0.62853097916 2.2181119919 0.41253200173 0.3796235919
          -1.6408480406 -0.49996328354 -0.93084400892 -1.9235659838 -0.32769143581 -0.93234062195
          -1.8400460482 -0.50811260939 -0.77786999941 -1.7530180216 -0.49406966567 -1.0832090378
          -1.8840471506 -0.017964780331 -1.309893012 -2.0235655308 -0.33051469922 -1.2762329578
          -1.8587261438 -0.19973695278 -1.1918489933 -1.856298089 -0.15979887545 -1.5231399536
          -0.0075119999237 -0.13963499665 -1.2594619989 -0.38811999559 -0.14212410152 -1.2827340364
          -0.19379499555 -0.24117720127 -1.3589559793 -0.19496299326 0.017406899482 -1.3360270262
          3.7064490318 -0.11200299114 0.86057698727 3.6721630096 0.17420139909 0.90603202581
          3.7195839882 0.0037419972941 1.0903520584 3.4617619514 -0.034863006324 0.83526402712
          -0.56551098824 -0.25506937504 -1.2119810581 -0.79623502493 -0.46506458521 -1.2561719418
          -0.74982398748 -0.23088718951 -1.0935233831 -0.57344698906 -0.46036499739 -1.2049913406
          3.1580340862 -0.10009101033 1.6749999523 3.1324748993 -0.012670002878 1.333466053
          2.9097163677 -0.086468994617 1.5041099787 3.2492110729 -0.32095301151 1.4265520573
          3.9909090996 0.69799000025 1.3503149748 3.7163519859 0.46678900719 1.408038497
          3.6373169422 0.67194199562 1.4793165922 3.8356730938 0.6680150032 1.6421200037
          4.8885669708 0.54565501213 1.3964899778 4.7563681602 0.41457000375 1.7243119478
          4.7165417671 0.53939402103 1.5485489368 4.9762878418 0.4914059937 1.7501740456
          1.3428349495 0.40458348393 -0.38063567877 0.98193901777 0.39114138484 -0.63054037094
          1.2616900206 0.31878641248 -0.65477597713 1.108150959 0.58133798838 -0.50853699446
          -1.0088479519 0.19115871191 -1.3418680429 -0.89497202635 0.0030651004054 -1.1271020174
          -0.7670930028 0.060932602733 -1.3277369738 -0.99887502193 -0.062538303435 -1.3665850163
          0.2478390038 0.18538750708 -1.4635369778 0.046897001565 0.32769879699 -1.3547029495
          0.056278999895 0.056861169636 -1.3090289831 -0.028528999537 0.095570899546 -1.5219500065
          3.9769608974 0.41242301464 1.2358649969 3.8746159077 0.2987203002 0.98308598995
          3.9656031132 0.16085809469 1.1511030197 4.1035399437 0.34244701266 0.90219002962
          4.5798997879 0.67236697674 2.0912940502 4.420935154 0.65521502495 2.2197909355
          4.402616024 0.45689401031 2.1667981148 4.4008059502 0.66251301765 2.0240740776
          -2.7090830803 0.31708621979 -0.6229904294 -2.5196659565 0.24592778087 -0.72205346823
          -2.7856142521 0.29197818041 -0.82188498974 -2.7823200226 0.016783099622 -0.68633919954
          -3.1503348351 -0.51121389866 -0.73205798864 -3.1669573784 -0.19655050337 -0.74350303411
          -3.4521927834 -0.28309810162 -0.73375397921 -3.3740890026 -0.51318377256 -0.76919901371
          3.9769608974 0.41242301464 1.2358649969 3.804610014 0.20091049373 1.4191051722
          4.1762018204 0.27362239361 1.2485419512 3.9656031132 0.16085809469 1.1511030197
          -3.7815887928 0.27240249515 -0.66369998455 -3.8928060532 -0.036693397909 -0.81056702137
          -3.7469959259 0.18661350012 -0.87160599232 -3.9523050785 0.21237049997 -0.78943997622
          4.0141201019 0.24855940044 1.621557951 4.0440011024 0.18789739907 1.9961689711
          4.0705580711 0.054460007697 1.7552939653 3.804297924 0.13001829386 1.8220219612
          -3.2346680164 0.26355689764 -0.22137200832 -3.3044788837 0.4724803865 -0.1253259927
          -3.1058139801 0.41758540273 0.0045389998704 -3.1945888996 0.20945261419 0.039181999862
          1.2925460339 -0.051271595061 -0.25956600904 1.1920820475 0.066462799907 -0.092215999961
          1.5832170248 0.13898870349 -0.2907756865 1.4943079948 -0.043684996665 -0.058169994503
          -4.1332221031 0.29565098882 -0.49425297976 -4.1460008621 0.48432341218 -0.41542598605
          -3.9811484814 0.47856000066 -0.21228690445 -3.9515781403 0.22483050823 -0.22432824969
          -3.5222220421 0.2613735199 -0.7316250205 -3.7469959259 0.18661350012 -0.87160599232
          -3.6431386471 0.012811898254 -0.67573601007 -3.683809042 -0.017515730113 -0.89673197269
          -2.7047069073 -0.50918275118 -0.67922121286 -2.8640635014 -0.32550418377 -0.67871928215
          -2.6584146023 -0.50556856394 -0.92454200983 -2.5790920258 -0.26749420166 -0.70352119207
          -4.5803985596 0.47174561024 0.34353449941 -4.8723812103 0.4865013957 0.30406826735
          -4.7318658829 0.32032591105 0.23805809021 -4.5983519554 0.47850579023 0.11985320598
          -0.86909997463 0.24614109099 -1.6085100174 -1.0532729626 0.32143890858 -1.6126300097
          -1.0088479519 0.19115871191 -1.3418680429 -1.0434730053 0.12597134709 -1.60631001
          3.718173027 -0.032231997699 1.6364309788 3.804610014 0.20091049373 1.4191051722
          3.8552589417 -0.056183006614 1.3705922365 3.9827311039 -0.10510598868 1.5950082541
          -2.7312269211 -0.032895799726 -0.39067798853 -2.825469017 0.27062919736 -0.34245297313
          -2.6104540825 0.0081983003765 -0.20189599693 -2.8682529926 0.10229609907 -0.093391999602
          -2.9494459629 -0.043818198144 -0.28794598579 -2.825469017 0.27062919736 -0.34245297313
          -2.7312269211 -0.032895799726 -0.39067798853 -2.8682529926 0.10229609907 -0.093391999602
          3.0001080036 0.49131900072 1.1801650524 2.832775116 0.65263402462 1.0032349825
          2.7331340313 0.47387900949 1.1153179407 2.968873024 0.46700000763 0.87133789062
          0.3360530138 -0.12368449569 -0.71136599779 0.47868400812 -0.085507400334 -0.87584412098
          0.61227500439 -0.20498250425 -0.7539935708 0.56557297707 -0.05147189647 -0.61882799864
          -0.80039197206 -0.22904071212 -1.6116299629 -0.95123302937 -0.4521523118 -1.5646049976
          -0.63469898701 -0.45314198732 -1.3848659992 -0.54073399305 -0.37010061741 -1.604460001
          0.56200027466 0.3923317194 -0.18788799644 0.79733598232 0.39415538311 -0.3318169713
          0.58858072758 0.152926296 -0.17830699682 0.71466517448 0.27138009667 -0.094232998788
          1.2570589781 -0.21799020469 -0.084225989878 1.0725090504 -0.1251232028 -0.30668699741
          1.4527050257 -0.19449299574 -0.29091629386 1.2925460339 -0.051271595061 -0.25956600904
          2.7306396961 -0.34143799543 1.3402420282 2.5645010471 -0.34633201361 0.97681301832
          2.7898700237 -0.33725899458 1.0498950481 2.4782733917 -0.16793499887 1.1878299713
          4.1035399437 0.34244701266 0.90219002962 3.9769608974 0.41242301464 1.2358649969
          4.2805190086 0.40835601091 1.0383700132 4.1762018204 0.27362239361 1.2485419512
          0.59374600649 0.45762971044 -1.362267971 0.64630901814 0.29072648287 -1.3438220024
          0.24196699262 0.39278018475 -1.4639049768 0.30814930797 0.31706541777 -1.2523280382
          4.8711438179 0.14351969957 1.5897270441 4.7131490707 0.21425390244 1.868008852
          4.7825579643 0.012594994158 1.737795949 4.6735458374 0.19949239492 1.5503569841
          -3.2916152477 0.47306519747 -0.70392102003 -3.2987422943 0.26889032125 -0.46421080828
          -3.4917843342 0.47428500652 -0.40278941393 -3.1012940407 0.47349649668 -0.42684000731
          2.7306396961 -0.34143799543 1.3402420282 2.3698036671 -0.32390099764 1.0980910063
          2.5645010471 -0.34633201361 0.97681301832 2.4782733917 -0.16793499887 1.1878299713
          4.3977518082 -0.2796689868 1.9731270075 4.690433979 -0.097899012268 1.9307255745
          4.5017971992 -0.076010011137 2.1854460239 4.5158967972 -0.051814988256 1.7898253202
          -4.1338410378 -0.23460809886 -0.7192620039 -4.0158720016 -0.37966567278 -0.75769299269
          -4.1995658875 -0.52305787802 -0.58140099049 -4.1456823349 -0.32185968757 -0.5048879981
          1.2987240553 -0.39872199297 -0.33902829885 1.0725090504 -0.1251232028 -0.30668699741
          0.9384559989 -0.42108929157 -0.3525930047 1.0542720556 -0.20917788148 -0.54995292425
          3.2050361633 0.42096599936 1.7410199642 3.3313462734 0.21289689839 1.8087899685
          3.3237390518 0.14818389714 1.5284450054 3.0577402115 0.15238833427 1.6229300499
          2.5472946167 0.21848860383 1.2638469934 2.5438802242 0.032495997846 1.2491639853
          2.5839250088 0.25846800208 0.93122702837 2.2918043137 0.21171090007 1.0770230293
          -0.18521800637 0.03266672045 -1.0619240999 0.059512998909 -0.21327769756 -1.0408661366
          -0.19269900024 -0.26168438792 -1.0995333195 0.0018850000342 -0.13561350107 -0.81675201654
          -2.9584069252 -0.33283078671 -0.35879898071 -2.8852050304 -0.13799700141 -0.5307559967
          -3.0899682045 -0.29772499204 -0.5357632041 -2.8640635014 -0.32550418377 -0.67871928215
          -1.4234830141 -0.38737499714 -1.5921599865 -1.5631556511 -0.15877270699 -1.5688300133
          -1.5384149551 -0.474794209 -1.4103360176 -1.6306117773 -0.45637950301 -1.5653500557
          -0.7670930028 0.060932602733 -1.3277369738 -0.89497202635 0.0030651004054 -1.1271020174
          -0.61719799042 -0.039664398879 -1.1887242794 -0.73458898067 -0.17205369473 -1.327262044
          1.6976139545 -0.039864007384 -0.8608520031 1.3628020287 0.069748699665 -0.7095310092
          1.4835740328 -0.047832004726 -0.98587197065 1.6116360426 0.12268330157 -0.90459799767
          -4.7995986938 0.015869349241 -0.30273678899 -4.6802415848 -0.16959774494 -0.21772760153
          -4.626159668 -0.03600018099 -0.37031018734 -4.8024878502 -0.29730415344 -0.34576281905
          0.56200027466 0.3923317194 -0.18788799644 0.36366090178 0.26720348001 -0.30314698815
          0.56680697203 0.35435029864 -0.45947599411 0.47422000766 0.57532548904 -0.38774099946
          -2.5790920258 -0.26749420166 -0.70352119207 -2.5134499073 -0.51176577806 -0.47904199362
          -2.4078168869 -0.30346369743 -0.49435901642 -2.4582118988 -0.50782459974 -0.75783860683
          5.2508559227 0.28233119845 1.5107899904 5.1873960495 0.42186701298 1.8164199591
          5.2795748711 0.19745920599 1.7484179735 5.0031938553 0.28169769049 1.6652870178
          -3.7126243114 0.24968840182 -0.29950919747 -3.9515781403 0.22483050823 -0.22432824969
          -3.7485210896 0.47213810682 -0.081793002784 -3.7695140839 0.20615190268 -0.025571003556
          -0.0096544995904 0.55562412739 -0.53859198093 -0.16879400611 0.54172569513 -0.80274397135
          -0.21260130405 0.41750350595 -0.52818000317 -0.032131001353 0.33743911982 -0.72442996502
          -1.2506010532 -0.14467050135 -1.2530030012 -1.5521390438 -0.22336211801 -1.3013720512
          -1.4465429783 -0.48274430633 -1.2523479462 -1.199491024 -0.2731808126 -1.4120750427
          -3.7306609154 -0.49806988239 0.0059669911861 -4.0129318237 -0.49603816867 0.055561993271
          -3.9805979729 -0.2818211019 0.12366101146 -3.7600250244 -0.42104199529 0.24891600013
          4.8885669708 0.54565501213 1.3964899778 4.7563681602 0.41457000375 1.7243119478
          4.9762878418 0.4914059937 1.7501740456 5.0874519348 0.48010200262 1.4636000395
          2.4627220631 0.06453820318 0.024974999949 2.4272270203 0.24140749872 -0.088780999184
          2.1084809303 0.16455329955 -0.24006199837 2.4711270332 0.1866299957 -0.33196899295
          -1.7904880047 0.17986288667 -0.85320198536 -1.8356319666 0.0078969011083 -1.0082437992
          -1.5908279419 -0.0042438311502 -1.0808677673 -1.6665450335 0.31891724467 -0.9786170125
          4.2718300819 0.15794679523 1.6279176474 4.0141201019 0.24855940044 1.621557951
          4.2557749748 0.16182330251 1.8862160444 4.0705580711 0.054460007697 1.7552939653
          3.419023037 -0.31212699413 1.6825289726 3.2492110729 -0.32095301151 1.4265520573
          3.4407179356 -0.10024298728 1.6149629354 3.1580340862 -0.10009101033 1.6749999523
          -2.5790920258 -0.26749420166 -0.70352119207 -2.8852050304 -0.13799700141 -0.5307559967
          -2.7287049294 -0.2789902091 -0.37658300996 -2.8640635014 -0.32550418377 -0.67871928215
          -1.3583359718 0.17316421866 -1.3048620224 -1.6238960028 0.24829168618 -1.1837819815
          -1.5908279419 -0.0042438311502 -1.0808677673 -1.6338564157 0.02010091953 -1.3360049725
          4.3348088264 0.0020780034829 2.0050890446 4.1488780975 -0.13552299142 1.9172199965
          4.3977518082 -0.2796689868 1.9731270075 4.5158967972 -0.051814988256 1.7898253202
          0.86870998144 0.033326499164 -0.31085899472 0.84206402302 0.052923899144 -0.65382301807
          0.88199001551 0.21808290482 -0.48142701387 0.60305899382 0.11440300196 -0.49014899135
          1.1473189592 0.12026190013 -0.89047002792 1.0504629612 -0.041896902025 -0.74770897627
          0.94502300024 -0.16622328758 -1.0062910318 0.82348799706 -0.019467899576 -0.88339298964
          4.3814492226 0.23643480241 1.0975799561 4.4385910034 0.24091610312 1.4270139933
          4.432926178 0.52034902573 1.1526700258 4.6267647743 0.34916397929 1.2565300465
          1.0180549622 0.17184720933 -1.2025079727 1.1473189592 0.12026190013 -0.89047002792
          1.1071350574 0.033141098917 -1.1655050516 0.74059998989 0.11394579709 -1.0505290031
          -2.8605468273 0.030474800617 -1.0333030224 -2.9707868099 -0.088433094323 -0.74900501966
          -3.1125445366 -0.042645700276 -0.91890496016 -2.9588835239 0.10583119839 -0.81790500879
          -0.23330500722 -0.099709004164 -0.54330998659 -0.025832999498 0.026944899932 -0.47304499149
          -0.20871029794 0.16622160375 -0.5290799737 -0.027907999232 0.12770339847 -0.67658001184
          3.7856199741 0.69599997997 1.1387779713 3.8493919373 0.50689595938 1.0418950319
          3.9769608974 0.41242301464 1.2358649969 3.9909090996 0.69799000025 1.3503149748
          -1.1318500042 0.052193719894 -1.1925956011 -1.2506010532 -0.14467050135 -1.2530030012
          -1.0050040483 -0.23432028294 -1.1520009041 -0.99887502193 -0.062538303435 -1.3665850163
          2.7515289783 0.13377730548 0.70048117638 2.387912035 0.31022301316 0.66756099463
          2.5839250088 0.25846800208 0.93122702837 2.3112504482 0.13608121872 0.81553798914
          -4.6802415848 -0.16959774494 -0.21772760153 -4.6876730919 -0.14474339783 -0.56215977669
          -4.8024878502 -0.29730415344 -0.34576281905 -4.4922027588 -0.20494790375 -0.36291068792
          -2.9227018356 0.26947918534 -0.61335587502 -2.9246742725 0.47127839923 -0.80925703049
          -3.0843958855 0.47311139107 -0.64435297251 -3.0947728157 0.28662750125 -0.90678101778
          4.7165417671 0.53939402103 1.5485489368 4.7563681602 0.41457000375 1.7243119478
          4.7495179176 0.70579200983 1.7540500164 4.9762878418 0.4914059937 1.7501740456
          4.1866950989 -0.16452099383 0.93571001291 4.0087571144 -0.073222987354 1.1375299692
          4.0328669548 -0.29927301407 1.0428249836 3.902930975 -0.018859993666 0.7255499959
          3.4179348946 0.33102399111 1.4116280079 3.5908029079 0.19661930203 1.6370530128
          3.804610014 0.20091049373 1.4191051722 3.5387530327 0.16991350055 1.193629384
          3.5387530327 0.16991350055 1.193629384 3.6544830799 0.36574301124 1.0680350065
          3.4179348946 0.33102399111 1.4116280079 3.4408869743 0.48258000612 1.1898485422
          2.0427997112 -0.2558940053 0.86032700539 1.8045516014 -0.25807699561 0.68097501993
          2.1764740944 -0.18138699234 0.65020596981 1.9269193411 -0.091003999114 0.78541302681
          4.4008059502 0.66251301765 2.0240740776 4.1697688103 0.64373600483 2.1378290653
          4.420935154 0.65521502495 2.2197909355 4.402616024 0.45689401031 2.1667981148
          4.6524858475 0.67294102907 2.2563040257 4.420935154 0.65521502495 2.2197909355
          4.402616024 0.45689401031 2.1667981148 4.5798997879 0.67236697674 2.0912940502
          3.8696250916 -0.23204101622 0.68651998043 3.7064490318 -0.11200299114 0.86057698727
          3.678497076 -0.014678004198 0.55156999826 3.902930975 -0.018859993666 0.7255499959
          -2.825469017 0.27062919736 -0.34245297313 -2.6534280777 0.29591062665 -0.18428100646
          -2.6104540825 0.0081983003765 -0.20189599693 -2.8682529926 0.10229609907 -0.093391999602
          -2.825469017 0.27062919736 -0.34245297313 -2.9054839611 0.47552779317 -0.32576698065
          -2.6418669224 0.48016449809 -0.30111697316 -2.6534280777 0.29591062665 -0.18428100646
          -2.7894101143 -0.19218939543 -0.12471599877 -2.8496210575 -0.34875020385 -0.099053002894
          -2.7235929966 -0.46752271056 -0.15234200656 -2.7287049294 -0.2789902091 -0.37658300996
          5.3432278633 0.22682979703 2.2597339153 5.0963821411 0.18064403534 2.290708065
          5.2506189346 0.27369219065 2.5230898857 5.2890958786 -0.018920002505 2.382846117
          -2.8640635014 -0.32550418377 -0.67871928215 -2.82984519 -0.19690430164 -0.8898460269
          -2.92583251 -0.50748687983 -0.81637299061 -2.6584146023 -0.50556856394 -0.92454200983
          -1.8840471506 -0.017964780331 -1.309893012 -2.1257388592 -0.27721267939 -1.4604820013
          -2.0235655308 -0.33051469922 -1.2762329578 -1.856298089 -0.15979887545 -1.5231399536
          -4.4574508667 0.019598178566 0.2031301856 -4.5989289284 0.15179400146 0.43534138799
          -4.7829651833 -0.03583727777 0.25068509579 -4.6535224915 0.13568019867 0.13374620676
          -2.5790920258 -0.26749420166 -0.70352119207 -2.548101902 -0.012899150141 -0.78901946545
          -2.7823200226 0.016783099622 -0.68633919954 -2.82984519 -0.19690430164 -0.8898460269
          -1.3182120323 -0.50291794538 -0.77375298738 -1.1546920538 -0.21682497859 -0.62265998125
          -1.0522500277 -0.4041929543 -0.63874000311 -1.4142980576 -0.3536285162 -0.59887999296
          -3.2624089718 0.0626033023 -1.0726950169 -3.5243430138 -0.15946990252 -0.9610850215
          -3.4256296158 -0.04080190137 -0.73200601339 -3.2653579712 -0.18581090868 -1.0693039894
          -4.6535224915 0.13568019867 0.13374620676 -4.7775506973 -0.01067915 -0.02922873944
          -5 0.15884299576 0.21330599487 -5 -0.004447159823 0.13623799384
          2.7105460167 0.65613901615 0.34329998493 2.5486719608 0.4433940053 0.48740598559
          3.0115010738 0.44793599844 0.41370400786 2.7568380833 0.32088699937 0.34903898835
          4.5158967972 -0.051814988256 1.7898253202 4.2373199463 -0.093296997249 1.6291577816
          4.2718300819 0.15794679523 1.6279176474 4.2557749748 0.16182330251 1.8862160444
          4.7117071152 0.64353197813 1.3227100372 4.559112072 0.72245299816 1.4581370354
          4.8287091255 0.72349202633 1.5618569851 4.7165417671 0.53939402103 1.5485489368
          0.58858072758 0.152926296 -0.17830699682 0.36366090178 0.26720348001 -0.30314698815
          0.49385619164 -0.061818897724 -0.24398499727 0.60305899382 0.11440300196 -0.49014899135
          4.7842068672 0.23646980524 2.2136070728 4.6255760193 0.29108199477 2.428800106
          4.819275856 0.2937990129 2.4843699932 4.7728209496 0.11897029728 2.42572999
          -4.4442939758 -0.11693099886 -0.6205059886 -4.6876730919 -0.14474339783 -0.56215977669
          -4.626159668 -0.03600018099 -0.37031018734 -4.4922027588 -0.20494790375 -0.36291068792
          -4.7995986938 0.015869349241 -0.30273678899 -4.6876730919 -0.14474339783 -0.56215977669
          -4.8524708748 -0.16640077531 -0.5321289897 -4.626159668 -0.03600018099 -0.37031018734
          2.9097163677 -0.086468994617 1.5041099787 2.9196689129 -0.13256700337 1.2476739883
          2.78916049 0.10995809734 1.4312570095 2.666932106 -0.11324400455 1.3288810253
          -0.73458898067 -0.17205369473 -1.327262044 -0.79623502493 -0.46506458521 -1.2561719418
          -0.74982398748 -0.23088718951 -1.0935233831 -0.56551098824 -0.25506937504 -1.2119810581
          -3.564964056 -0.31996080279 -0.046510994434 -3.7306609154 -0.49806988239 0.0059669911861
          -3.6301288605 -0.50444597006 -0.18104600906 -3.7831549644 -0.23498553038 -0.042289998382
          3.526293993 0.69815999269 0.49317902327 3.2409238815 0.67979502678 0.59528899193
          3.4043519497 0.68294101954 0.87328398228 3.3829259872 0.46805399656 0.71429997683
          -2.3633306026 -0.018299350515 -1.2072839737 -2.2354676723 -0.21959285438 -1.2453320026
          -2.3660526276 -0.18054547906 -1.0520470142 -2.1130719185 -0.047264300287 -1.1963629723
          -4.436715126 0.026354400441 -0.37169200182 -4.626159668 -0.03600018099 -0.37031018734
          -4.6376662254 0.16694931686 -0.24515900016 -4.5885467529 0.081544041634 -0.058668099344
          -3.4256296158 -0.04080190137 -0.73200601339 -3.4094109535 -0.28461059928 -1.0079009533
          -3.1669573784 -0.19655050337 -0.74350303411 -3.2653579712 -0.18581090868 -1.0693039894
          3.6306459904 0.69331997633 0.9852989912 3.4043519497 0.68294101954 0.87328398228
          3.7212340832 0.54067403078 0.62415999174 3.8292720318 0.70746701956 0.84424501657
          -0.42743900418 -0.29611000419 -1.0441720486 -0.55270302296 -0.11456199735 -0.98753702641
          -0.33131301403 -0.1156719923 -1.0455411673 -0.29678198695 -0.19139230251 -0.85894298553
          1.8071659803 -0.10879799724 -0.12797890604 1.4527050257 -0.19449299574 -0.29091629386
          1.6553009748 -0.058208007365 -0.42940098047 1.4943079948 -0.043684996665 -0.058169994503
          4.7728209496 0.11897029728 2.42572999 4.819275856 0.2937990129 2.4843699932
          4.7842068672 0.23646980524 2.2136070728 5.0963821411 0.18064403534 2.290708065
          0.9384559989 -0.42108929157 -0.3525930047 1.0725090504 -0.1251232028 -0.30668699741
          0.85404402018 -0.22467930615 -0.32312399149 1.0542720556 -0.20917788148 -0.54995292425
          -4.2035307884 0.079204000533 -0.13781389594 -4.0705108643 0.13585180044 0.0080800065771
          -3.9515781403 0.22483050823 -0.22432824969 -4.0898427963 -0.054189000279 -0.25348520279
          5.2246007919 0.71275597811 2.0305790901 5.4411177635 0.54534596205 2.004693985
          5.4279828072 0.71865099669 2.021269083 5.5018949509 0.57858800888 1.8484350443
          0.51021200418 -0.21610671282 -0.49635899067 0.61227500439 -0.20498250425 -0.7539935708
          0.76676100492 -0.1134057045 -0.50795000792 0.56557297707 -0.05147189647 -0.61882799864
          -4.2544279099 -0.066851697862 -0.67942899466 -4.2844419479 0.10605479777 -0.67162799835
          -4.436715126 0.026354400441 -0.37169200182 -4.4442939758 -0.11693099886 -0.6205059886
          -3.5465004444 -0.0025727003813 -0.37637498975 -3.2987422943 0.26889032125 -0.46421080828
          -3.2953541279 -0.00062000047183 -0.49288973212 -3.5090770721 0.16754239798 -0.19926699996
          1.1137839556 0.31430581212 -0.23879601061 1.3428349495 0.40458348393 -0.38063567877
          1.2616900206 0.31878641248 -0.65477597713 1.1057879925 0.14166979492 -0.59393042326
          4.7728209496 0.11897029728 2.42572999 4.6464409828 -0.13010598719 2.42572999
          4.7630262375 -0.078894995153 2.2290580273 4.5205311775 0.023049006239 2.42572999
          -3.0899682045 -0.29772499204 -0.5357632041 -3.1669573784 -0.19655050337 -0.74350303411
          -3.1503348351 -0.51121389866 -0.73205798864 -2.8640635014 -0.32550418377 -0.67871928215
          0.64788299799 -0.0059197037481 -1.3478369713 0.53313398361 0.019717698917 -1.1568260193
          0.77250897884 -0.18823230267 -1.3146259785 0.52286428213 -0.16449649632 -1.3978669643
          -1.288203001 -0.24603740871 -1.60145998 -1.2205280066 -0.4554925859 -1.6110960245
          -1.4234830141 -0.38737499714 -1.5921599865 -1.199491024 -0.2731808126 -1.4120750427
          3.251791954 0.13675589859 0.23980399966 3.241795063 0.17628619075 0.51923000813
          3.4745230675 0.094017997384 0.40399199724 3.3033549786 -0.086898997426 0.26347100735
          -2.8640635014 -0.32550418377 -0.67871928215 -2.8852050304 -0.13799700141 -0.5307559967
          -3.0899682045 -0.29772499204 -0.5357632041 -2.9707868099 -0.088433094323 -0.74900501966
          -3.2953541279 -0.00062000047183 -0.49288973212 -3.2104935646 -0.0044391001575 -0.70767199993
          -3.3584003448 -0.26359349489 -0.49015578628 -3.1669573784 -0.19655050337 -0.74350303411
          -2.548101902 -0.012899150141 -0.78901946545 -2.3013501167 -0.0029451001901 -0.87519747019
          -2.5444853306 -0.19624508917 -0.90569740534 -2.2852199078 -0.19466769695 -0.68211597204
          -3.8530523777 -0.50708895922 -0.23963859677 -3.6301288605 -0.50444597006 -0.18104600906
          -3.7831549644 -0.23498553038 -0.042289998382 -3.7178936005 -0.30012491345 -0.34045830369
          -2.8611981869 0.29218497872 -1.0245879889 -2.9246742725 0.47127839923 -0.80925703049
          -3.0947728157 0.28662750125 -0.90678101778 -2.9768784046 0.46844089031 -1.0279990435
          -0.48226100206 0.47477662563 -1.5933699608 -0.59481602907 0.50138133764 -1.4068089724
          -0.51359897852 0.26363918185 -1.5916399956 -0.74778497219 0.49031057954 -1.546538949
          3.7195839882 0.0037419972941 1.0903520584 3.8552589417 -0.056183006614 1.3705922365
          3.5614540577 -0.13416200876 1.2109525204 3.4360439777 -0.0026910067536 1.3680689335
          -2.6201217175 0.47078740597 -0.97456198931 -2.9246742725 0.47127839923 -0.80925703049
          -2.7856142521 0.29197818041 -0.82188498974 -2.8611981869 0.29218497872 -1.0245879889
          -2.8605468273 0.030474800617 -1.0333030224 -2.9707868099 -0.088433094323 -0.74900501966
          -2.9588835239 0.10583119839 -0.81790500879 -2.7823200226 0.016783099622 -0.68633919954
          -0.6984680295 -0.26326191425 -0.85958302021 -0.9426779747 -0.20086880028 -0.89714598656
          -0.81605601311 -0.49181076884 -0.80724596977 -0.91781198978 -0.47875839472 -1.088809967
          -0.38182199001 0.22295188904 -0.90033400059 -0.42486399412 0.21323770285 -0.57991999388
          -0.54605597258 0.061542298645 -0.81870001554 -0.5591750145 0.32877069712 -0.824015975
          4.908780098 -0.05460799858 1.9473679066 4.659427166 0.057737004012 2.0819699764
          4.7630262375 -0.078894995153 2.2290580273 4.690433979 -0.097899012268 1.9307255745
          1.6553009748 -0.058208007365 -0.42940098047 1.8443620205 0.16656500101 -0.47324600816
          1.5832170248 0.13898870349 -0.2907756865 1.6323230267 0.075184799731 -0.62727099657
          -0.69384098053 0.20343409479 -0.94639998674 -0.38182199001 0.22295188904 -0.90033400059
          -0.54605597258 0.061542298645 -0.81870001554 -0.5591750145 0.32877069712 -0.824015975
          -2.3957979679 0.17064259946 -0.29074698687 -2.526927948 -0.09825039655 -0.49015599489
          -2.247385025 -0.11254110187 -0.34903201461 -2.4275128841 0.11600639671 -0.53692299128
          -1.542323947 -0.10029046237 -0.56713998318 -1.7705160379 -0.013670380227 -0.72984999418
          -1.715157032 -0.23626880348 -0.5269600153 -1.7501699924 -0.19925332069 -0.86327397823
          -2.7047069073 -0.50918275118 -0.67922121286 -2.5790920258 -0.26749420166 -0.70352119207
          -2.6584146023 -0.50556856394 -0.92454200983 -2.4582118988 -0.50782459974 -0.75783860683
          5.2508559227 0.28233119845 1.5107899904 5.0031938553 0.28169769049 1.6652870178
          5.2795748711 0.19745920599 1.7484179735 5.1202697754 0.12177520245 1.4594299793
          -2.4264535904 -0.49877792597 -1.0958280563 -2.6056780815 -0.30553308129 -1.0694279671
          -2.6584146023 -0.50556856394 -0.92454200983 -2.7647492886 -0.50091934204 -1.2004820108
          -1.2506010532 -0.14467050135 -1.2530030012 -1.5521390438 -0.22336211801 -1.3013720512
          -1.225301981 -0.29465007782 -1.0979983807 -1.4465429783 -0.48274430633 -1.2523479462
          1.1057879925 0.14166979492 -0.59393042326 0.84206402302 0.052923899144 -0.65382301807
          1.0504629612 -0.041896902025 -0.74770897627 0.93579101562 0.2607139945 -0.85697698593
          -0.78097099066 -0.028601998463 -0.62437999249 -0.6984680295 -0.26326191425 -0.85958302021
          -0.57054299116 -0.063641503453 -0.60666000843 -0.76539498568 -0.02696910128 -0.88151800632
          -3.8436272144 -0.0084195006639 -0.544039011 -3.8928060532 -0.036693397909 -0.81056702137
          -4.0872659683 -0.040365900844 -0.50246196985 -3.9709320068 -0.19345550239 -0.77938902378
          5.0874519348 0.48010200262 1.4636000395 4.9762878418 0.4914059937 1.7501740456
          5.1064062119 0.72903001308 1.5365300179 5.3040738106 0.50984299183 1.5398700237
          -2.6201217175 0.47078740597 -0.97456198931 -2.7856142521 0.29197818041 -0.82188498974
          -2.6722416878 0.17765410244 -0.99963802099 -2.8611981869 0.29218497872 -1.0245879889
          4.7806420326 0.47793102264 2.2329978943 5.0721921921 0.69339102507 2.3749821186
          5.0743060112 0.70134097338 2.1695489883 5.0139088631 0.39100199938 2.2078499794
          0.15763199329 -0.010675301775 -1.4892460108 0.22415600717 -0.082622297108 -1.3033210039
          0.30460509658 0.093160197139 -1.2340450287 0.39721819758 -0.010242197663 -1.4243580103
          0.24196699262 0.39278018475 -1.4639049768 0.015014999546 0.52284687757 -1.2964439392
          0.046897001565 0.32769879699 -1.3547029495 -0.12036799639 0.50918620825 -1.5231349468
          3.0217940807 0.11983050406 0.068121999502 2.6742250919 -0.012311006896 0.2936809957
          2.8178238869 -0.16496701539 0.18457700312 2.9222569466 -0.035557992756 -0.016389999539
          3.3033549786 -0.086898997426 0.26347100735 3.147439003 -0.0024279970676 0.66096997261
          3.3454549313 -0.14016999304 0.62486702204 3.0362560749 -0.12312699854 0.36283898354
          -2.548101902 -0.012899150141 -0.78901946545 -2.5196659565 0.24592778087 -0.72205346823
          -2.2431271076 0.16042180359 -0.71514201164 -2.4275128841 0.11600639671 -0.53692299128
          3.7195839882 0.0037419972941 1.0903520584 3.8552589417 -0.056183006614 1.3705922365
          3.8409628868 -0.30274599791 1.1827360392 3.5614540577 -0.13416200876 1.2109525204
          0.56680697203 0.35435029864 -0.45947599411 0.88199001551 0.21808290482 -0.48142701387
          0.69450002909 0.33520320058 -0.69070541859 0.60305899382 0.11440300196 -0.49014899135
          2.7515289783 0.13377730548 0.70048117638 3.0274419785 0.16455459595 0.84069955349
          2.9822580814 -0.12804400921 0.81096309423 2.9346859455 -0.010064994916 1.0378210545
          -3.5222220421 0.2613735199 -0.7316250205 -3.3199958801 0.47254309058 -0.92196601629
          -3.4902799129 0.19203700125 -0.97851699591 -3.275526762 0.18115669489 -0.7455739975
          5.1873960495 0.42186701298 1.8164199591 4.9700350761 0.50200498104 1.9810703993
          5.199947834 0.37635299563 2.0466771126 4.9558830261 0.24193349481 1.938804388
          -2.5790920258 -0.26749420166 -0.70352119207 -2.8640635014 -0.32550418377 -0.67871928215
          -2.7287049294 -0.2789902091 -0.37658300996 -2.7047069073 -0.50918275118 -0.67922121286
          -4.1204099655 0.088588900864 -0.72504401207 -3.8928060532 -0.036693397909 -0.81056702137
          -3.9709320068 -0.19345550239 -0.77938902378 -4.0872659683 -0.040365900844 -0.50246196985
          -0.80039197206 -0.22904071212 -1.6116299629 -1.0445510149 -0.28223949671 -1.6158399582
          -0.95317101479 -0.27932810783 -1.4066259861 -0.95123302937 -0.4521523118 -1.5646049976
          2.2750039101 0.14374065399 0.29926979542 2.2037799358 0.33316999674 -0.035911995918
          2.0466160774 0.12520329654 0.090647503734 2.4272270203 0.24140749872 -0.088780999184
          4.5017971992 -0.076010011137 2.1854460239 4.3348088264 0.0020780034829 2.0050890446
          4.4067840576 -0.28270500898 2.1856250763 4.3977518082 -0.2796689868 1.9731270075
          -4.3315758705 -0.16536140442 0.15697599947 -4.4574508667 0.019598178566 0.2031301856
          -4.1633501053 -0.0074493000284 0.35350400209 -4.4093670845 -0.040471538901 0.40553438663
          1.7081429958 0.28754499555 -0.84163600206 1.8443620205 0.16656500101 -0.47324600816
          1.9594429731 0.31532198191 -0.67937397957 1.8392709494 0.14722080529 -0.76449400187
          -1.7904880047 0.17986288667 -0.85320198536 -1.86886096 0.2922372818 -1.0309972763
          -1.8356319666 0.0078969011083 -1.0082437992 -1.6665450335 0.31891724467 -0.9786170125
          0.36511561275 -0.21865269542 -1.2138979435 0.059512998909 -0.21327769756 -1.0408661366
          0.26428851485 -0.064987801015 -1.0606349707 0.36515200138 -0.25333359838 -0.93256372213
          3.3571829796 0.56413400173 0.35071998835 3.1142799854 0.34143099189 0.65826201439
          3.4906380177 0.39700400829 0.43757998943 3.0115010738 0.44793599844 0.41370400786
          -0.55270302296 -0.11456199735 -0.98753702641 -0.74982398748 -0.23088718951 -1.0935233831
          -0.56551098824 -0.25506937504 -1.2119810581 -0.61719799042 -0.039664398879 -1.1887242794
          -1.9904079437 0.054340101779 -0.69911700487 -2.0342888832 0.096592001617 -0.42942199111
          -1.8522150517 0.15278969705 -0.4879719913 -1.8855940104 -0.082297004759 -0.4747030139
          3.4360439777 -0.0026910067536 1.3680689335 3.2844669819 0.18207931519 1.0159295797
          3.1324748993 -0.012670002878 1.333466053 3.2712409496 -0.069230996072 1.0871679783
          -1.5145759583 -0.018870471045 -0.82699400187 -1.6226379871 0.13752751052 -0.73393601179
          -1.7705160379 -0.013670380227 -0.72984999418 -1.7904880047 0.17986288667 -0.85320198536
          -4.7094054222 0.49808984995 -0.25924840569 -4.7088990211 0.50314342976 -0.47985681891
          -4.5366792679 0.30343410373 -0.3805705905 -4.4399366379 0.49330413342 -0.36716800928
          1.4334243536 0.60390299559 0.081108003855 1.2371704578 0.59994918108 0.042260996997
          1.2312122583 0.39813408256 -0.034452985972 1.1987409592 0.59465539455 -0.16085501015
          5.0016570091 -0.09311401844 1.6771680117 5.327480793 -0.087410993874 1.7155309916
          5.2169570923 -0.28806000948 1.5943369865 5.1637601852 -0.29948699474 1.865844965
          2.9693405628 -0.31538802385 1.5350999832 3.2492110729 -0.32095301151 1.4265520573
          3.1580340862 -0.10009101033 1.6749999523 2.9097163677 -0.086468994617 1.5041099787
          -3.7178936005 -0.30012491345 -0.34045830369 -3.8315455914 -0.51438689232 -0.46247899532
          -3.4962136745 -0.50891906023 -0.35148981214 -3.5607392788 -0.34819129109 -0.49605900049
          -0.96911400557 -0.012546800077 -1.6096899509 -1.1307909489 -0.13907830417 -1.6104199886
          -0.95317101479 -0.27932810783 -1.4066259861 -0.80039197206 -0.22904071212 -1.6116299629
          -2.0596408844 0.23887120187 -0.93493187428 -1.8356319666 0.0078969011083 -1.0082437992
          -1.9904079437 0.054340101779 -0.69911700487 -1.7904880047 0.17986288667 -0.85320198536
          -4.4754362106 -0.32264238596 0.12133580446 -4.7962985039 -0.27623388171 -0.034645497799
          -4.6497826576 -0.19200108945 0.12126010656 -4.5369677544 -0.4948824048 0.0206808988
          -1.9829889536 0.48603790998 -0.84902697802 -2.3374700546 0.48206248879 -0.62753897905
          -2.0370030403 0.2986676991 -0.69848400354 -2.1977200508 0.47695589066 -0.94357067347
          -1.5145759583 -0.018870471045 -0.82699400187 -1.542323947 -0.10029046237 -0.56713998318
          -1.5314699411 -0.26643535495 -0.78901797533 -1.7705160379 -0.013670380227 -0.72984999418
          3.678497076 -0.014678004198 0.55156999826 3.6354649067 0.20033504069 0.53394001722
          3.4640750885 0.2319137007 0.72248202562 3.4745230675 0.094017997384 0.40399199724
          2.087033987 -0.36293101311 0.27580299973 1.8311589956 -0.37597900629 0.21240459383
          1.9846500158 -0.36595401168 0.065145798028 2.0367250443 -0.15883000195 0.10807870328
          4.7825579643 0.012594994158 1.737795949 4.9797067642 0.10058799386 1.780706048
          5.0016570091 -0.09311401844 1.6771680117 4.908780098 -0.05460799858 1.9473679066
          3.9373788834 0.45778700709 1.9478909969 3.8874111176 0.63993400335 2.0479431152
          4.1113681793 0.48997598886 2.274960041 3.9451920986 0.36131098866 2.1700799465
          -0.47427800298 -0.47527450323 -0.90863901377 -0.49013099074 -0.27833321691 -0.80703800917
          -0.29678198695 -0.19139230251 -0.85894298553 -0.31607699394 -0.47428938746 -0.76736098528
          -3.2750339508 -0.14621569216 0.072559997439 -2.9889519215 -0.24136529863 -0.040991000831
          -3.0977869034 -0.10610190034 0.0021150000393 -3.3219630718 -0.30692452192 -0.14970101416
          3.0115010738 0.44793599844 0.41370400786 3.2409238815 0.67979502678 0.59528899193
          3.3829259872 0.46805399656 0.71429997683 3.1142799854 0.34143099189 0.65826201439
          -1.2363820076 0.13768835366 -0.99496001005 -1.1999200583 0.31322172284 -0.84429401159
          -1.1171029806 0.13310749829 -0.81390601397 -1.3387739658 0.1015701443 -0.80373698473
          -1.8314759731 0.27363407612 -0.6662620306 -1.6226379871 0.13752751052 -0.73393601179
          -1.6775929928 0.07707464695 -0.53350001574 -1.6158000231 0.28506198525 -0.55510002375
          -0.13618600368 -0.29588839412 -0.75555801392 -0.23330500722 -0.099709004164 -0.54330998659
          0.0018850000342 -0.13561350107 -0.81675201654 -0.1767269969 -0.26826900244 -0.53143000603
          4.908780098 -0.05460799858 1.9473679066 4.7630262375 -0.078894995153 2.2290580273
          4.8643531799 -0.29935500026 2.0071020126 4.690433979 -0.097899012268 1.9307255745
          0.34664174914 0.52966880798 -1.3116159439 0.30814930797 0.31706541777 -1.2523280382
          0.12977400422 0.53239011765 -1.1151189804 0.35893088579 0.54108428955 -1.083673954
          2.9830210209 0.64096099138 1.5882970095 3.138158083 0.46699899435 1.4169000387
          2.8278307915 0.37164700031 1.4777669907 3.2050361633 0.42096599936 1.7410199642
          -3.4902799129 0.19203700125 -0.97851699591 -3.5222220421 0.2613735199 -0.7316250205
          -3.275526762 0.18115669489 -0.7455739975 -3.4256296158 -0.04080190137 -0.73200601339
          5.2030038834 -0.095155008137 2.0543687344 4.9883351326 -0.0025349962525 2.1726241112
          5.2890958786 -0.018920002505 2.382846117 5.0791130066 -0.098838992417 2.3361620903
          -2.9227018356 0.26947918534 -0.61335587502 -3.275526762 0.18115669489 -0.7455739975
          -3.2987422943 0.26889032125 -0.46421080828 -3.0457994938 0.036590598524 -0.58276486397
          4.3675351143 0.70144999027 1.5965069532 4.5152788162 0.44570598006 1.5512629747
          4.4522380829 0.45779499412 1.8534209728 4.561398983 0.70336198807 1.6810460091
          -1.199491024 -0.2731808126 -1.4120750427 -1.5521390438 -0.22336211801 -1.3013720512
          -1.4465429783 -0.48274430633 -1.2523479462 -1.326851964 -0.47103399038 -1.4058600664
          0.059512998909 -0.21327769756 -1.0408661366 -0.18521800637 0.03266672045 -1.0619240999
          0.060910001397 0.064430199564 -1.0059714317 0.0018850000342 -0.13561350107 -0.81675201654
          3.8110458851 -0.30123400688 0.9321950078 3.7064490318 -0.11200299114 0.86057698727
          3.8409628868 -0.30274599791 1.1827360392 3.5614540577 -0.13416200876 1.2109525204
          -3.1012940407 0.47349649668 -0.42684000731 -3.2987422943 0.26889032125 -0.46421080828
          -3.4917843342 0.47428500652 -0.40278941393 -3.3044788837 0.4724803865 -0.1253259927
          -2.1506009102 0.25718417764 -1.2337720394 -2.3114500046 0.28709989786 -0.8894675374
          -2.1977200508 0.47695589066 -0.94357067347 -2.0596408844 0.23887120187 -0.93493187428
          2.7331340313 0.47387900949 1.1153179407 2.8959798813 0.32024499774 1.0456169844
          2.5472946167 0.21848860383 1.2638469934 2.8278307915 0.37164700031 1.4777669907
          -1.1546920538 -0.21682497859 -0.62265998125 -1.1518950462 -0.061164274812 -0.8551800251
          -1.1560570002 -0.29963886738 -0.85426801443 -0.96335202456 -0.23516255617 -0.63407999277
          -4.0705108643 0.13585180044 0.0080800065771 -4.1473436356 -0.025500500575 0.13780200481
          -3.9893488884 0.10838919878 0.30875301361 -3.9098739624 -0.045701097697 0.062531001866
          -0.53049099445 -0.25941371918 -1.4260540009 -0.304708004 -0.090819396079 -1.572059989
          -0.50069600344 -0.11491009593 -1.5895299911 -0.34433600307 -0.26983401179 -1.5834399462
          -4.247215271 -0.5039280057 -0.16240300238 -4.2066240311 -0.3275590539 0.070990994573
          -4.0129318237 -0.49603816867 0.055561993271 -4.3332242966 -0.49554929137 0.023328900337
          4.2373199463 -0.093296997249 1.6291577816 4.0705580711 0.054460007697 1.7552939653
          3.9827311039 -0.10510598868 1.5950082541 4.1369771957 0.033024005592 1.3592270613
          1.6138050556 0.3192229867 -0.46323099732 1.7167700529 0.42090001702 -0.091850601137
          1.7609839439 0.60800498724 -0.30019900203 1.9701869488 0.36129301786 -0.32886689901
          0.2141688019 0.56765770912 -0.42459902167 0.18104350567 0.33106470108 -0.62392002344
          0.36111998558 0.56500959396 -0.54083001614 0.21305389702 0.5571166873 -0.6557880044
          1.1920820475 0.066462799907 -0.092215999961 1.1257488728 0.21291010082 0.19439199567
          1.2312122583 0.39813408256 -0.034452985972 1.369579196 0.12671080232 0.095050007105
          -2.0235655308 -0.33051469922 -1.2762329578 -2.1722934246 -0.49265837669 -1.1914629936
          -1.9633500576 -0.49727156758 -1.0658731461 -1.925401926 -0.48173299432 -1.4075479507
          -3.1937348843 0.42899999022 -1.1060760021 -2.9489409924 0.21040900052 -1.2003070116
          -3.0947728157 0.28662750125 -0.90678101778 -2.9768784046 0.46844089031 -1.0279990435
          0.14480470121 -0.27436679602 -0.68005996943 0.16142000258 0.02375430055 -0.62841498852
          0.3360530138 -0.12368449569 -0.71136599779 0.10708110034 -0.12076699734 -0.43617299199
          -3.9705395699 0.47333359718 0.0037210055161 -4.0016899109 0.29823037982 0.14048601687
          -3.7485210896 0.47213810682 -0.081793002784 -3.7695140839 0.20615190268 -0.025571003556
          1.9808440208 -0.36953899264 0.4755859971 2.087033987 -0.36293101311 0.27580299973
          2.2867779732 -0.35515400767 0.54491502047 2.2042989731 -0.13768899441 0.32803380489
          2.0427997112 -0.2558940053 0.86032700539 1.8045516014 -0.25807699561 0.68097501993
          1.9808440208 -0.36953899264 0.4755859971 2.1764740944 -0.18138699234 0.65020596981
          -1.8200160265 0.49221810699 -0.71408998966 -1.9829889536 0.48603790998 -0.84902697802
          -1.86886096 0.2922372818 -1.0309972763 -1.6665450335 0.31891724467 -0.9786170125
          4.8979010582 0.32311931252 1.3858200312 5.1202697754 0.12177520245 1.4594299793
          4.9265980721 0.083074003458 1.3841999769 4.8711438179 0.14351969957 1.5897270441
          1.4418599606 0.28709000349 -0.062245994806 1.3238321543 0.31234300137 0.3489010036
          1.594933033 0.40332198143 0.19972449541 1.369579196 0.12671080232 0.095050007105
          0.52286428213 -0.16449649632 -1.3978669643 0.26467600465 -0.18822538853 -1.4712239504
          0.36511561275 -0.21865269542 -1.2138979435 0.5846940279 -0.39953100681 -1.38280797
          -3.5222220421 0.2613735199 -0.7316250205 -3.3199958801 0.47254309058 -0.92196601629
          -3.275526762 0.18115669489 -0.7455739975 -3.2916152477 0.47306519747 -0.70392102003
          2.6483149529 0.51224297285 1.3579260111 2.8616578579 0.64741098881 1.2881900072
          2.8278307915 0.37164700031 1.4777669907 2.9830210209 0.64096099138 1.5882970095
          -0.011990199797 -0.27998569608 -0.48404100537 -0.025832999498 0.026944899932 -0.47304499149
          0.0018850000342 -0.13561350107 -0.81675201654 0.10708110034 -0.12076699734 -0.43617299199
          -3.6200819016 -0.16615739465 -0.5608189702 -3.5607392788 -0.34819129109 -0.49605900049
          -3.3584003448 -0.26359349489 -0.49015578628 -3.4521927834 -0.28309810162 -0.73375397921
          1.8012125492 0.13252429664 0.42392399907 1.8868869543 0.43748298287 0.51323801279
          1.8670481443 0.33276200294 0.76933300495 1.5715531111 0.22482000291 0.53529620171
          -4.4579524994 0.47279408574 0.21904788911 -4.3490223885 0.21022440493 0.13521999121
          -4.5313487053 0.23166209459 0.25894141197 -4.4553132057 0.33380118012 0.41776010394
          4.0087571144 -0.073222987354 1.1375299692 4.3275651932 -0.10407299548 1.3448059559
          4.2537708282 -0.29642701149 1.1315799952 4.0616660118 -0.29908099771 1.2974100113
          1.108150959 0.58133798838 -0.50853699446 0.98193901777 0.39114138484 -0.63054037094
          1.2616900206 0.31878641248 -0.65477597713 1.0837780237 0.56879729033 -0.83355396986
          2.7388780117 0.4845879972 0.20156900585 2.7568380833 0.32088699937 0.34903898835
          3.0115010738 0.44793599844 0.41370400786 2.9922840595 0.30892300606 0.059962000698
          1.2316360474 0.45880398154 0.28732401133 1.3238321543 0.31234300137 0.3489010036
          1.4247305393 0.51622200012 0.439211905 1.594933033 0.40332198143 0.19972449541
          -4.0016961098 -0.32739970088 -0.24166919291 -3.9470174313 -0.23043839633 -0.45734000206
          -4.2499485016 -0.19019518793 -0.35626098514 -4.1456823349 -0.32185968757 -0.5048879981
          -2.0755507946 0.47351419926 -1.1557840109 -2.1506009102 0.25718417764 -1.2337720394
          -2.1977200508 0.47695589066 -0.94357067347 -2.0596408844 0.23887120187 -0.93493187428
          4.659427166 0.057737004012 2.0819699764 4.7131490707 0.21425390244 1.868008852
          4.7825579643 0.012594994158 1.737795949 4.908780098 -0.05460799858 1.9473679066
          0.74059998989 0.11394579709 -1.0505290031 0.53313398361 0.019717698917 -1.1568260193
          0.62536001205 0.067611642182 -0.78804123402 0.47868400812 -0.085507400334 -0.87584412098
          -0.24963200092 0.28975039721 -0.72652798891 -0.19524599612 0.051735099405 -0.78870302439
          -0.098812997341 0.27493330836 -0.95051121712 -0.38182199001 0.22295188904 -0.90033400059
          -0.78097099066 -0.028601998463 -0.62437999249 -0.7906640172 -0.26609754562 -0.63226997852
          -0.6984680295 -0.26326191425 -0.85958302021 -0.76539498568 -0.02696910128 -0.88151800632
          4.9762878418 0.4914059937 1.7501740456 4.7576980591 0.49129199982 1.9305694103
          4.7563681602 0.41457000375 1.7243119478 4.7495179176 0.70579200983 1.7540500164
          1.4026149511 -0.25017899275 0.37467199564 1.220471859 -0.14656609297 0.24174399674
          1.6178350449 -0.15927900374 0.18571281433 1.3497146368 0.084297902882 0.35733398795
          4.0087571144 -0.073222987354 1.1375299692 4.0616660118 -0.29908099771 1.2974100113
          4.0328669548 -0.29927301407 1.0428249836 3.8409628868 -0.30274599791 1.1827360392
          -0.29748898745 0.35435709357 -1.5664999485 -0.2287349999 0.24483269453 -1.2839930058
          -0.44964700937 0.30215507746 -1.3843599558 -0.3715389967 0.50824278593 -1.3971790075
          -0.76281398535 0.3376955986 -0.79411798716 -0.69384098053 0.20343409479 -0.94639998674
          -0.97820800543 0.24167840183 -0.90613996983 -0.80769598484 0.2091087997 -0.62626999617
          0.88520997763 -0.23278620839 -0.74979001284 0.82348799706 -0.019467899576 -0.88339298964
          1.0504629612 -0.041896902025 -0.74770897627 0.84206402302 0.052923899144 -0.65382301807
          0.88432902098 -0.0070595997386 -1.2622259855 0.64788299799 -0.0059197037481 -1.3478369713
          0.74059998989 0.11394579709 -1.0505290031 0.53313398361 0.019717698917 -1.1568260193
          -4.2066240311 -0.3275590539 0.070990994573 -4.3315758705 -0.16536140442 0.15697599947
          -4.4366278648 -0.28509175777 -0.13918270171 -4.2212285995 -0.30168271065 -0.17994959652
          0.47422000766 0.57532548904 -0.38774099946 0.36111998558 0.56500959396 -0.54083001614
          0.56680697203 0.35435029864 -0.45947599411 0.4528760016 0.56065458059 -0.71604299545
          1.2157520056 0.1916974932 -1.1104990244 0.93579101562 0.2607139945 -0.85697698593
          1.1649719477 0.37054440379 -0.89170503616 1.1473189592 0.12026190013 -0.89047002792
          -2.6584146023 -0.50556856394 -0.92454200983 -2.82984519 -0.19690430164 -0.8898460269
          -2.92583251 -0.50748687983 -0.81637299061 -2.8428041935 -0.50505828857 -1.0089069605
          -4.4442939758 -0.11693099886 -0.6205059886 -4.5225315094 -0.29344007373 -0.59745502472
          -4.6876730919 -0.14474339783 -0.56215977669 -4.4922027588 -0.20494790375 -0.36291068792
          1.8911110163 0.31002601981 0.28474500775 1.8868869543 0.43748298287 0.51323801279
          1.8012125492 0.13252429664 0.42392399907 1.5715531111 0.22482000291 0.53529620171
          -4.6376662254 0.16694931686 -0.24515900016 -4.7094054222 0.49808984995 -0.25924840569
          -4.5366792679 0.30343410373 -0.3805705905 -4.5005278587 0.48635560274 -0.11545810103
          1.4899770021 -0.38008698821 -0.65395200253 1.108948946 -0.40205231309 -0.65256047249
          1.2825410366 -0.16882799566 -0.83733904362 1.3120340109 -0.15288600326 -0.5459626317
          1.5088090897 -0.39408099651 0.20298700035 1.2570589781 -0.21799020469 -0.084225989878
          1.6111949682 -0.21885199845 -0.057695001364 1.6178350449 -0.15927900374 0.18571281433
          -0.38811999559 -0.14212410152 -1.2827340364 -0.61719799042 -0.039664398879 -1.1887242794
          -0.55726397038 -0.032617900521 -1.40318501 -0.53547698259 0.15860010684 -1.2386740446
          4.3977518082 -0.2796689868 1.9731270075 4.3348088264 0.0020780034829 2.0050890446
          4.4067840576 -0.28270500898 2.1856250763 4.1882071495 -0.28400298953 2.0946230888
          -3.4544520378 -0.502204597 -0.077600002289 -3.7306609154 -0.49806988239 0.0059669911861
          -3.6301288605 -0.50444597006 -0.18104600906 -3.564964056 -0.31996080279 -0.046510994434
          -0.0075119999237 -0.13963499665 -1.2594619989 0.045462999493 -0.42505168915 -1.3999569416
          -0.012586000375 -0.43688291311 -1.2338080406 0.24705900252 -0.42054501176 -1.2698409557
          5.0139088631 0.39100199938 2.2078499794 5.0721921921 0.69339102507 2.3749821186
          5.1783838272 0.53621798754 2.2175490856 5.0230960846 0.41076001525 2.4843699932
          2.7898700237 -0.33725899458 1.0498950481 2.5645010471 -0.34633201361 0.97681301832
          2.7733221054 -0.33622100949 0.79974299669 2.6176869869 -0.096157990396 0.89440202713
          2.2750039101 0.14374065399 0.29926979542 2.0466160774 0.12520329654 0.090647503734
          1.8911110163 0.31002601981 0.28474500775 2.0858280659 0.031003998592 0.38727900386
          3.217676878 0.63562899828 1.7659000158 3.5121660233 0.42270597816 1.6780580282
          3.2050361633 0.42096599936 1.7410199642 3.5524427891 0.59926497936 1.9792000055
          1.3238321543 0.31234300137 0.3489010036 1.5715531111 0.22482000291 0.53529620171
          1.4247305393 0.51622200012 0.439211905 1.594933033 0.40332198143 0.19972449541
          2.0367250443 -0.15883000195 0.10807870328 2.1158709526 -0.35618299246 -0.26636224985
          2.204267025 -0.35545799136 0.084110699594 2.2337059975 -0.17428898811 -0.25786739588
          3.3571829796 0.56413400173 0.35071998835 3.2409238815 0.67979502678 0.59528899193
          3.3829259872 0.46805399656 0.71429997683 3.0115010738 0.44793599844 0.41370400786
          2.9822580814 -0.12804400921 0.81096309423 2.9889109135 -0.32668501139 0.69036900997
          3.1706290245 -0.32041600347 0.80434769392 3.179639101 -0.31765601039 0.58325701952
          -3.7178936005 -0.30012491345 -0.34045830369 -3.7831549644 -0.23498553038 -0.042289998382
          -3.8530523777 -0.50708895922 -0.23963859677 -4.0016961098 -0.32739970088 -0.24166919291
          3.138158083 0.46699899435 1.4169000387 3.1057059765 0.21902000904 1.2990050316
          3.220927 0.38111701608 1.2094409466 3.0001080036 0.49131900072 1.1801650524
          -2.7287049294 -0.2789902091 -0.37658300996 -2.7235929966 -0.46752271056 -0.15234200656
          -2.504308939 -0.50290739536 -0.24516999722 -2.8012299538 -0.51003861427 -0.44231700897
          -4.1121020317 0.25860318542 0.34374800324 -3.91289711 0.46681961417 0.26801300049
          -4.0016899109 0.29823037982 0.14048601687 -3.7869338989 0.27324751019 0.25282999873
          -1.6408480406 -0.49996328354 -0.93084400892 -1.5769430399 -0.27982699871 -1.0531499386
          -1.7501699924 -0.19925332069 -0.86327397823 -1.9235659838 -0.32769143581 -0.93234062195
          -2.1130719185 -0.047264300287 -1.1963629723 -2.0235655308 -0.33051469922 -1.2762329578
          -1.8587261438 -0.19973695278 -1.1918489933 -1.8840471506 -0.017964780331 -1.309893012
          -0.19269900024 -0.26168438792 -1.0995333195 -0.42743900418 -0.29611000419 -1.0441720486
          -0.29678198695 -0.19139230251 -0.85894298553 -0.17229199409 -0.45925500989 -0.92756402493
          -0.99887502193 -0.062538303435 -1.3665850163 -0.89497202635 0.0030651004054 -1.1271020174
          -0.7670930028 0.060932602733 -1.3277369738 -0.73458898067 -0.17205369473 -1.327262044
          2.6742250919 -0.012311006896 0.2936809957 2.8178238869 -0.16496701539 0.18457700312
          2.846298933 -0.090493999422 0.57238131762 3.0362560749 -0.12312699854 0.36283898354
          -0.2076960057 -0.44123241305 -1.3097250462 -0.27238899469 -0.43512588739 -1.4818589687
          -0.19379499555 -0.24117720127 -1.3589559793 -0.53049099445 -0.25941371918 -1.4260540009
          -4.5803985596 0.47174561024 0.34353449941 -4.7318658829 0.32032591105 0.23805809021
          -4.6675491333 0.29210668802 0.45158019662 -4.5313487053 0.23166209459 0.25894141197
          -2.9588835239 0.10583119839 -0.81790500879 -3.0947728157 0.28662750125 -0.90678101778
          -2.8605468273 0.030474800617 -1.0333030224 -2.8611981869 0.29218497872 -1.0245879889
          0.26467600465 -0.18822538853 -1.4712239504 0.22069999576 -0.38621020317 -1.4934259653
          0.045462999493 -0.42505168915 -1.3999569416 0.24705900252 -0.42054501176 -1.2698409557
          -3.0872220993 0.1026121974 -1.1435060501 -2.8605468273 0.030474800617 -1.0333030224
          -3.1125445366 -0.042645700276 -0.91890496016 -2.9588835239 0.10583119839 -0.81790500879
          0.53313398361 0.019717698917 -1.1568260193 0.4462980032 0.22514030337 -1.0646909475
          0.5862929821 0.35003548861 -1.1572810411 0.74059998989 0.11394579709 -1.0505290031
          -4.7829651833 -0.03583727777 0.25068509579 -5 -0.12896800041 0.37591099739
          -5 0.07584580034 0.38386198878 -4.6474046707 -0.00025216012727 0.44196480513
          4.6265969276 0.37918898463 2.0835940838 4.3718128204 0.25128540397 2.104501009
          4.4522380829 0.45779499412 1.8534209728 4.402616024 0.45689401031 2.1667981148
          -3.9470174313 -0.23043839633 -0.45734000206 -3.7178936005 -0.30012491345 -0.34045830369
          -3.779299736 -0.33174827695 -0.59858602285 -3.8315455914 -0.51438689232 -0.46247899532
          -2.1116633415 0.079452298582 -1.0412242413 -2.0607159138 -0.073489099741 -0.92311251163
          -2.0596408844 0.23887120187 -0.93493187428 -1.8356319666 0.0078969011083 -1.0082437992
          4.3237462044 0.042966000736 2.3439700603 4.3718128204 0.25128540397 2.104501009
          4.5650310516 0.20493909717 2.2137980461 4.4526658058 0.17872619629 2.428800106
          2.9830210209 0.64096099138 1.5882970095 3.3933129311 0.66335201263 1.4056479931
          3.138158083 0.46699899435 1.4169000387 3.217676878 0.63562899828 1.7659000158
          4.9762878418 0.4914059937 1.7501740456 4.8287091255 0.72349202633 1.5618569851
          5.1064062119 0.72903001308 1.5365300179 4.9495658875 0.71378302574 1.7495089769
          3.147439003 -0.0024279970676 0.66096997261 3.2844669819 0.18207931519 1.0159295797
          3.232765913 -0.12802201509 0.84651488066 3.0274419785 0.16455459595 0.84069955349
          4.0087571144 -0.073222987354 1.1375299692 3.7064490318 -0.11200299114 0.86057698727
          3.8110458851 -0.30123400688 0.9321950078 3.902930975 -0.018859993666 0.7255499959
          3.0217940807 0.11983050406 0.068121999502 2.9922840595 0.30892300606 0.059962000698
          2.9617218971 0.11532790214 0.41656598449 2.7543749809 0.16338352859 0.14366000891
          2.2037799358 0.33316999674 -0.035911995918 1.9673910141 0.42298001051 0.05929357931
          2.2181119919 0.41253200173 0.3796235919 2.0466160774 0.12520329654 0.090647503734
          -0.53049099445 -0.25941371918 -1.4260540009 -0.80039197206 -0.22904071212 -1.6116299629
          -0.63469898701 -0.45314198732 -1.3848659992 -0.54073399305 -0.37010061741 -1.604460001
          2.4627220631 0.06453820318 0.024974999949 2.4858739376 -0.02445499599 -0.33545398712
          2.7524430752 -0.1180730015 -0.14809599519 2.7389440536 0.18060749769 -0.13687500358
          -3.5090770721 0.16754239798 -0.19926699996 -3.517005682 0.27712589502 -0.40882021189
          -3.7126243114 0.24968840182 -0.29950919747 -3.5465004444 -0.0025727003813 -0.37637498975
          -2.1506009102 0.25718417764 -1.2337720394 -2.3987627029 0.46843078732 -1.1548199654
          -2.1977200508 0.47695589066 -0.94357067347 -2.3114500046 0.28709989786 -0.8894675374
          5.2030038834 -0.095155008137 2.0543687344 5.0844421387 -0.30479300022 2.0486927032
          4.9883351326 -0.0025349962525 2.1726241112 5.0791130066 -0.098838992417 2.3361620903
          4.559112072 0.72245299816 1.4581370354 4.561398983 0.70336198807 1.6810460091
          4.8287091255 0.72349202633 1.5618569851 4.7165417671 0.53939402103 1.5485489368
          4.659427166 0.057737004012 2.0819699764 4.908780098 -0.05460799858 1.9473679066
          4.7825579643 0.012594994158 1.737795949 4.690433979 -0.097899012268 1.9307255745
          -2.7823200226 0.016783099622 -0.68633919954 -2.8852050304 -0.13799700141 -0.5307559967
          -2.7312269211 -0.032895799726 -0.39067798853 -2.526927948 -0.09825039655 -0.49015599489
          -3.1125445366 -0.042645700276 -0.91890496016 -2.82984519 -0.19690430164 -0.8898460269
          -3.0438988209 -0.31679549813 -0.92314600945 -2.9707868099 -0.088433094323 -0.74900501966
          3.138158083 0.46699899435 1.4169000387 3.0001080036 0.49131900072 1.1801650524
          2.8278307915 0.37164700031 1.4777669907 3.1057059765 0.21902000904 1.2990050316
          3.2712409496 -0.069230996072 1.0871679783 3.4261219501 -0.31478399038 1.2515799999
          3.2492110729 -0.32095301151 1.4265520573 3.4360439777 -0.0026910067536 1.3680689335
          -0.84249997139 0.26520928741 -1.1529723406 -1.1732499599 0.28154438734 -1.1781251431
          -0.97820800543 0.24167840183 -0.90613996983 -1.1318500042 0.052193719894 -1.1925956011
          0.69095832109 -0.066606298089 -0.12778200209 0.49385619164 -0.061818897724 -0.24398499727
          0.86870998144 0.033326499164 -0.31085899472 0.60305899382 0.11440300196 -0.49014899135
          0.86870998144 0.033326499164 -0.31085899472 0.49385619164 -0.061818897724 -0.24398499727
          0.76676100492 -0.1134057045 -0.50795000792 0.60305899382 0.11440300196 -0.49014899135
          4.4522380829 0.45779499412 1.8534209728 4.3675351143 0.70144999027 1.5965069532
          4.2633280754 0.48635900021 1.6941789389 4.5152788162 0.44570598006 1.5512629747
          0.59374600649 0.45762971044 -1.362267971 0.5862929821 0.35003548861 -1.1572810411
          0.90715700388 0.53051358461 -1.2455300093 0.8697130084 0.27566960454 -1.2600489855
          3.6058731079 0.68220502138 1.2335082293 3.4408869743 0.48258000612 1.1898485422
          3.6544830799 0.36574301124 1.0680350065 3.6306459904 0.69331997633 0.9852989912
          0.2478390038 0.18538750708 -1.4635369778 -0.028528999537 0.095570899546 -1.5219500065
          0.056278999895 0.056861169636 -1.3090289831 0.15763199329 -0.010675301775 -1.4892460108
          -0.38182199001 0.22295188904 -0.90033400059 -0.098812997341 0.27493330836 -0.95051121712
          -0.24963200092 0.28975039721 -0.72652798891 -0.33649298549 0.53052771091 -0.93731302023
          1.6138050556 0.3192229867 -0.46323099732 1.9701869488 0.36129301786 -0.32886689901
          1.9594429731 0.31532198191 -0.67937397957 1.8443620205 0.16656500101 -0.47324600816
          3.9656031132 0.16085809469 1.1511030197 3.804610014 0.20091049373 1.4191051722
          4.1762018204 0.27362239361 1.2485419512 4.1369771957 0.033024005592 1.3592270613
          -4.2499485016 -0.19019518793 -0.35626098514 -4.2212285995 -0.30168271065 -0.17994959652
          -4.1456823349 -0.32185968757 -0.5048879981 -4.3169722557 -0.515429914 -0.37853601575
          3.7400364876 0.21424710751 2.056910038 3.804297924 0.13001829386 1.8220219612
          3.3313462734 0.21289689839 1.8087899685 3.4475607872 0.0026549980976 1.8703099489
          0.3360530138 -0.12368449569 -0.71136599779 0.36555799842 0.082396402955 -0.88094812632
          0.47868400812 -0.085507400334 -0.87584412098 0.56557297707 -0.05147189647 -0.61882799864
          -4.5369677544 -0.4948824048 0.0206808988 -4.5533809662 -0.4828903079 0.2240357995
          -4.4754362106 -0.32264238596 0.12133580446 -4.3332242966 -0.49554929137 0.023328900337
          3.902930975 -0.018859993666 0.7255499959 3.8120110035 0.1275023967 0.66295999289
          3.9685349464 0.18286730349 0.78710997105 3.6721630096 0.17420139909 0.90603202581
          3.8493919373 0.50689595938 1.0418950319 3.8292720318 0.70746701956 0.84424501657
          3.9433920383 0.50324100256 0.79245001078 3.9791870117 0.71098798513 1.0759580135
          -2.1506009102 0.25718417764 -1.2337720394 -2.1130719185 -0.047264300287 -1.1963629723
          -2.041049242 0.1184957996 -1.4851289988 -2.2146024704 0.15617579222 -1.4417170286
          -3.8436272144 -0.0084195006639 -0.544039011 -3.779299736 -0.33174827695 -0.59858602285
          -3.9470174313 -0.23043839633 -0.45734000206 -3.6200819016 -0.16615739465 -0.5608189702
          1.6976139545 -0.039864007384 -0.8608520031 1.8392709494 0.14722080529 -0.76449400187
          1.6323230267 0.075184799731 -0.62727099657 1.6116360426 0.12268330157 -0.90459799767
          4.5017971992 -0.076010011137 2.1854460239 4.3237462044 0.042966000736 2.3439700603
          4.5205311775 0.023049006239 2.42572999 4.2298059464 -0.09465200454 2.2884199619
          4.1369771957 0.033024005592 1.3592270613 4.1762018204 0.27362239361 1.2485419512
          4.2718300819 0.15794679523 1.6279176474 4.2172560692 0.35686299205 1.4943759441
          2.1084809303 0.16455329955 -0.24006199837 2.2489070892 0.1272508949 -0.49432817101
          1.8443620205 0.16656500101 -0.47324600816 1.9952529669 -0.028272999451 -0.39336639643
          -1.5631556511 -0.15877270699 -1.5688300133 -1.5521390438 -0.22336211801 -1.3013720512
          -1.4067959785 -0.070061728358 -1.4117490053 -1.288203001 -0.24603740871 -1.60145998
          5.1873960495 0.42186701298 1.8164199591 5.5018949509 0.57858800888 1.8484350443
          5.1484160423 0.71598798037 1.853268981 5.3054409027 0.72630798817 1.6629229784
          -3.2624089718 0.0626033023 -1.0726950169 -3.4902799129 0.19203700125 -0.97851699591
          -3.4256296158 -0.04080190137 -0.73200601339 -3.5243430138 -0.15946990252 -0.9610850215
          4.838329792 -0.29386898875 1.6861670017 4.690433979 -0.097899012268 1.9307255745
          4.8643531799 -0.29935500026 2.0071020126 4.6318750381 -0.28834098577 2.005959034
          4.561398983 0.70336198807 1.6810460091 4.7495179176 0.70579200983 1.7540500164
          4.7165417671 0.53939402103 1.5485489368 4.7563681602 0.41457000375 1.7243119478
          -1.7904880047 0.17986288667 -0.85320198536 -1.6519750357 0.49484336376 -0.84614998102
          -1.6226379871 0.13752751052 -0.73393601179 -1.8314759731 0.27363407612 -0.6662620306
          0.51523089409 0.14683929086 -1.3929450512 0.4462980032 0.22514030337 -1.0646909475
          0.5862929821 0.35003548861 -1.1572810411 0.53313398361 0.019717698917 -1.1568260193
          4.344976902 0.097388997674 1.2805169821 4.4385910034 0.24091610312 1.4270139933
          4.4501152039 0.014983006753 1.5191400051 4.2718300819 0.15794679523 1.6279176474
          -3.8207867146 0.48162639141 -0.65821701288 -3.6499538422 0.47699010372 -0.48393499851
          -3.7815887928 0.27240249515 -0.66369998455 -3.8304586411 0.47921529412 -0.44864699244
          0.26467600465 -0.18822538853 -1.4712239504 0.39721819758 -0.010242197663 -1.4243580103
          0.52286428213 -0.16449649632 -1.3978669643 0.22415600717 -0.082622297108 -1.3033210039
          3.6721630096 0.17420139909 0.90603202581 3.8746159077 0.2987203002 0.98308598995
          3.9685349464 0.18286730349 0.78710997105 3.9656031132 0.16085809469 1.1511030197
          3.4043519497 0.68294101954 0.87328398228 3.1671938896 0.66265797615 1.2060799599
          3.2219541073 0.45492699742 0.97522252798 3.0083858967 0.66490697861 0.78671127558
          3.2219541073 0.45492699742 0.97522252798 3.0001080036 0.49131900072 1.1801650524
          2.8959798813 0.32024499774 1.0456169844 2.968873024 0.46700000763 0.87133789062
          1.9846500158 -0.36595401168 0.065145798028 1.8311589956 -0.37597900629 0.21240459383
          1.8173689842 -0.37339198589 -0.084958538413 2.0367250443 -0.15883000195 0.10807870328
          2.204267025 -0.35545799136 0.084110699594 2.1427390575 -0.046670995653 -0.085950896144
          2.4003479481 -0.15540499985 -0.052411012352 2.0367250443 -0.15883000195 0.10807870328
          -3.683809042 -0.017515730113 -0.89673197269 -3.6431386471 0.012811898254 -0.67573601007
          -3.4256296158 -0.04080190137 -0.73200601339 -3.5243430138 -0.15946990252 -0.9610850215
          0.059512998909 -0.21327769756 -1.0408661366 -0.012586000375 -0.43688291311 -1.2338080406
          -0.0075119999237 -0.13963499665 -1.2594619989 -0.19269900024 -0.26168438792 -1.0995333195
          -1.8760517836 0.47185769677 -1.3252899647 -2.1506009102 0.25718417764 -1.2337720394
          -1.795637846 0.26627320051 -1.3385109901 -1.972568512 0.25535020232 -1.5025000572
          1.8045516014 -0.25807699561 0.68097501993 1.5937000513 -0.15697298944 0.5264647007
          1.9639710188 -0.12883301079 0.49361902475 1.7765240669 0.044387601316 0.68126302958
          -1.3524429798 -0.2001490891 -0.93651300669 -1.5314699411 -0.26643535495 -0.78901797533
          -1.4523919821 -0.49702548981 -0.96172600985 -1.5769430399 -0.27982699871 -1.0531499386
          -0.2287349999 0.24483269453 -1.2839930058 -0.50188398361 0.32205638289 -1.0782203674
          -0.26240199804 0.35430929065 -1.093870163 -0.53547698259 0.15860010684 -1.2386740446
          1.0180549622 0.17184720933 -1.2025079727 0.93579101562 0.2607139945 -0.85697698593
          1.1473189592 0.12026190013 -0.89047002792 0.74059998989 0.11394579709 -1.0505290031
          -1.7904880047 0.17986288667 -0.85320198536 -1.8314759731 0.27363407612 -0.6662620306
          -1.6226379871 0.13752751052 -0.73393601179 -1.7705160379 -0.013670380227 -0.72984999418
          0.39233699441 -0.44935038686 -0.54869902134 0.27352508903 -0.21387378871 -0.36756598949
          0.51021200418 -0.21610671282 -0.49635899067 0.32017090917 -0.4122928977 -0.35579401255
          3.3033549786 -0.086898997426 0.26347100735 3.3454549313 -0.14016999304 0.62486702204
          3.5048649311 -0.11629401147 0.41244900227 3.2719910145 -0.31246700883 0.38419899344
          -4.1460008621 0.48432341218 -0.41542598605 -4.1666903496 0.27508330345 -0.13123139739
          -3.9811484814 0.47856000066 -0.21228690445 -3.9515781403 0.22483050823 -0.22432824969
          -1.8314759731 0.27363407612 -0.6662620306 -1.8522150517 0.15278969705 -0.4879719913
          -1.6775929928 0.07707464695 -0.53350001574 -1.7705160379 -0.013670380227 -0.72984999418
          3.7163519859 0.46678900719 1.408038497 3.9769608974 0.41242301464 1.2358649969
          3.8493919373 0.50689595938 1.0418950319 3.6544830799 0.36574301124 1.0680350065
          3.138158083 0.46699899435 1.4169000387 3.4179348946 0.33102399111 1.4116280079
          3.4408869743 0.48258000612 1.1898485422 3.220927 0.38111701608 1.2094409466
          2.2606570721 0.63481098413 0.14861099422 2.2037799358 0.33316999674 -0.035911995918
          2.3142609596 0.44252300262 0.15573300421 2.1847960949 0.4558160007 -0.22780369222
          4.4422369003 -0.2959190011 1.2816729546 4.3275651932 -0.10407299548 1.3448059559
          4.4976420403 -0.29328599572 1.5345549583 4.2629752159 -0.29529801011 1.4773910046
          -4.247215271 -0.5039280057 -0.16240300238 -4.4421896935 -0.50854843855 -0.17462399602
          -4.4366278648 -0.28509175777 -0.13918270171 -4.3332242966 -0.49554929137 0.023328900337
          -1.5631556511 -0.15877270699 -1.5688300133 -1.8249877691 -0.34991788864 -1.5306500196
          -1.7574769258 -0.32169941068 -1.3376590014 -1.6306117773 -0.45637950301 -1.5653500557
          2.5302391052 -0.34590399265 0.74713200331 2.6176869869 -0.096157990396 0.89440202713
          2.5706369877 -0.14441801608 0.49783235788 2.7733221054 -0.33622100949 0.79974299669
          2.5706369877 -0.14441801608 0.49783235788 2.7733221054 -0.33622100949 0.79974299669
          2.846298933 -0.090493999422 0.57238131762 2.7344648838 -0.33579298854 0.55702829361
          2.5706369877 -0.14441801608 0.49783235788 2.6176869869 -0.096157990396 0.89440202713
          2.846298933 -0.090493999422 0.57238131762 2.7733221054 -0.33622100949 0.79974299669
          -3.5090770721 0.16754239798 -0.19926699996 -3.6423470974 -0.017455210909 -0.0356920138
          -3.3653941154 0.12199870497 0.10548699647 -3.4188709259 -0.052383501083 -0.084667012095
          2.1084809303 0.16455329955 -0.24006199837 2.2489070892 0.1272508949 -0.49432817101
          2.4858739376 -0.02445499599 -0.33545398712 2.4711270332 0.1866299957 -0.33196899295
          -3.7815887928 0.27240249515 -0.66369998455 -3.5222220421 0.2613735199 -0.7316250205
          -3.6431386471 0.012811898254 -0.67573601007 -3.648727417 0.16803780198 -0.52384102345
          2.5302391052 -0.34590399265 0.74713200331 2.7733221054 -0.33622100949 0.79974299669
          2.5706369877 -0.14441801608 0.49783235788 2.7344648838 -0.33579298854 0.55702829361
          -3.6200819016 -0.16615739465 -0.5608189702 -3.5159258842 -0.18312910199 -0.2097529918
          -3.5465004444 -0.0025727003813 -0.37637498975 -3.3584003448 -0.26359349489 -0.49015578628
          1.2616900206 0.31878641248 -0.65477597713 1.446663022 0.5864855051 -0.62758201361
          1.5066930056 0.24949200451 -0.69261598587 1.6138050556 0.3192229867 -0.46323099732
          1.2987240553 -0.39872199297 -0.33902829885 1.0542720556 -0.20917788148 -0.54995292425
          0.9384559989 -0.42108929157 -0.3525930047 1.108948946 -0.40205231309 -0.65256047249
          4.7117071152 0.64353197813 1.3227100372 4.7479839325 0.46574398875 1.3275200129
          4.7165417671 0.53939402103 1.5485489368 4.8885669708 0.54565501213 1.3964899778
          -3.1503348351 -0.51121389866 -0.73205798864 -3.4521927834 -0.28309810162 -0.73375397921
          -3.2427380085 -0.50958657265 -0.51888477802 -3.3740890026 -0.51318377256 -0.76919901371
          2.9925808907 -0.33054500818 1.2736970186 3.2109239101 -0.32089099288 1.1309139729
          3.2492110729 -0.32095301151 1.4265520573 3.1324748993 -0.012670002878 1.333466053
          -3.0872220993 0.1026121974 -1.1435060501 -3.0947728157 0.28662750125 -0.90678101778
          -2.9489409924 0.21040900052 -1.2003070116 -2.8611981869 0.29218497872 -1.0245879889
          -4.7940740585 0.30425521731 -0.31099230051 -4.827589035 0.26959607005 -0.53942549229
          -4.6376662254 0.16694931686 -0.24515900016 -4.6478972435 0.31442570686 -0.57184767723
          3.9769608974 0.41242301464 1.2358649969 3.9909090996 0.69799000025 1.3503149748
          4.2114582062 0.52715998888 1.3034000397 3.9962799549 0.50118601322 1.5290913582
          1.9303309917 -0.028858006001 -0.71749800444 1.6323230267 0.075184799731 -0.62727099657
          1.5601429939 -0.16315901279 -0.66583400965 1.6976139545 -0.039864007384 -0.8608520031
          -5 -0.16616299748 -0.067754097283 -5 -0.33370301127 -0.29875099659
          -5 -0.39700898528 0.035171099007 -4.9766492844 -0.50082987547 -0.16668698192
          -1.4006630182 0.27366858721 -1.0899891853 -1.6665450335 0.31891724467 -0.9786170125
          -1.4917390347 0.24093736708 -0.86661797762 -1.6238960028 0.24829168618 -1.1837819815
          -4.0129318237 -0.49603816867 0.055561993271 -3.9805979729 -0.2818211019 0.12366101146
          -3.7600250244 -0.42104199529 0.24891600013 -4.0046038628 -0.48754239082 0.27641901374
          -4.5366792679 0.30343410373 -0.3805705905 -4.6492214203 0.036135789007 -0.56955337524
          -4.626159668 -0.03600018099 -0.37031018734 -4.436715126 0.026354400441 -0.37169200182
          0.21651309729 -0.46012639999 -0.53555697203 0.39233699441 -0.44935038686 -0.54869902134
          0.14480470121 -0.27436679602 -0.68005996943 0.44525501132 -0.44013750553 -0.72802501917
          -0.95317101479 -0.27932810783 -1.4066259861 -1.199491024 -0.2731808126 -1.4120750427
          -1.0146249533 -0.47085028887 -1.2508219481 -1.1043089628 -0.46415549517 -1.4246920347
          -3.7752130032 0.42797881365 -0.85966801643 -3.5356121063 0.44416579604 -0.95966500044
          -3.7469959259 0.18661350012 -0.87160599232 -3.5222220421 0.2613735199 -0.7316250205
          4.9558830261 0.24193349481 1.938804388 4.9700350761 0.50200498104 1.9810703993
          4.6265969276 0.37918898463 2.0835940838 4.7576980591 0.49129199982 1.9305694103
          3.804610014 0.20091049373 1.4191051722 3.5908029079 0.19661930203 1.6370530128
          3.804297924 0.13001829386 1.8220219612 3.718173027 -0.032231997699 1.6364309788
          5.199947834 0.37635299563 2.0466771126 5.3812499046 0.50339800119 2.1557321548
          5.4411177635 0.54534596205 2.004693985 5.4586992264 0.38369700313 1.9621009827
          1.8257160187 0.17760980129 -0.11040610075 2.0466160774 0.12520329654 0.090647503734
          1.8810739517 -0.025785999373 0.24052999914 1.6255400181 0.14701509476 0.17244631052
          -1.4917390347 0.24093736708 -0.86661797762 -1.6226379871 0.13752751052 -0.73393601179
          -1.5145759583 -0.018870471045 -0.82699400187 -1.5908279419 -0.0042438311502 -1.0808677673
          -3.9893488884 0.10838919878 0.30875301361 -3.7869338989 0.27324751019 0.25282999873
          -4.0016899109 0.29823037982 0.14048601687 -3.7828290462 0.0534854047 0.25001400709
          1.2570589781 -0.21799020469 -0.084225989878 1.220471859 -0.14656609297 0.24174399674
          1.4943079948 -0.043684996665 -0.058169994503 1.6178350449 -0.15927900374 0.18571281433
          0.67646998167 0.33598598838 -0.95468699932 0.5862929821 0.35003548861 -1.1572810411
          0.43711400032 0.35662287474 -0.86431020498 0.4462980032 0.22514030337 -1.0646909475
          -0.19269900024 -0.26168438792 -1.0995333195 -0.2076960057 -0.44123241305 -1.3097250462
          -0.19379499555 -0.24117720127 -1.3589559793 -0.36334300041 -0.45349159837 -1.1892901659
          3.0217940807 0.11983050406 0.068121999502 3.0362560749 -0.12312699854 0.36283898354
          3.251791954 0.13675589859 0.23980399966 3.0622529984 -0.15697599947 0.078552998602
          -4.0898427963 -0.054189000279 -0.25348520279 -4.0705108643 0.13585180044 0.0080800065771
          -3.9515781403 0.22483050823 -0.22432824969 -3.8458154202 -0.0071441796608 -0.27063637972
          2.846298933 -0.090493999422 0.57238131762 2.9617218971 0.11532790214 0.41656598449
          2.7515289783 0.13377730548 0.70048117638 2.6742250919 -0.012311006896 0.2936809957
          -4.6376662254 0.16694931686 -0.24515900016 -4.5005278587 0.48635560274 -0.11545810103
          -4.5223350525 0.28749448061 0.00038830153062 -4.7578816414 0.28667363524 -0.042721800506
          4.1369771957 0.033024005592 1.3592270613 4.0616660118 -0.29908099771 1.2974100113
          3.9827311039 -0.10510598868 1.5950082541 4.0760598183 -0.29790601134 1.5380973816
          3.2712409496 -0.069230996072 1.0871679783 2.9196689129 -0.13256700337 1.2476739883
          3.2109239101 -0.32089099288 1.1309139729 3.0215229988 -0.32744300365 0.94604861736
          -1.2363820076 0.13768835366 -0.99496001005 -1.1171029806 0.13310749829 -0.81390601397
          -1.1518950462 -0.061164274812 -0.8551800251 -1.3387739658 0.1015701443 -0.80373698473
          3.8493919373 0.50689595938 1.0418950319 3.9433920383 0.50324100256 0.79245001078
          3.8746159077 0.2987203002 0.98308598995 4.1035399437 0.34244701266 0.90219002962
          -3.5090770721 0.16754239798 -0.19926699996 -3.4597270489 0.28559470177 -0.035445000976
          -3.3653941154 0.12199870497 0.10548699647 -3.6423470974 -0.017455210909 -0.0356920138
          3.419023037 -0.31212699413 1.6825289726 3.4407179356 -0.10024298728 1.6149629354
          3.5018596649 -0.19701200724 1.8944000006 3.1580340862 -0.10009101033 1.6749999523
          -4.6228103638 -0.50389355421 -0.10335719585 -4.7719397545 -0.50261425972 -0.082141898572
          -4.7962985039 -0.27623388171 -0.034645497799 -4.5369677544 -0.4948824048 0.0206808988
          -4.2408308983 0.48058089614 -0.10947950184 -4.5223350525 0.28749448061 0.00038830153062
          -4.3815760612 0.24617770314 -0.19512629509 -4.5005278587 0.48635560274 -0.11545810103
          -0.0416380018 -0.36202129722 -1.5427700281 -0.27238899469 -0.43512588739 -1.4818589687
          -0.19379499555 -0.24117720127 -1.3589559793 -0.2076960057 -0.44123241305 -1.3097250462
          4.7495179176 0.70579200983 1.7540500164 4.9495658875 0.71378302574 1.7495089769
          4.8287091255 0.72349202633 1.5618569851 4.9762878418 0.4914059937 1.7501740456
          -3.2346680164 0.26355689764 -0.22137200832 -3.5090770721 0.16754239798 -0.19926699996
          -3.5110230446 0.47337430716 -0.19270299375 -3.4597270489 0.28559470177 -0.035445000976
          4.3977518082 -0.2796689868 1.9731270075 4.690433979 -0.097899012268 1.9307255745
          4.5158967972 -0.051814988256 1.7898253202 4.6009202003 -0.29254201055 1.7585229874
          -2.7856142521 0.29197818041 -0.82188498974 -2.9246742725 0.47127839923 -0.80925703049
          -3.0947728157 0.28662750125 -0.90678101778 -2.8611981869 0.29218497872 -1.0245879889
          -0.39273399115 0.0064351009205 -0.57656002045 -0.20871029794 0.16622160375 -0.5290799737
          -0.42486399412 0.21323770285 -0.57991999388 -0.19524599612 0.051735099405 -0.78870302439
          -0.012586000375 -0.43688291311 -1.2338080406 -0.2076960057 -0.44123241305 -1.3097250462
          -0.19379499555 -0.24117720127 -1.3589559793 -0.19269900024 -0.26168438792 -1.0995333195
          3.138158083 0.46699899435 1.4169000387 3.4408869743 0.48258000612 1.1898485422
          3.4179348946 0.33102399111 1.4116280079 3.3933129311 0.66335201263 1.4056479931
          -4.2499485016 -0.19019518793 -0.35626098514 -4.1674909592 0.13877829909 -0.35717999935
          -4.0898427963 -0.054189000279 -0.25348520279 -4.436715126 0.026354400441 -0.37169200182
          -3.8530523777 -0.50708895922 -0.23963859677 -4.0129318237 -0.49603816867 0.055561993271
          -3.7831549644 -0.23498553038 -0.042289998382 -3.7306609154 -0.49806988239 0.0059669911861
          -2.0755507946 0.47351419926 -1.1557840109 -2.1506009102 0.25718417764 -1.2337720394
          -2.1687932014 0.46246668696 -1.4244270325 -2.3987627029 0.46843078732 -1.1548199654
          -3.8928060532 -0.036693397909 -0.81056702137 -3.779299736 -0.33174827695 -0.59858602285
          -3.8436272144 -0.0084195006639 -0.544039011 -3.6200819016 -0.16615739465 -0.5608189702
          5.0016570091 -0.09311401844 1.6771680117 5.3287701607 0.017804997042 1.5262700319
          5.327480793 -0.087410993874 1.7155309916 5.1593341827 -0.012515998445 1.8333879709
          -4.5366792679 0.30343410373 -0.3805705905 -4.436715126 0.026354400441 -0.37169200182
          -4.3347187042 0.29005420208 -0.44296199083 -4.4355773926 0.16414380074 -0.62573999166
          0.98193901777 0.39114138484 -0.63054037094 0.83301800489 0.56610417366 -0.74389237165
          0.69450002909 0.33520320058 -0.69070541859 0.93579101562 0.2607139945 -0.85697698593
          -4.8905801773 0.078228734434 -0.52854001522 -4.7995986938 0.015869349241 -0.30273678899
          -4.6492214203 0.036135789007 -0.56955337524 -4.6876730919 -0.14474339783 -0.56215977669
          3.678497076 -0.014678004198 0.55156999826 3.8120110035 0.1275023967 0.66295999289
          3.4640750885 0.2319137007 0.72248202562 3.6354649067 0.20033504069 0.53394001722
          0.059512998909 -0.21327769756 -1.0408661366 0.36515200138 -0.25333359838 -0.93256372213
          0.14480470121 -0.27436679602 -0.68005996943 0.19523879886 -0.052128598094 -0.8603233695
          -0.29678198695 -0.19139230251 -0.85894298553 -0.18521800637 0.03266672045 -1.0619240999
          -0.19524599612 0.051735099405 -0.78870302439 -0.36743998528 -0.0037765994202 -0.87996399403
          3.2219541073 0.45492699742 0.97522252798 3.220927 0.38111701608 1.2094409466
          3.2844669819 0.18207931519 1.0159295797 2.8959798813 0.32024499774 1.0456169844
          0.58952099085 0.54303568602 -1.1641429663 0.90016597509 0.3842356205 -1.0304160118
          0.90715700388 0.53051358461 -1.2455300093 0.5862929821 0.35003548861 -1.1572810411
          3.804297924 0.13001829386 1.8220219612 3.7400364876 0.21424710751 2.056910038
          3.8050630093 0.010312004946 2.0734400749 3.4475607872 0.0026549980976 1.8703099489
          4.0087571144 -0.073222987354 1.1375299692 3.7195839882 0.0037419972941 1.0903520584
          3.7064490318 -0.11200299114 0.86057698727 3.902930975 -0.018859993666 0.7255499959
          2.6483149529 0.51224297285 1.3579260111 2.7331340313 0.47387900949 1.1153179407
          2.5472946167 0.21848860383 1.2638469934 2.8278307915 0.37164700031 1.4777669907
          1.4418599606 0.28709000349 -0.062245994806 1.5832170248 0.13898870349 -0.2907756865
          1.3428349495 0.40458348393 -0.38063567877 1.303779006 0.10932320356 -0.39463099837
          -3.1125445366 -0.042645700276 -0.91890496016 -3.0438988209 -0.31679549813 -0.92314600945
          -3.2653579712 -0.18581090868 -1.0693039894 -3.1669573784 -0.19655050337 -0.74350303411
          -2.7287049294 -0.2789902091 -0.37658300996 -2.504308939 -0.50290739536 -0.24516999722
          -2.5134499073 -0.51176577806 -0.47904199362 -2.8012299538 -0.51003861427 -0.44231700897
          -4.1460008621 0.48432341218 -0.41542598605 -4.3347187042 0.29005420208 -0.44296199083
          -4.3815760612 0.24617770314 -0.19512629509 -4.1666903496 0.27508330345 -0.13123139739
          -2.5134499073 -0.51176577806 -0.47904199362 -2.5790920258 -0.26749420166 -0.70352119207
          -2.7047069073 -0.50918275118 -0.67922121286 -2.4582118988 -0.50782459974 -0.75783860683
          1.8071659803 -0.10879799724 -0.12797890604 1.6111949682 -0.21885199845 -0.057695001364
          1.6162129641 -0.37938898802 -0.35376280546 1.4527050257 -0.19449299574 -0.29091629386
          4.6791539192 -0.064878001809 1.5370919704 5.0016570091 -0.09311401844 1.6771680117
          4.7825579643 0.012594994158 1.737795949 4.8711438179 0.14351969957 1.5897270441
          4.9797067642 0.10058799386 1.780706048 5.0016570091 -0.09311401844 1.6771680117
          4.8711438179 0.14351969957 1.5897270441 4.7825579643 0.012594994158 1.737795949
          1.4527050257 -0.19449299574 -0.29091629386 1.3120340109 -0.15288600326 -0.5459626317
          1.5601429939 -0.16315901279 -0.66583400965 1.6553009748 -0.058208007365 -0.42940098047
          1.8911110163 0.31002601981 0.28474500775 1.8868869543 0.43748298287 0.51323801279
          2.2181119919 0.41253200173 0.3796235919 2.0687611103 0.17121970654 0.57191699743
          4.2172560692 0.35686299205 1.4943759441 4.2633280754 0.48635900021 1.6941789389
          4.5152788162 0.44570598006 1.5512629747 4.2718300819 0.15794679523 1.6279176474
          5.3040738106 0.50984299183 1.5398700237 5.5018949509 0.57858800888 1.8484350443
          5.3054409027 0.72630798817 1.6629229784 5.5059928894 0.6031550169 1.6140400171
          -2.825469017 0.27062919736 -0.34245297313 -3.0384581089 0.17068129778 -0.37494298816
          -2.9465370178 0.2871569097 -0.061487998813 -2.8682529926 0.10229609907 -0.093391999602
          1.2616900206 0.31878641248 -0.65477597713 0.98193901777 0.39114138484 -0.63054037094
          1.1649719477 0.37054440379 -0.89170503616 1.0837780237 0.56879729033 -0.83355396986
          0.76020401716 -0.4297708869 -0.45740100741 0.57541400194 -0.43666920066 -0.55330497026
          0.75424200296 -0.42280769348 -0.65912491083 0.51021200418 -0.21610671282 -0.49635899067
          2.430131197 0.43304201961 1.193819046 2.1746091843 0.4260700047 1.0060030222
          2.5400059223 0.47935000062 0.92150700092 2.3321909904 0.63398498297 0.92614901066
          0.53313398361 0.019717698917 -1.1568260193 0.39721819758 -0.010242197663 -1.4243580103
          0.22415600717 -0.082622297108 -1.3033210039 0.36511561275 -0.21865269542 -1.2138979435
          3.4261219501 -0.31478399038 1.2515799999 3.2109239101 -0.32089099288 1.1309139729
          3.5389170647 -0.30982100964 1.044885993 3.2712409496 -0.069230996072 1.0871679783
          -4.6932406425 -0.33437889814 -0.55821180344 -4.807472229 -0.51456427574 -0.41758289933
          -4.6099963188 -0.51237237453 -0.2558003962 -4.4819908142 -0.52308231592 -0.52997338772
          2.8616578579 0.64741098881 1.2881900072 3.0001080036 0.49131900072 1.1801650524
          2.8278307915 0.37164700031 1.4777669907 3.138158083 0.46699899435 1.4169000387
          3.3760828972 -0.31359198689 0.77911198139 3.5389170647 -0.30982100964 1.044885993
          3.2109239101 -0.32089099288 1.1309139729 3.232765913 -0.12802201509 0.84651488066
          5.3548870087 -0.21426801383 2.2027084827 5.2030038834 -0.095155008137 2.0543687344
          5.2890958786 -0.018920002505 2.382846117 5.0791130066 -0.098838992417 2.3361620903
          -2.3114500046 0.28709989786 -0.8894675374 -2.4830985069 0.14539518952 -0.90576428175
          -2.4950749874 0.26449760795 -1.1571450233 -2.6201217175 0.47078740597 -0.97456198931
          1.1137839556 0.31430581212 -0.23879601061 1.2312122583 0.39813408256 -0.034452985972
          0.95458650589 0.18395619094 0.067213997245 0.9058868885 0.3652240932 0.037831000984
          -1.4917390347 0.24093736708 -0.86661797762 -1.7904880047 0.17986288667 -0.85320198536
          -1.6226379871 0.13752751052 -0.73393601179 -1.5908279419 -0.0042438311502 -1.0808677673
          -1.8200160265 0.49221810699 -0.71408998966 -1.8314759731 0.27363407612 -0.6662620306
          -1.7904880047 0.17986288667 -0.85320198536 -1.9829889536 0.48603790998 -0.84902697802
          -4.1121020317 0.25860318542 0.34374800324 -4.0705108643 0.13585180044 0.0080800065771
          -4.0016899109 0.29823037982 0.14048601687 -4.3490223885 0.21022440493 0.13521999121
          3.7064490318 -0.11200299114 0.86057698727 3.7195839882 0.0037419972941 1.0903520584
          3.5614540577 -0.13416200876 1.2109525204 3.4617619514 -0.034863006324 0.83526402712
          -0.011990199797 -0.27998569608 -0.48404100537 0.14480470121 -0.27436679602 -0.68005996943
          0.21651309729 -0.46012639999 -0.53555697203 0.27352508903 -0.21387378871 -0.36756598949
          -4.2408308983 0.48058089614 -0.10947950184 -4.3753991127 0.47727328539 0.067836903036
          -4.1666903496 0.27508330345 -0.13123139739 -4.5223350525 0.28749448061 0.00038830153062
          -2.9948811531 -0.50990730524 -0.57723468542 -2.8640635014 -0.32550418377 -0.67871928215
          -3.1503348351 -0.51121389866 -0.73205798864 -2.92583251 -0.50748687983 -0.81637299061
          3.9909090996 0.69799000025 1.3503149748 3.7856199741 0.69599997997 1.1387779713
          3.6373169422 0.67194199562 1.4793165922 3.7163519859 0.46678900719 1.408038497
          3.4617619514 -0.034863006324 0.83526402712 3.147439003 -0.0024279970676 0.66096997261
          3.3454549313 -0.14016999304 0.62486702204 3.241795063 0.17628619075 0.51923000813
          4.8122911453 -0.30095601082 2.246833086 5.0791130066 -0.098838992417 2.3361620903
          5.0993762016 -0.30616301298 2.320991993 4.9569368362 -0.29035300016 2.514621973
          -0.48226100206 0.47477662563 -1.5933699608 -0.44964700937 0.30215507746 -1.3843599558
          -0.51359897852 0.26363918185 -1.5916399956 -0.59481602907 0.50138133764 -1.4068089724
          5.5037498474 -0.082735002041 1.8406980038 5.4175891876 0.055754002184 2.0606226921
          5.3534770012 -0.30086100101 1.9398570061 5.2030038834 -0.095155008137 2.0543687344
          -4.3315758705 -0.16536140442 0.15697599947 -4.4366278648 -0.28509175777 -0.13918270171
          -4.3956904411 -0.0096592828631 -0.099004216492 -4.5573143959 -0.13582371175 -0.061340749264
          -2.7915763855 -0.063147902489 -1.2559100389 -3.0221710205 -0.28878861666 -1.1663730145
          -3.0489430428 -0.05935529992 -1.1577789783 -2.82984519 -0.19690430164 -0.8898460269
          4.3348088264 0.0020780034829 2.0050890446 4.5017971992 -0.076010011137 2.1854460239
          4.690433979 -0.097899012268 1.9307255745 4.5158967972 -0.051814988256 1.7898253202
          4.3977518082 -0.2796689868 1.9731270075 4.6318750381 -0.28834098577 2.005959034
          4.690433979 -0.097899012268 1.9307255745 4.6009202003 -0.29254201055 1.7585229874
          5.0230960846 0.41076001525 2.4843699932 5.3057627678 0.47182801366 2.3657300472
          5.1834688187 0.66452199221 2.560806036 5.0721921921 0.69339102507 2.3749821186
          0.045462999493 -0.42505168915 -1.3999569416 -0.2076960057 -0.44123241305 -1.3097250462
          -0.19379499555 -0.24117720127 -1.3589559793 -0.012586000375 -0.43688291311 -1.2338080406
          -2.6534280777 0.29591062665 -0.18428100646 -2.825469017 0.27062919736 -0.34245297313
          -2.9465370178 0.2871569097 -0.061487998813 -2.8682529926 0.10229609907 -0.093391999602
          -1.3182120323 -0.50291794538 -0.77375298738 -1.3524429798 -0.2001490891 -0.93651300669
          -1.1560570002 -0.29963886738 -0.85426801443 -1.4142980576 -0.3536285162 -0.59887999296
          -4.1121020317 0.25860318542 0.34374800324 -3.91289711 0.46681961417 0.26801300049
          -4.162466526 0.47085979581 0.13769200444 -4.0016899109 0.29823037982 0.14048601687
          -1.542323947 -0.10029046237 -0.56713998318 -1.715157032 -0.23626880348 -0.5269600153
          -1.5314699411 -0.26643535495 -0.78901797533 -1.7501699924 -0.19925332069 -0.86327397823
          4.432926178 0.52034902573 1.1526700258 4.2114582062 0.52715998888 1.3034000397
          4.3628559113 0.71818900108 1.3685749769 4.5152788162 0.44570598006 1.5512629747
          -1.4142980576 -0.3536285162 -0.59887999296 -1.715157032 -0.23626880348 -0.5269600153
          -1.5901739597 -0.51384592056 -0.59615600109 -1.5314699411 -0.26643535495 -0.78901797533
          1.2157520056 0.1916974932 -1.1104990244 0.93579101562 0.2607139945 -0.85697698593
          1.1473189592 0.12026190013 -0.89047002792 1.0180549622 0.17184720933 -1.2025079727
          1.2157520056 0.1916974932 -1.1104990244 1.1473189592 0.12026190013 -0.89047002792
          1.1071350574 0.033141098917 -1.1655050516 1.0180549622 0.17184720933 -1.2025079727
          1.0180549622 0.17184720933 -1.2025079727 0.74059998989 0.11394579709 -1.0505290031
          1.1071350574 0.033141098917 -1.1655050516 0.88432902098 -0.0070595997386 -1.2622259855
          2.5734648705 0.64016002417 1.1225880384 2.8616578579 0.64741098881 1.2881900072
          2.7331340313 0.47387900949 1.1153179407 2.6483149529 0.51224297285 1.3579260111
          -4.0898427963 -0.054189000279 -0.25348520279 -4.1674909592 0.13877829909 -0.35717999935
          -4.2035307884 0.079204000533 -0.13781389594 -4.436715126 0.026354400441 -0.37169200182
          -3.7695140839 0.20615190268 -0.025571003556 -4.0705108643 0.13585180044 0.0080800065771
          -3.7828290462 0.0534854047 0.25001400709 -3.9098739624 -0.045701097697 0.062531001866
          0.98193901777 0.39114138484 -0.63054037094 0.88199001551 0.21808290482 -0.48142701387
          1.1137839556 0.31430581212 -0.23879601061 1.0656369925 0.1378595978 -0.35818099976
          5.1484160423 0.71598798037 1.853268981 5.4411177635 0.54534596205 2.004693985
          5.2246007919 0.71275597811 2.0305790901 5.5018949509 0.57858800888 1.8484350443
          -2.1335361004 -0.33587309718 -0.85573190451 -2.1019701958 -0.27823245525 -1.0662670135
          -2.3660526276 -0.18054547906 -1.0520470142 -2.354665041 -0.32262691855 -0.86674439907
          -1.0281820297 -0.050216499716 -0.63028001785 -0.96815401316 0.02664539963 -0.92440497875
          -0.9426779747 -0.20086880028 -0.89714598656 -0.76539498568 -0.02696910128 -0.88151800632
          3.1142799854 0.34143099189 0.65826201439 2.7568380833 0.32088699937 0.34903898835
          2.9617218971 0.11532790214 0.41656598449 3.0115010738 0.44793599844 0.41370400786
          -0.99887502193 -0.062538303435 -1.3665850163 -0.78262102604 -0.069029003382 -1.6080299616
          -0.73458898067 -0.17205369473 -1.327262044 -0.7670930028 0.060932602733 -1.3277369738
          -0.55233097076 -0.44661706686 -0.61871999502 -0.62982201576 -0.48794570565 -0.79209601879
          -0.49013099074 -0.27833321691 -0.80703800917 -0.59738898277 -0.2561981082 -0.61395001411
          -1.6338564157 0.02010091953 -1.3360049725 -1.915242672 0.15616099536 -1.1708220243
          -1.8356319666 0.0078969011083 -1.0082437992 -1.8840471506 -0.017964780331 -1.309893012
          2.9693405628 -0.31538802385 1.5350999832 3.2492110729 -0.32095301151 1.4265520573
          3.419023037 -0.31212699413 1.6825289726 3.1580340862 -0.10009101033 1.6749999523
          3.4906380177 0.39700400829 0.43757998943 3.4640750885 0.2319137007 0.72248202562
          3.7977409363 0.30181151628 0.66605001688 3.6354649067 0.20033504069 0.53394001722
          3.6544830799 0.36574301124 1.0680350065 3.7977409363 0.30181151628 0.66605001688
          3.6095719337 0.49926799536 0.86267101765 3.6721630096 0.17420139909 0.90603202581
          0.90016597509 0.3842356205 -1.0304160118 0.93579101562 0.2607139945 -0.85697698593
          1.2157520056 0.1916974932 -1.1104990244 1.0180549622 0.17184720933 -1.2025079727
          2.4627220631 0.06453820318 0.024974999949 2.4858739376 -0.02445499599 -0.33545398712
          2.4003479481 -0.15540499985 -0.052411012352 2.7524430752 -0.1180730015 -0.14809599519
          -1.7904880047 0.17986288667 -0.85320198536 -1.5908279419 -0.0042438311502 -1.0808677673
          -1.4917390347 0.24093736708 -0.86661797762 -1.6665450335 0.31891724467 -0.9786170125
          3.902930975 -0.018859993666 0.7255499959 3.8120110035 0.1275023967 0.66295999289
          3.6721630096 0.17420139909 0.90603202581 3.7064490318 -0.11200299114 0.86057698727
          -1.856298089 -0.15979887545 -1.5231399536 -2.0235655308 -0.33051469922 -1.2762329578
          -1.7574769258 -0.32169941068 -1.3376590014 -1.8249877691 -0.34991788864 -1.5306500196
          1.0542720556 -0.20917788148 -0.54995292425 0.99458998442 -0.022154798731 -0.49672108889
          0.76676100492 -0.1134057045 -0.50795000792 0.88520997763 -0.23278620839 -0.74979001284
          -1.7705160379 -0.013670380227 -0.72984999418 -1.7501699924 -0.19925332069 -0.86327397823
          -1.8356319666 0.0078969011083 -1.0082437992 -2.0607159138 -0.073489099741 -0.92311251163
          -2.7501730919 0.4770526886 -0.50051802397 -3.1012940407 0.47349649668 -0.42684000731
          -2.9227018356 0.26947918534 -0.61335587502 -3.0843958855 0.47311139107 -0.64435297251
          2.5418469906 0.64766597748 0.10435001552 2.7105460167 0.65613901615 0.34329998493
          2.8988199234 0.66676598787 0.13199600577 2.7388780117 0.4845879972 0.20156900585
          4.7630262375 -0.078894995153 2.2290580273 4.6464409828 -0.13010598719 2.42572999
          4.5017971992 -0.076010011137 2.1854460239 4.5205311775 0.023049006239 2.42572999
          -2.8640635014 -0.32550418377 -0.67871928215 -2.82984519 -0.19690430164 -0.8898460269
          -2.6584146023 -0.50556856394 -0.92454200983 -2.5790920258 -0.26749420166 -0.70352119207
          1.5018340349 0.60006701946 -0.26044872403 1.2312122583 0.39813408256 -0.034452985972
          1.3428349495 0.40458348393 -0.38063567877 1.1987409592 0.59465539455 -0.16085501015
          -3.9709320068 -0.19345550239 -0.77938902378 -3.779299736 -0.33174827695 -0.59858602285
          -3.9470174313 -0.23043839633 -0.45734000206 -3.8436272144 -0.0084195006639 -0.544039011
          -1.5769430399 -0.27982699871 -1.0531499386 -1.5145759583 -0.018870471045 -0.82699400187
          -1.5314699411 -0.26643535495 -0.78901797533 -1.7501699924 -0.19925332069 -0.86327397823
          0.14480470121 -0.27436679602 -0.68005996943 -0.011990199797 -0.27998569608 -0.48404100537
          -0.13618600368 -0.29588839412 -0.75555801392 0.0018850000342 -0.13561350107 -0.81675201654
          -4.6756920815 -0.17933808267 0.46103820205 -4.8936700821 -0.25269600749 0.5
          -4.777050972 -0.31894397736 0.2911812067 -4.7829651833 -0.03583727777 0.25068509579
          3.5524427891 0.59926497936 1.9792000055 3.5121660233 0.42270597816 1.6780580282
          3.5512509346 0.3587679863 1.954660058 3.6992878914 0.65348899364 1.8166350126
          -4.007420063 0.42113360763 -0.76628297567 -3.7752130032 0.42797881365 -0.85966801643
          -3.9523050785 0.21237049997 -0.78943997622 -3.7815887928 0.27240249515 -0.66369998455
          1.9701869488 0.36129301786 -0.32886689901 1.9673910141 0.42298001051 0.05929357931
          2.2037799358 0.33316999674 -0.035911995918 1.8257160187 0.17760980129 -0.11040610075
          2.9617218971 0.11532790214 0.41656598449 3.0217940807 0.11983050406 0.068121999502
          3.251791954 0.13675589859 0.23980399966 3.1855530739 0.35112899542 0.20670999587
          -0.78456199169 0.49820140004 -0.62747001648 -0.76281398535 0.3376955986 -0.79411798716
          -1.0079799891 0.43430522084 -0.63536000252 -0.80769598484 0.2091087997 -0.62626999617
          0.86870998144 0.033326499164 -0.31085899472 0.79737359285 0.10921870172 -0.047456
          0.69095832109 -0.066606298089 -0.12778200209 0.58858072758 0.152926296 -0.17830699682
          2.1746091843 0.4260700047 1.0060030222 2.0595760345 0.26341798902 0.90939098597
          2.387912035 0.31022301316 0.66756099463 2.1254868507 0.43120700121 0.6656140089
          -1.3387739658 0.1015701443 -0.80373698473 -1.4412750006 0.12191697955 -0.58430999517
          -1.5145759583 -0.018870471045 -0.82699400187 -1.6226379871 0.13752751052 -0.73393601179
          0.081534996629 0.22075429559 -1.1755410433 0.060910001397 0.064430199564 -1.0059714317
          0.4462980032 0.22514030337 -1.0646909475 0.30460509658 0.093160197139 -1.2340450287
          -3.3199958801 0.47254309058 -0.92196601629 -3.0947728157 0.28662750125 -0.90678101778
          -3.2964999676 0.25800848007 -1.0607520342 -3.275526762 0.18115669489 -0.7455739975
          3.8696250916 -0.23204101622 0.68651998043 3.8110458851 -0.30123400688 0.9321950078
          3.7064490318 -0.11200299114 0.86057698727 3.902930975 -0.018859993666 0.7255499959
          3.5614540577 -0.13416200876 1.2109525204 3.4261219501 -0.31478399038 1.2515799999
          3.658107996 -0.30566099286 1.332764864 3.5389170647 -0.30982100964 1.044885993
          -2.354665041 -0.32262691855 -0.86674439907 -2.214564085 -0.50244742632 -0.93670272827
          -2.4582118988 -0.50782459974 -0.75783860683 -2.2919089794 -0.51172739267 -0.61034798622
          4.7165417671 0.53939402103 1.5485489368 4.7563681602 0.41457000375 1.7243119478
          4.8885669708 0.54565501213 1.3964899778 4.8979010582 0.32311931252 1.3858200312
          0.14480470121 -0.27436679602 -0.68005996943 0.27352508903 -0.21387378871 -0.36756598949
          0.10708110034 -0.12076699734 -0.43617299199 0.3360530138 -0.12368449569 -0.71136599779
          -0.29678198695 -0.19139230251 -0.85894298553 0.0018850000342 -0.13561350107 -0.81675201654
          -0.19524599612 0.051735099405 -0.78870302439 -0.18521800637 0.03266672045 -1.0619240999
          5.1686019897 0.14154189825 2.0466096401 5.199947834 0.37635299563 2.0466771126
          5.3432278633 0.22682979703 2.2597339153 5.0963821411 0.18064403534 2.290708065
          3.241795063 0.17628619075 0.51923000813 3.147439003 -0.0024279970676 0.66096997261
          3.4745230675 0.094017997384 0.40399199724 3.3033549786 -0.086898997426 0.26347100735
          4.2373199463 -0.093296997249 1.6291577816 4.5158967972 -0.051814988256 1.7898253202
          4.4976420403 -0.29328599572 1.5345549583 4.3472771645 -0.29031598568 1.7298301458
          -2.5196659565 0.24592778087 -0.72205346823 -2.7856142521 0.29197818041 -0.82188498974
          -2.6722416878 0.17765410244 -0.99963802099 -2.6201217175 0.47078740597 -0.97456198931
          -3.4188709259 -0.052383501083 -0.084667012095 -3.564964056 -0.31996080279 -0.046510994434
          -3.2750339508 -0.14621569216 0.072559997439 -3.3219630718 -0.30692452192 -0.14970101416
          -4.5312843323 0.49934783578 -0.58330410719 -4.5366792679 0.30343410373 -0.3805705905
          -4.3347187042 0.29005420208 -0.44296199083 -4.4355773926 0.16414380074 -0.62573999166
          2.9830210209 0.64096099138 1.5882970095 3.138158083 0.46699899435 1.4169000387
          3.2050361633 0.42096599936 1.7410199642 3.217676878 0.63562899828 1.7659000158
          -2.6722416878 0.17765410244 -0.99963802099 -2.8605468273 0.030474800617 -1.0333030224
          -2.9588835239 0.10583119839 -0.81790500879 -2.7823200226 0.016783099622 -0.68633919954
          0.61579799652 -0.14052461088 -1.0343459845 0.53313398361 0.019717698917 -1.1568260193
          0.26428851485 -0.064987801015 -1.0606349707 0.36511561275 -0.21865269542 -1.2138979435
          0.69095832109 -0.066606298089 -0.12778200209 0.60305899382 0.11440300196 -0.49014899135
          0.86870998144 0.033326499164 -0.31085899472 0.58858072758 0.152926296 -0.17830699682
          4.420935154 0.65521502495 2.2197909355 4.1697688103 0.64373600483 2.1378290653
          4.2911319733 0.6131169796 2.3516499996 4.402616024 0.45689401031 2.1667981148
          -4.7094054222 0.49808984995 -0.25924840569 -4.7940740585 0.30425521731 -0.31099230051
          -4.9290013313 0.49626871943 -0.082679122686 -4.7578816414 0.28667363524 -0.042721800506
          0.88432902098 -0.0070595997386 -1.2622259855 0.61579799652 -0.14052461088 -1.0343459845
          0.77250897884 -0.18823230267 -1.3146259785 0.53313398361 0.019717698917 -1.1568260193
          -0.78097099066 -0.028601998463 -0.62437999249 -0.80769598484 0.2091087997 -0.62626999617
          -0.76539498568 -0.02696910128 -0.88151800632 -0.54605597258 0.061542298645 -0.81870001554
          -2.9494459629 -0.043818198144 -0.28794598579 -2.9889519215 -0.24136529863 -0.040991000831
          -2.9584069252 -0.33283078671 -0.35879898071 -3.1492960453 -0.20950199664 -0.30492499471
          2.1427390575 -0.046670995653 -0.085950896144 1.9952529669 -0.028272999451 -0.39336639643
          2.2337059975 -0.17428898811 -0.25786739588 2.1084809303 0.16455329955 -0.24006199837
          2.846298933 -0.090493999422 0.57238131762 2.7733221054 -0.33622100949 0.79974299669
          2.9889109135 -0.32668501139 0.69036900997 2.7344648838 -0.33579298854 0.55702829361
          -2.3114500046 0.28709989786 -0.8894675374 -2.2431271076 0.16042180359 -0.71514201164
          -2.4830985069 0.14539518952 -0.90576428175 -2.5196659565 0.24592778087 -0.72205346823
          -0.24963200092 0.28975039721 -0.72652798891 -0.5591750145 0.32877069712 -0.824015975
          -0.4916779995 0.53283828497 -0.76185595989 -0.3437409997 0.53887301683 -0.68746000528
          -2.8611981869 0.29218497872 -1.0245879889 -2.9489409924 0.21040900052 -1.2003070116
          -2.6970658302 0.28316840529 -1.292855978 -2.7583801746 0.46716481447 -1.1447130442
          3.251791954 0.13675589859 0.23980399966 3.241795063 0.17628619075 0.51923000813
          3.3033549786 -0.086898997426 0.26347100735 3.0362560749 -0.12312699854 0.36283898354
          -0.78097099066 -0.028601998463 -0.62437999249 -0.7906640172 -0.26609754562 -0.63226997852
          -0.59738898277 -0.2561981082 -0.61395001411 -0.6984680295 -0.26326191425 -0.85958302021
          -3.7126243114 0.24968840182 -0.29950919747 -3.9515781403 0.22483050823 -0.22432824969
          -3.7695140839 0.20615190268 -0.025571003556 -3.8458154202 -0.0071441796608 -0.27063637972
          4.659427166 0.057737004012 2.0819699764 4.9558830261 0.24193349481 1.938804388
          4.7131490707 0.21425390244 1.868008852 4.908780098 -0.05460799858 1.9473679066
          -3.9470174313 -0.23043839633 -0.45734000206 -3.8315455914 -0.51438689232 -0.46247899532
          -4.1456823349 -0.32185968757 -0.5048879981 -4.0726661682 -0.51234167814 -0.36274200678
          4.6791539192 -0.064878001809 1.5370919704 4.4501152039 0.014983006753 1.5191400051
          4.4976420403 -0.29328599572 1.5345549583 4.5728478432 -0.045872993767 1.2065700293
          -0.21260130405 0.41750350595 -0.52818000317 -0.20871029794 0.16622160375 -0.5290799737
          -0.04825539887 0.29193970561 -0.48039200902 -0.24963200092 0.28975039721 -0.72652798891
          -2.7851204872 -0.2995711267 -1.2576700449 -3.0221710205 -0.28878861666 -1.1663730145
          -2.82984519 -0.19690430164 -0.8898460269 -2.8428041935 -0.50505828857 -1.0089069605
          -2.3634879589 0.31209561229 -0.49861198664 -2.0370030403 0.2986676991 -0.69848400354
          -2.2431271076 0.16042180359 -0.71514201164 -2.1832900047 0.29363209009 -0.3768529892
          3.902930975 -0.018859993666 0.7255499959 3.6721630096 0.17420139909 0.90603202581
          3.7195839882 0.0037419972941 1.0903520584 3.7064490318 -0.11200299114 0.86057698727
          1.2312122583 0.39813408256 -0.034452985972 1.2371704578 0.59994918108 0.042260996997
          1.0784057379 0.39947220683 0.1701080054 1.0282603502 0.59369128942 0.0024159983732
          1.594933033 0.40332198143 0.19972449541 1.4418599606 0.28709000349 -0.062245994806
          1.6255400181 0.14701509476 0.17244631052 1.7167700529 0.42090001702 -0.091850601137
          -3.0843958855 0.47311139107 -0.64435297251 -3.2916152477 0.47306519747 -0.70392102003
          -3.1012940407 0.47349649668 -0.42684000731 -3.2987422943 0.26889032125 -0.46421080828
          -1.7530180216 -0.49406966567 -1.0832090378 -1.9235659838 -0.32769143581 -0.93234062195
          -1.8400460482 -0.50811260939 -0.77786999941 -1.9633500576 -0.49727156758 -1.0658731461
          -0.38811999559 -0.14212410152 -1.2827340364 -0.42777499557 0.06476470083 -1.0590546131
          -0.18521800637 0.03266672045 -1.0619240999 -0.33131301403 -0.1156719923 -1.0455411673
          4.6524858475 0.67294102907 2.2563040257 4.7806420326 0.47793102264 2.2329978943
          4.6265969276 0.37918898463 2.0835940838 4.402616024 0.45689401031 2.1667981148
          5.0031938553 0.28169769049 1.6652870178 5.2795748711 0.19745920599 1.7484179735
          4.9797067642 0.10058799386 1.780706048 4.9558830261 0.24193349481 1.938804388
          -2.5790920258 -0.26749420166 -0.70352119207 -2.6584146023 -0.50556856394 -0.92454200983
          -2.4582118988 -0.50782459974 -0.75783860683 -2.354665041 -0.32262691855 -0.86674439907
          -1.5521390438 -0.22336211801 -1.3013720512 -1.7574769258 -0.32169941068 -1.3376590014
          -1.5769430399 -0.27982699871 -1.0531499386 -1.6530690193 -0.4847458899 -1.2544569969
          3.427726984 0.34208199382 0.94024497271 3.6721630096 0.17420139909 0.90603202581
          3.2844669819 0.18207931519 1.0159295797 3.5387530327 0.16991350055 1.193629384
          -1.6338564157 0.02010091953 -1.3360049725 -1.856298089 -0.15979887545 -1.5231399536
          -1.7574769258 -0.32169941068 -1.3376590014 -1.5521390438 -0.22336211801 -1.3013720512
          -0.028528999537 0.095570899546 -1.5219500065 -0.2287349999 0.24483269453 -1.2839930058
          -0.19496299326 0.017406899482 -1.3360270262 -0.25447899103 0.057270798832 -1.5596300364
          1.9701869488 0.36129301786 -0.32886689901 2.1685369015 0.31989699602 -0.53797519207
          1.8443620205 0.16656500101 -0.47324600816 2.1084809303 0.16455329955 -0.24006199837
          -3.8458154202 -0.0071441796608 -0.27063637972 -3.9098739624 -0.045701097697 0.062531001866
          -3.7831549644 -0.23498553038 -0.042289998382 -4.0883383751 -0.19288347661 -0.063150003552
          4.7563681602 0.41457000375 1.7243119478 4.4522380829 0.45779499412 1.8534209728
          4.7576980591 0.49129199982 1.9305694103 4.7131490707 0.21425390244 1.868008852
          -3.8304586411 0.47921529412 -0.44864699244 -3.7126243114 0.24968840182 -0.29950919747
          -3.93171525 0.23039670289 -0.4976850152 -3.9515781403 0.22483050823 -0.22432824969
          0.76020401716 -0.4297708869 -0.45740100741 0.51021200418 -0.21610671282 -0.49635899067
          0.75424200296 -0.42280769348 -0.65912491083 0.76676100492 -0.1134057045 -0.50795000792
          5.1686019897 0.14154189825 2.0466096401 5.0139088631 0.39100199938 2.2078499794
          5.199947834 0.37635299563 2.0466771126 5.0963821411 0.18064403534 2.290708065
          4.7576980591 0.49129199982 1.9305694103 4.7996368408 0.69749897718 1.943791151
          4.7495179176 0.70579200983 1.7540500164 4.9495658875 0.71378302574 1.7495089769
          5.0963821411 0.18064403534 2.290708065 5.0230960846 0.41076001525 2.4843699932
          5.2506189346 0.27369219065 2.5230898857 5.0148458481 0.15865379572 2.5250399113
          -0.78456199169 0.49820140004 -0.62747001648 -0.55409598351 0.49938008189 -0.60413002968
          -0.65340101719 0.52587407827 -0.79267400503 -0.61500298977 0.28469419479 -0.60780000687
          -3.4902799129 0.19203700125 -0.97851699591 -3.5222220421 0.2613735199 -0.7316250205
          -3.4256296158 -0.04080190137 -0.73200601339 -3.6431386471 0.012811898254 -0.67573601007
          -1.3511379957 -0.033111680299 -1.0856614113 -1.5769430399 -0.27982699871 -1.0531499386
          -1.225301981 -0.29465007782 -1.0979983807 -1.2506010532 -0.14467050135 -1.2530030012
          -1.0445510149 -0.28223949671 -1.6158399582 -1.288203001 -0.24603740871 -1.60145998
          -1.1307909489 -0.13907830417 -1.6104199886 -1.199491024 -0.2731808126 -1.4120750427
          -0.29748898745 0.35435709357 -1.5664999485 -0.3715389967 0.50824278593 -1.3971790075
          -0.48226100206 0.47477662563 -1.5933699608 -0.12036799639 0.50918620825 -1.5231349468
          -0.19524599612 0.051735099405 -0.78870302439 -0.24963200092 0.28975039721 -0.72652798891
          -0.42486399412 0.21323770285 -0.57991999388 -0.38182199001 0.22295188904 -0.90033400059
          3.5387530327 0.16991350055 1.193629384 3.4408869743 0.48258000612 1.1898485422
          3.4179348946 0.33102399111 1.4116280079 3.220927 0.38111701608 1.2094409466
          3.419023037 -0.31212699413 1.6825289726 3.2492110729 -0.32095301151 1.4265520573
          3.4261219501 -0.31478399038 1.2515799999 3.4407179356 -0.10024298728 1.6149629354
          1.1071350574 0.033141098917 -1.1655050516 0.82348799706 -0.019467899576 -0.88339298964
          0.94502300024 -0.16622328758 -1.0062910318 0.74059998989 0.11394579709 -1.0505290031
          2.0099020004 0.62074702978 -0.17452520132 1.7845100164 0.61610001326 0.12772998214
          1.9673910141 0.42298001051 0.05929357931 1.7167700529 0.42090001702 -0.091850601137
          4.3538961411 0.35973498225 2.428800106 4.5650310516 0.20493909717 2.2137980461
          4.402616024 0.45689401031 2.1667981148 4.3718128204 0.25128540397 2.104501009
          0.15763199329 -0.010675301775 -1.4892460108 0.056278999895 0.056861169636 -1.3090289831
          -0.0075119999237 -0.13963499665 -1.2594619989 -0.19496299326 0.017406899482 -1.3360270262
          5.4746980667 0.36210200191 1.5940099955 5.5018949509 0.57858800888 1.8484350443
          5.3040738106 0.50984299183 1.5398700237 5.5059928894 0.6031550169 1.6140400171
          1.5088090897 -0.39408099651 0.20298700035 1.4818120003 -0.39234900475 -0.097535997629
          1.8173689842 -0.37339198589 -0.084958538413 1.6111949682 -0.21885199845 -0.057695001364
          1.8810739517 -0.025785999373 0.24052999914 2.2638959885 -0.015994004905 0.14143829048
          2.0858280659 0.031003998592 0.38727900386 2.0466160774 0.12520329654 0.090647503734
          0.94075733423 -0.2887121141 0.026029000059 1.0781804323 -0.41856110096 0.0092310095206
          1.0432590246 -0.41784200072 -0.18719400465 0.87843650579 -0.43051719666 -0.09530800581
          -0.19269900024 -0.26168438792 -1.0995333195 0.018631000072 -0.44565591216 -1.0280195475
          -0.17229199409 -0.45925500989 -0.92756402493 0.059512998909 -0.21327769756 -1.0408661366
          -0.42572999001 -0.2455662936 -0.58765000105 -0.13618600368 -0.29588839412 -0.75555801392
          -0.31607699394 -0.47428938746 -0.76736098528 -0.26960200071 -0.41726079583 -0.56349998713
          -3.4282062054 0.14235441387 -0.57428902388 -3.275526762 0.18115669489 -0.7455739975
          -3.2953541279 -0.00062000047183 -0.49288973212 -3.2987422943 0.26889032125 -0.46421080828
          2.5706369877 -0.14441801608 0.49783235788 2.846298933 -0.090493999422 0.57238131762
          2.6742250919 -0.012311006896 0.2936809957 2.8178238869 -0.16496701539 0.18457700312
          -1.5631556511 -0.15877270699 -1.5688300133 -1.856298089 -0.15979887545 -1.5231399536
          -1.5521390438 -0.22336211801 -1.3013720512 -1.7574769258 -0.32169941068 -1.3376590014
          3.7195839882 0.0037419972941 1.0903520584 3.5387530327 0.16991350055 1.193629384
          3.2712409496 -0.069230996072 1.0871679783 3.4617619514 -0.034863006324 0.83526402712
          -3.4256296158 -0.04080190137 -0.73200601339 -3.6200819016 -0.16615739465 -0.5608189702
          -3.3584003448 -0.26359349489 -0.49015578628 -3.4521927834 -0.28309810162 -0.73375397921
          3.7013010979 -0.30448499322 1.5550149679 3.8821690083 -0.30057999492 1.4447215796
          3.8552589417 -0.056183006614 1.3705922365 3.658107996 -0.30566099286 1.332764864
          1.8257160187 0.17760980129 -0.11040610075 1.9673910141 0.42298001051 0.05929357931
          2.2037799358 0.33316999674 -0.035911995918 2.0466160774 0.12520329654 0.090647503734
          4.2114582062 0.52715998888 1.3034000397 4.1757931709 0.68295997381 1.7038977146
          4.3628559113 0.71818900108 1.3685749769 4.3675351143 0.70144999027 1.5965069532
          4.2132930756 0.66276198626 1.9194359779 3.9373788834 0.45778700709 1.9478909969
          4.1697688103 0.64373600483 2.1378290653 4.1660380363 0.37686598301 1.8869049549
          1.1920820475 0.066462799907 -0.092215999961 1.1137839556 0.31430581212 -0.23879601061
          1.303779006 0.10932320356 -0.39463099837 1.4418599606 0.28709000349 -0.062245994806
          -0.29678198695 -0.19139230251 -0.85894298553 -0.36743998528 -0.0037765994202 -0.87996399403
          -0.19524599612 0.051735099405 -0.78870302439 -0.39273399115 0.0064351009205 -0.57656002045
          5.1593341827 -0.012515998445 1.8333879709 5.4175891876 0.055754002184 2.0606226921
          5.4800391197 0.18614250422 1.908427 5.5037498474 -0.082735002041 1.8406980038
          2.666932106 -0.11324400455 1.3288810253 2.4782733917 -0.16793499887 1.1878299713
          2.7898700237 -0.33725899458 1.0498950481 2.6176869869 -0.096157990396 0.89440202713
          4.7563681602 0.41457000375 1.7243119478 5.0031938553 0.28169769049 1.6652870178
          4.7131490707 0.21425390244 1.868008852 4.9558830261 0.24193349481 1.938804388
          4.4501152039 0.014983006753 1.5191400051 4.344976902 0.097388997674 1.2805169821
          4.5728478432 -0.045872993767 1.2065700293 4.5587711334 0.13435800374 1.2057100534
          2.846298933 -0.090493999422 0.57238131762 3.147439003 -0.0024279970676 0.66096997261
          2.7515289783 0.13377730548 0.70048117638 2.9617218971 0.11532790214 0.41656598449
          0.69450002909 0.33520320058 -0.69070541859 0.62536001205 0.067611642182 -0.78804123402
          0.43711400032 0.35662287474 -0.86431020498 0.40944099426 0.2642891109 -0.64370203018
          3.1324748993 -0.012670002878 1.333466053 2.9346859455 -0.010064994916 1.0378210545
          3.1057059765 0.21902000904 1.2990050316 2.78916049 0.10995809734 1.4312570095
          2.0226778984 0.62434697151 0.18275760114 1.7845100164 0.61610001326 0.12772998214
          1.8911110163 0.31002601981 0.28474500775 1.9673910141 0.42298001051 0.05929357931
          0.56557297707 -0.05147189647 -0.61882799864 0.60305899382 0.11440300196 -0.49014899135
          0.76676100492 -0.1134057045 -0.50795000792 0.49385619164 -0.061818897724 -0.24398499727
          4.0760598183 -0.29790601134 1.5380973816 4.1369771957 0.033024005592 1.3592270613
          4.0616660118 -0.29908099771 1.2974100113 4.3275651932 -0.10407299548 1.3448059559
          -1.1518950462 -0.061164274812 -0.8551800251 -1.1468379498 -0.10479596257 -1.0598422289
          -1.3524429798 -0.2001490891 -0.93651300669 -1.1560570002 -0.29963886738 -0.85426801443
          3.4408869743 0.48258000612 1.1898485422 3.1671938896 0.66265797615 1.2060799599
          3.2219541073 0.45492699742 0.97522252798 3.4043519497 0.68294101954 0.87328398228
          0.69095832109 -0.066606298089 -0.12778200209 0.49385619164 -0.061818897724 -0.24398499727
          0.76676100492 -0.1134057045 -0.50795000792 0.86870998144 0.033326499164 -0.31085899472
          0.19523879886 -0.052128598094 -0.8603233695 0.26428851485 -0.064987801015 -1.0606349707
          0.36515200138 -0.25333359838 -0.93256372213 0.47868400812 -0.085507400334 -0.87584412098
          3.1324748993 -0.012670002878 1.333466053 3.4360439777 -0.0026910067536 1.3680689335
          3.3237390518 0.14818389714 1.5284450054 3.1057059765 0.21902000904 1.2990050316
          -1.0088479519 0.19115871191 -1.3418680429 -0.84249997139 0.26520928741 -1.1529723406
          -0.7670930028 0.060932602733 -1.3277369738 -0.89497202635 0.0030651004054 -1.1271020174
          2.9617218971 0.11532790214 0.41656598449 2.7515289783 0.13377730548 0.70048117638
          3.0274419785 0.16455459595 0.84069955349 3.147439003 -0.0024279970676 0.66096997261
          -3.683809042 -0.017515730113 -0.89673197269 -3.8355240822 -0.29797300696 -0.83261597157
          -3.6431386471 0.012811898254 -0.67573601007 -3.6200819016 -0.16615739465 -0.5608189702
          -1.3182120323 -0.50291794538 -0.77375298738 -1.5314699411 -0.26643535495 -0.78901797533
          -1.4142980576 -0.3536285162 -0.59887999296 -1.5094130039 -0.50609952211 -0.78413200378
          -3.2438099384 0.03149420023 -0.20086398721 -3.1492960453 -0.20950199664 -0.30492499471
          -3.4188709259 -0.052383501083 -0.084667012095 -3.0977869034 -0.10610190034 0.0021150000393
          2.9222569466 -0.035557992756 -0.016389999539 2.8178238869 -0.16496701539 0.18457700312
          3.0362560749 -0.12312699854 0.36283898354 3.0622529984 -0.15697599947 0.078552998602
          -1.8314759731 0.27363407612 -0.6662620306 -1.8200160265 0.49221810699 -0.71408998966
          -1.7904880047 0.17986288667 -0.85320198536 -1.6519750357 0.49484336376 -0.84614998102
          -3.0384581089 0.17068129778 -0.37494298816 -2.7312269211 -0.032895799726 -0.39067798853
          -2.9494459629 -0.043818198144 -0.28794598579 -2.825469017 0.27062919736 -0.34245297313
          -2.6201217175 0.47078740597 -0.97456198931 -2.8611981869 0.29218497872 -1.0245879889
          -2.6722416878 0.17765410244 -0.99963802099 -2.7583801746 0.46716481447 -1.1447130442
          2.1158709526 -0.35618299246 -0.26636224985 1.9658960104 -0.19827999175 -0.2762555182
          2.2598950863 -0.19575500488 -0.50656956434 2.2337059975 -0.17428898811 -0.25786739588
          4.659427166 0.057737004012 2.0819699764 4.3718128204 0.25128540397 2.104501009
          4.4655342102 0.20313693583 1.8080023527 4.5650310516 0.20493909717 2.2137980461
          -2.9948811531 -0.50990730524 -0.57723468542 -2.8640635014 -0.32550418377 -0.67871928215
          -2.92583251 -0.50748687983 -0.81637299061 -2.7047069073 -0.50918275118 -0.67922121286
          -0.59481602907 0.50138133764 -1.4068089724 -0.44964700937 0.30215507746 -1.3843599558
          -0.51359897852 0.26363918185 -1.5916399956 -0.72984099388 0.28546023369 -1.3866969347
          -0.59481602907 0.50138133764 -1.4068089724 -0.72984099388 0.28546023369 -1.3866969347
          -0.51359897852 0.26363918185 -1.5916399956 -0.74778497219 0.49031057954 -1.546538949
          -0.44964700937 0.30215507746 -1.3843599558 -0.71466398239 0.50439506769 -1.2475240231
          -0.72984099388 0.28546023369 -1.3866969347 -0.59481602907 0.50138133764 -1.4068089724
          -2.5362904072 0.058985300362 -1.3469660282 -2.4806556702 -0.1127384007 -1.363214016
          -2.6741175652 -0.17868329585 -1.2965600491 -2.6269614697 -0.066813401878 -1.0421299934
          -2.5362904072 0.058985300362 -1.3469660282 -2.3633306026 -0.018299350515 -1.2072839737
          -2.4806556702 -0.1127384007 -1.363214016 -2.6269614697 -0.066813401878 -1.0421299934
          -2.3633306026 -0.018299350515 -1.2072839737 -2.2354676723 -0.21959285438 -1.2453320026
          -2.4806556702 -0.1127384007 -1.363214016 -2.3660526276 -0.18054547906 -1.0520470142
          -4.3315758705 -0.16536140442 0.15697599947 -4.4574508667 0.019598178566 0.2031301856
          -4.6497826576 -0.19200108945 0.12126010656 -4.5573143959 -0.13582371175 -0.061340749264
          1.8173689842 -0.37339198589 -0.084958538413 2.0367250443 -0.15883000195 0.10807870328
          1.9658960104 -0.19827999175 -0.2762555182 1.9846500158 -0.36595401168 0.065145798028
          3.89149189 -0.08670001477 1.8603260517 4.1488780975 -0.13552299142 1.9172199965
          3.961992979 -0.15715098381 2.1520600319 4.0169057846 0.0046400059946 2.1881299019
          4.420935154 0.65521502495 2.2197909355 4.2911319733 0.6131169796 2.3516499996
          4.486289978 0.48828300834 2.4170000553 4.402616024 0.45689401031 2.1667981148
          0.74059998989 0.11394579709 -1.0505290031 0.61579799652 -0.14052461088 -1.0343459845
          0.94502300024 -0.16622328758 -1.0062910318 0.88432902098 -0.0070595997386 -1.2622259855
          -3.8458154202 -0.0071441796608 -0.27063637972 -3.9098739624 -0.045701097697 0.062531001866
          -3.6423470974 -0.017455210909 -0.0356920138 -3.7831549644 -0.23498553038 -0.042289998382
          2.3722069263 0.33220499754 -0.39323601127 2.1685369015 0.31989699602 -0.53797519207
          2.1084809303 0.16455329955 -0.24006199837 2.2489070892 0.1272508949 -0.49432817101
          -1.0788140297 0.51180261374 -0.85813999176 -1.0079799891 0.43430522084 -0.63536000252
          -1.1999200583 0.31322172284 -0.84429401159 -1.1992089748 0.51642417908 -0.64087301493
          -4.6376662254 0.16694931686 -0.24515900016 -4.5885467529 0.081544041634 -0.058668099344
          -4.6802415848 -0.16959774494 -0.21772760153 -4.7995986938 0.015869349241 -0.30273678899
          4.2114582062 0.52715998888 1.3034000397 4.3675351143 0.70144999027 1.5965069532
          4.3628559113 0.71818900108 1.3685749769 4.5152788162 0.44570598006 1.5512629747
          -4.5989289284 0.15179400146 0.43534138799 -4.6535224915 0.13568019867 0.13374620676
          -4.8289003372 0.15818049014 0.46990901232 -4.7829651833 -0.03583727777 0.25068509579
          4.8643531799 -0.29935500026 2.0071020126 4.7630262375 -0.078894995153 2.2290580273
          4.908780098 -0.05460799858 1.9473679066 4.9883351326 -0.0025349962525 2.1726241112
          2.4331591129 0.31312698126 0.30493488908 2.7543749809 0.16338352859 0.14366000891
          2.5381810665 0.37671899796 0.083356015384 2.4627220631 0.06453820318 0.024974999949
          -2.4344344139 0.47441139817 -0.8509837985 -2.3114500046 0.28709989786 -0.8894675374
          -2.3987627029 0.46843078732 -1.1548199654 -2.4950749874 0.26449760795 -1.1571450233
          -2.7501730919 0.4770526886 -0.50051802397 -2.825469017 0.27062919736 -0.34245297313
          -2.5764689445 0.47962999344 -0.47001102567 -2.7090830803 0.31708621979 -0.6229904294
          1.9639710188 -0.12883301079 0.49361902475 1.8311589956 -0.37597900629 0.21240459383
          2.0367250443 -0.15883000195 0.10807870328 1.8810739517 -0.025785999373 0.24052999914
          1.2570589781 -0.21799020469 -0.084225989878 1.2925460339 -0.051271595061 -0.25956600904
          1.4943079948 -0.043684996665 -0.058169994503 1.1920820475 0.066462799907 -0.092215999961
          4.8522830009 0.69435501099 2.1452889442 5.0721921921 0.69339102507 2.3749821186
          5.0743060112 0.70134097338 2.1695489883 4.7806420326 0.47793102264 2.2329978943
          -2.9584069252 -0.33283078671 -0.35879898071 -3.07508111 -0.50736320019 -0.289350003
          -3.0899682045 -0.29772499204 -0.5357632041 -3.1492960453 -0.20950199664 -0.30492499471
          -2.5196659565 0.24592778087 -0.72205346823 -2.4830985069 0.14539518952 -0.90576428175
          -2.7856142521 0.29197818041 -0.82188498974 -2.7823200226 0.016783099622 -0.68633919954
          -2.9465370178 0.2871569097 -0.061487998813 -3.2346680164 0.26355689764 -0.22137200832
          -3.1058139801 0.41758540273 0.0045389998704 -3.1945888996 0.20945261419 0.039181999862
          -1.915242672 0.15616099536 -1.1708220243 -2.1116633415 0.079452298582 -1.0412242413
          -2.0596408844 0.23887120187 -0.93493187428 -1.8356319666 0.0078969011083 -1.0082437992
          3.0115010738 0.44793599844 0.41370400786 3.0083858967 0.66490697861 0.78671127558
          3.2409238815 0.67979502678 0.59528899193 3.1142799854 0.34143099189 0.65826201439
          -4.626159668 -0.03600018099 -0.37031018734 -4.6802415848 -0.16959774494 -0.21772760153
          -4.6376662254 0.16694931686 -0.24515900016 -4.5885467529 0.081544041634 -0.058668099344
          3.179639101 -0.31765601039 0.58325701952 2.9889109135 -0.32668501139 0.69036900997
          3.0362560749 -0.12312699854 0.36283898354 2.846298933 -0.090493999422 0.57238131762
          -3.1945888996 0.20945261419 0.039181999862 -3.4597270489 0.28559470177 -0.035445000976
          -3.3263669014 0.39029639959 0.092840000987 -3.3653941154 0.12199870497 0.10548699647
          -2.7287049294 -0.2789902091 -0.37658300996 -2.8852050304 -0.13799700141 -0.5307559967
          -2.9584069252 -0.33283078671 -0.35879898071 -2.8640635014 -0.32550418377 -0.67871928215
          -0.78097099066 -0.028601998463 -0.62437999249 -0.96335202456 -0.23516255617 -0.63407999277
          -0.7906640172 -0.26609754562 -0.63226997852 -0.9426779747 -0.20086880028 -0.89714598656
          -1.1560570002 -0.29963886738 -0.85426801443 -1.0521889925 -0.48985919356 -0.94649702311
          -1.0522500277 -0.4041929543 -0.63874000311 -0.9426779747 -0.20086880028 -0.89714598656
          4.3814492226 0.23643480241 1.0975799561 4.4385910034 0.24091610312 1.4270139933
          4.6267647743 0.34916397929 1.2565300465 4.5587711334 0.13435800374 1.2057100534
          -3.1012940407 0.47349649668 -0.42684000731 -3.0384581089 0.17068129778 -0.37494298816
          -3.2987422943 0.26889032125 -0.46421080828 -3.2346680164 0.26355689764 -0.22137200832
          1.8257160187 0.17760980129 -0.11040610075 1.9701869488 0.36129301786 -0.32886689901
          2.1084809303 0.16455329955 -0.24006199837 2.2037799358 0.33316999674 -0.035911995918
          -2.6269614697 -0.066813401878 -1.0421299934 -2.6741175652 -0.17868329585 -1.2965600491
          -2.7915763855 -0.063147902489 -1.2559100389 -2.7851204872 -0.2995711267 -1.2576700449
          4.1660380363 0.37686598301 1.8869049549 3.9451920986 0.36131098866 2.1700799465
          4.1495599747 0.35503801703 2.2919700146 4.0440011024 0.18789739907 1.9961689711
          -3.275526762 0.18115669489 -0.7455739975 -3.2953541279 -0.00062000047183 -0.49288973212
          -3.2987422943 0.26889032125 -0.46421080828 -3.0457994938 0.036590598524 -0.58276486397
          -2.7894101143 -0.19218939543 -0.12471599877 -2.9584069252 -0.33283078671 -0.35879898071
          -2.8496210575 -0.34875020385 -0.099053002894 -2.7287049294 -0.2789902091 -0.37658300996
          1.5088090897 -0.39408099651 0.20298700035 1.6111949682 -0.21885199845 -0.057695001364
          1.8173689842 -0.37339198589 -0.084958538413 1.8311589956 -0.37597900629 0.21240459383
          -4.2408308983 0.48058089614 -0.10947950184 -3.9705395699 0.47333359718 0.0037210055161
          -3.9811484814 0.47856000066 -0.21228690445 -4.1666903496 0.27508330345 -0.13123139739
          -0.50188398361 0.32205638289 -1.0782203674 -0.71466398239 0.50439506769 -1.2475240231
          -0.41940999031 0.51631212234 -1.1652537584 -0.60533702374 0.52063310146 -1.0015729666
          1.3428349495 0.40458348393 -0.38063567877 1.7167700529 0.42090001702 -0.091850601137
          1.5018340349 0.60006701946 -0.26044872403 1.6138050556 0.3192229867 -0.46323099732
          2.6001980305 0.64967000484 -0.17084601521 2.5418469906 0.64766597748 0.10435001552
          2.8988199234 0.66676598787 0.13199600577 2.8823029995 0.46633699536 -0.010378999636
          -2.8605468273 0.030474800617 -1.0333030224 -2.82984519 -0.19690430164 -0.8898460269
          -3.1125445366 -0.042645700276 -0.91890496016 -2.9707868099 -0.088433094323 -0.74900501966
          -1.5769430399 -0.27982699871 -1.0531499386 -1.4465429783 -0.48274430633 -1.2523479462
          -1.3335059881 -0.48872581124 -1.1038045883 -1.225301981 -0.29465007782 -1.0979983807
          0.22415600717 -0.082622297108 -1.3033210039 -0.0075119999237 -0.13963499665 -1.2594619989
          0.26428851485 -0.064987801015 -1.0606349707 0.059512998909 -0.21327769756 -1.0408661366
          -4.4553132057 0.33380118012 0.41776010394 -4.3490223885 0.21022440493 0.13521999121
          -4.5313487053 0.23166209459 0.25894141197 -4.4056830406 0.16206969321 0.40360671282
          3.8493919373 0.50689595938 1.0418950319 3.9433920383 0.50324100256 0.79245001078
          4.1035399437 0.34244701266 0.90219002962 4.2127790451 0.64916598797 1.0111500025
          -2.3374700546 0.48206248879 -0.62753897905 -2.0370030403 0.2986676991 -0.69848400354
          -2.2431271076 0.16042180359 -0.71514201164 -2.3634879589 0.31209561229 -0.49861198664
          0.060910001397 0.064430199564 -1.0059714317 0.36555799842 0.082396402955 -0.88094812632
          0.30460509658 0.093160197139 -1.2340450287 0.26428851485 -0.064987801015 -1.0606349707
          3.217676878 0.63562899828 1.7659000158 3.4833610058 0.65569698811 1.6809769869
          3.5121660233 0.42270597816 1.6780580282 3.5524427891 0.59926497936 1.9792000055
          0.88199001551 0.21808290482 -0.48142701387 0.60305899382 0.11440300196 -0.49014899135
          0.84206402302 0.052923899144 -0.65382301807 0.69450002909 0.33520320058 -0.69070541859
          -4.1674909592 0.13877829909 -0.35717999935 -3.93171525 0.23039670289 -0.4976850152
          -4.0872659683 -0.040365900844 -0.50246196985 -3.8458154202 -0.0071441796608 -0.27063637972
          -4.1749300957 0.29747289419 -0.70561802387 -4.3393721581 0.42342635989 -0.65198898315
          -4.3347187042 0.29005420208 -0.44296199083 -4.2844419479 0.10605479777 -0.67162799835
          -3.5465004444 -0.0025727003813 -0.37637498975 -3.7178936005 -0.30012491345 -0.34045830369
          -3.5159258842 -0.18312910199 -0.2097529918 -3.6200819016 -0.16615739465 -0.5608189702
          1.8071659803 -0.10879799724 -0.12797890604 1.6162129641 -0.37938898802 -0.35376280546
          1.6553009748 -0.058208007365 -0.42940098047 1.4527050257 -0.19449299574 -0.29091629386
          1.8257160187 0.17760980129 -0.11040610075 1.7167700529 0.42090001702 -0.091850601137
          1.5832170248 0.13898870349 -0.2907756865 1.6138050556 0.3192229867 -0.46323099732
          5.2030038834 -0.095155008137 2.0543687344 5.4175891876 0.055754002184 2.0606226921
          5.1686019897 0.14154189825 2.0466096401 5.1593341827 -0.012515998445 1.8333879709
          5.1484160423 0.71598798037 1.853268981 5.2246007919 0.71275597811 2.0305790901
          5.4279828072 0.71865099669 2.021269083 5.5018949509 0.57858800888 1.8484350443
          4.561398983 0.70336198807 1.6810460091 4.5912899971 0.69010001421 1.8966654539
          4.7495179176 0.70579200983 1.7540500164 4.7563681602 0.41457000375 1.7243119478
          0.76020401716 -0.4297708869 -0.45740100741 0.52299612761 -0.44770920277 -0.3446649909
          0.51021200418 -0.21610671282 -0.49635899067 0.5607355237 -0.26477059722 -0.21746100485
          -0.032131001353 0.33743911982 -0.72442996502 0.18104350567 0.33106470108 -0.62392002344
          -0.0096544995904 0.55562412739 -0.53859198093 0.049058001488 0.54692262411 -0.80024498701
          -3.0947728157 0.28662750125 -0.90678101778 -2.9246742725 0.47127839923 -0.80925703049
          -3.0843958855 0.47311139107 -0.64435297251 -3.2916152477 0.47306519747 -0.70392102003
          0.4462980032 0.22514030337 -1.0646909475 0.74059998989 0.11394579709 -1.0505290031
          0.67646998167 0.33598598838 -0.95468699932 0.5862929821 0.35003548861 -1.1572810411
          3.5614540577 -0.13416200876 1.2109525204 3.5387530327 0.16991350055 1.193629384
          3.4360439777 -0.0026910067536 1.3680689335 3.2712409496 -0.069230996072 1.0871679783
          -0.18521800637 0.03266672045 -1.0619240999 -0.0075119999237 -0.13963499665 -1.2594619989
          -0.19269900024 -0.26168438792 -1.0995333195 0.059512998909 -0.21327769756 -1.0408661366
          3.5512509346 0.3587679863 1.954660058 3.8146090508 0.38017898798 1.7155710459
          3.5908029079 0.19661930203 1.6370530128 3.804297924 0.13001829386 1.8220219612
          -4.3315758705 -0.16536140442 0.15697599947 -4.4754362106 -0.32264238596 0.12133580446
          -4.5573143959 -0.13582371175 -0.061340749264 -4.6497826576 -0.19200108945 0.12126010656
          -0.72162300348 -0.47146120667 -1.0738427639 -0.42743900418 -0.29611000419 -1.0441720486
          -0.74982398748 -0.23088718951 -1.0935233831 -0.56551098824 -0.25506937504 -1.2119810581
          0.80060499907 -0.40619540215 -0.98212498426 0.89855998755 -0.35990297794 -1.2769370079
          0.94502300024 -0.16622328758 -1.0062910318 0.69177097082 -0.40261080861 -1.2026339769
          -4.5366792679 0.30343410373 -0.3805705905 -4.7940740585 0.30425521731 -0.31099230051
          -4.6376662254 0.16694931686 -0.24515900016 -4.6478972435 0.31442570686 -0.57184767723
          3.7856199741 0.69599997997 1.1387779713 3.8292720318 0.70746701956 0.84424501657
          3.8493919373 0.50689595938 1.0418950319 3.9791870117 0.71098798513 1.0759580135
          -4.8905801773 0.078228734434 -0.52854001522 -4.7940740585 0.30425521731 -0.31099230051
          -4.7995986938 0.015869349241 -0.30273678899 -5 0.09418129921 -0.34129801393
          1.6111949682 -0.21885199845 -0.057695001364 1.4527050257 -0.19449299574 -0.29091629386
          1.2570589781 -0.21799020469 -0.084225989878 1.4818120003 -0.39234900475 -0.097535997629
          -1.6665450335 0.31891724467 -0.9786170125 -1.5908279419 -0.0042438311502 -1.0808677673
          -1.4917390347 0.24093736708 -0.86661797762 -1.6238960028 0.24829168618 -1.1837819815
          1.4334243536 0.60390299559 0.081108003855 1.2316360474 0.45880398154 0.28732401133
          1.4247305393 0.51622200012 0.439211905 1.594933033 0.40332198143 0.19972449541
          2.9097163677 -0.086468994617 1.5041099787 3.1324748993 -0.012670002878 1.333466053
          3.0577402115 0.15238833427 1.6229300499 2.78916049 0.10995809734 1.4312570095
          4.9762878418 0.4914059937 1.7501740456 4.9700350761 0.50200498104 1.9810703993
          5.1484160423 0.71598798037 1.853268981 5.1873960495 0.42186701298 1.8164199591
          -1.1468379498 -0.10479596257 -1.0598422289 -1.3511379957 -0.033111680299 -1.0856614113
          -1.3524429798 -0.2001490891 -0.93651300669 -1.225301981 -0.29465007782 -1.0979983807
          0.9384559989 -0.42108929157 -0.3525930047 0.76020401716 -0.4297708869 -0.45740100741
          0.93293100595 -0.41566240788 -0.55624979734 0.85404402018 -0.22467930615 -0.32312399149
          4.9495658875 0.71378302574 1.7495089769 4.9700350761 0.50200498104 1.9810703993
          5.1484160423 0.71598798037 1.853268981 4.9762878418 0.4914059937 1.7501740456
          -2.9489409924 0.21040900052 -1.2003070116 -2.8605468273 0.030474800617 -1.0333030224
          -2.7915763855 -0.063147902489 -1.2559100389 -3.0489430428 -0.05935529992 -1.1577789783
          4.9495658875 0.71378302574 1.7495089769 5.1484160423 0.71598798037 1.853268981
          5.1064062119 0.72903001308 1.5365300179 4.9762878418 0.4914059937 1.7501740456
          -0.55233097076 -0.44661706686 -0.61871999502 -0.49013099074 -0.27833321691 -0.80703800917
          -0.47427800298 -0.47527450323 -0.90863901377 -0.31607699394 -0.47428938746 -0.76736098528
          -4.7775506973 -0.01067915 -0.02922873944 -5 0.1004910022 -0.10199099779
          -5 0.28975299001 0.088944099844 -5 -0.004447159823 0.13623799384
          -1.2506010532 -0.14467050135 -1.2530030012 -1.4465429783 -0.48274430633 -1.2523479462
          -1.225301981 -0.29465007782 -1.0979983807 -1.2170039415 -0.47567608953 -1.2552779913
          5.0016570091 -0.09311401844 1.6771680117 5.1637601852 -0.29948699474 1.865844965
          5.2169570923 -0.28806000948 1.5943369865 4.9833068848 -0.29716300964 1.80032897
          0.51523089409 0.14683929086 -1.3929450512 0.39721819758 -0.010242197663 -1.4243580103
          0.2478390038 0.18538750708 -1.4635369778 0.30460509658 0.093160197139 -1.2340450287
          1.5088090897 -0.39408099651 0.20298700035 1.220471859 -0.14656609297 0.24174399674
          1.6178350449 -0.15927900374 0.18571281433 1.4026149511 -0.25017899275 0.37467199564
          -3.4902799129 0.19203700125 -0.97851699591 -3.6431386471 0.012811898254 -0.67573601007
          -3.4256296158 -0.04080190137 -0.73200601339 -3.683809042 -0.017515730113 -0.89673197269
          -2.2852199078 -0.19466769695 -0.68211597204 -2.1525170803 -0.34244281054 -0.58914798498
          -2.2919089794 -0.51172739267 -0.61034798622 -2.4078168869 -0.30346369743 -0.49435901642
          -1.3524429798 -0.2001490891 -0.93651300669 -1.3339209557 -0.1199079901 -0.60588997602
          -1.1560570002 -0.29963886738 -0.85426801443 -1.4142980576 -0.3536285162 -0.59887999296
          -4.2066240311 -0.3275590539 0.070990994573 -4.0129318237 -0.49603816867 0.055561993271
          -4.2212285995 -0.30168271065 -0.17994959652 -4.247215271 -0.5039280057 -0.16240300238
          2.204267025 -0.35545799136 0.084110699594 2.4003479481 -0.15540499985 -0.052411012352
          2.457036972 -0.14717501402 0.22073699534 2.2638959885 -0.015994004905 0.14143829048
          2.7781450748 0.40818598866 0.68238705397 3.0274419785 0.16455459595 0.84069955349
          2.7515289783 0.13377730548 0.70048117638 2.8959798813 0.32024499774 1.0456169844
          -4.4366278648 -0.28509175777 -0.13918270171 -4.5369677544 -0.4948824048 0.0206808988
          -4.4754362106 -0.32264238596 0.12133580446 -4.3332242966 -0.49554929137 0.023328900337
          2.0917739868 0.6197360158 -0.41446819901 2.1847960949 0.4558160007 -0.22780369222
          2.2999079227 0.63358300924 -0.23076201975 2.2756080627 0.47857099771 -0.45266869664
          2.5418469906 0.64766597748 0.10435001552 2.5381810665 0.37671899796 0.083356015384
          2.6001980305 0.64967000484 -0.17084601521 2.4292700291 0.64129698277 -0.068533986807
          -0.78456199169 0.49820140004 -0.62747001648 -0.84227001667 0.51791298389 -0.87789303064
          -1.0079799891 0.43430522084 -0.63536000252 -0.76281398535 0.3376955986 -0.79411798716
          1.5088090897 -0.39408099651 0.20298700035 1.220471859 -0.14656609297 0.24174399674
          1.2570589781 -0.21799020469 -0.084225989878 1.6178350449 -0.15927900374 0.18571281433
          2.1685369015 0.31989699602 -0.53797519207 1.9701869488 0.36129301786 -0.32886689901
          2.2756080627 0.47857099771 -0.45266869664 2.1847960949 0.4558160007 -0.22780369222
          3.1671938896 0.66265797615 1.2060799599 3.220927 0.38111701608 1.2094409466
          3.138158083 0.46699899435 1.4169000387 3.4408869743 0.48258000612 1.1898485422
          4.4501152039 0.014983006753 1.5191400051 4.3275651932 -0.10407299548 1.3448059559
          4.5728478432 -0.045872993767 1.2065700293 4.344976902 0.097388997674 1.2805169821
          4.3275651932 -0.10407299548 1.3448059559 4.4213061333 -0.052222006023 1.1044199467
          4.5728478432 -0.045872993767 1.2065700293 4.344976902 0.097388997674 1.2805169821
          0.53313398361 0.019717698917 -1.1568260193 0.39721819758 -0.010242197663 -1.4243580103
          0.30460509658 0.093160197139 -1.2340450287 0.22415600717 -0.082622297108 -1.3033210039
          -0.04825539887 0.29193970561 -0.48039200902 -0.027907999232 0.12770339847 -0.67658001184
          0.13325339556 0.2185369879 -0.41051501036 0.18104350567 0.33106470108 -0.62392002344
          1.5375082493 0.031310401857 0.49632260203 1.3497146368 0.084297902882 0.35733398795
          1.6255400181 0.14701509476 0.17244631052 1.5715531111 0.22482000291 0.53529620171
          2.204267025 -0.35545799136 0.084110699594 2.0367250443 -0.15883000195 0.10807870328
          2.2638959885 -0.015994004905 0.14143829048 2.2042989731 -0.13768899441 0.32803380489
          -3.5090770721 0.16754239798 -0.19926699996 -3.5465004444 -0.0025727003813 -0.37637498975
          -3.4188709259 -0.052383501083 -0.084667012095 -3.2438099384 0.03149420023 -0.20086398721
          -0.54605597258 0.061542298645 -0.81870001554 -0.42777499557 0.06476470083 -1.0590546131
          -0.36743998528 -0.0037765994202 -0.87996399403 -0.38182199001 0.22295188904 -0.90033400059
          -1.1999200583 0.31322172284 -0.84429401159 -1.0079799891 0.43430522084 -0.63536000252
          -1.2614649534 0.29969120026 -0.61504000425 -1.1992089748 0.51642417908 -0.64087301493
          -0.04825539887 0.29193970561 -0.48039200902 0.13325339556 0.2185369879 -0.41051501036
          0.2141688019 0.56765770912 -0.42459902167 0.18104350567 0.33106470108 -0.62392002344
          0.90715700388 0.53051358461 -1.2455300093 0.90016597509 0.3842356205 -1.0304160118
          1.2254769802 0.51881307364 -1.0980240107 1.0951930285 0.35682529211 -1.1645820141
          4.8466658592 0.47665601969 2.4843699932 4.8932499886 0.67041701078 2.498333931
          4.7806420326 0.47793102264 2.2329978943 5.0721921921 0.69339102507 2.3749821186
          4.9700350761 0.50200498104 1.9810703993 4.9558830261 0.24193349481 1.938804388
          5.1873960495 0.42186701298 1.8164199591 4.9762878418 0.4914059937 1.7501740456
          -1.5769430399 -0.27982699871 -1.0531499386 -1.7530180216 -0.49406966567 -1.0832090378
          -1.6408480406 -0.49996328354 -0.93084400892 -1.4523919821 -0.49702548981 -0.96172600985
          -2.0370030403 0.2986676991 -0.69848400354 -2.0596408844 0.23887120187 -0.93493187428
          -1.7904880047 0.17986288667 -0.85320198536 -1.9829889536 0.48603790998 -0.84902697802
          -0.20239399374 0.51886868477 -1.2246849537 -0.33649298549 0.53052771091 -0.93731302023
          -0.26240199804 0.35430929065 -1.093870163 -0.41940999031 0.51631212234 -1.1652537584
          1.669698596 0.61242300272 0.38457930088 1.594933033 0.40332198143 0.19972449541
          1.8868869543 0.43748298287 0.51323801279 1.8911110163 0.31002601981 0.28474500775
          3.5387530327 0.16991350055 1.193629384 3.6544830799 0.36574301124 1.0680350065
          3.8746159077 0.2987203002 0.98308598995 3.9656031132 0.16085809469 1.1511030197
          0.69095832109 -0.066606298089 -0.12778200209 0.49385619164 -0.061818897724 -0.24398499727
          0.60305899382 0.11440300196 -0.49014899135 0.58858072758 0.152926296 -0.17830699682
          4.9558830261 0.24193349481 1.938804388 4.6265969276 0.37918898463 2.0835940838
          4.9700350761 0.50200498104 1.9810703993 4.7842068672 0.23646980524 2.2136070728
          4.690433979 -0.097899012268 1.9307255745 4.7825579643 0.012594994158 1.737795949
          4.7131490707 0.21425390244 1.868008852 4.5158967972 -0.051814988256 1.7898253202
          4.3348088264 0.0020780034829 2.0050890446 4.690433979 -0.097899012268 1.9307255745
          4.659427166 0.057737004012 2.0819699764 4.5158967972 -0.051814988256 1.7898253202
          0.57541400194 -0.43666920066 -0.55330497026 0.61227500439 -0.20498250425 -0.7539935708
          0.75424200296 -0.42280769348 -0.65912491083 0.51021200418 -0.21610671282 -0.49635899067
          -0.098812997341 0.27493330836 -0.95051121712 -0.26240199804 0.35430929065 -1.093870163
          -0.18521800637 0.03266672045 -1.0619240999 -0.2287349999 0.24483269453 -1.2839930058
          -1.1546920538 -0.21682497859 -0.62265998125 -1.1560570002 -0.29963886738 -0.85426801443
          -1.0522500277 -0.4041929543 -0.63874000311 -0.96335202456 -0.23516255617 -0.63407999277
          4.9700350761 0.50200498104 1.9810703993 4.7996368408 0.69749897718 1.943791151
          4.9762878418 0.4914059937 1.7501740456 4.9495658875 0.71378302574 1.7495089769
          -3.2104935646 -0.0044391001575 -0.70767199993 -2.9588835239 0.10583119839 -0.81790500879
          -2.9707868099 -0.088433094323 -0.74900501966 -3.0457994938 0.036590598524 -0.58276486397
          2.1158709526 -0.35618299246 -0.26636224985 2.0414140224 -0.19573998451 -0.65807902813
          2.2598950863 -0.19575500488 -0.50656956434 1.9658960104 -0.19827999175 -0.2762555182
          -2.1977200508 0.47695589066 -0.94357067347 -2.4344344139 0.47441139817 -0.8509837985
          -2.3114500046 0.28709989786 -0.8894675374 -2.3987627029 0.46843078732 -1.1548199654
          -4.1460008621 0.48432341218 -0.41542598605 -4.3347187042 0.29005420208 -0.44296199083
          -4.1666903496 0.27508330345 -0.13123139739 -4.1332221031 0.29565098882 -0.49425297976
          2.547467947 0.16419440508 0.46359831095 2.3112504482 0.13608121872 0.81553798914
          2.387912035 0.31022301316 0.66756099463 2.7515289783 0.13377730548 0.70048117638
          -1.6158000231 0.28506198525 -0.55510002375 -1.8200160265 0.49221810699 -0.71408998966
          -1.8314759731 0.27363407612 -0.6662620306 -1.6519750357 0.49484336376 -0.84614998102
          -1.795637846 0.26627320051 -1.3385109901 -1.915242672 0.15616099536 -1.1708220243
          -1.6338564157 0.02010091953 -1.3360049725 -1.8840471506 -0.017964780331 -1.309893012
          4.5158967972 -0.051814988256 1.7898253202 4.3472771645 -0.29031598568 1.7298301458
          4.3977518082 -0.2796689868 1.9731270075 4.6009202003 -0.29254201055 1.7585229874
          -2.2852199078 -0.19466769695 -0.68211597204 -1.9959019423 -0.25378808379 -0.72344702482
          -1.9904079437 0.054340101779 -0.69911700487 -2.0607159138 -0.073489099741 -0.92311251163
          -3.0384581089 0.17068129778 -0.37494298816 -3.2953541279 -0.00062000047183 -0.49288973212
          -3.2438099384 0.03149420023 -0.20086398721 -2.9494459629 -0.043818198144 -0.28794598579
          3.9967598915 0.6620669961 1.8450440168 3.9373788834 0.45778700709 1.9478909969
          3.8146090508 0.38017898798 1.7155710459 3.8356730938 0.6680150032 1.6421200037
          -2.1130719185 -0.047264300287 -1.1963629723 -1.8587261438 -0.19973695278 -1.1918489933
          -2.1019701958 -0.27823245525 -1.0662670135 -2.0607159138 -0.073489099741 -0.92311251163
          0.046897001565 0.32769879699 -1.3547029495 -0.061303000897 0.37349951267 -1.1732430458
          -0.2287349999 0.24483269453 -1.2839930058 -0.20239399374 0.51886868477 -1.2246849537
          0.0018850000342 -0.13561350107 -0.81675201654 -0.025832999498 0.026944899932 -0.47304499149
          -0.027907999232 0.12770339847 -0.67658001184 0.16142000258 0.02375430055 -0.62841498852
          3.9962799549 0.50118601322 1.5290913582 3.8356730938 0.6680150032 1.6421200037
          3.9967598915 0.6620669961 1.8450440168 3.8146090508 0.38017898798 1.7155710459
          -4.3956904411 -0.0096592828631 -0.099004216492 -4.436715126 0.026354400441 -0.37169200182
          -4.4922027588 -0.20494790375 -0.36291068792 -4.2499485016 -0.19019518793 -0.35626098514
          -4.0872659683 -0.040365900844 -0.50246196985 -3.9709320068 -0.19345550239 -0.77938902378
          -4.1338410378 -0.23460809886 -0.7192620039 -3.9470174313 -0.23043839633 -0.45734000206
          2.5706369877 -0.14441801608 0.49783235788 2.4130580425 -0.0050789942034 0.39745768905
          2.2042989731 -0.13768899441 0.32803380489 2.457036972 -0.14717501402 0.22073699534
          3.804610014 0.20091049373 1.4191051722 3.5387530327 0.16991350055 1.193629384
          3.7195839882 0.0037419972941 1.0903520584 3.9656031132 0.16085809469 1.1511030197
          -0.76539498568 -0.02696910128 -0.88151800632 -0.69384098053 0.20343409479 -0.94639998674
          -0.89497202635 0.0030651004054 -1.1271020174 -0.61719799042 -0.039664398879 -1.1887242794
          3.902930975 -0.018859993666 0.7255499959 3.6721630096 0.17420139909 0.90603202581
          3.9685349464 0.18286730349 0.78710997105 3.7195839882 0.0037419972941 1.0903520584
          -2.5134499073 -0.51176577806 -0.47904199362 -2.5790920258 -0.26749420166 -0.70352119207
          -2.7287049294 -0.2789902091 -0.37658300996 -2.7047069073 -0.50918275118 -0.67922121286
          1.1473189592 0.12026190013 -0.89047002792 1.3628020287 0.069748699665 -0.7095310092
          1.524772048 0.25381958485 -0.94698798656 1.4039119482 0.11461269855 -1.0208369493
          -0.42572999001 -0.2455662936 -0.58765000105 -0.29678198695 -0.19139230251 -0.85894298553
          -0.31607699394 -0.47428938746 -0.76736098528 -0.13618600368 -0.29588839412 -0.75555801392
          3.0115010738 0.44793599844 0.41370400786 3.1142799854 0.34143099189 0.65826201439
          3.4906380177 0.39700400829 0.43757998943 3.1855530739 0.35112899542 0.20670999587
          -4.3193311691 0.46817699075 0.36364999413 -4.4579524994 0.47279408574 0.21904788911
          -4.5803985596 0.47174561024 0.34353449941 -4.4553132057 0.33380118012 0.41776010394
          1.9639710188 -0.12883301079 0.49361902475 2.0687611103 0.17121970654 0.57191699743
          1.9269193411 -0.091003999114 0.78541302681 1.7765240669 0.044387601316 0.68126302958
          -2.2290380001 -0.01067822054 -0.56298202276 -2.1832900047 0.29363209009 -0.3768529892
          -2.0342888832 0.096592001617 -0.42942199111 -2.3957979679 0.17064259946 -0.29074698687
          2.4331591129 0.31312698126 0.30493488908 2.5486719608 0.4433940053 0.48740598559
          2.7568380833 0.32088699937 0.34903898835 2.547467947 0.16419440508 0.46359831095
          -0.97820800543 0.24167840183 -0.90613996983 -0.91159600019 0.073344998062 -0.62898999453
          -0.80769598484 0.2091087997 -0.62626999617 -0.76539498568 -0.02696910128 -0.88151800632
          -1.5631556511 -0.15877270699 -1.5688300133 -1.5384149551 -0.474794209 -1.4103360176
          -1.5521390438 -0.22336211801 -1.3013720512 -1.4234830141 -0.38737499714 -1.5921599865
          2.5400059223 0.47935000062 0.92150700092 2.1746091843 0.4260700047 1.0060030222
          2.1254868507 0.43120700121 0.6656140089 2.3321909904 0.63398498297 0.92614901066
          2.832775116 0.65263402462 1.0032349825 2.968873024 0.46700000763 0.87133789062
          2.6370809078 0.64847302437 0.76524597406 2.5400059223 0.47935000062 0.92150700092
          -4.5803985596 0.47174561024 0.34353449941 -4.5983519554 0.47850579023 0.11985320598
          -4.7318658829 0.32032591105 0.23805809021 -4.4579524994 0.47279408574 0.21904788911
          2.3722069263 0.33220499754 -0.39323601127 2.2037799358 0.33316999674 -0.035911995918
          2.4272270203 0.24140749872 -0.088780999184 2.1084809303 0.16455329955 -0.24006199837
          -0.96815401316 0.02664539963 -0.92440497875 -1.1171029806 0.13310749829 -0.81390601397
          -1.0281820297 -0.050216499716 -0.63028001785 -1.1518950462 -0.061164274812 -0.8551800251
          -0.96335202456 -0.23516255617 -0.63407999277 -1.1518950462 -0.061164274812 -0.8551800251
          -1.1560570002 -0.29963886738 -0.85426801443 -0.9426779747 -0.20086880028 -0.89714598656
          -1.1560570002 -0.29963886738 -0.85426801443 -1.1518950462 -0.061164274812 -0.8551800251
          -1.3339209557 -0.1199079901 -0.60588997602 -1.3524429798 -0.2001490891 -0.93651300669
          -0.91159600019 0.073344998062 -0.62898999453 -1.0616509914 0.19502159953 -0.62691998482
          -1.0281820297 -0.050216499716 -0.63028001785 -1.1171029806 0.13310749829 -0.81390601397
          2.5486719608 0.4433940053 0.48740598559 2.387912035 0.31022301316 0.66756099463
          2.4331591129 0.31312698126 0.30493488908 2.2181119919 0.41253200173 0.3796235919
          2.5486719608 0.4433940053 0.48740598559 2.387912035 0.31022301316 0.66756099463
          2.547467947 0.16419440508 0.46359831095 2.4331591129 0.31312698126 0.30493488908
          -2.1116633415 0.079452298582 -1.0412242413 -2.1130719185 -0.047264300287 -1.1963629723
          -1.8356319666 0.0078969011083 -1.0082437992 -1.915242672 0.15616099536 -1.1708220243
          4.4501152039 0.014983006753 1.5191400051 4.2718300819 0.15794679523 1.6279176474
          4.4655342102 0.20313693583 1.8080023527 4.5158967972 -0.051814988256 1.7898253202
          4.8643531799 -0.29935500026 2.0071020126 4.8122911453 -0.30095601082 2.246833086
          4.7630262375 -0.078894995153 2.2290580273 4.9883351326 -0.0025349962525 2.1726241112
          2.1427390575 -0.046670995653 -0.085950896144 2.2337059975 -0.17428898811 -0.25786739588
          2.4003479481 -0.15540499985 -0.052411012352 2.4858739376 -0.02445499599 -0.33545398712
          4.5372681618 0.68655800819 1.2324299812 4.3628559113 0.71818900108 1.3685749769
          4.559112072 0.72245299816 1.4581370354 4.5152788162 0.44570598006 1.5512629747
          0.30814930797 0.31706541777 -1.2523280382 0.081534996629 0.22075429559 -1.1755410433
          -0.061303000897 0.37349951267 -1.1732430458 0.12977400422 0.53239011765 -1.1151189804
          -1.6226379871 0.13752751052 -0.73393601179 -1.7904880047 0.17986288667 -0.85320198536
          -1.5145759583 -0.018870471045 -0.82699400187 -1.5908279419 -0.0042438311502 -1.0808677673
          -1.5874071121 0.47615900636 -1.3606339693 -1.7796988487 0.44841960073 -1.5478500128
          -1.8760517836 0.47185769677 -1.3252899647 -1.795637846 0.26627320051 -1.3385109901
          -0.99887502193 -0.062538303435 -1.3665850163 -0.96911400557 -0.012546800077 -1.6096899509
          -0.78262102604 -0.069029003382 -1.6080299616 -0.7670930028 0.060932602733 -1.3277369738
          -5 0.15884299576 0.21330599487 -4.7775506973 -0.01067915 -0.02922873944
          -5 0.28975299001 0.088944099844 -5 -0.004447159823 0.13623799384
          0.51523089409 0.14683929086 -1.3929450512 0.74059998989 0.11394579709 -1.0505290031
          0.64630901814 0.29072648287 -1.3438220024 0.64788299799 -0.0059197037481 -1.3478369713
          3.4617619514 -0.034863006324 0.83526402712 3.241795063 0.17628619075 0.51923000813
          3.4745230675 0.094017997384 0.40399199724 3.4640750885 0.2319137007 0.72248202562
          -4.0872659683 -0.040365900844 -0.50246196985 -4.1204099655 0.088588900864 -0.72504401207
          -3.8436272144 -0.0084195006639 -0.544039011 -3.93171525 0.23039670289 -0.4976850152
          -4.2544279099 -0.066851697862 -0.67942899466 -4.1338410378 -0.23460809886 -0.7192620039
          -4.3519821167 -0.3447792232 -0.6417530179 -4.1456823349 -0.32185968757 -0.5048879981
          -1.3283799887 0.50588327646 -0.82055300474 -1.2614649534 0.29969120026 -0.61504000425
          -1.1999200583 0.31322172284 -0.84429401159 -1.4917390347 0.24093736708 -0.86661797762
          -1.3524429798 -0.2001490891 -0.93651300669 -1.3387739658 0.1015701443 -0.80373698473
          -1.5145759583 -0.018870471045 -0.82699400187 -1.3511379957 -0.033111680299 -1.0856614113
          -0.080162003636 0.27255320549 -1.5318399668 -0.2287349999 0.24483269453 -1.2839930058
          -0.29748898745 0.35435709357 -1.5664999485 -0.12036799639 0.50918620825 -1.5231349468
          0.21651309729 -0.46012639999 -0.53555697203 0.27352508903 -0.21387378871 -0.36756598949
          0.39233699441 -0.44935038686 -0.54869902134 0.32017090917 -0.4122928977 -0.35579401255
          4.2718300819 0.15794679523 1.6279176474 4.1660380363 0.37686598301 1.8869049549
          4.2172560692 0.35686299205 1.4943759441 4.2633280754 0.48635900021 1.6941789389
          -1.6158000231 0.28506198525 -0.55510002375 -1.6519750357 0.49484336376 -0.84614998102
          -1.4990010262 0.46406769753 -0.58357000351 -1.8200160265 0.49221810699 -0.71408998966
          0.85404402018 -0.22467930615 -0.32312399149 0.99458998442 -0.022154798731 -0.49672108889
          1.0725090504 -0.1251232028 -0.30668699741 0.86870998144 0.033326499164 -0.31085899472
          -4.7578816414 0.28667363524 -0.042721800506 -4.9290013313 0.49626871943 -0.082679122686
          -4.8178825378 0.48557460308 0.10024909675 -5 0.28975299001 0.088944099844
          2.2037799358 0.33316999674 -0.035911995918 2.2181119919 0.41253200173 0.3796235919
          2.3142609596 0.44252300262 0.15573300421 2.2750039101 0.14374065399 0.29926979542
          -4.1456823349 -0.32185968757 -0.5048879981 -4.0158720016 -0.37966567278 -0.75769299269
          -3.9198260307 -0.52072381973 -0.66412502527 -3.9470174313 -0.23043839633 -0.45734000206
          4.0169057846 0.0046400059946 2.1881299019 4.3348088264 0.0020780034829 2.0050890446
          4.1488780975 -0.13552299142 1.9172199965 4.2298059464 -0.09465200454 2.2884199619
          3.0001080036 0.49131900072 1.1801650524 2.8959798813 0.32024499774 1.0456169844
          2.8278307915 0.37164700031 1.4777669907 3.1057059765 0.21902000904 1.2990050316
          3.9909090996 0.69799000025 1.3503149748 4.1757931709 0.68295997381 1.7038977146
          4.3628559113 0.71818900108 1.3685749769 4.2114582062 0.52715998888 1.3034000397
          3.6239950657 -0.30487498641 0.76384800673 3.4617619514 -0.034863006324 0.83526402712
          3.5389170647 -0.30982100964 1.044885993 3.3760828972 -0.31359198689 0.77911198139
          3.89149189 -0.08670001477 1.8603260517 4.0169057846 0.0046400059946 2.1881299019
          3.961992979 -0.15715098381 2.1520600319 3.8050630093 0.010312004946 2.0734400749
          1.5601429939 -0.16315901279 -0.66583400965 1.4899770021 -0.38008698821 -0.65395200253
          1.2825410366 -0.16882799566 -0.83733904362 1.3120340109 -0.15288600326 -0.5459626317
          -2.6722416878 0.17765410244 -0.99963802099 -2.9489409924 0.21040900052 -1.2003070116
          -2.7324504852 0.10715190321 -1.2788300514 -2.8611981869 0.29218497872 -1.0245879889
          3.3933129311 0.66335201263 1.4056479931 3.6373169422 0.67194199562 1.4793165922
          3.4408869743 0.48258000612 1.1898485422 3.7163519859 0.46678900719 1.408038497
          -1.1560570002 -0.29963886738 -0.85426801443 -1.3335059881 -0.48872581124 -1.1038045883
          -1.3182120323 -0.50291794538 -0.77375298738 -1.0521889925 -0.48985919356 -0.94649702311
          1.9902969599 0.62398999929 0.42160499096 1.7462838888 0.61548000574 0.6637160182
          2.0345966816 0.62387102842 0.84213399887 1.8868869543 0.43748298287 0.51323801279
          -0.19496299326 0.017406899482 -1.3360270262 -0.42777499557 0.06476470083 -1.0590546131
          -0.2287349999 0.24483269453 -1.2839930058 -0.18521800637 0.03266672045 -1.0619240999
          4.0440011024 0.18789739907 1.9961689711 3.804297924 0.13001829386 1.8220219612
          3.8050630093 0.010312004946 2.0734400749 3.89149189 -0.08670001477 1.8603260517
          1.3120340109 -0.15288600326 -0.5459626317 1.2987240553 -0.39872199297 -0.33902829885
          1.0542720556 -0.20917788148 -0.54995292425 1.0725090504 -0.1251232028 -0.30668699741
          0.76020401716 -0.4297708869 -0.45740100741 0.52299612761 -0.44770920277 -0.3446649909
          0.57541400194 -0.43666920066 -0.55330497026 0.51021200418 -0.21610671282 -0.49635899067
          -0.16879400611 0.54172569513 -0.80274397135 -0.098812997341 0.27493330836 -0.95051121712
          -0.032131001353 0.33743911982 -0.72442996502 0.049058001488 0.54692262411 -0.80024498701
          -0.012586000375 -0.43688291311 -1.2338080406 -0.19379499555 -0.24117720127 -1.3589559793
          -0.0075119999237 -0.13963499665 -1.2594619989 -0.19269900024 -0.26168438792 -1.0995333195
          -3.648727417 0.16803780198 -0.52384102345 -3.8436272144 -0.0084195006639 -0.544039011
          -3.7815887928 0.27240249515 -0.66369998455 -3.93171525 0.23039670289 -0.4976850152
          -2.825469017 0.27062919736 -0.34245297313 -3.0915300846 0.47361189127 -0.20009501278
          -2.9465370178 0.2871569097 -0.061487998813 -3.0384581089 0.17068129778 -0.37494298816
          -2.3633306026 -0.018299350515 -1.2072839737 -2.1130719185 -0.047264300287 -1.1963629723
          -2.1506009102 0.25718417764 -1.2337720394 -2.2146024704 0.15617579222 -1.4417170286
          -2.9584069252 -0.33283078671 -0.35879898071 -2.9948811531 -0.50990730524 -0.57723468542
          -2.8012299538 -0.51003861427 -0.44231700897 -2.8640635014 -0.32550418377 -0.67871928215
          4.6735458374 0.19949239492 1.5503569841 4.5587711334 0.13435800374 1.2057100534
          4.4501152039 0.014983006753 1.5191400051 4.725110054 0.0005410007434 1.2883199453
          4.691215992 -0.25143399835 1.2670099735 4.5728478432 -0.045872993767 1.2065700293
          4.4976420403 -0.29328599572 1.5345549583 4.4422369003 -0.2959190011 1.2816729546
          -2.7894101143 -0.19218939543 -0.12471599877 -2.8682529926 0.10229609907 -0.093391999602
          -2.9494459629 -0.043818198144 -0.28794598579 -2.6104540825 0.0081983003765 -0.20189599693
          -1.201603055 0.29143372178 -1.4187309742 -1.206567049 0.2027631104 -1.6014900208
          -1.1884590387 0.063980542123 -1.4178910255 -1.0434730053 0.12597134709 -1.60631001
          -3.8436272144 -0.0084195006639 -0.544039011 -3.8928060532 -0.036693397909 -0.81056702137
          -3.6431386471 0.012811898254 -0.67573601007 -3.7815887928 0.27240249515 -0.66369998455
          -5 -0.39700898528 0.035171099007 -5 -0.49631300569 0.38468599319
          -5 -0.26007699966 0.21836000681 -4.8224816322 -0.4885019958 0.14574058354
          -2.6776423454 0.47449350357 -0.75034171343 -2.9246742725 0.47127839923 -0.80925703049
          -2.7090830803 0.31708621979 -0.6229904294 -2.7856142521 0.29197818041 -0.82188498974
          4.4522380829 0.45779499412 1.8534209728 4.3718128204 0.25128540397 2.104501009
          4.1660380363 0.37686598301 1.8869049549 4.402616024 0.45689401031 2.1667981148
          -3.7815887928 0.27240249515 -0.66369998455 -3.8436272144 -0.0084195006639 -0.544039011
          -3.9523050785 0.21237049997 -0.78943997622 -3.93171525 0.23039670289 -0.4976850152
          3.3829259872 0.46805399656 0.71429997683 3.427726984 0.34208199382 0.94024497271
          3.6095719337 0.49926799536 0.86267101765 3.4640750885 0.2319137007 0.72248202562
          1.8443620205 0.16656500101 -0.47324600816 1.8257160187 0.17760980129 -0.11040610075
          1.6138050556 0.3192229867 -0.46323099732 1.9701869488 0.36129301786 -0.32886689901
          3.2219541073 0.45492699742 0.97522252798 2.968873024 0.46700000763 0.87133789062
          3.0274419785 0.16455459595 0.84069955349 3.1142799854 0.34143099189 0.65826201439
          4.8643531799 -0.29935500026 2.0071020126 5.0844421387 -0.30479300022 2.0486927032
          4.9883351326 -0.0025349962525 2.1726241112 4.908780098 -0.05460799858 1.9473679066
          2.9922840595 0.30892300606 0.059962000698 2.7568380833 0.32088699937 0.34903898835
          3.0115010738 0.44793599844 0.41370400786 3.1855530739 0.35112899542 0.20670999587
          -4.0129318237 -0.49603816867 0.055561993271 -4.0016961098 -0.32739970088 -0.24166919291
          -3.9805979729 -0.2818211019 0.12366101146 -4.0883383751 -0.19288347661 -0.063150003552
          -2.7823200226 0.016783099622 -0.68633919954 -2.8852050304 -0.13799700141 -0.5307559967
          -2.707750082 0.14897160232 -0.50897496939 -2.7312269211 -0.032895799726 -0.39067798853
          1.9808440208 -0.36953899264 0.4755859971 2.2867779732 -0.35515400767 0.54491502047
          2.1764740944 -0.18138699234 0.65020596981 2.2042989731 -0.13768899441 0.32803380489
          2.2750039101 0.14374065399 0.29926979542 2.4331591129 0.31312698126 0.30493488908
          2.4272270203 0.24140749872 -0.088780999184 2.4627220631 0.06453820318 0.024974999949
          -3.4521927834 -0.28309810162 -0.73375397921 -3.5607392788 -0.34819129109 -0.49605900049
          -3.3584003448 -0.26359349489 -0.49015578628 -3.3740890026 -0.51318377256 -0.76919901371
          1.6111949682 -0.21885199845 -0.057695001364 1.8071659803 -0.10879799724 -0.12797890604
          1.8173689842 -0.37339198589 -0.084958538413 2.0367250443 -0.15883000195 0.10807870328
          5.2508559227 0.28233119845 1.5107899904 5.1873960495 0.42186701298 1.8164199591
          5.0874519348 0.48010200262 1.4636000395 5.3040738106 0.50984299183 1.5398700237
          -4.1460008621 0.48432341218 -0.41542598605 -4.1525735855 0.49060940742 -0.62944197655
          -4.1332221031 0.29565098882 -0.49425297976 -3.8304586411 0.47921529412 -0.44864699244
          2.7568380833 0.32088699937 0.34903898835 2.7781450748 0.40818598866 0.68238705397
          3.1142799854 0.34143099189 0.65826201439 2.9617218971 0.11532790214 0.41656598449
          1.9639710188 -0.12883301079 0.49361902475 2.0367250443 -0.15883000195 0.10807870328
          2.2042989731 -0.13768899441 0.32803380489 1.8810739517 -0.025785999373 0.24052999914
          -0.96911400557 -0.012546800077 -1.6096899509 -1.1307909489 -0.13907830417 -1.6104199886
          -0.99887502193 -0.062538303435 -1.3665850163 -0.95317101479 -0.27932810783 -1.4066259861
          -4.4442939758 -0.11693099886 -0.6205059886 -4.6876730919 -0.14474339783 -0.56215977669
          -4.6492214203 0.036135789007 -0.56955337524 -4.626159668 -0.03600018099 -0.37031018734
          -4.7094054222 0.49808984995 -0.25924840569 -4.7088990211 0.50314342976 -0.47985681891
          -4.7940740585 0.30425521731 -0.31099230051 -4.5366792679 0.30343410373 -0.3805705905
          4.6838960648 0.53327900171 2.4624800682 4.8932499886 0.67041701078 2.498333931
          4.7806420326 0.47793102264 2.2329978943 4.8466658592 0.47665601969 2.4843699932
          -2.8611981869 0.29218497872 -1.0245879889 -2.7856142521 0.29197818041 -0.82188498974
          -2.9588835239 0.10583119839 -0.81790500879 -3.0947728157 0.28662750125 -0.90678101778
          1.1257488728 0.21291010082 0.19439199567 1.3497146368 0.084297902882 0.35733398795
          1.369579196 0.12671080232 0.095050007105 1.220471859 -0.14656609297 0.24174399674
          -2.1977200508 0.47695589066 -0.94357067347 -2.3374700546 0.48206248879 -0.62753897905
          -2.3114500046 0.28709989786 -0.8894675374 -2.4344344139 0.47441139817 -0.8509837985
          -2.6269614697 -0.066813401878 -1.0421299934 -2.82984519 -0.19690430164 -0.8898460269
          -2.5444853306 -0.19624508917 -0.90569740534 -2.6056780815 -0.30553308129 -1.0694279671
          3.0274419785 0.16455459595 0.84069955349 3.147439003 -0.0024279970676 0.66096997261
          2.846298933 -0.090493999422 0.57238131762 2.9822580814 -0.12804400921 0.81096309423
          -4.2844419479 0.10605479777 -0.67162799835 -4.1674909592 0.13877829909 -0.35717999935
          -4.0872659683 -0.040365900844 -0.50246196985 -4.436715126 0.026354400441 -0.37169200182
          -4.1666903496 0.27508330345 -0.13123139739 -4.3490223885 0.21022440493 0.13521999121
          -4.0705108643 0.13585180044 0.0080800065771 -4.2035307884 0.079204000533 -0.13781389594
          -4.777050972 -0.31894397736 0.2911812067 -4.8936700821 -0.25269600749 0.5
          -4.6756920815 -0.17933808267 0.46103820205 -4.6614847183 -0.47366380692 0.40119040012
          -4.1674909592 0.13877829909 -0.35717999935 -4.0872659683 -0.040365900844 -0.50246196985
          -4.0898427963 -0.054189000279 -0.25348520279 -3.8458154202 -0.0071441796608 -0.27063637972
          0.93579101562 0.2607139945 -0.85697698593 0.84206402302 0.052923899144 -0.65382301807
          1.0504629612 -0.041896902025 -0.74770897627 0.82348799706 -0.019467899576 -0.88339298964
          0.61579799652 -0.14052461088 -1.0343459845 0.56030297279 -0.42190849781 -0.92723238468
          0.47881600261 -0.41453048587 -1.1412249804 0.36515200138 -0.25333359838 -0.93256372213
          3.902930975 -0.018859993666 0.7255499959 3.8120110035 0.1275023967 0.66295999289
          3.7064490318 -0.11200299114 0.86057698727 3.678497076 -0.014678004198 0.55156999826
          2.7331340313 0.47387900949 1.1153179407 3.0001080036 0.49131900072 1.1801650524
          2.8959798813 0.32024499774 1.0456169844 2.8278307915 0.37164700031 1.4777669907
          -4.0883383751 -0.19288347661 -0.063150003552 -4.0129318237 -0.49603816867 0.055561993271
          -4.0016961098 -0.32739970088 -0.24166919291 -4.2066240311 -0.3275590539 0.070990994573
          1.8868869543 0.43748298287 0.51323801279 1.594933033 0.40332198143 0.19972449541
          1.6232156754 0.43198397756 0.58796167374 1.8911110163 0.31002601981 0.28474500775
          -1.8314759731 0.27363407612 -0.6662620306 -1.6519750357 0.49484336376 -0.84614998102
          -1.6226379871 0.13752751052 -0.73393601179 -1.6158000231 0.28506198525 -0.55510002375
          -2.7915763855 -0.063147902489 -1.2559100389 -3.0221710205 -0.28878861666 -1.1663730145
          -2.82984519 -0.19690430164 -0.8898460269 -2.7851204872 -0.2995711267 -1.2576700449
          1.369579196 0.12671080232 0.095050007105 1.3238321543 0.31234300137 0.3489010036
          1.594933033 0.40332198143 0.19972449541 1.6255400181 0.14701509476 0.17244631052
          -2.3957979679 0.17064259946 -0.29074698687 -2.6104540825 0.0081983003765 -0.20189599693
          -2.4275128841 0.11600639671 -0.53692299128 -2.707750082 0.14897160232 -0.50897496939
          0.15763199329 -0.010675301775 -1.4892460108 0.056278999895 0.056861169636 -1.3090289831
          -0.19496299326 0.017406899482 -1.3360270262 -0.028528999537 0.095570899546 -1.5219500065
          4.2373199463 -0.093296997249 1.6291577816 4.0705580711 0.054460007697 1.7552939653
          4.1369771957 0.033024005592 1.3592270613 4.2718300819 0.15794679523 1.6279176474
          3.7400364876 0.21424710751 2.056910038 3.5908029079 0.19661930203 1.6370530128
          3.3313462734 0.21289689839 1.8087899685 3.804297924 0.13001829386 1.8220219612
          -4.5803985596 0.47174561024 0.34353449941 -4.4579524994 0.47279408574 0.21904788911
          -4.5313487053 0.23166209459 0.25894141197 -4.4553132057 0.33380118012 0.41776010394
          -0.73458898067 -0.17205369473 -1.327262044 -0.63469898701 -0.45314198732 -1.3848659992
          -0.79623502493 -0.46506458521 -1.2561719418 -0.56551098824 -0.25506937504 -1.2119810581
          4.5017971992 -0.076010011137 2.1854460239 4.690433979 -0.097899012268 1.9307255745
          4.6318750381 -0.28834098577 2.005959034 4.7630262375 -0.078894995153 2.2290580273
          1.2157520056 0.1916974932 -1.1104990244 1.1473189592 0.12026190013 -0.89047002792
          1.3943749666 0.35700458288 -1.0173640251 1.4039119482 0.11461269855 -1.0208369493
          -1.5488374233 0.27182540298 -1.3903579712 -1.5874071121 0.47615900636 -1.3606339693
          -1.2948549986 0.4837462008 -1.4094699621 -1.3278859854 0.48927980661 -1.2198700905
          3.3571829796 0.56413400173 0.35071998835 3.0115010738 0.44793599844 0.41370400786
          3.3829259872 0.46805399656 0.71429997683 3.1142799854 0.34143099189 0.65826201439
          3.7163519859 0.46678900719 1.408038497 3.8493919373 0.50689595938 1.0418950319
          3.6058731079 0.68220502138 1.2335082293 3.6544830799 0.36574301124 1.0680350065
          0.36111998558 0.56500959396 -0.54083001614 0.18104350567 0.33106470108 -0.62392002344
          0.40944099426 0.2642891109 -0.64370203018 0.21305389702 0.5571166873 -0.6557880044
          -0.97820800543 0.24167840183 -0.90613996983 -1.182997942 0.50088942051 -1.0786180496
          -0.93034297228 0.50282591581 -1.109777689 -1.0788140297 0.51180261374 -0.85813999176
          -3.2624089718 0.0626033023 -1.0726950169 -3.275526762 0.18115669489 -0.7455739975
          -3.1125445366 -0.042645700276 -0.91890496016 -3.2104935646 -0.0044391001575 -0.70767199993
          0.27352508903 -0.21387378871 -0.36756598949 0.32963371277 -0.040354099125 -0.32682800293
          0.51021200418 -0.21610671282 -0.49635899067 0.49385619164 -0.061818897724 -0.24398499727
          1.0542720556 -0.20917788148 -0.54995292425 0.88520997763 -0.23278620839 -0.74979001284
          1.2825410366 -0.16882799566 -0.83733904362 1.0504629612 -0.041896902025 -0.74770897627
          4.4067840576 -0.28270500898 2.1856250763 4.5017971992 -0.076010011137 2.1854460239
          4.2298059464 -0.09465200454 2.2884199619 4.1882071495 -0.28400298953 2.0946230888
          -4.4093670845 -0.040471538901 0.40553438663 -4.4544172287 -0.23605190217 0.42361399531
          -4.3315758705 -0.16536140442 0.15697599947 -4.5542583466 -0.14354543388 0.282918185
          0.75424200296 -0.42280769348 -0.65912491083 0.61227500439 -0.20498250425 -0.7539935708
          0.88520997763 -0.23278620839 -0.74979001284 0.76676100492 -0.1134057045 -0.50795000792
          2.7105460167 0.65613901615 0.34329998493 2.6370809078 0.64847302437 0.76524597406
          2.9503769875 0.66597098112 0.50799697638 2.7781450748 0.40818598866 0.68238705397
          0.9058868885 0.3652240932 0.037831000984 1.1137839556 0.31430581212 -0.23879601061
          0.88630062342 0.58878719807 -0.15539897978 0.79733598232 0.39415538311 -0.3318169713
          2.2181119919 0.41253200173 0.3796235919 2.5486719608 0.4433940053 0.48740598559
          2.2841498852 0.63460797071 0.62853097916 2.4290430546 0.64191198349 0.39004901052
          -1.721953392 0.25095880032 -1.5497900248 -1.7796988487 0.44841960073 -1.5478500128
          -1.795637846 0.26627320051 -1.3385109901 -1.972568512 0.25535020232 -1.5025000572
          -4.8289003372 0.15818049014 0.46990901232 -4.6535224915 0.13568019867 0.13374620676
          -4.7318658829 0.32032591105 0.23805809021 -4.7829651833 -0.03583727777 0.25068509579
          -3.7485210896 0.47213810682 -0.081793002784 -3.9705395699 0.47333359718 0.0037210055161
          -3.6804521084 0.46754148602 0.19479499757 -4.0016899109 0.29823037982 0.14048601687
          -0.42743900418 -0.29611000419 -1.0441720486 -0.6984680295 -0.26326191425 -0.85958302021
          -0.55270302296 -0.11456199735 -0.98753702641 -0.49013099074 -0.27833321691 -0.80703800917
          3.3829259872 0.46805399656 0.71429997683 3.4640750885 0.2319137007 0.72248202562
          3.6095719337 0.49926799536 0.86267101765 3.7212340832 0.54067403078 0.62415999174
          3.3033549786 -0.086898997426 0.26347100735 3.0362560749 -0.12312699854 0.36283898354
          3.2719910145 -0.31246700883 0.38419899344 3.0622529984 -0.15697599947 0.078552998602
          2.8616578579 0.64741098881 1.2881900072 3.1671938896 0.66265797615 1.2060799599
          3.138158083 0.46699899435 1.4169000387 2.9830210209 0.64096099138 1.5882970095
          -0.29748898745 0.35435709357 -1.5664999485 -0.38828599453 0.11242230237 -1.4058929682
          -0.51359897852 0.26363918185 -1.5916399956 -0.44964700937 0.30215507746 -1.3843599558
          -3.4902799129 0.19203700125 -0.97851699591 -3.683809042 -0.017515730113 -0.89673197269
          -3.4256296158 -0.04080190137 -0.73200601339 -3.5243430138 -0.15946990252 -0.9610850215
          3.6907598972 -0.3027870059 1.7716159821 3.718173027 -0.032231997699 1.6364309788
          3.89149189 -0.08670001477 1.8603260517 3.5018596649 -0.19701200724 1.8944000006
          -2.6722416878 0.17765410244 -0.99963802099 -2.7856142521 0.29197818041 -0.82188498974
          -2.9588835239 0.10583119839 -0.81790500879 -2.8611981869 0.29218497872 -1.0245879889
          2.7543749809 0.16338352859 0.14366000891 2.8823029995 0.46633699536 -0.010378999636
          2.5381810665 0.37671899796 0.083356015384 2.7389440536 0.18060749769 -0.13687500358
          -4.2066240311 -0.3275590539 0.070990994573 -4.0129318237 -0.49603816867 0.055561993271
          -4.0016961098 -0.32739970088 -0.24166919291 -4.2212285995 -0.30168271065 -0.17994959652
          -4.5313487053 0.23166209459 0.25894141197 -4.7318658829 0.32032591105 0.23805809021
          -4.6675491333 0.29210668802 0.45158019662 -4.5989289284 0.15179400146 0.43534138799
          2.7388780117 0.4845879972 0.20156900585 2.5486719608 0.4433940053 0.48740598559
          2.7568380833 0.32088699937 0.34903898835 2.4331591129 0.31312698126 0.30493488908
          -0.55233097076 -0.44661706686 -0.61871999502 -0.62982201576 -0.48794570565 -0.79209601879
          -0.47427800298 -0.47527450323 -0.90863901377 -0.49013099074 -0.27833321691 -0.80703800917
          -4.3519821167 -0.3447792232 -0.6417530179 -4.1338410378 -0.23460809886 -0.7192620039
          -4.1995658875 -0.52305787802 -0.58140099049 -4.1456823349 -0.32185968757 -0.5048879981
          -0.028528999537 0.095570899546 -1.5219500065 -0.080162003636 0.27255320549 -1.5318399668
          -0.2287349999 0.24483269453 -1.2839930058 -0.25447899103 0.057270798832 -1.5596300364
          -1.2506010532 -0.14467050135 -1.2530030012 -1.225301981 -0.29465007782 -1.0979983807
          -1.0050040483 -0.23432028294 -1.1520009041 -1.199491024 -0.2731808126 -1.4120750427
          1.2371704578 0.59994918108 0.042260996997 1.0784057379 0.39947220683 0.1701080054
          1.1157983541 0.58637183905 0.20423699915 1.2316360474 0.45880398154 0.28732401133
          -2.2852199078 -0.19466769695 -0.68211597204 -2.4275128841 0.11600639671 -0.53692299128
          -2.2290380001 -0.01067822054 -0.56298202276 -2.526927948 -0.09825039655 -0.49015599489
          -1.7705160379 -0.013670380227 -0.72984999418 -1.8522150517 0.15278969705 -0.4879719913
          -1.6775929928 0.07707464695 -0.53350001574 -1.8855940104 -0.082297004759 -0.4747030139
          -1.8760517836 0.47185769677 -1.3252899647 -2.1687932014 0.46246668696 -1.4244270325
          -1.972568512 0.25535020232 -1.5025000572 -1.7796988487 0.44841960073 -1.5478500128
          -0.4916779995 0.53283828497 -0.76185595989 -0.38182199001 0.22295188904 -0.90033400059
          -0.24963200092 0.28975039721 -0.72652798891 -0.33649298549 0.53052771091 -0.93731302023
          -1.795637846 0.26627320051 -1.3385109901 -2.1506009102 0.25718417764 -1.2337720394
          -2.041049242 0.1184957996 -1.4851289988 -1.972568512 0.25535020232 -1.5025000572
          -3.2346680164 0.26355689764 -0.22137200832 -3.3044788837 0.4724803865 -0.1253259927
          -3.3263669014 0.39029639959 0.092840000987 -3.4597270489 0.28559470177 -0.035445000976
          2.0917739868 0.6197360158 -0.41446819901 2.0099020004 0.62074702978 -0.17452520132
          2.1847960949 0.4558160007 -0.22780369222 1.9701869488 0.36129301786 -0.32886689901
          -4.0705108643 0.13585180044 0.0080800065771 -4.0016899109 0.29823037982 0.14048601687
          -3.7695140839 0.20615190268 -0.025571003556 -3.7828290462 0.0534854047 0.25001400709
          0.5607355237 -0.26477059722 -0.21746100485 0.49385619164 -0.061818897724 -0.24398499727
          0.76676100492 -0.1134057045 -0.50795000792 0.69095832109 -0.066606298089 -0.12778200209
          5.2508559227 0.28233119845 1.5107899904 5.2795748711 0.19745920599 1.7484179735
          5.3287701607 0.017804997042 1.5262700319 5.1202697754 0.12177520245 1.4594299793
          -2.1525170803 -0.34244281054 -0.58914798498 -2.1998250484 -0.3150857985 -0.36672699451
          -2.2852199078 -0.19466769695 -0.68211597204 -2.247385025 -0.11254110187 -0.34903201461
          -2.2852199078 -0.19466769695 -0.68211597204 -2.1998250484 -0.3150857985 -0.36672699451
          -2.1525170803 -0.34244281054 -0.58914798498 -2.4078168869 -0.30346369743 -0.49435901642
          -0.0416380018 -0.36202129722 -1.5427700281 -0.14396199584 -0.17642790079 -1.5491399765
          0.26467600465 -0.18822538853 -1.4712239504 -0.0075119999237 -0.13963499665 -1.2594619989
          -4.3332242966 -0.49554929137 0.023328900337 -4.4754362106 -0.32264238596 0.12133580446
          -4.4366278648 -0.28509175777 -0.13918270171 -4.2066240311 -0.3275590539 0.070990994573
          4.6838960648 0.53327900171 2.4624800682 4.8466658592 0.47665601969 2.4843699932
          4.7806420326 0.47793102264 2.2329978943 4.819275856 0.2937990129 2.4843699932
          4.5158967972 -0.051814988256 1.7898253202 4.690433979 -0.097899012268 1.9307255745
          4.7825579643 0.012594994158 1.737795949 4.6009202003 -0.29254201055 1.7585229874
          5.3548870087 -0.21426801383 2.2027084827 5.0791130066 -0.098838992417 2.3361620903
          5.2658262253 -0.21781501174 2.420085907 5.0993762016 -0.30616301298 2.320991993
          -3.2987422943 0.26889032125 -0.46421080828 -3.2346680164 0.26355689764 -0.22137200832
          -3.4917843342 0.47428500652 -0.40278941393 -3.3044788837 0.4724803865 -0.1253259927
          -1.1120990515 0.48050779104 -1.6057850122 -1.4937491417 0.34081637859 -1.5808500051
          -1.201603055 0.29143372178 -1.4187309742 -1.206567049 0.2027631104 -1.6014900208
          4.0087571144 -0.073222987354 1.1375299692 4.1369771957 0.033024005592 1.3592270613
          4.3275651932 -0.10407299548 1.3448059559 4.0616660118 -0.29908099771 1.2974100113
          -0.19524599612 0.051735099405 -0.78870302439 -0.18521800637 0.03266672045 -1.0619240999
          -0.098812997341 0.27493330836 -0.95051121712 -0.38182199001 0.22295188904 -0.90033400059
          4.432926178 0.52034902573 1.1526700258 4.2114582062 0.52715998888 1.3034000397
          4.5152788162 0.44570598006 1.5512629747 4.4385910034 0.24091610312 1.4270139933
          -1.1120990515 0.48050779104 -1.6057850122 -1.201603055 0.29143372178 -1.4187309742
          -1.0256249905 0.49155002832 -1.3329880238 -1.0532729626 0.32143890858 -1.6126300097
          -2.1130719185 -0.047264300287 -1.1963629723 -2.1019701958 -0.27823245525 -1.0662670135
          -2.3660526276 -0.18054547906 -1.0520470142 -2.0607159138 -0.073489099741 -0.92311251163
          -2.1506009102 0.25718417764 -1.2337720394 -2.1116633415 0.079452298582 -1.0412242413
          -2.0596408844 0.23887120187 -0.93493187428 -1.915242672 0.15616099536 -1.1708220243
          1.7592899799 -0.36150300503 -0.85030698776 1.4899770021 -0.38008698821 -0.65395200253
          1.5008519888 -0.37395399809 -0.88552898169 1.5601429939 -0.16315901279 -0.66583400965
          4.4501152039 0.014983006753 1.5191400051 4.2373199463 -0.093296997249 1.6291577816
          4.2718300819 0.15794679523 1.6279176474 4.5158967972 -0.051814988256 1.7898253202
          5.2506189346 0.27369219065 2.5230898857 5.0963821411 0.18064403534 2.290708065
          5.2068247795 0.041992999613 2.5940599442 5.2890958786 -0.018920002505 2.382846117
          5.4746980667 0.36210200191 1.5940099955 5.1873960495 0.42186701298 1.8164199591
          5.3040738106 0.50984299183 1.5398700237 5.5018949509 0.57858800888 1.8484350443
          1.9701869488 0.36129301786 -0.32886689901 1.7167700529 0.42090001702 -0.091850601137
          1.9673910141 0.42298001051 0.05929357931 1.8257160187 0.17760980129 -0.11040610075
          -2.9227018356 0.26947918534 -0.61335587502 -3.0457994938 0.036590598524 -0.58276486397
          -3.2987422943 0.26889032125 -0.46421080828 -3.0384581089 0.17068129778 -0.37494298816
          -2.1107180119 0.488994807 -0.53275901079 -2.0370030403 0.2986676991 -0.69848400354
          -1.8200160265 0.49221810699 -0.71408998966 -1.9829889536 0.48603790998 -0.84902697802
          3.3033549786 -0.086898997426 0.26347100735 3.3454549313 -0.14016999304 0.62486702204
          3.2719910145 -0.31246700883 0.38419899344 3.0362560749 -0.12312699854 0.36283898354
          0.36511561275 -0.21865269542 -1.2138979435 -0.0075119999237 -0.13963499665 -1.2594619989
          0.22415600717 -0.082622297108 -1.3033210039 0.059512998909 -0.21327769756 -1.0408661366
          -4.4574508667 0.019598178566 0.2031301856 -4.6474046707 -0.00025216012727 0.44196480513
          -4.7829651833 -0.03583727777 0.25068509579 -4.5989289284 0.15179400146 0.43534138799
          4.6791539192 -0.064878001809 1.5370919704 4.8788080215 -0.15261600912 1.3581800461
          4.838329792 -0.29386898875 1.6861670017 5.0016570091 -0.09311401844 1.6771680117
          0.58952099085 0.54303568602 -1.1641429663 0.53923499584 0.55213999748 -0.9251576066
          0.77168899775 0.55329012871 -0.99214798212 0.67646998167 0.33598598838 -0.95468699932
          0.90715700388 0.53051358461 -1.2455300093 0.90016597509 0.3842356205 -1.0304160118
          1.0951930285 0.35682529211 -1.1645820141 0.8697130084 0.27566960454 -1.2600489855
          -1.5769430399 -0.27982699871 -1.0531499386 -1.5314699411 -0.26643535495 -0.78901797533
          -1.4523919821 -0.49702548981 -0.96172600985 -1.6408480406 -0.49996328354 -0.93084400892
          -4.0129318237 -0.49603816867 0.055561993271 -4.2066240311 -0.3275590539 0.070990994573
          -4.0046038628 -0.48754239082 0.27641901374 -4.323428154 -0.48470199108 0.21382179856
          3.5121660233 0.42270597816 1.6780580282 3.5908029079 0.19661930203 1.6370530128
          3.5512509346 0.3587679863 1.954660058 3.8146090508 0.38017898798 1.7155710459
          0.18104350567 0.33106470108 -0.62392002344 0.21305389702 0.5571166873 -0.6557880044
          -0.0096544995904 0.55562412739 -0.53859198093 0.049058001488 0.54692262411 -0.80024498701
          2.1158709526 -0.35618299246 -0.26636224985 2.2598950863 -0.19575500488 -0.50656956434
          2.4867670536 -0.33938100934 -0.20310901105 2.2337059975 -0.17428898811 -0.25786739588
          2.8616578579 0.64741098881 1.2881900072 2.832775116 0.65263402462 1.0032349825
          3.0001080036 0.49131900072 1.1801650524 3.1671938896 0.66265797615 1.2060799599
          -2.9494459629 -0.043818198144 -0.28794598579 -3.1492960453 -0.20950199664 -0.30492499471
          -2.9584069252 -0.33283078671 -0.35879898071 -2.8852050304 -0.13799700141 -0.5307559967
          2.7568380833 0.32088699937 0.34903898835 2.7781450748 0.40818598866 0.68238705397
          2.9617218971 0.11532790214 0.41656598449 2.7515289783 0.13377730548 0.70048117638
          -2.2290380001 -0.01067822054 -0.56298202276 -2.2431271076 0.16042180359 -0.71514201164
          -2.4275128841 0.11600639671 -0.53692299128 -2.3013501167 -0.0029451001901 -0.87519747019
          0.47868400812 -0.085507400334 -0.87584412098 0.3360530138 -0.12368449569 -0.71136599779
          0.61227500439 -0.20498250425 -0.7539935708 0.36515200138 -0.25333359838 -0.93256372213
          4.8979010582 0.32311931252 1.3858200312 5.0031938553 0.28169769049 1.6652870178
          5.0874519348 0.48010200262 1.4636000395 5.1202697754 0.12177520245 1.4594299793
          2.1764740944 -0.18138699234 0.65020596981 2.279137373 -0.3575539887 0.84426099062
          2.2197947502 -0.2277380079 0.99411600828 2.3880560398 -0.17542900145 0.81797897816
          -2.7823200226 0.016783099622 -0.68633919954 -2.8852050304 -0.13799700141 -0.5307559967
          -2.82984519 -0.19690430164 -0.8898460269 -2.9707868099 -0.088433094323 -0.74900501966
          -4.6376662254 0.16694931686 -0.24515900016 -4.7775506973 -0.01067915 -0.02922873944
          -4.7578816414 0.28667363524 -0.042721800506 -4.5885467529 0.081544041634 -0.058668099344
          1.4334243536 0.60390299559 0.081108003855 1.7167700529 0.42090001702 -0.091850601137
          1.594933033 0.40332198143 0.19972449541 1.7845100164 0.61610001326 0.12772998214
          -3.9098739624 -0.045701097697 0.062531001866 -4.1473436356 -0.025500500575 0.13780200481
          -3.9893488884 0.10838919878 0.30875301361 -3.9246098995 -0.1297211349 0.29268100858
          4.5017971992 -0.076010011137 2.1854460239 4.5205311775 0.023049006239 2.42572999
          4.5203971863 -0.28261700273 2.3645069599 4.2298059464 -0.09465200454 2.2884199619
          4.960849762 -0.010346002877 2.4790999889 4.8128800392 -0.12278998643 2.4790999889
          5.1007847786 -0.14746299386 2.5408000946 4.9569368362 -0.29035300016 2.514621973
          -2.6722416878 0.17765410244 -0.99963802099 -2.6269614697 -0.066813401878 -1.0421299934
          -2.7324504852 0.10715190321 -1.2788300514 -2.8605468273 0.030474800617 -1.0333030224
          1.8257160187 0.17760980129 -0.11040610075 1.8911110163 0.31002601981 0.28474500775
          1.9673910141 0.42298001051 0.05929357931 2.0466160774 0.12520329654 0.090647503734
          -3.0221710205 -0.28878861666 -1.1663730145 -3.0530843735 -0.50840169191 -1.0475519896
          -3.0438988209 -0.31679549813 -0.92314600945 -2.8428041935 -0.50505828857 -1.0089069605
          3.1057059765 0.21902000904 1.2990050316 2.9346859455 -0.010064994916 1.0378210545
          3.0274419785 0.16455459595 0.84069955349 2.8959798813 0.32024499774 1.0456169844
          -0.0075119999237 -0.13963499665 -1.2594619989 -0.18521800637 0.03266672045 -1.0619240999
          -0.38811999559 -0.14212410152 -1.2827340364 -0.19496299326 0.017406899482 -1.3360270262
          3.3454549313 -0.14016999304 0.62486702204 3.232765913 -0.12802201509 0.84651488066
          3.1706290245 -0.32041600347 0.80434769392 3.179639101 -0.31765601039 0.58325701952
          -4.2408308983 0.48058089614 -0.10947950184 -4.1666903496 0.27508330345 -0.13123139739
          -4.162466526 0.47085979581 0.13769200444 -3.9705395699 0.47333359718 0.0037210055161
          -0.19269900024 -0.26168438792 -1.0995333195 -0.19379499555 -0.24117720127 -1.3589559793
          -0.0075119999237 -0.13963499665 -1.2594619989 -0.38811999559 -0.14212410152 -1.2827340364
          1.8911110163 0.31002601981 0.28474500775 1.8012125492 0.13252429664 0.42392399907
          1.8868869543 0.43748298287 0.51323801279 2.0687611103 0.17121970654 0.57191699743
          -1.5521390438 -0.22336211801 -1.3013720512 -1.4234830141 -0.38737499714 -1.5921599865
          -1.199491024 -0.2731808126 -1.4120750427 -1.288203001 -0.24603740871 -1.60145998
          4.1369771957 0.033024005592 1.3592270613 4.344976902 0.097388997674 1.2805169821
          4.4501152039 0.014983006753 1.5191400051 4.2718300819 0.15794679523 1.6279176474
          -1.3182120323 -0.50291794538 -0.77375298738 -1.3524429798 -0.2001490891 -0.93651300669
          -1.5314699411 -0.26643535495 -0.78901797533 -1.4523919821 -0.49702548981 -0.96172600985
          0.53313398361 0.019717698917 -1.1568260193 0.30460509658 0.093160197139 -1.2340450287
          0.26428851485 -0.064987801015 -1.0606349707 0.22415600717 -0.082622297108 -1.3033210039
          -4.5366792679 0.30343410373 -0.3805705905 -4.626159668 -0.03600018099 -0.37031018734
          -4.6376662254 0.16694931686 -0.24515900016 -4.436715126 0.026354400441 -0.37169200182
          2.6483149529 0.51224297285 1.3579260111 2.8616578579 0.64741098881 1.2881900072
          2.7331340313 0.47387900949 1.1153179407 3.0001080036 0.49131900072 1.1801650524
          1.8810739517 -0.025785999373 0.24052999914 1.6255400181 0.14701509476 0.17244631052
          1.8911110163 0.31002601981 0.28474500775 1.8012125492 0.13252429664 0.42392399907
          -0.77550202608 0.51301789284 -1.032153964 -0.84249997139 0.26520928741 -1.1529723406
          -0.97820800543 0.24167840183 -0.90613996983 -0.76281398535 0.3376955986 -0.79411798716
          -0.20239399374 0.51886868477 -1.2246849537 -0.44964700937 0.30215507746 -1.3843599558
          -0.2287349999 0.24483269453 -1.2839930058 -0.3715389967 0.50824278593 -1.3971790075
          -0.20239399374 0.51886868477 -1.2246849537 -0.41940999031 0.51631212234 -1.1652537584
          -0.2287349999 0.24483269453 -1.2839930058 -0.44964700937 0.30215507746 -1.3843599558
          -0.21260130405 0.41750350595 -0.52818000317 -0.42486399412 0.21323770285 -0.57991999388
          -0.24963200092 0.28975039721 -0.72652798891 -0.3437409997 0.53887301683 -0.68746000528
          -2.1687932014 0.46246668696 -1.4244270325 -2.5636935234 0.46416980028 -1.3145070076
          -2.3987627029 0.46843078732 -1.1548199654 -2.4277570248 0.29319447279 -1.3836899996
          -1.1318500042 0.052193719894 -1.1925956011 -1.3583359718 0.17316421866 -1.3048620224
          -1.3511379957 -0.033111680299 -1.0856614113 -1.2506010532 -0.14467050135 -1.2530030012
          0.58952099085 0.54303568602 -1.1641429663 0.5862929821 0.35003548861 -1.1572810411
          0.77168899775 0.55329012871 -0.99214798212 0.90016597509 0.3842356205 -1.0304160118
          -3.4902799129 0.19203700125 -0.97851699591 -3.5222220421 0.2613735199 -0.7316250205
          -3.6431386471 0.012811898254 -0.67573601007 -3.683809042 -0.017515730113 -0.89673197269
          2.5472946167 0.21848860383 1.2638469934 2.2918043137 0.21171090007 1.0770230293
          2.5839250088 0.25846800208 0.93122702837 2.430131197 0.43304201961 1.193819046
          -3.7831549644 -0.23498553038 -0.042289998382 -3.6301288605 -0.50444597006 -0.18104600906
          -3.564964056 -0.31996080279 -0.046510994434 -3.7178936005 -0.30012491345 -0.34045830369
          4.1035399437 0.34244701266 0.90219002962 3.9656031132 0.16085809469 1.1511030197
          4.1762018204 0.27362239361 1.2485419512 4.1854190826 0.098016999662 0.94669002295
          0.14480470121 -0.27436679602 -0.68005996943 -0.13618600368 -0.29588839412 -0.75555801392
          -0.0078739998862 -0.46226969361 -0.70150399208 0.19156980515 -0.44301488996 -0.90191078186
          1.8810739517 -0.025785999373 0.24052999914 2.0367250443 -0.15883000195 0.10807870328
          2.2638959885 -0.015994004905 0.14143829048 2.0466160774 0.12520329654 0.090647503734
          -0.6984680295 -0.26326191425 -0.85958302021 -0.91781198978 -0.47875839472 -1.088809967
          -0.81605601311 -0.49181076884 -0.80724596977 -0.72162300348 -0.47146120667 -1.0738427639
          -1.721953392 0.25095880032 -1.5497900248 -1.972568512 0.25535020232 -1.5025000572
          -1.795637846 0.26627320051 -1.3385109901 -1.8180626631 0.066226676106 -1.5300899744
          3.9363288879 -0.29490798712 1.6831860542 3.9827311039 -0.10510598868 1.5950082541
          3.8821690083 -0.30057999492 1.4447215796 4.0760598183 -0.29790601134 1.5380973816
          1.220471859 -0.14656609297 0.24174399674 1.5088090897 -0.39408099651 0.20298700035
          1.2570589781 -0.21799020469 -0.084225989878 1.2357423306 -0.37867379189 0.23501800001
          0.85404402018 -0.22467930615 -0.32312399149 1.0725090504 -0.1251232028 -0.30668699741
          0.99458998442 -0.022154798731 -0.49672108889 1.0542720556 -0.20917788148 -0.54995292425
          -1.6519750357 0.49484336376 -0.84614998102 -1.9395580292 0.48136660457 -1.0315306187
          -1.6665450335 0.31891724467 -0.9786170125 -1.7639460564 0.4825155139 -1.1151630878
          0.61579799652 -0.14052461088 -1.0343459845 0.53313398361 0.019717698917 -1.1568260193
          0.36511561275 -0.21865269542 -1.2138979435 0.52286428213 -0.16449649632 -1.3978669643
          0.66420590878 0.58173090219 -0.24965699017 0.73966902494 0.57453459501 -0.50246399641
          0.47422000766 0.57532548904 -0.38774099946 0.56680697203 0.35435029864 -0.45947599411
          0.61579799652 -0.14052461088 -1.0343459845 0.36515200138 -0.25333359838 -0.93256372213
          0.61227500439 -0.20498250425 -0.7539935708 0.56030297279 -0.42190849781 -0.92723238468
          5.1686019897 0.14154189825 2.0466096401 5.199947834 0.37635299563 2.0466771126
          5.4086022377 0.24544849992 2.0854845047 5.3432278633 0.22682979703 2.2597339153
          5.199947834 0.37635299563 2.0466771126 5.3812499046 0.50339800119 2.1557321548
          5.4086022377 0.24544849992 2.0854845047 5.3432278633 0.22682979703 2.2597339153
          1.1473189592 0.12026190013 -0.89047002792 0.93579101562 0.2607139945 -0.85697698593
          1.1649719477 0.37054440379 -0.89170503616 1.2616900206 0.31878641248 -0.65477597713
          -1.4067959785 -0.070061728358 -1.4117490053 -1.5296863317 0.075993299484 -1.5737700462
          -1.2665230036 -0.018151098862 -1.5959500074 -1.1884590387 0.063980542123 -1.4178910255
          -1.5384149551 -0.474794209 -1.4103360176 -1.326851964 -0.47103399038 -1.4058600664
          -1.5521390438 -0.22336211801 -1.3013720512 -1.4234830141 -0.38737499714 -1.5921599865
          0.14480470121 -0.27436679602 -0.68005996943 0.19523879886 -0.052128598094 -0.8603233695
          0.3360530138 -0.12368449569 -0.71136599779 0.16142000258 0.02375430055 -0.62841498852
          1.9952529669 -0.028272999451 -0.39336639643 2.0414140224 -0.19573998451 -0.65807902813
          2.2598950863 -0.19575500488 -0.50656956434 2.2489070892 0.1272508949 -0.49432817101
          -2.5444853306 -0.19624508917 -0.90569740534 -2.354665041 -0.32262691855 -0.86674439907
          -2.5790920258 -0.26749420166 -0.70352119207 -2.2852199078 -0.19466769695 -0.68211597204
          2.6176869869 -0.096157990396 0.89440202713 2.3112504482 0.13608121872 0.81553798914
          2.5839250088 0.25846800208 0.93122702837 2.355743885 -0.0222629942 1.108060956
          1.8173689842 -0.37339198589 -0.084958538413 1.6162129641 -0.37938898802 -0.35376280546
          1.9658960104 -0.19827999175 -0.2762555182 1.8071659803 -0.10879799724 -0.12797890604
          3.8746159077 0.2987203002 0.98308598995 3.9433920383 0.50324100256 0.79245001078
          3.9685349464 0.18286730349 0.78710997105 4.1035399437 0.34244701266 0.90219002962
          -3.275526762 0.18115669489 -0.7455739975 -3.0947728157 0.28662750125 -0.90678101778
          -3.0843958855 0.47311139107 -0.64435297251 -3.2916152477 0.47306519747 -0.70392102003
          3.6544830799 0.36574301124 1.0680350065 3.6095719337 0.49926799536 0.86267101765
          3.427726984 0.34208199382 0.94024497271 3.6721630096 0.17420139909 0.90603202581
          -3.6423470974 -0.017455210909 -0.0356920138 -3.5638709068 0.10706090182 0.17637899518
          -3.4230210781 -0.045196000487 0.12691999972 -3.6694390774 -0.1800750196 0.2162040025
          4.6009202003 -0.29254201055 1.7585229874 4.690433979 -0.097899012268 1.9307255745
          4.838329792 -0.29386898875 1.6861670017 4.6318750381 -0.28834098577 2.005959034
          -2.9588835239 0.10583119839 -0.81790500879 -2.9227018356 0.26947918534 -0.61335587502
          -3.0457994938 0.036590598524 -0.58276486397 -3.275526762 0.18115669489 -0.7455739975
          0.72347742319 -0.43865519762 -0.25590199232 0.76020401716 -0.4297708869 -0.45740100741
          0.85404402018 -0.22467930615 -0.32312399149 0.5607355237 -0.26477059722 -0.21746100485
          -3.2987422943 0.26889032125 -0.46421080828 -3.2438099384 0.03149420023 -0.20086398721
          -3.5090770721 0.16754239798 -0.19926699996 -3.2346680164 0.26355689764 -0.22137200832
          -0.72162300348 -0.47146120667 -1.0738427639 -0.56551098824 -0.25506937504 -1.2119810581
          -0.74982398748 -0.23088718951 -1.0935233831 -0.57344698906 -0.46036499739 -1.2049913406
          2.7568380833 0.32088699937 0.34903898835 2.7515289783 0.13377730548 0.70048117638
          2.9617218971 0.11532790214 0.41656598449 2.547467947 0.16419440508 0.46359831095
          1.9902969599 0.62398999929 0.42160499096 2.2181119919 0.41253200173 0.3796235919
          2.4290430546 0.64191198349 0.39004901052 2.2606570721 0.63481098413 0.14861099422
          2.0226778984 0.62434697151 0.18275760114 2.2181119919 0.41253200173 0.3796235919
          1.9902969599 0.62398999929 0.42160499096 2.2606570721 0.63481098413 0.14861099422
          1.3238321543 0.31234300137 0.3489010036 1.5715531111 0.22482000291 0.53529620171
          1.594933033 0.40332198143 0.19972449541 1.6255400181 0.14701509476 0.17244631052
          -0.098812997341 0.27493330836 -0.95051121712 -0.07988999784 0.53172880411 -1.0493973494
          0.049058001488 0.54692262411 -0.80024498701 -0.16879400611 0.54172569513 -0.80274397135
          -3.8304586411 0.47921529412 -0.44864699244 -3.6916606426 0.47540700436 -0.29235720634
          -3.7126243114 0.24968840182 -0.29950919747 -3.9811484814 0.47856000066 -0.21228690445
          1.4039119482 0.11461269855 -1.0208369493 1.4835740328 -0.047832004726 -0.98587197065
          1.1473189592 0.12026190013 -0.89047002792 1.3628020287 0.069748699665 -0.7095310092
          -3.6431386471 0.012811898254 -0.67573601007 -3.8928060532 -0.036693397909 -0.81056702137
          -3.7469959259 0.18661350012 -0.87160599232 -3.7815887928 0.27240249515 -0.66369998455
          1.9846500158 -0.36595401168 0.065145798028 2.1158709526 -0.35618299246 -0.26636224985
          2.204267025 -0.35545799136 0.084110699594 2.0367250443 -0.15883000195 0.10807870328
          -2.3633306026 -0.018299350515 -1.2072839737 -2.3660526276 -0.18054547906 -1.0520470142
          -2.6269614697 -0.066813401878 -1.0421299934 -2.3013501167 -0.0029451001901 -0.87519747019
          1.4334243536 0.60390299559 0.081108003855 1.2371704578 0.59994918108 0.042260996997
          1.1157983541 0.58637183905 0.20423699915 1.2316360474 0.45880398154 0.28732401133
          4.6791539192 -0.064878001809 1.5370919704 4.6735458374 0.19949239492 1.5503569841
          4.8711438179 0.14351969957 1.5897270441 4.7825579643 0.012594994158 1.737795949
          -5 -0.49631300569 0.38468599319 -4.777050972 -0.31894397736 0.2911812067
          -5 -0.26007699966 0.21836000681 -4.8224816322 -0.4885019958 0.14574058354
          -0.86909997463 0.24614109099 -1.6085100174 -0.74778497219 0.49031057954 -1.546538949
          -0.72984099388 0.28546023369 -1.3866969347 -0.83093398809 0.49481633306 -1.3887859583
          4.1035399437 0.34244701266 0.90219002962 4.1762018204 0.27362239361 1.2485419512
          4.2805190086 0.40835601091 1.0383700132 4.1854190826 0.098016999662 0.94669002295
          5.0139088631 0.39100199938 2.2078499794 4.8466658592 0.47665601969 2.4843699932
          5.0721921921 0.69339102507 2.3749821186 5.0230960846 0.41076001525 2.4843699932
          -4.2212285995 -0.30168271065 -0.17994959652 -4.3169722557 -0.515429914 -0.37853601575
          -4.4421896935 -0.50854843855 -0.17462399602 -4.247215271 -0.5039280057 -0.16240300238
          -1.4523919821 -0.49702548981 -0.96172600985 -1.5314699411 -0.26643535495 -0.78901797533
          -1.5094130039 -0.50609952211 -0.78413200378 -1.6408480406 -0.49996328354 -0.93084400892
          -0.56551098824 -0.25506937504 -1.2119810581 -0.53049099445 -0.25941371918 -1.4260540009
          -0.57344698906 -0.46036499739 -1.2049913406 -0.36334300041 -0.45349159837 -1.1892901659
          1.7765240669 0.044387601316 0.68126302958 2.0687611103 0.17121970654 0.57191699743
          2.0536108017 0.066548496485 0.89124602079 1.8670481443 0.33276200294 0.76933300495
          4.0705580711 0.054460007697 1.7552939653 4.0141201019 0.24855940044 1.621557951
          4.1369771957 0.033024005592 1.3592270613 4.2718300819 0.15794679523 1.6279176474
          -2.4344344139 0.47441139817 -0.8509837985 -2.5196659565 0.24592778087 -0.72205346823
          -2.3114500046 0.28709989786 -0.8894675374 -2.4830985069 0.14539518952 -0.90576428175
          -2.4264535904 -0.49877792597 -1.0958280563 -2.5251846313 -0.49511519074 -1.3098219633
          -2.5419068336 -0.2821674943 -1.3411229849 -2.6056780815 -0.30553308129 -1.0694279671
          -0.23330500722 -0.099709004164 -0.54330998659 0.0018850000342 -0.13561350107 -0.81675201654
          -0.19524599612 0.051735099405 -0.78870302439 -0.13618600368 -0.29588839412 -0.75555801392
          1.4418599606 0.28709000349 -0.062245994806 1.1920820475 0.066462799907 -0.092215999961
          1.369579196 0.12671080232 0.095050007105 1.4943079948 -0.043684996665 -0.058169994503
          -3.0899682045 -0.29772499204 -0.5357632041 -3.1492960453 -0.20950199664 -0.30492499471
          -3.2427380085 -0.50958657265 -0.51888477802 -3.3584003448 -0.26359349489 -0.49015578628
          3.2409238815 0.67979502678 0.59528899193 3.0083858967 0.66490697861 0.78671127558
          3.4043519497 0.68294101954 0.87328398228 3.3829259872 0.46805399656 0.71429997683
          1.896214962 -0.35974898934 -0.63775098324 1.4899770021 -0.38008698821 -0.65395200253
          1.7592899799 -0.36150300503 -0.85030698776 1.5601429939 -0.16315901279 -0.66583400965
          2.0367250443 -0.15883000195 0.10807870328 1.8071659803 -0.10879799724 -0.12797890604
          1.9658960104 -0.19827999175 -0.2762555182 2.1427390575 -0.046670995653 -0.085950896144
          -4.2844419479 0.10605479777 -0.67162799835 -4.3347187042 0.29005420208 -0.44296199083
          -4.436715126 0.026354400441 -0.37169200182 -4.4355773926 0.16414380074 -0.62573999166
          -1.7501699924 -0.19925332069 -0.86327397823 -1.9959019423 -0.25378808379 -0.72344702482
          -1.7985810041 -0.32161590457 -0.69973397255 -1.9235659838 -0.32769143581 -0.93234062195
          -1.5521390438 -0.22336211801 -1.3013720512 -1.8587261438 -0.19973695278 -1.1918489933
          -1.5769430399 -0.27982699871 -1.0531499386 -1.7574769258 -0.32169941068 -1.3376590014
          1.446663022 0.5864855051 -0.62758201361 1.3428349495 0.40458348393 -0.38063567877
          1.6138050556 0.3192229867 -0.46323099732 1.2616900206 0.31878641248 -0.65477597713
          -4.3753991127 0.47727328539 0.067836903036 -4.5983519554 0.47850579023 0.11985320598
          -4.5223350525 0.28749448061 0.00038830153062 -4.5005278587 0.48635560274 -0.11545810103
          -2.1130719185 -0.047264300287 -1.1963629723 -2.2719159126 -0.063200898468 -1.4239000082
          -2.0357840061 -0.027981799096 -1.4841450453 -2.2146024704 0.15617579222 -1.4417170286
          2.2918043137 0.21171090007 1.0770230293 2.0595760345 0.26341798902 0.90939098597
          2.3112504482 0.13608121872 0.81553798914 2.1746091843 0.4260700047 1.0060030222
          3.179639101 -0.31765601039 0.58325701952 3.3760828972 -0.31359198689 0.77911198139
          3.3454549313 -0.14016999304 0.62486702204 3.2719910145 -0.31246700883 0.38419899344
          -4.2544279099 -0.066851697862 -0.67942899466 -4.1204099655 0.088588900864 -0.72504401207
          -4.1338410378 -0.23460809886 -0.7192620039 -4.0872659683 -0.040365900844 -0.50246196985
          4.659427166 0.057737004012 2.0819699764 4.7825579643 0.012594994158 1.737795949
          4.7131490707 0.21425390244 1.868008852 4.690433979 -0.097899012268 1.9307255745
          4.4522380829 0.45779499412 1.8534209728 4.3931241035 0.68594300747 1.8131175041
          4.561398983 0.70336198807 1.6810460091 4.5912899971 0.69010001421 1.8966654539
          3.961992979 -0.15715098381 2.1520600319 4.0169057846 0.0046400059946 2.1881299019
          4.1488780975 -0.13552299142 1.9172199965 4.2298059464 -0.09465200454 2.2884199619
          0.21651309729 -0.46012639999 -0.53555697203 0.27352508903 -0.21387378871 -0.36756598949
          0.14480470121 -0.27436679602 -0.68005996943 0.39233699441 -0.44935038686 -0.54869902134
          -4.2212285995 -0.30168271065 -0.17994959652 -4.0898427963 -0.054189000279 -0.25348520279
          -4.0883383751 -0.19288347661 -0.063150003552 -4.3956904411 -0.0096592828631 -0.099004216492
          2.3722069263 0.33220499754 -0.39323601127 2.4272270203 0.24140749872 -0.088780999184
          2.4711270332 0.1866299957 -0.33196899295 2.1084809303 0.16455329955 -0.24006199837
          2.4272270203 0.24140749872 -0.088780999184 2.0466160774 0.12520329654 0.090647503734
          2.1427390575 -0.046670995653 -0.085950896144 2.1084809303 0.16455329955 -0.24006199837
          -3.5356121063 0.44416579604 -0.95966500044 -3.3199958801 0.47254309058 -0.92196601629
          -3.5222220421 0.2613735199 -0.7316250205 -3.2916152477 0.47306519747 -0.70392102003
          2.457036972 -0.14717501402 0.22073699534 2.4627220631 0.06453820318 0.024974999949
          2.7524430752 -0.1180730015 -0.14809599519 2.6742250919 -0.012311006896 0.2936809957
          -2.0028738976 -0.28446289897 -0.43915998936 -1.8855940104 -0.082297004759 -0.4747030139
          -2.0667660236 -0.090073294938 -0.4165340066 -1.9959019423 -0.25378808379 -0.72344702482
          -1.7985810041 -0.32161590457 -0.69973397255 -1.9959019423 -0.25378808379 -0.72344702482
          -1.7501699924 -0.19925332069 -0.86327397823 -1.7705160379 -0.013670380227 -0.72984999418
          -3.1937348843 0.42899999022 -1.1060760021 -3.0947728157 0.28662750125 -0.90678101778
          -3.2964999676 0.25800848007 -1.0607520342 -3.3199958801 0.47254309058 -0.92196601629
          -3.1937348843 0.42899999022 -1.1060760021 -2.9489409924 0.21040900052 -1.2003070116
          -3.2964999676 0.25800848007 -1.0607520342 -3.0947728157 0.28662750125 -0.90678101778
          -5 0.15884299576 0.21330599487 -4.7318658829 0.32032591105 0.23805809021
          -5 0.32793700695 0.27663400769 -5 0.28975299001 0.088944099844
          -0.60533702374 0.52063310146 -1.0015729666 -0.5591750145 0.32877069712 -0.824015975
          -0.50188398361 0.32205638289 -1.0782203674 -0.69384098053 0.20343409479 -0.94639998674
          4.561398983 0.70336198807 1.6810460091 4.5912899971 0.69010001421 1.8966654539
          4.7563681602 0.41457000375 1.7243119478 4.4522380829 0.45779499412 1.8534209728
          -4.5803985596 0.47174561024 0.34353449941 -4.7500705719 0.47674080729 0.47327038646
          -4.6675491333 0.29210668802 0.45158019662 -4.7318658829 0.32032591105 0.23805809021
          -3.4282062054 0.14235441387 -0.57428902388 -3.5222220421 0.2613735199 -0.7316250205
          -3.648727417 0.16803780198 -0.52384102345 -3.6431386471 0.012811898254 -0.67573601007
          -3.564964056 -0.31996080279 -0.046510994434 -3.6301288605 -0.50444597006 -0.18104600906
          -3.5159258842 -0.18312910199 -0.2097529918 -3.7178936005 -0.30012491345 -0.34045830369
          3.3760828972 -0.31359198689 0.77911198139 3.3454549313 -0.14016999304 0.62486702204
          3.4617619514 -0.034863006324 0.83526402712 3.232765913 -0.12802201509 0.84651488066
          -1.795637846 0.26627320051 -1.3385109901 -1.6238960028 0.24829168618 -1.1837819815
          -1.5488374233 0.27182540298 -1.3903579712 -1.6338564157 0.02010091953 -1.3360049725
          4.4522380829 0.45779499412 1.8534209728 4.402616024 0.45689401031 2.1667981148
          4.2132930756 0.66276198626 1.9194359779 4.4008059502 0.66251301765 2.0240740776
          -2.4275128841 0.11600639671 -0.53692299128 -2.4711580276 0.34027990699 -0.26157900691
          -2.3634879589 0.31209561229 -0.49861198664 -2.3957979679 0.17064259946 -0.29074698687
          3.9769608974 0.41242301464 1.2358649969 3.8493919373 0.50689595938 1.0418950319
          4.1035399437 0.34244701266 0.90219002962 4.2127790451 0.64916598797 1.0111500025
          2.7543749809 0.16338352859 0.14366000891 2.7389440536 0.18060749769 -0.13687500358
          3.0217940807 0.11983050406 0.068121999502 2.9922840595 0.30892300606 0.059962000698
          -3.7831549644 -0.23498553038 -0.042289998382 -3.9805979729 -0.2818211019 0.12366101146
          -3.9098739624 -0.045701097697 0.062531001866 -3.6694390774 -0.1800750196 0.2162040025
          3.3571829796 0.56413400173 0.35071998835 3.2409238815 0.67979502678 0.59528899193
          3.526293993 0.69815999269 0.49317902327 3.3829259872 0.46805399656 0.71429997683
          -0.07988999784 0.53172880411 -1.0493973494 -0.33649298549 0.53052771091 -0.93731302023
          -0.098812997341 0.27493330836 -0.95051121712 -0.26240199804 0.35430929065 -1.093870163
          3.7163519859 0.46678900719 1.408038497 3.7856199741 0.69599997997 1.1387779713
          3.6058731079 0.68220502138 1.2335082293 3.8493919373 0.50689595938 1.0418950319
          2.0466160774 0.12520329654 0.090647503734 1.8911110163 0.31002601981 0.28474500775
          1.8810739517 -0.025785999373 0.24052999914 1.6255400181 0.14701509476 0.17244631052
          5.1873960495 0.42186701298 1.8164199591 5.4586992264 0.38369700313 1.9621009827
          5.4746980667 0.36210200191 1.5940099955 5.2795748711 0.19745920599 1.7484179735
          1.9902969599 0.62398999929 0.42160499096 2.0345966816 0.62387102842 0.84213399887
          2.2841498852 0.63460797071 0.62853097916 2.1254868507 0.43120700121 0.6656140089
          -0.38811999559 -0.14212410152 -1.2827340364 -0.53547698259 0.15860010684 -1.2386740446
          -0.55726397038 -0.032617900521 -1.40318501 -0.38828599453 0.11242230237 -1.4058929682
          3.9363288879 -0.29490798712 1.6831860542 3.6907598972 -0.3027870059 1.7716159821
          3.89149189 -0.08670001477 1.8603260517 3.9701340199 -0.29213601351 1.9327290058
          -3.1125445366 -0.042645700276 -0.91890496016 -2.9707868099 -0.088433094323 -0.74900501966
          -3.1669573784 -0.19655050337 -0.74350303411 -3.2104935646 -0.0044391001575 -0.70767199993
          3.8146090508 0.38017898798 1.7155710459 4.0440011024 0.18789739907 1.9961689711
          4.0141201019 0.24855940044 1.621557951 3.804297924 0.13001829386 1.8220219612
          1.1473189592 0.12026190013 -0.89047002792 0.94502300024 -0.16622328758 -1.0062910318
          1.2825410366 -0.16882799566 -0.83733904362 1.2469780445 -0.10695700347 -1.1089379787
          2.0466160774 0.12520329654 0.090647503734 1.8911110163 0.31002601981 0.28474500775
          2.2181119919 0.41253200173 0.3796235919 2.2750039101 0.14374065399 0.29926979542
          3.678497076 -0.014678004198 0.55156999826 3.7064490318 -0.11200299114 0.86057698727
          3.6596939564 -0.24626901746 0.52350002527 3.4617619514 -0.034863006324 0.83526402712
          3.7064490318 -0.11200299114 0.86057698727 3.6721630096 0.17420139909 0.90603202581
          3.4617619514 -0.034863006324 0.83526402712 3.678497076 -0.014678004198 0.55156999826
          -1.1732499599 0.28154438734 -1.1781251431 -1.2363820076 0.13768835366 -0.99496001005
          -0.97820800543 0.24167840183 -0.90613996983 -1.1318500042 0.052193719894 -1.1925956011
          4.9700350761 0.50200498104 1.9810703993 4.8522830009 0.69435501099 2.1452889442
          5.0743060112 0.70134097338 2.1695489883 5.0139088631 0.39100199938 2.2078499794
          -3.6301288605 -0.50444597006 -0.18104600906 -3.5159258842 -0.18312910199 -0.2097529918
          -3.4962136745 -0.50891906023 -0.35148981214 -3.564964056 -0.31996080279 -0.046510994434
          -4.2212285995 -0.30168271065 -0.17994959652 -4.0129318237 -0.49603816867 0.055561993271
          -4.0016961098 -0.32739970088 -0.24166919291 -4.247215271 -0.5039280057 -0.16240300238
          3.9322690964 0.15276029706 2.1537098885 3.7400364876 0.21424710751 2.056910038
          3.8050630093 0.010312004946 2.0734400749 3.804297924 0.13001829386 1.8220219612
          2.1427390575 -0.046670995653 -0.085950896144 2.4858739376 -0.02445499599 -0.33545398712
          2.4627220631 0.06453820318 0.024974999949 2.1084809303 0.16455329955 -0.24006199837
          1.6281830072 -0.20693098009 -0.91686797142 1.5008519888 -0.37395399809 -0.88552898169
          1.2469780445 -0.10695700347 -1.1089379787 1.2825410366 -0.16882799566 -0.83733904362
          5.5018949509 0.57858800888 1.8484350443 5.4279828072 0.71865099669 2.021269083
          5.1484160423 0.71598798037 1.853268981 5.3054409027 0.72630798817 1.6629229784
          5.0743060112 0.70134097338 2.1695489883 5.0721921921 0.69339102507 2.3749821186
          5.1783838272 0.53621798754 2.2175490856 5.0139088631 0.39100199938 2.2078499794
          4.2132930756 0.66276198626 1.9194359779 4.2633280754 0.48635900021 1.6941789389
          3.9967598915 0.6620669961 1.8450440168 4.1660380363 0.37686598301 1.8869049549
          4.6265969276 0.37918898463 2.0835940838 4.3718128204 0.25128540397 2.104501009
          4.4655342102 0.20313693583 1.8080023527 4.4522380829 0.45779499412 1.8534209728
          5.3040738106 0.50984299183 1.5398700237 4.9762878418 0.4914059937 1.7501740456
          5.1064062119 0.72903001308 1.5365300179 5.3054409027 0.72630798817 1.6629229784
          -3.4544520378 -0.502204597 -0.077600002289 -3.7306609154 -0.49806988239 0.0059669911861
          -3.564964056 -0.31996080279 -0.046510994434 -3.5015048981 -0.45679572225 0.16008099914
          3.6907598972 -0.3027870059 1.7716159821 3.5018596649 -0.19701200724 1.8944000006
          3.89149189 -0.08670001477 1.8603260517 3.7283027172 -0.27364698052 2.022769928
          3.89149189 -0.08670001477 1.8603260517 3.5018596649 -0.19701200724 1.8944000006
          3.8050630093 0.010312004946 2.0734400749 3.7283027172 -0.27364698052 2.022769928
          -1.3283799887 0.50588327646 -0.82055300474 -1.1992089748 0.51642417908 -0.64087301493
          -1.2614649534 0.29969120026 -0.61504000425 -1.4990010262 0.46406769753 -0.58357000351
          4.9883351326 -0.0025349962525 2.1726241112 5.0791130066 -0.098838992417 2.3361620903
          5.0963821411 0.18064403534 2.290708065 5.2890958786 -0.018920002505 2.382846117
          -4.4442939758 -0.11693099886 -0.6205059886 -4.2499485016 -0.19019518793 -0.35626098514
          -4.4922027588 -0.20494790375 -0.36291068792 -4.436715126 0.026354400441 -0.37169200182
          -2.0028738976 -0.28446289897 -0.43915998936 -2.0423929691 -0.48994448781 -0.42611399293
          -1.8573379517 -0.51496881247 -0.5290030241 -2.1525170803 -0.34244281054 -0.58914798498
          0.84206402302 0.052923899144 -0.65382301807 0.76676100492 -0.1134057045 -0.50795000792
          0.56557297707 -0.05147189647 -0.61882799864 0.60305899382 0.11440300196 -0.49014899135
          -4.1674909592 0.13877829909 -0.35717999935 -4.3815760612 0.24617770314 -0.19512629509
          -4.2035307884 0.079204000533 -0.13781389594 -4.436715126 0.026354400441 -0.37169200182
          -0.23330500722 -0.099709004164 -0.54330998659 -0.025832999498 0.026944899932 -0.47304499149
          -0.027907999232 0.12770339847 -0.67658001184 0.0018850000342 -0.13561350107 -0.81675201654
          3.9962799549 0.50118601322 1.5290913582 3.8146090508 0.38017898798 1.7155710459
          3.9967598915 0.6620669961 1.8450440168 3.9373788834 0.45778700709 1.9478909969
          -3.0221710205 -0.28878861666 -1.1663730145 -3.0530843735 -0.50840169191 -1.0475519896
          -2.8428041935 -0.50505828857 -1.0089069605 -2.7647492886 -0.50091934204 -1.2004820108
          4.0087571144 -0.073222987354 1.1375299692 4.1854190826 0.098016999662 0.94669002295
          4.344976902 0.097388997674 1.2805169821 4.1369771957 0.033024005592 1.3592270613
          2.2750039101 0.14374065399 0.29926979542 2.0466160774 0.12520329654 0.090647503734
          2.2638959885 -0.015994004905 0.14143829048 2.4627220631 0.06453820318 0.024974999949
          -0.42777499557 0.06476470083 -1.0590546131 -0.69384098053 0.20343409479 -0.94639998674
          -0.61719799042 -0.039664398879 -1.1887242794 -0.53547698259 0.15860010684 -1.2386740446
          0.15763199329 -0.010675301775 -1.4892460108 0.056278999895 0.056861169636 -1.3090289831
          0.30460509658 0.093160197139 -1.2340450287 0.22415600717 -0.082622297108 -1.3033210039
          0.018631000072 -0.44565591216 -1.0280195475 0.059512998909 -0.21327769756 -1.0408661366
          0.19156980515 -0.44301488996 -0.90191078186 0.0018850000342 -0.13561350107 -0.81675201654
          0.10708110034 -0.12076699734 -0.43617299199 -0.025832999498 0.026944899932 -0.47304499149
          0.16142000258 0.02375430055 -0.62841498852 0.20369489491 0.076197303832 -0.38421198726
          1.0504629612 -0.041896902025 -0.74770897627 0.88520997763 -0.23278620839 -0.74979001284
          1.2825410366 -0.16882799566 -0.83733904362 0.94502300024 -0.16622328758 -1.0062910318
          -1.4937491417 0.34081637859 -1.5808500051 -1.5874071121 0.47615900636 -1.3606339693
          -1.2948549986 0.4837462008 -1.4094699621 -1.5488374233 0.27182540298 -1.3903579712
          2.7388780117 0.4845879972 0.20156900585 2.9922840595 0.30892300606 0.059962000698
          3.0115010738 0.44793599844 0.41370400786 3.0825920105 0.52345901728 0.14255799353
          -3.564964056 -0.31996080279 -0.046510994434 -3.5159258842 -0.18312910199 -0.2097529918
          -3.4962136745 -0.50891906023 -0.35148981214 -3.3219630718 -0.30692452192 -0.14970101416
          -2.8682529926 0.10229609907 -0.093391999602 -3.0384581089 0.17068129778 -0.37494298816
          -2.9465370178 0.2871569097 -0.061487998813 -3.061948061 0.073819994926 -0.013481999747
          1.9303309917 -0.028858006001 -0.71749800444 1.8392709494 0.14722080529 -0.76449400187
          1.6323230267 0.075184799731 -0.62727099657 1.6976139545 -0.039864007384 -0.8608520031
          -3.8207867146 0.48162639141 -0.65821701288 -3.6143445969 0.47693321109 -0.66685003042
          -3.7815887928 0.27240249515 -0.66369998455 -3.6499538422 0.47699010372 -0.48393499851
          -4.0919470787 -0.29832312465 0.34250101447 -4.4544172287 -0.23605190217 0.42361399531
          -4.4078559875 -0.44284930825 0.41885921359 -4.323428154 -0.48470199108 0.21382179856
          -4.4442939758 -0.11693099886 -0.6205059886 -4.626159668 -0.03600018099 -0.37031018734
          -4.6492214203 0.036135789007 -0.56955337524 -4.436715126 0.026354400441 -0.37169200182
          3.6721630096 0.17420139909 0.90603202581 3.7977409363 0.30181151628 0.66605001688
          3.9685349464 0.18286730349 0.78710997105 3.8746159077 0.2987203002 0.98308598995
          4.908780098 -0.05460799858 1.9473679066 5.0844421387 -0.30479300022 2.0486927032
          4.9883351326 -0.0025349962525 2.1726241112 5.2030038834 -0.095155008137 2.0543687344
          0.059512998909 -0.21327769756 -1.0408661366 0.060910001397 0.064430199564 -1.0059714317
          0.19523879886 -0.052128598094 -0.8603233695 0.0018850000342 -0.13561350107 -0.81675201654
          -0.21260130405 0.41750350595 -0.52818000317 -0.42486399412 0.21323770285 -0.57991999388
          -0.20871029794 0.16622160375 -0.5290799737 -0.24963200092 0.28975039721 -0.72652798891
          1.3428349495 0.40458348393 -0.38063567877 1.1137839556 0.31430581212 -0.23879601061
          1.2616900206 0.31878641248 -0.65477597713 0.98193901777 0.39114138484 -0.63054037094
          -2.5251846313 -0.49511519074 -1.3098219633 -2.7851204872 -0.2995711267 -1.2576700449
          -2.5419068336 -0.2821674943 -1.3411229849 -2.6056780815 -0.30553308129 -1.0694279671
          -2.8640635014 -0.32550418377 -0.67871928215 -2.7823200226 0.016783099622 -0.68633919954
          -2.8852050304 -0.13799700141 -0.5307559967 -2.82984519 -0.19690430164 -0.8898460269
          1.5832170248 0.13898870349 -0.2907756865 1.6138050556 0.3192229867 -0.46323099732
          1.5066930056 0.24949200451 -0.69261598587 1.6323230267 0.075184799731 -0.62727099657
          -4.0898427963 -0.054189000279 -0.25348520279 -4.3956904411 -0.0096592828631 -0.099004216492
          -4.2035307884 0.079204000533 -0.13781389594 -4.0883383751 -0.19288347661 -0.063150003552
          0.47881600261 -0.41453048587 -1.1412249804 0.19156980515 -0.44301488996 -0.90191078186
          0.36515200138 -0.25333359838 -0.93256372213 0.56030297279 -0.42190849781 -0.92723238468
          2.1158709526 -0.35618299246 -0.26636224985 2.2337059975 -0.17428898811 -0.25786739588
          2.4867670536 -0.33938100934 -0.20310901105 2.4003479481 -0.15540499985 -0.052411012352
          -0.76539498568 -0.02696910128 -0.88151800632 -0.80769598484 0.2091087997 -0.62626999617
          -0.69384098053 0.20343409479 -0.94639998674 -0.54605597258 0.061542298645 -0.81870001554
          5.1873960495 0.42186701298 1.8164199591 5.1484160423 0.71598798037 1.853268981
          4.9762878418 0.4914059937 1.7501740456 5.3054409027 0.72630798817 1.6629229784
          -0.84249997139 0.26520928741 -1.1529723406 -0.97820800543 0.24167840183 -0.90613996983
          -0.69384098053 0.20343409479 -0.94639998674 -0.96815401316 0.02664539963 -0.92440497875
          -2.2290380001 -0.01067822054 -0.56298202276 -2.3013501167 -0.0029451001901 -0.87519747019
          -2.4275128841 0.11600639671 -0.53692299128 -2.548101902 -0.012899150141 -0.78901946545
          -4.6535224915 0.13568019867 0.13374620676 -4.7318658829 0.32032591105 0.23805809021
          -5 0.15884299576 0.21330599487 -5 0.28975299001 0.088944099844
          -4.2212285995 -0.30168271065 -0.17994959652 -4.0726661682 -0.51234167814 -0.36274200678
          -4.1456823349 -0.32185968757 -0.5048879981 -4.3169722557 -0.515429914 -0.37853601575
          4.8885669708 0.54565501213 1.3964899778 4.8287091255 0.72349202633 1.5618569851
          5.1064062119 0.72903001308 1.5365300179 5.0874519348 0.48010200262 1.4636000395
          2.1158709526 -0.35618299246 -0.26636224985 1.896214962 -0.35974898934 -0.63775098324
          2.2598950863 -0.19575500488 -0.50656956434 2.0414140224 -0.19573998451 -0.65807902813
          3.9656031132 0.16085809469 1.1511030197 4.1369771957 0.033024005592 1.3592270613
          4.1762018204 0.27362239361 1.2485419512 4.1854190826 0.098016999662 0.94669002295
          -4.5803985596 0.47174561024 0.34353449941 -4.7500705719 0.47674080729 0.47327038646
          -4.7318658829 0.32032591105 0.23805809021 -4.8723812103 0.4865013957 0.30406826735
          4.8643531799 -0.29935500026 2.0071020126 4.8122911453 -0.30095601082 2.246833086
          4.6169447899 -0.28709799051 2.2023260593 4.7630262375 -0.078894995153 2.2290580273
          -4.8905801773 0.078228734434 -0.52854001522 -4.827589035 0.26959607005 -0.53942549229
          -4.7995986938 0.015869349241 -0.30273678899 -4.7940740585 0.30425521731 -0.31099230051
          -1.5145759583 -0.018870471045 -0.82699400187 -1.7705160379 -0.013670380227 -0.72984999418
          -1.7501699924 -0.19925332069 -0.86327397823 -1.8356319666 0.0078969011083 -1.0082437992
          0.2478390038 0.18538750708 -1.4635369778 0.046897001565 0.32769879699 -1.3547029495
          0.081534996629 0.22075429559 -1.1755410433 0.056278999895 0.056861169636 -1.3090289831
          -1.6158000231 0.28506198525 -0.55510002375 -1.6519750357 0.49484336376 -0.84614998102
          -1.4917390347 0.24093736708 -0.86661797762 -1.4990010262 0.46406769753 -0.58357000351
          -2.2354676723 -0.21959285438 -1.2453320026 -2.3369340897 -0.31915336847 -1.4069160223
          -2.5419068336 -0.2821674943 -1.3411229849 -2.4264535904 -0.49877792597 -1.0958280563
          2.0099020004 0.62074702978 -0.17452520132 1.7167700529 0.42090001702 -0.091850601137
          1.9673910141 0.42298001051 0.05929357931 1.9701869488 0.36129301786 -0.32886689901
          -0.04825539887 0.29193970561 -0.48039200902 0.18104350567 0.33106470108 -0.62392002344
          -0.0096544995904 0.55562412739 -0.53859198093 -0.032131001353 0.33743911982 -0.72442996502
          -3.7831549644 -0.23498553038 -0.042289998382 -3.9805979729 -0.2818211019 0.12366101146
          -3.6694390774 -0.1800750196 0.2162040025 -3.7600250244 -0.42104199529 0.24891600013
          -2.6776423454 0.47449350357 -0.75034171343 -2.5764689445 0.47962999344 -0.47001102567
          -2.3374700546 0.48206248879 -0.62753897905 -2.5196659565 0.24592778087 -0.72205346823
          3.4407179356 -0.10024298728 1.6149629354 3.4360439777 -0.0026910067536 1.3680689335
          3.1324748993 -0.012670002878 1.333466053 3.2492110729 -0.32095301151 1.4265520573
          0.52286428213 -0.16449649632 -1.3978669643 0.69177097082 -0.40261080861 -1.2026339769
          0.36511561275 -0.21865269542 -1.2138979435 0.77250897884 -0.18823230267 -1.3146259785
          4.691215992 -0.25143399835 1.2670099735 4.725110054 0.0005410007434 1.2883199453
          4.6791539192 -0.064878001809 1.5370919704 4.5728478432 -0.045872993767 1.2065700293
          3.5614540577 -0.13416200876 1.2109525204 3.4360439777 -0.0026910067536 1.3680689335
          3.718173027 -0.032231997699 1.6364309788 3.4407179356 -0.10024298728 1.6149629354
          4.7576980591 0.49129199982 1.9305694103 4.7495179176 0.70579200983 1.7540500164
          4.5912899971 0.69010001421 1.8966654539 4.7563681602 0.41457000375 1.7243119478
          4.7576980591 0.49129199982 1.9305694103 4.7996368408 0.69749897718 1.943791151
          4.5912899971 0.69010001421 1.8966654539 4.7495179176 0.70579200983 1.7540500164
          -3.8436272144 -0.0084195006639 -0.544039011 -3.8928060532 -0.036693397909 -0.81056702137
          -3.7815887928 0.27240249515 -0.66369998455 -3.9523050785 0.21237049997 -0.78943997622
          3.7195839882 0.0037419972941 1.0903520584 3.5387530327 0.16991350055 1.193629384
          3.4360439777 -0.0026910067536 1.3680689335 3.5614540577 -0.13416200876 1.2109525204
          3.8110458851 -0.30123400688 0.9321950078 3.5614540577 -0.13416200876 1.2109525204
          3.8409628868 -0.30274599791 1.1827360392 3.5389170647 -0.30982100964 1.044885993
          3.5614540577 -0.13416200876 1.2109525204 3.8552589417 -0.056183006614 1.3705922365
          3.8409628868 -0.30274599791 1.1827360392 3.658107996 -0.30566099286 1.332764864
          -0.42777499557 0.06476470083 -1.0590546131 -0.18521800637 0.03266672045 -1.0619240999
          -0.36743998528 -0.0037765994202 -0.87996399403 -0.38182199001 0.22295188904 -0.90033400059
          5.0721921921 0.69339102507 2.3749821186 5.1834688187 0.66452199221 2.560806036
          5.3322758675 0.71096599102 2.2698550224 5.3057627678 0.47182801366 2.3657300472
          3.9827311039 -0.10510598868 1.5950082541 3.718173027 -0.032231997699 1.6364309788
          3.7013010979 -0.30448499322 1.5550149679 3.8552589417 -0.056183006614 1.3705922365
          1.446663022 0.5864855051 -0.62758201361 1.5018340349 0.60006701946 -0.26044872403
          1.6138050556 0.3192229867 -0.46323099732 1.3428349495 0.40458348393 -0.38063567877
          2.547467947 0.16419440508 0.46359831095 2.387912035 0.31022301316 0.66756099463
          2.2750039101 0.14374065399 0.29926979542 2.4331591129 0.31312698126 0.30493488908
          3.0115010738 0.44793599844 0.41370400786 2.7568380833 0.32088699937 0.34903898835
          2.9617218971 0.11532790214 0.41656598449 3.1855530739 0.35112899542 0.20670999587
          3.0115010738 0.44793599844 0.41370400786 2.7781450748 0.40818598866 0.68238705397
          3.1142799854 0.34143099189 0.65826201439 2.7568380833 0.32088699937 0.34903898835
          -2.8852050304 -0.13799700141 -0.5307559967 -2.7287049294 -0.2789902091 -0.37658300996
          -2.7312269211 -0.032895799726 -0.39067798853 -2.526927948 -0.09825039655 -0.49015599489
          -4.6376662254 0.16694931686 -0.24515900016 -4.7578816414 0.28667363524 -0.042721800506
          -4.5223350525 0.28749448061 0.00038830153062 -4.5885467529 0.081544041634 -0.058668099344
          -4.6376662254 0.16694931686 -0.24515900016 -4.3815760612 0.24617770314 -0.19512629509
          -4.5885467529 0.081544041634 -0.058668099344 -4.5223350525 0.28749448061 0.00038830153062
          -3.7831549644 -0.23498553038 -0.042289998382 -3.564964056 -0.31996080279 -0.046510994434
          -3.5159258842 -0.18312910199 -0.2097529918 -3.7178936005 -0.30012491345 -0.34045830369
          -2.5134499073 -0.51176577806 -0.47904199362 -2.4078168869 -0.30346369743 -0.49435901642
          -2.7287049294 -0.2789902091 -0.37658300996 -2.5790920258 -0.26749420166 -0.70352119207
          -2.9494459629 -0.043818198144 -0.28794598579 -2.7312269211 -0.032895799726 -0.39067798853
          -2.6104540825 0.0081983003765 -0.20189599693 -2.8682529926 0.10229609907 -0.093391999602
          3.9322690964 0.15276029706 2.1537098885 3.8050630093 0.010312004946 2.0734400749
          4.0169057846 0.0046400059946 2.1881299019 4.0440011024 0.18789739907 1.9961689711
          -2.9227018356 0.26947918534 -0.61335587502 -3.0947728157 0.28662750125 -0.90678101778
          -3.0843958855 0.47311139107 -0.64435297251 -3.275526762 0.18115669489 -0.7455739975
          1.5601429939 -0.16315901279 -0.66583400965 1.3120340109 -0.15288600326 -0.5459626317
          1.3628020287 0.069748699665 -0.7095310092 1.6323230267 0.075184799731 -0.62727099657
          5.2795748711 0.19745920599 1.7484179735 5.4800391197 0.18614250422 1.908427
          5.1593341827 -0.012515998445 1.8333879709 5.1686019897 0.14154189825 2.0466096401
          1.8443030119 0.60612398386 -0.54030299187 1.446663022 0.5864855051 -0.62758201361
          1.6138050556 0.3192229867 -0.46323099732 1.653785944 0.59295141697 -0.72733402252
          -4.6802415848 -0.16959774494 -0.21772760153 -4.4922027588 -0.20494790375 -0.36291068792
          -4.6099963188 -0.51237237453 -0.2558003962 -4.4366278648 -0.28509175777 -0.13918270171
          1.8257160187 0.17760980129 -0.11040610075 1.8911110163 0.31002601981 0.28474500775
          2.0466160774 0.12520329654 0.090647503734 1.6255400181 0.14701509476 0.17244631052
          3.5387530327 0.16991350055 1.193629384 3.804610014 0.20091049373 1.4191051722
          3.7163519859 0.46678900719 1.408038497 3.6544830799 0.36574301124 1.0680350065
          -0.51359897852 0.26363918185 -1.5916399956 -0.74778497219 0.49031057954 -1.546538949
          -0.72984099388 0.28546023369 -1.3866969347 -0.86909997463 0.24614109099 -1.6085100174
          -2.6722416878 0.17765410244 -0.99963802099 -2.6269614697 -0.066813401878 -1.0421299934
          -2.7823200226 0.016783099622 -0.68633919954 -2.548101902 -0.012899150141 -0.78901946545
          -0.028528999537 0.095570899546 -1.5219500065 0.046897001565 0.32769879699 -1.3547029495
          0.056278999895 0.056861169636 -1.3090289831 -0.2287349999 0.24483269453 -1.2839930058
          3.1324748993 -0.012670002878 1.333466053 3.2844669819 0.18207931519 1.0159295797
          3.1057059765 0.21902000904 1.2990050316 2.9346859455 -0.010064994916 1.0378210545
          -2.548101902 -0.012899150141 -0.78901946545 -2.707750082 0.14897160232 -0.50897496939
          -2.5196659565 0.24592778087 -0.72205346823 -2.4275128841 0.11600639671 -0.53692299128
          -1.6338564157 0.02010091953 -1.3360049725 -1.5631556511 -0.15877270699 -1.5688300133
          -1.5521390438 -0.22336211801 -1.3013720512 -1.4067959785 -0.070061728358 -1.4117490053
          0.30814930797 0.31706541777 -1.2523280382 0.081534996629 0.22075429559 -1.1755410433
          0.12977400422 0.53239011765 -1.1151189804 0.21853539348 0.33637189865 -0.98886328936
          3.4179348946 0.33102399111 1.4116280079 3.5387530327 0.16991350055 1.193629384
          3.7163519859 0.46678900719 1.408038497 3.6544830799 0.36574301124 1.0680350065
          5.0791130066 -0.098838992417 2.3361620903 4.9883351326 -0.0025349962525 2.1726241112
          4.8122911453 -0.30095601082 2.246833086 5.0993762016 -0.30616301298 2.320991993
          -3.5356121063 0.44416579604 -0.95966500044 -3.2964999676 0.25800848007 -1.0607520342
          -3.4902799129 0.19203700125 -0.97851699591 -3.3199958801 0.47254309058 -0.92196601629
          -2.1506009102 0.25718417764 -1.2337720394 -2.3987627029 0.46843078732 -1.1548199654
          -2.3186562061 0.14272490144 -1.0617469549 -2.4950749874 0.26449760795 -1.1571450233
          1.8443030119 0.60612398386 -0.54030299187 1.653785944 0.59295141697 -0.72733402252
          1.6138050556 0.3192229867 -0.46323099732 1.8531999588 0.48722600937 -0.73915499449
          4.9763240814 -0.29127800465 1.5377320051 5.0016570091 -0.09311401844 1.6771680117
          5.2169570923 -0.28806000948 1.5943369865 4.9833068848 -0.29716300964 1.80032897
          -0.50069600344 -0.11491009593 -1.5895299911 -0.679880023 0.069117903709 -1.6021100283
          -0.47055399418 0.047336298972 -1.5825300217 -0.55726397038 -0.032617900521 -1.40318501
          4.4067840576 -0.28270500898 2.1856250763 4.5017971992 -0.076010011137 2.1854460239
          4.6318750381 -0.28834098577 2.005959034 4.6169447899 -0.28709799051 2.2023260593
          -3.6916606426 0.47540700436 -0.29235720634 -3.9811484814 0.47856000066 -0.21228690445
          -3.7485210896 0.47213810682 -0.081793002784 -3.7126243114 0.24968840182 -0.29950919747
          1.8911110163 0.31002601981 0.28474500775 2.0687611103 0.17121970654 0.57191699743
          2.2181119919 0.41253200173 0.3796235919 2.2750039101 0.14374065399 0.29926979542
          3.9827311039 -0.10510598868 1.5950082541 3.7013010979 -0.30448499322 1.5550149679
          3.8821690083 -0.30057999492 1.4447215796 3.8552589417 -0.056183006614 1.3705922365
          3.4475607872 0.0026549980976 1.8703099489 3.4407179356 -0.10024298728 1.6149629354
          3.5908029079 0.19661930203 1.6370530128 3.3237390518 0.14818389714 1.5284450054
          4.7728209496 0.11897029728 2.42572999 5.0963821411 0.18064403534 2.290708065
          4.960849762 -0.010346002877 2.4790999889 5.0148458481 0.15865379572 2.5250399113
          -1.1318500042 0.052193719894 -1.1925956011 -0.96815401316 0.02664539963 -0.92440497875
          -0.97820800543 0.24167840183 -0.90613996983 -0.89497202635 0.0030651004054 -1.1271020174
          -0.19524599612 0.051735099405 -0.78870302439 -0.20871029794 0.16622160375 -0.5290799737
          -0.42486399412 0.21323770285 -0.57991999388 -0.24963200092 0.28975039721 -0.72652798891
          4.4501152039 0.014983006753 1.5191400051 4.6735458374 0.19949239492 1.5503569841
          4.5158967972 -0.051814988256 1.7898253202 4.4655342102 0.20313693583 1.8080023527
          2.2181119919 0.41253200173 0.3796235919 2.1254868507 0.43120700121 0.6656140089
          2.2841498852 0.63460797071 0.62853097916 2.387912035 0.31022301316 0.66756099463
          -4.3347187042 0.29005420208 -0.44296199083 -4.5366792679 0.30343410373 -0.3805705905
          -4.4399366379 0.49330413342 -0.36716800928 -4.3815760612 0.24617770314 -0.19512629509
          1.6754965782 -0.38479599357 0.46163770556 1.5088090897 -0.39408099651 0.20298700035
          1.8311589956 -0.37597900629 0.21240459383 1.6178350449 -0.15927900374 0.18571281433
          -0.74982398748 -0.23088718951 -1.0935233831 -0.89497202635 0.0030651004054 -1.1271020174
          -1.0050040483 -0.23432028294 -1.1520009041 -0.73458898067 -0.17205369473 -1.327262044
          4.1697688103 0.64373600483 2.1378290653 3.8874111176 0.63993400335 2.0479431152
          4.1113681793 0.48997598886 2.274960041 3.9373788834 0.45778700709 1.9478909969
          -0.2287349999 0.24483269453 -1.2839930058 -0.26240199804 0.35430929065 -1.093870163
          -0.50188398361 0.32205638289 -1.0782203674 -0.44964700937 0.30215507746 -1.3843599558
          3.147439003 -0.0024279970676 0.66096997261 2.846298933 -0.090493999422 0.57238131762
          3.0362560749 -0.12312699854 0.36283898354 2.9617218971 0.11532790214 0.41656598449
          1.3497146368 0.084297902882 0.35733398795 1.6255400181 0.14701509476 0.17244631052
          1.3238321543 0.31234300137 0.3489010036 1.369579196 0.12671080232 0.095050007105
          -1.8200160265 0.49221810699 -0.71408998966 -1.86886096 0.2922372818 -1.0309972763
          -1.7904880047 0.17986288667 -0.85320198536 -1.6665450335 0.31891724467 -0.9786170125
          2.0687611103 0.17121970654 0.57191699743 2.3112504482 0.13608121872 0.81553798914
          2.387912035 0.31022301316 0.66756099463 2.3737831116 -0.031773991883 0.64508098364
          -0.7670930028 0.060932602733 -1.3277369738 -0.85848498344 0.10293919593 -1.6076999903
          -0.78262102604 -0.069029003382 -1.6080299616 -0.679880023 0.069117903709 -1.6021100283
          3.7013010979 -0.30448499322 1.5550149679 3.718173027 -0.032231997699 1.6364309788
          3.9363288879 -0.29490798712 1.6831860542 3.6907598972 -0.3027870059 1.7716159821
          2.1764740944 -0.18138699234 0.65020596981 1.8045516014 -0.25807699561 0.68097501993
          1.9808440208 -0.36953899264 0.4755859971 1.9639710188 -0.12883301079 0.49361902475
          -1.1518950462 -0.061164274812 -0.8551800251 -1.2343740463 0.075913608074 -0.61450999975
          -1.3339209557 -0.1199079901 -0.60588997602 -1.3387739658 0.1015701443 -0.80373698473
          -0.42572999001 -0.2455662936 -0.58765000105 -0.23330500722 -0.099709004164 -0.54330998659
          -0.29678198695 -0.19139230251 -0.85894298553 -0.13618600368 -0.29588839412 -0.75555801392
          2.5400059223 0.47935000062 0.92150700092 2.3321909904 0.63398498297 0.92614901066
          2.6370809078 0.64847302437 0.76524597406 2.5734648705 0.64016002417 1.1225880384
          -1.3283799887 0.50588327646 -0.82055300474 -1.4990010262 0.46406769753 -0.58357000351
          -1.2614649534 0.29969120026 -0.61504000425 -1.4917390347 0.24093736708 -0.86661797762
          -1.3283799887 0.50588327646 -0.82055300474 -1.4990010262 0.46406769753 -0.58357000351
          -1.4917390347 0.24093736708 -0.86661797762 -1.6519750357 0.49484336376 -0.84614998102
          -0.86909997463 0.24614109099 -1.6085100174 -0.83093398809 0.49481633306 -1.3887859583
          -0.72984099388 0.28546023369 -1.3866969347 -1.0532729626 0.32143890858 -1.6126300097
          -1.7756780386 0.41514155269 -0.51559001207 -1.9680509567 0.31546962261 -0.45382100344
          -1.8522150517 0.15278969705 -0.4879719913 -1.8314759731 0.27363407612 -0.6662620306
          -1.2363820076 0.13768835366 -0.99496001005 -1.4917390347 0.24093736708 -0.86661797762
          -1.3387739658 0.1015701443 -0.80373698473 -1.3511379957 -0.033111680299 -1.0856614113
          -3.9470174313 -0.23043839633 -0.45734000206 -3.8315455914 -0.51438689232 -0.46247899532
          -4.0726661682 -0.51234167814 -0.36274200678 -4.0016961098 -0.32739970088 -0.24166919291
          3.0362560749 -0.12312699854 0.36283898354 3.179639101 -0.31765601039 0.58325701952
          3.2719910145 -0.31246700883 0.38419899344 2.8988618851 -0.32689899206 0.32881501317
          -3.648727417 0.16803780198 -0.52384102345 -3.8436272144 -0.0084195006639 -0.544039011
          -3.5465004444 -0.0025727003813 -0.37637498975 -3.6431386471 0.012811898254 -0.67573601007
          4.7117071152 0.64353197813 1.3227100372 4.559112072 0.72245299816 1.4581370354
          4.7165417671 0.53939402103 1.5485489368 4.5152788162 0.44570598006 1.5512629747
          2.1158709526 -0.35618299246 -0.26636224985 1.896214962 -0.35974898934 -0.63775098324
          2.0414140224 -0.19573998451 -0.65807902813 1.872320056 -0.36590901017 -0.38697499037
          0.36511561275 -0.21865269542 -1.2138979435 0.26467600465 -0.18822538853 -1.4712239504
          0.22415600717 -0.082622297108 -1.3033210039 0.24705900252 -0.42054501176 -1.2698409557
          4.4655342102 0.20313693583 1.8080023527 4.1660380363 0.37686598301 1.8869049549
          4.2718300819 0.15794679523 1.6279176474 4.2633280754 0.48635900021 1.6941789389
          -2.9489409924 0.21040900052 -1.2003070116 -2.8605468273 0.030474800617 -1.0333030224
          -3.0489430428 -0.05935529992 -1.1577789783 -3.0872220993 0.1026121974 -1.1435060501
          -3.0947728157 0.28662750125 -0.90678101778 -3.0872220993 0.1026121974 -1.1435060501
          -3.2624089718 0.0626033023 -1.0726950169 -3.1125445366 -0.042645700276 -0.91890496016
          2.547467947 0.16419440508 0.46359831095 2.3737831116 -0.031773991883 0.64508098364
          2.387912035 0.31022301316 0.66756099463 2.3112504482 0.13608121872 0.81553798914
          4.7479839325 0.46574398875 1.3275200129 4.7165417671 0.53939402103 1.5485489368
          4.8885669708 0.54565501213 1.3964899778 4.8979010582 0.32311931252 1.3858200312
          -4.4442939758 -0.11693099886 -0.6205059886 -4.2544279099 -0.066851697862 -0.67942899466
          -4.3519821167 -0.3447792232 -0.6417530179 -4.2499485016 -0.19019518793 -0.35626098514
          3.4179348946 0.33102399111 1.4116280079 3.804610014 0.20091049373 1.4191051722
          3.7163519859 0.46678900719 1.408038497 3.5387530327 0.16991350055 1.193629384
          -4.0016961098 -0.32739970088 -0.24166919291 -3.9470174313 -0.23043839633 -0.45734000206
          -4.1456823349 -0.32185968757 -0.5048879981 -4.0726661682 -0.51234167814 -0.36274200678
          3.4407179356 -0.10024298728 1.6149629354 3.2492110729 -0.32095301151 1.4265520573
          3.4261219501 -0.31478399038 1.2515799999 3.4360439777 -0.0026910067536 1.3680689335
          3.9791870117 0.71098798513 1.0759580135 3.9433920383 0.50324100256 0.79245001078
          3.8493919373 0.50689595938 1.0418950319 4.2127790451 0.64916598797 1.0111500025
          3.3933129311 0.66335201263 1.4056479931 3.4408869743 0.48258000612 1.1898485422
          3.4179348946 0.33102399111 1.4116280079 3.7163519859 0.46678900719 1.408038497
          1.7845100164 0.61610001326 0.12772998214 1.669698596 0.61242300272 0.38457930088
          1.8868869543 0.43748298287 0.51323801279 1.8911110163 0.31002601981 0.28474500775
          -1.795637846 0.26627320051 -1.3385109901 -1.8840471506 -0.017964780331 -1.309893012
          -1.6338564157 0.02010091953 -1.3360049725 -1.8180626631 0.066226676106 -1.5300899744
          3.2844669819 0.18207931519 1.0159295797 3.147439003 -0.0024279970676 0.66096997261
          3.4617619514 -0.034863006324 0.83526402712 3.4640750885 0.2319137007 0.72248202562
          2.5302391052 -0.34590399265 0.74713200331 2.2867779732 -0.35515400767 0.54491502047
          2.5706369877 -0.14441801608 0.49783235788 2.3880560398 -0.17542900145 0.81797897816
          -2.2290380001 -0.01067822054 -0.56298202276 -2.526927948 -0.09825039655 -0.49015599489
          -2.4078168869 -0.30346369743 -0.49435901642 -2.2852199078 -0.19466769695 -0.68211597204
          -3.7752130032 0.42797881365 -0.85966801643 -3.6143445969 0.47693321109 -0.66685003042
          -3.5222220421 0.2613735199 -0.7316250205 -3.7815887928 0.27240249515 -0.66369998455
          0.73966902494 0.57453459501 -0.50246399641 0.69450002909 0.33520320058 -0.69070541859
          0.83301800489 0.56610417366 -0.74389237165 0.4528760016 0.56065458059 -0.71604299545
          -3.4282062054 0.14235441387 -0.57428902388 -3.5465004444 -0.0025727003813 -0.37637498975
          -3.2953541279 -0.00062000047183 -0.49288973212 -3.4256296158 -0.04080190137 -0.73200601339
          -4.0898427963 -0.054189000279 -0.25348520279 -4.2035307884 0.079204000533 -0.13781389594
          -4.0705108643 0.13585180044 0.0080800065771 -4.0883383751 -0.19288347661 -0.063150003552
          -2.354665041 -0.32262691855 -0.86674439907 -2.214564085 -0.50244742632 -0.93670272827
          -2.2919089794 -0.51172739267 -0.61034798622 -2.1335361004 -0.33587309718 -0.85573190451
          4.9558830261 0.24193349481 1.938804388 4.7131490707 0.21425390244 1.868008852
          4.7842068672 0.23646980524 2.2136070728 4.659427166 0.057737004012 2.0819699764
          -2.8640635014 -0.32550418377 -0.67871928215 -2.9948811531 -0.50990730524 -0.57723468542
          -2.8012299538 -0.51003861427 -0.44231700897 -2.7047069073 -0.50918275118 -0.67922121286
          3.147439003 -0.0024279970676 0.66096997261 3.179639101 -0.31765601039 0.58325701952
          3.3454549313 -0.14016999304 0.62486702204 3.0362560749 -0.12312699854 0.36283898354
          2.6483149529 0.51224297285 1.3579260111 3.0001080036 0.49131900072 1.1801650524
          2.7331340313 0.47387900949 1.1153179407 2.8278307915 0.37164700031 1.4777669907
          -1.4067959785 -0.070061728358 -1.4117490053 -1.5296863317 0.075993299484 -1.5737700462
          -1.1884590387 0.063980542123 -1.4178910255 -1.3583359718 0.17316421866 -1.3048620224
          -0.50188398361 0.32205638289 -1.0782203674 -0.84249997139 0.26520928741 -1.1529723406
          -0.53547698259 0.15860010684 -1.2386740446 -0.72984099388 0.28546023369 -1.3866969347
          -0.19269900024 -0.26168438792 -1.0995333195 -0.19379499555 -0.24117720127 -1.3589559793
          -0.38811999559 -0.14212410152 -1.2827340364 -0.36334300041 -0.45349159837 -1.1892901659
          4.6524858475 0.67294102907 2.2563040257 4.8932499886 0.67041701078 2.498333931
          4.7806420326 0.47793102264 2.2329978943 4.6838960648 0.53327900171 2.4624800682
          -0.48226100206 0.47477662563 -1.5933699608 -0.3715389967 0.50824278593 -1.3971790075
          -0.44964700937 0.30215507746 -1.3843599558 -0.59481602907 0.50138133764 -1.4068089724
          1.2925460339 -0.051271595061 -0.25956600904 1.6553009748 -0.058208007365 -0.42940098047
          1.3120340109 -0.15288600326 -0.5459626317 1.4527050257 -0.19449299574 -0.29091629386
          -1.8314759731 0.27363407612 -0.6662620306 -1.8522150517 0.15278969705 -0.4879719913
          -1.7705160379 -0.013670380227 -0.72984999418 -1.9904079437 0.054340101779 -0.69911700487
          0.30814930797 0.31706541777 -1.2523280382 -0.061303000897 0.37349951267 -1.1732430458
          0.046897001565 0.32769879699 -1.3547029495 0.12977400422 0.53239011765 -1.1151189804
          4.819275856 0.2937990129 2.4843699932 4.7806420326 0.47793102264 2.2329978943
          5.0139088631 0.39100199938 2.2078499794 4.8466658592 0.47665601969 2.4843699932
          -2.1998250484 -0.3150857985 -0.36672699451 -2.4884090424 -0.28845638037 -0.25028300285
          -2.2511439323 -0.51482909918 -0.38649699092 -2.4078168869 -0.30346369743 -0.49435901642
          -2.4078168869 -0.30346369743 -0.49435901642 -2.504308939 -0.50290739536 -0.24516999722
          -2.2511439323 -0.51482909918 -0.38649699092 -2.5134499073 -0.51176577806 -0.47904199362
          0.59374600649 0.45762971044 -1.362267971 0.30814930797 0.31706541777 -1.2523280382
          0.24196699262 0.39278018475 -1.4639049768 0.34664174914 0.52966880798 -1.3116159439
          -4.3490223885 0.21022440493 0.13521999121 -4.4579524994 0.47279408574 0.21904788911
          -4.5313487053 0.23166209459 0.25894141197 -4.5223350525 0.28749448061 0.00038830153062
          -1.8180626631 0.066226676106 -1.5300899744 -1.8840471506 -0.017964780331 -1.309893012
          -1.6338564157 0.02010091953 -1.3360049725 -1.856298089 -0.15979887545 -1.5231399536
          3.9373788834 0.45778700709 1.9478909969 3.5524427891 0.59926497936 1.9792000055
          3.5512509346 0.3587679863 1.954660058 3.6992878914 0.65348899364 1.8166350126
          -0.7670930028 0.060932602733 -1.3277369738 -0.84249997139 0.26520928741 -1.1529723406
          -0.53547698259 0.15860010684 -1.2386740446 -0.61719799042 -0.039664398879 -1.1887242794
          -3.2987422943 0.26889032125 -0.46421080828 -3.517005682 0.27712589502 -0.40882021189
          -3.4917843342 0.47428500652 -0.40278941393 -3.2346680164 0.26355689764 -0.22137200832
          -1.3283799887 0.50588327646 -0.82055300474 -1.4917390347 0.24093736708 -0.86661797762
          -1.4724910259 0.49207678437 -1.0708984137 -1.6519750357 0.49484336376 -0.84614998102
          -2.82984519 -0.19690430164 -0.8898460269 -2.6269614697 -0.066813401878 -1.0421299934
          -2.7915763855 -0.063147902489 -1.2559100389 -2.7851204872 -0.2995711267 -1.2576700449
          -3.93171525 0.23039670289 -0.4976850152 -3.8207867146 0.48162639141 -0.65821701288
          -3.7815887928 0.27240249515 -0.66369998455 -3.8304586411 0.47921529412 -0.44864699244
          4.7630262375 -0.078894995153 2.2290580273 4.8128800392 -0.12278998643 2.4790999889
          4.8122911453 -0.30095601082 2.246833086 4.6464409828 -0.13010598719 2.42572999
          0.14116099477 -0.43207919598 -1.1435899734 -0.0075119999237 -0.13963499665 -1.2594619989
          0.36511561275 -0.21865269542 -1.2138979435 0.059512998909 -0.21327769756 -1.0408661366
          -3.5243430138 -0.15946990252 -0.9610850215 -3.6200819016 -0.16615739465 -0.5608189702
          -3.4521927834 -0.28309810162 -0.73375397921 -3.6418271065 -0.31525328755 -0.91074800491
          0.36511561275 -0.21865269542 -1.2138979435 0.24705900252 -0.42054501176 -1.2698409557
          0.47881600261 -0.41453048587 -1.1412249804 0.5846940279 -0.39953100681 -1.38280797
          0.14116099477 -0.43207919598 -1.1435899734 -0.012586000375 -0.43688291311 -1.2338080406
          -0.0075119999237 -0.13963499665 -1.2594619989 0.059512998909 -0.21327769756 -1.0408661366
          0.24705900252 -0.42054501176 -1.2698409557 -0.0075119999237 -0.13963499665 -1.2594619989
          0.36511561275 -0.21865269542 -1.2138979435 0.14116099477 -0.43207919598 -1.1435899734
          0.30460509658 0.093160197139 -1.2340450287 0.056278999895 0.056861169636 -1.3090289831
          0.26428851485 -0.064987801015 -1.0606349707 0.22415600717 -0.082622297108 -1.3033210039
          1.108150959 0.58133798838 -0.50853699446 0.83301800489 0.56610417366 -0.74389237165
          0.98193901777 0.39114138484 -0.63054037094 1.0837780237 0.56879729033 -0.83355396986
          2.5706369877 -0.14441801608 0.49783235788 2.547467947 0.16419440508 0.46359831095
          2.6742250919 -0.012311006896 0.2936809957 2.846298933 -0.090493999422 0.57238131762
          -0.7670930028 0.060932602733 -1.3277369738 -0.61719799042 -0.039664398879 -1.1887242794
          -0.53547698259 0.15860010684 -1.2386740446 -0.55726397038 -0.032617900521 -1.40318501
          0.39233699441 -0.44935038686 -0.54869902134 0.51021200418 -0.21610671282 -0.49635899067
          0.3360530138 -0.12368449569 -0.71136599779 0.44525501132 -0.44013750553 -0.72802501917
          0.39233699441 -0.44935038686 -0.54869902134 0.27352508903 -0.21387378871 -0.36756598949
          0.3360530138 -0.12368449569 -0.71136599779 0.51021200418 -0.21610671282 -0.49635899067
          1.1071350574 0.033141098917 -1.1655050516 1.1473189592 0.12026190013 -0.89047002792
          0.82348799706 -0.019467899576 -0.88339298964 0.74059998989 0.11394579709 -1.0505290031
          -1.2363820076 0.13768835366 -0.99496001005 -1.1999200583 0.31322172284 -0.84429401159
          -1.3387739658 0.1015701443 -0.80373698473 -1.4917390347 0.24093736708 -0.86661797762
          5.0743060112 0.70134097338 2.1695489883 5.3322758675 0.71096599102 2.2698550224
          5.2246007919 0.71275597811 2.0305790901 5.1783838272 0.53621798754 2.2175490856
          1.2570589781 -0.21799020469 -0.084225989878 1.0432590246 -0.41784200072 -0.18719400465
          1.0725090504 -0.1251232028 -0.30668699741 0.94075733423 -0.2887121141 0.026029000059
          0.74059998989 0.11394579709 -1.0505290031 0.47868400812 -0.085507400334 -0.87584412098
          0.62536001205 0.067611642182 -0.78804123402 0.61579799652 -0.14052461088 -1.0343459845
          -1.225301981 -0.29465007782 -1.0979983807 -1.2506010532 -0.14467050135 -1.2530030012
          -1.0050040483 -0.23432028294 -1.1520009041 -1.1468379498 -0.10479596257 -1.0598422289
          1.1473189592 0.12026190013 -0.89047002792 1.1071350574 0.033141098917 -1.1655050516
          1.2469780445 -0.10695700347 -1.1089379787 1.4039119482 0.11461269855 -1.0208369493
          -2.6722416878 0.17765410244 -0.99963802099 -2.7324504852 0.10715190321 -1.2788300514
          -2.6970658302 0.28316840529 -1.292855978 -2.8611981869 0.29218497872 -1.0245879889
          3.3829259872 0.46805399656 0.71429997683 3.4906380177 0.39700400829 0.43757998943
          3.241795063 0.17628619075 0.51923000813 3.4640750885 0.2319137007 0.72248202562
          -4.6376662254 0.16694931686 -0.24515900016 -4.7578816414 0.28667363524 -0.042721800506
          -4.7995986938 0.015869349241 -0.30273678899 -4.7940740585 0.30425521731 -0.31099230051
          3.0217940807 0.11983050406 0.068121999502 2.9222569466 -0.035557992756 -0.016389999539
          3.0362560749 -0.12312699854 0.36283898354 3.0622529984 -0.15697599947 0.078552998602
          -0.56551098824 -0.25506937504 -1.2119810581 -0.63469898701 -0.45314198732 -1.3848659992
          -0.79623502493 -0.46506458521 -1.2561719418 -0.57344698906 -0.46036499739 -1.2049913406
          -4.7094054222 0.49808984995 -0.25924840569 -4.5005278587 0.48635560274 -0.11545810103
          -4.6376662254 0.16694931686 -0.24515900016 -4.7578816414 0.28667363524 -0.042721800506
          4.6524858475 0.67294102907 2.2563040257 4.6838960648 0.53327900171 2.4624800682
          4.7806420326 0.47793102264 2.2329978943 4.486289978 0.48828300834 2.4170000553
          -4.3193311691 0.46817699075 0.36364999413 -4.4579524994 0.47279408574 0.21904788911
          -4.4553132057 0.33380118012 0.41776010394 -4.3490223885 0.21022440493 0.13521999121
          -0.49013099074 -0.27833321691 -0.80703800917 -0.42572999001 -0.2455662936 -0.58765000105
          -0.29678198695 -0.19139230251 -0.85894298553 -0.31607699394 -0.47428938746 -0.76736098528
          -3.0384581089 0.17068129778 -0.37494298816 -3.2438099384 0.03149420023 -0.20086398721
          -3.2987422943 0.26889032125 -0.46421080828 -3.2346680164 0.26355689764 -0.22137200832
          1.9808440208 -0.36953899264 0.4755859971 2.087033987 -0.36293101311 0.27580299973
          2.2042989731 -0.13768899441 0.32803380489 1.9639710188 -0.12883301079 0.49361902475
          2.7388780117 0.4845879972 0.20156900585 3.0115010738 0.44793599844 0.41370400786
          2.8988199234 0.66676598787 0.13199600577 3.0825920105 0.52345901728 0.14255799353
          -1.0088479519 0.19115871191 -1.3418680429 -0.84249997139 0.26520928741 -1.1529723406
          -0.72984099388 0.28546023369 -1.3866969347 -0.7670930028 0.060932602733 -1.3277369738
          1.5018340349 0.60006701946 -0.26044872403 1.4418599606 0.28709000349 -0.062245994806
          1.4334243536 0.60390299559 0.081108003855 1.7167700529 0.42090001702 -0.091850601137
          -1.3339209557 -0.1199079901 -0.60588997602 -1.542323947 -0.10029046237 -0.56713998318
          -1.5314699411 -0.26643535495 -0.78901797533 -1.5145759583 -0.018870471045 -0.82699400187
          -1.8522150517 0.15278969705 -0.4879719913 -1.8314759731 0.27363407612 -0.6662620306
          -1.6775929928 0.07707464695 -0.53350001574 -1.6158000231 0.28506198525 -0.55510002375
          2.5418469906 0.64766597748 0.10435001552 2.7388780117 0.4845879972 0.20156900585
          2.8988199234 0.66676598787 0.13199600577 2.8823029995 0.46633699536 -0.010378999636
          -4.6376662254 0.16694931686 -0.24515900016 -4.5005278587 0.48635560274 -0.11545810103
          -4.3815760612 0.24617770314 -0.19512629509 -4.5223350525 0.28749448061 0.00038830153062
          -4.6756920815 -0.17933808267 0.46103820205 -4.6474046707 -0.00025216012727 0.44196480513
          -4.7829651833 -0.03583727777 0.25068509579 -4.5542583466 -0.14354543388 0.282918185
          -3.1945888996 0.20945261419 0.039181999862 -3.3044788837 0.4724803865 -0.1253259927
          -3.1058139801 0.41758540273 0.0045389998704 -3.3263669014 0.39029639959 0.092840000987
          -3.8458154202 -0.0071441796608 -0.27063637972 -4.0705108643 0.13585180044 0.0080800065771
          -3.7695140839 0.20615190268 -0.025571003556 -3.9098739624 -0.045701097697 0.062531001866
          -1.5769430399 -0.27982699871 -1.0531499386 -1.5521390438 -0.22336211801 -1.3013720512
          -1.225301981 -0.29465007782 -1.0979983807 -1.2506010532 -0.14467050135 -1.2530030012
          -2.7823200226 0.016783099622 -0.68633919954 -2.7312269211 -0.032895799726 -0.39067798853
          -2.707750082 0.14897160232 -0.50897496939 -2.526927948 -0.09825039655 -0.49015599489
          5.2030038834 -0.095155008137 2.0543687344 5.0844421387 -0.30479300022 2.0486927032
          5.0791130066 -0.098838992417 2.3361620903 5.0993762016 -0.30616301298 2.320991993
          4.838329792 -0.29386898875 1.6861670017 4.8788080215 -0.15261600912 1.3581800461
          4.9763240814 -0.29127800465 1.5377320051 5.0016570091 -0.09311401844 1.6771680117
          5.2169570923 -0.28806000948 1.5943369865 5.327480793 -0.087410993874 1.7155309916
          5.4998879433 -0.18895500898 1.5840200186 5.3284611702 -0.29205599427 1.7498970032
          2.0099020004 0.62074702978 -0.17452520132 1.7167700529 0.42090001702 -0.091850601137
          1.7609839439 0.60800498724 -0.30019900203 1.7845100164 0.61610001326 0.12772998214
          -2.4078168869 -0.30346369743 -0.49435901642 -2.5134499073 -0.51176577806 -0.47904199362
          -2.2919089794 -0.51172739267 -0.61034798622 -2.4582118988 -0.50782459974 -0.75783860683
          2.8616578579 0.64741098881 1.2881900072 3.0001080036 0.49131900072 1.1801650524
          3.138158083 0.46699899435 1.4169000387 3.1671938896 0.66265797615 1.2060799599
          1.8173689842 -0.37339198589 -0.084958538413 1.8071659803 -0.10879799724 -0.12797890604
          1.9658960104 -0.19827999175 -0.2762555182 2.0367250443 -0.15883000195 0.10807870328
          1.0282603502 0.59369128942 0.0024159983732 1.2312122583 0.39813408256 -0.034452985972
          1.1137839556 0.31430581212 -0.23879601061 0.9058868885 0.3652240932 0.037831000984
          4.0760598183 -0.29790601134 1.5380973816 4.2373199463 -0.093296997249 1.6291577816
          3.9827311039 -0.10510598868 1.5950082541 4.1369771957 0.033024005592 1.3592270613
          -4.5366792679 0.30343410373 -0.3805705905 -4.7088990211 0.50314342976 -0.47985681891
          -4.7940740585 0.30425521731 -0.31099230051 -4.6478972435 0.31442570686 -0.57184767723
          -2.4275128841 0.11600639671 -0.53692299128 -2.1832900047 0.29363209009 -0.3768529892
          -2.2290380001 -0.01067822054 -0.56298202276 -2.3957979679 0.17064259946 -0.29074698687
          2.3722069263 0.33220499754 -0.39323601127 1.9701869488 0.36129301786 -0.32886689901
          2.1084809303 0.16455329955 -0.24006199837 2.1685369015 0.31989699602 -0.53797519207
          4.1697688103 0.64373600483 2.1378290653 4.1660380363 0.37686598301 1.8869049549
          4.1113681793 0.48997598886 2.274960041 4.402616024 0.45689401031 2.1667981148
          1.8443030119 0.60612398386 -0.54030299187 1.7609839439 0.60800498724 -0.30019900203
          1.6138050556 0.3192229867 -0.46323099732 1.446663022 0.5864855051 -0.62758201361
          -1.8855940104 -0.082297004759 -0.4747030139 -1.715157032 -0.23626880348 -0.5269600153
          -1.6775929928 0.07707464695 -0.53350001574 -1.7705160379 -0.013670380227 -0.72984999418
          -1.7574769258 -0.32169941068 -1.3376590014 -1.925401926 -0.48173299432 -1.4075479507
          -1.6530690193 -0.4847458899 -1.2544569969 -1.5384149551 -0.474794209 -1.4103360176
          2.4130580425 -0.0050789942034 0.39745768905 2.4627220631 0.06453820318 0.024974999949
          2.6742250919 -0.012311006896 0.2936809957 2.547467947 0.16419440508 0.46359831095
          -4.7940740585 0.30425521731 -0.31099230051 -4.7088990211 0.50314342976 -0.47985681891
          -4.827589035 0.26959607005 -0.53942549229 -4.6478972435 0.31442570686 -0.57184767723
          -0.61719799042 -0.039664398879 -1.1887242794 -0.73458898067 -0.17205369473 -1.327262044
          -0.74982398748 -0.23088718951 -1.0935233831 -0.56551098824 -0.25506937504 -1.2119810581
          1.3935819864 0.57705062628 -0.88371801376 1.446663022 0.5864855051 -0.62758201361
          1.6266590357 0.45401710272 -0.88460201025 1.2616900206 0.31878641248 -0.65477597713
          -1.0281820297 -0.050216499716 -0.63028001785 -0.96815401316 0.02664539963 -0.92440497875
          -0.76539498568 -0.02696910128 -0.88151800632 -0.91159600019 0.073344998062 -0.62898999453
          -3.2624089718 0.0626033023 -1.0726950169 -3.4902799129 0.19203700125 -0.97851699591
          -3.275526762 0.18115669489 -0.7455739975 -3.4256296158 -0.04080190137 -0.73200601339
          -0.24963200092 0.28975039721 -0.72652798891 -0.20871029794 0.16622160375 -0.5290799737
          -0.04825539887 0.29193970561 -0.48039200902 -0.032131001353 0.33743911982 -0.72442996502
          -2.1107180119 0.488994807 -0.53275901079 -1.9680509567 0.31546962261 -0.45382100344
          -1.7756780386 0.41514155269 -0.51559001207 -1.8200160265 0.49221810699 -0.71408998966
          -1.5874071121 0.47615900636 -1.3606339693 -1.8760517836 0.47185769677 -1.3252899647
          -1.7639460564 0.4825155139 -1.1151630878 -1.795637846 0.26627320051 -1.3385109901
          2.0367250443 -0.15883000195 0.10807870328 2.1158709526 -0.35618299246 -0.26636224985
          2.2337059975 -0.17428898811 -0.25786739588 1.9658960104 -0.19827999175 -0.2762555182
          4.3348088264 0.0020780034829 2.0050890446 4.3237462044 0.042966000736 2.3439700603
          4.5017971992 -0.076010011137 2.1854460239 4.2298059464 -0.09465200454 2.2884199619
          2.78916049 0.10995809734 1.4312570095 2.5438802242 0.032495997846 1.2491639853
          2.7450699806 0.13935770094 1.1011400223 2.5472946167 0.21848860383 1.2638469934
          4.9762878418 0.4914059937 1.7501740456 5.1484160423 0.71598798037 1.853268981
          5.1064062119 0.72903001308 1.5365300179 5.3054409027 0.72630798817 1.6629229784
          4.7563681602 0.41457000375 1.7243119478 4.9558830261 0.24193349481 1.938804388
          4.9762878418 0.4914059937 1.7501740456 5.0031938553 0.28169769049 1.6652870178
          2.7515289783 0.13377730548 0.70048117638 2.846298933 -0.090493999422 0.57238131762
          2.6176869869 -0.096157990396 0.89440202713 2.9822580814 -0.12804400921 0.81096309423
          -2.9054839611 0.47552779317 -0.32576698065 -2.8824410439 0.47557380795 -0.10396198928
          -2.6418669224 0.48016449809 -0.30111697316 -2.6534280777 0.29591062665 -0.18428100646
          0.30814930797 0.31706541777 -1.2523280382 0.081534996629 0.22075429559 -1.1755410433
          0.046897001565 0.32769879699 -1.3547029495 -0.061303000897 0.37349951267 -1.1732430458
          0.32017090917 -0.4122928977 -0.35579401255 0.51021200418 -0.21610671282 -0.49635899067
          0.39233699441 -0.44935038686 -0.54869902134 0.52299612761 -0.44770920277 -0.3446649909
          -2.7324504852 0.10715190321 -1.2788300514 -2.9489409924 0.21040900052 -1.2003070116
          -2.6970658302 0.28316840529 -1.292855978 -2.8611981869 0.29218497872 -1.0245879889
          4.5017971992 -0.076010011137 2.1854460239 4.7630262375 -0.078894995153 2.2290580273
          4.6318750381 -0.28834098577 2.005959034 4.6169447899 -0.28709799051 2.2023260593
          3.2712409496 -0.069230996072 1.0871679783 3.2844669819 0.18207931519 1.0159295797
          3.1324748993 -0.012670002878 1.333466053 2.9346859455 -0.010064994916 1.0378210545
          3.1324748993 -0.012670002878 1.333466053 3.1057059765 0.21902000904 1.2990050316
          3.0577402115 0.15238833427 1.6229300499 2.78916049 0.10995809734 1.4312570095
          4.5728478432 -0.045872993767 1.2065700293 4.4501152039 0.014983006753 1.5191400051
          4.4976420403 -0.29328599572 1.5345549583 4.3275651932 -0.10407299548 1.3448059559
          0.98193901777 0.39114138484 -0.63054037094 0.83301800489 0.56610417366 -0.74389237165
          0.93579101562 0.2607139945 -0.85697698593 1.0837780237 0.56879729033 -0.83355396986
          0.64788299799 -0.0059197037481 -1.3478369713 0.74059998989 0.11394579709 -1.0505290031
          0.8697130084 0.27566960454 -1.2600489855 0.88432902098 -0.0070595997386 -1.2622259855
          -0.91159600019 0.073344998062 -0.62898999453 -0.96815401316 0.02664539963 -0.92440497875
          -0.76539498568 -0.02696910128 -0.88151800632 -0.97820800543 0.24167840183 -0.90613996983
          2.6742250919 -0.012311006896 0.2936809957 2.7543749809 0.16338352859 0.14366000891
          2.9222569466 -0.035557992756 -0.016389999539 3.0217940807 0.11983050406 0.068121999502
          1.872320056 -0.36590901017 -0.38697499037 1.896214962 -0.35974898934 -0.63775098324
          2.0414140224 -0.19573998451 -0.65807902813 1.8301340342 -0.19138199091 -0.51286798716
          1.4943079948 -0.043684996665 -0.058169994503 1.4527050257 -0.19449299574 -0.29091629386
          1.2570589781 -0.21799020469 -0.084225989878 1.6111949682 -0.21885199845 -0.057695001364
          3.3237390518 0.14818389714 1.5284450054 3.4360439777 -0.0026910067536 1.3680689335
          3.1324748993 -0.012670002878 1.333466053 3.4407179356 -0.10024298728 1.6149629354
          -2.9588835239 0.10583119839 -0.81790500879 -3.0947728157 0.28662750125 -0.90678101778
          -2.9227018356 0.26947918534 -0.61335587502 -3.275526762 0.18115669489 -0.7455739975
          4.0141201019 0.24855940044 1.621557951 3.804297924 0.13001829386 1.8220219612
          4.0705580711 0.054460007697 1.7552939653 3.718173027 -0.032231997699 1.6364309788
          3.6907598972 -0.3027870059 1.7716159821 3.4407179356 -0.10024298728 1.6149629354
          3.5018596649 -0.19701200724 1.8944000006 3.419023037 -0.31212699413 1.6825289726
          -4.6474046707 -0.00025216012727 0.44196480513 -4.7829651833 -0.03583727777 0.25068509579
          -4.8289003372 0.15818049014 0.46990901232 -5 0.07584580034 0.38386198878
          -4.3393721581 0.42342635989 -0.65198898315 -4.1749300957 0.29747289419 -0.70561802387
          -4.1332221031 0.29565098882 -0.49425297976 -4.1525735855 0.49060940742 -0.62944197655
          -4.0705108643 0.13585180044 0.0080800065771 -3.9893488884 0.10838919878 0.30875301361
          -3.7828290462 0.0534854047 0.25001400709 -3.9098739624 -0.045701097697 0.062531001866
          -3.5090770721 0.16754239798 -0.19926699996 -3.2953541279 -0.00062000047183 -0.49288973212
          -3.5465004444 -0.0025727003813 -0.37637498975 -3.2438099384 0.03149420023 -0.20086398721
          1.6976139545 -0.039864007384 -0.8608520031 1.6323230267 0.075184799731 -0.62727099657
          1.3628020287 0.069748699665 -0.7095310092 1.6116360426 0.12268330157 -0.90459799767
          5.0031938553 0.28169769049 1.6652870178 5.1873960495 0.42186701298 1.8164199591
          4.9762878418 0.4914059937 1.7501740456 5.0874519348 0.48010200262 1.4636000395
          3.1706290245 -0.32041600347 0.80434769392 2.9822580814 -0.12804400921 0.81096309423
          3.0215229988 -0.32744300365 0.94604861736 2.9889109135 -0.32668501139 0.69036900997
          -3.0899682045 -0.29772499204 -0.5357632041 -3.07508111 -0.50736320019 -0.289350003
          -2.9584069252 -0.33283078671 -0.35879898071 -2.9948811531 -0.50990730524 -0.57723468542
          1.4334243536 0.60390299559 0.081108003855 1.4418599606 0.28709000349 -0.062245994806
          1.594933033 0.40332198143 0.19972449541 1.7167700529 0.42090001702 -0.091850601137
          2.9617218971 0.11532790214 0.41656598449 2.7781450748 0.40818598866 0.68238705397
          3.1142799854 0.34143099189 0.65826201439 2.7515289783 0.13377730548 0.70048117638
          -2.5196659565 0.24592778087 -0.72205346823 -2.7090830803 0.31708621979 -0.6229904294
          -2.5764689445 0.47962999344 -0.47001102567 -2.3634879589 0.31209561229 -0.49861198664
          -1.795637846 0.26627320051 -1.3385109901 -1.7796988487 0.44841960073 -1.5478500128
          -1.8760517836 0.47185769677 -1.3252899647 -1.972568512 0.25535020232 -1.5025000572
          5.2795748711 0.19745920599 1.7484179735 5.1686019897 0.14154189825 2.0466096401
          4.9797067642 0.10058799386 1.780706048 4.9558830261 0.24193349481 1.938804388
          1.1057879925 0.14166979492 -0.59393042326 1.303779006 0.10932320356 -0.39463099837
          1.3628020287 0.069748699665 -0.7095310092 1.3120340109 -0.15288600326 -0.5459626317
          -4.7094054222 0.49808984995 -0.25924840569 -4.7940740585 0.30425521731 -0.31099230051
          -4.6376662254 0.16694931686 -0.24515900016 -4.5366792679 0.30343410373 -0.3805705905
          -1.5631556511 -0.15877270699 -1.5688300133 -1.5521390438 -0.22336211801 -1.3013720512
          -1.5384149551 -0.474794209 -1.4103360176 -1.7574769258 -0.32169941068 -1.3376590014
          -3.275526762 0.18115669489 -0.7455739975 -2.9588835239 0.10583119839 -0.81790500879
          -3.1125445366 -0.042645700276 -0.91890496016 -3.2104935646 -0.0044391001575 -0.70767199993
          3.4745230675 0.094017997384 0.40399199724 3.147439003 -0.0024279970676 0.66096997261
          3.3454549313 -0.14016999304 0.62486702204 3.3033549786 -0.086898997426 0.26347100735
          3.3933129311 0.66335201263 1.4056479931 3.6058731079 0.68220502138 1.2335082293
          3.4408869743 0.48258000612 1.1898485422 3.6373169422 0.67194199562 1.4793165922
          -3.648727417 0.16803780198 -0.52384102345 -3.8436272144 -0.0084195006639 -0.544039011
          -3.6431386471 0.012811898254 -0.67573601007 -3.7815887928 0.27240249515 -0.66369998455
          -1.1999200583 0.31322172284 -0.84429401159 -1.2614649534 0.29969120026 -0.61504000425
          -1.0616509914 0.19502159953 -0.62691998482 -1.1171029806 0.13310749829 -0.81390601397
          -0.91159600019 0.073344998062 -0.62898999453 -1.1171029806 0.13310749829 -0.81390601397
          -1.0281820297 -0.050216499716 -0.63028001785 -0.96815401316 0.02664539963 -0.92440497875
          -0.73458898067 -0.17205369473 -1.327262044 -0.95317101479 -0.27932810783 -1.4066259861
          -1.0050040483 -0.23432028294 -1.1520009041 -0.79623502493 -0.46506458521 -1.2561719418
          -0.73458898067 -0.17205369473 -1.327262044 -0.95317101479 -0.27932810783 -1.4066259861
          -0.79623502493 -0.46506458521 -1.2561719418 -0.63469898701 -0.45314198732 -1.3848659992
          -1.1171029806 0.13310749829 -0.81390601397 -1.2363820076 0.13768835366 -0.99496001005
          -1.1518950462 -0.061164274812 -0.8551800251 -0.96815401316 0.02664539963 -0.92440497875
          -3.1503348351 -0.51121389866 -0.73205798864 -3.1669573784 -0.19655050337 -0.74350303411
          -3.0899682045 -0.29772499204 -0.5357632041 -3.3584003448 -0.26359349489 -0.49015578628
          4.6524858475 0.67294102907 2.2563040257 4.486289978 0.48828300834 2.4170000553
          4.7806420326 0.47793102264 2.2329978943 4.402616024 0.45689401031 2.1667981148
          -0.2287349999 0.24483269453 -1.2839930058 -0.3715389967 0.50824278593 -1.3971790075
          -0.29748898745 0.35435709357 -1.5664999485 -0.12036799639 0.50918620825 -1.5231349468
          4.559112072 0.72245299816 1.4581370354 4.561398983 0.70336198807 1.6810460091
          4.7165417671 0.53939402103 1.5485489368 4.5152788162 0.44570598006 1.5512629747
          2.2999079227 0.63358300924 -0.23076201975 2.0099020004 0.62074702978 -0.17452520132
          2.2606570721 0.63481098413 0.14861099422 2.1847960949 0.4558160007 -0.22780369222
          3.4475607872 0.0026549980976 1.8703099489 3.1580340862 -0.10009101033 1.6749999523
          3.4407179356 -0.10024298728 1.6149629354 3.3237390518 0.14818389714 1.5284450054
          -1.5769430399 -0.27982699871 -1.0531499386 -1.7501699924 -0.19925332069 -0.86327397823
          -1.5314699411 -0.26643535495 -0.78901797533 -1.6408480406 -0.49996328354 -0.93084400892
          -4.0883383751 -0.19288347661 -0.063150003552 -4.0898427963 -0.054189000279 -0.25348520279
          -4.2212285995 -0.30168271065 -0.17994959652 -4.0016961098 -0.32739970088 -0.24166919291
          3.9373788834 0.45778700709 1.9478909969 3.6992878914 0.65348899364 1.8166350126
          3.5512509346 0.3587679863 1.954660058 3.8146090508 0.38017898798 1.7155710459
          -3.0457994938 0.036590598524 -0.58276486397 -2.707750082 0.14897160232 -0.50897496939
          -2.8852050304 -0.13799700141 -0.5307559967 -2.7312269211 -0.032895799726 -0.39067798853
          1.594933033 0.40332198143 0.19972449541 1.4247305393 0.51622200012 0.439211905
          1.6232156754 0.43198397756 0.58796167374 1.5715531111 0.22482000291 0.53529620171
          -0.76281398535 0.3376955986 -0.79411798716 -0.5591750145 0.32877069712 -0.824015975
          -0.60533702374 0.52063310146 -1.0015729666 -0.69384098053 0.20343409479 -0.94639998674
          4.3718128204 0.25128540397 2.104501009 4.1495599747 0.35503801703 2.2919700146
          4.3538961411 0.35973498225 2.428800106 4.1594829559 0.12733019888 2.2602200508
          1.9639710188 -0.12883301079 0.49361902475 1.8311589956 -0.37597900629 0.21240459383
          2.087033987 -0.36293101311 0.27580299973 2.0367250443 -0.15883000195 0.10807870328
          -4.2844419479 0.10605479777 -0.67162799835 -4.4355773926 0.16414380074 -0.62573999166
          -4.436715126 0.026354400441 -0.37169200182 -4.4442939758 -0.11693099886 -0.6205059886
          1.4334243536 0.60390299559 0.081108003855 1.594933033 0.40332198143 0.19972449541
          1.669698596 0.61242300272 0.38457930088 1.7845100164 0.61610001326 0.12772998214
          -1.1307909489 -0.13907830417 -1.6104199886 -1.1884590387 0.063980542123 -1.4178910255
          -1.2665230036 -0.018151098862 -1.5959500074 -0.96911400557 -0.012546800077 -1.6096899509
          -2.4806556702 -0.1127384007 -1.363214016 -2.2354676723 -0.21959285438 -1.2453320026
          -2.5419068336 -0.2821674943 -1.3411229849 -2.3660526276 -0.18054547906 -1.0520470142
          1.0725090504 -0.1251232028 -0.30668699741 0.86870998144 0.033326499164 -0.31085899472
          1.0656369925 0.1378595978 -0.35818099976 1.1920820475 0.066462799907 -0.092215999961
          -1.0532729626 0.32143890858 -1.6126300097 -1.201603055 0.29143372178 -1.4187309742
          -1.0434730053 0.12597134709 -1.60631001 -1.206567049 0.2027631104 -1.6014900208
          4.7479839325 0.46574398875 1.3275200129 4.6735458374 0.19949239492 1.5503569841
          4.8979010582 0.32311931252 1.3858200312 4.7530341148 0.20248390734 1.315179944
          -0.7670930028 0.060932602733 -1.3277369738 -0.73458898067 -0.17205369473 -1.327262044
          -0.61719799042 -0.039664398879 -1.1887242794 -0.55726397038 -0.032617900521 -1.40318501
          0.26467600465 -0.18822538853 -1.4712239504 0.22415600717 -0.082622297108 -1.3033210039
          0.52286428213 -0.16449649632 -1.3978669643 0.36511561275 -0.21865269542 -1.2138979435
          2.7781450748 0.40818598866 0.68238705397 2.5486719608 0.4433940053 0.48740598559
          2.547467947 0.16419440508 0.46359831095 2.7568380833 0.32088699937 0.34903898835
          2.2918043137 0.21171090007 1.0770230293 2.0536108017 0.066548496485 0.89124602079
          2.3112504482 0.13608121872 0.81553798914 2.0595760345 0.26341798902 0.90939098597
          -3.4902799129 0.19203700125 -0.97851699591 -3.3199958801 0.47254309058 -0.92196601629
          -3.2964999676 0.25800848007 -1.0607520342 -3.275526762 0.18115669489 -0.7455739975
          4.7165417671 0.53939402103 1.5485489368 4.6735458374 0.19949239492 1.5503569841
          4.7479839325 0.46574398875 1.3275200129 4.5152788162 0.44570598006 1.5512629747
          -2.8611981869 0.29218497872 -1.0245879889 -2.9768784046 0.46844089031 -1.0279990435
          -2.9489409924 0.21040900052 -1.2003070116 -2.7583801746 0.46716481447 -1.1447130442
          -1.5521390438 -0.22336211801 -1.3013720512 -1.5384149551 -0.474794209 -1.4103360176
          -1.4465429783 -0.48274430633 -1.2523479462 -1.326851964 -0.47103399038 -1.4058600664
          -0.19496299326 0.017406899482 -1.3360270262 -0.304708004 -0.090819396079 -1.572059989
          -0.14396199584 -0.17642790079 -1.5491399765 -0.25447899103 0.057270798832 -1.5596300364
          5.4800391197 0.18614250422 1.908427 5.4175891876 0.055754002184 2.0606226921
          5.1593341827 -0.012515998445 1.8333879709 5.1686019897 0.14154189825 2.0466096401
          -3.648727417 0.16803780198 -0.52384102345 -3.8304586411 0.47921529412 -0.44864699244
          -3.7126243114 0.24968840182 -0.29950919747 -3.93171525 0.23039670289 -0.4976850152
          -4.1674909592 0.13877829909 -0.35717999935 -4.0898427963 -0.054189000279 -0.25348520279
          -3.9515781403 0.22483050823 -0.22432824969 -3.8458154202 -0.0071441796608 -0.27063637972
          -2.8605468273 0.030474800617 -1.0333030224 -3.0872220993 0.1026121974 -1.1435060501
          -2.9489409924 0.21040900052 -1.2003070116 -2.8611981869 0.29218497872 -1.0245879889
          4.402616024 0.45689401031 2.1667981148 4.1113681793 0.48997598886 2.274960041
          4.2911319733 0.6131169796 2.3516499996 4.3538961411 0.35973498225 2.428800106
          1.6323230267 0.075184799731 -0.62727099657 1.3120340109 -0.15288600326 -0.5459626317
          1.3628020287 0.069748699665 -0.7095310092 1.6553009748 -0.058208007365 -0.42940098047
          4.691215992 -0.25143399835 1.2670099735 4.6791539192 -0.064878001809 1.5370919704
          4.4976420403 -0.29328599572 1.5345549583 4.5728478432 -0.045872993767 1.2065700293
          -0.47427800298 -0.47527450323 -0.90863901377 -0.42743900418 -0.29611000419 -1.0441720486
          -0.6984680295 -0.26326191425 -0.85958302021 -0.72162300348 -0.47146120667 -1.0738427639
          3.138158083 0.46699899435 1.4169000387 3.3237390518 0.14818389714 1.5284450054
          3.0577402115 0.15238833427 1.6229300499 3.2050361633 0.42096599936 1.7410199642
          -1.1560570002 -0.29963886738 -0.85426801443 -1.3182120323 -0.50291794538 -0.77375298738
          -1.0522500277 -0.4041929543 -0.63874000311 -1.0521889925 -0.48985919356 -0.94649702311
          2.0466160774 0.12520329654 0.090647503734 1.8071659803 -0.10879799724 -0.12797890604
          2.1427390575 -0.046670995653 -0.085950896144 1.8257160187 0.17760980129 -0.11040610075
          2.7306396961 -0.34143799543 1.3402420282 2.9196689129 -0.13256700337 1.2476739883
          2.9097163677 -0.086468994617 1.5041099787 2.666932106 -0.11324400455 1.3288810253
          3.0001080036 0.49131900072 1.1801650524 2.7331340313 0.47387900949 1.1153179407
          2.8959798813 0.32024499774 1.0456169844 2.968873024 0.46700000763 0.87133789062
          3.1057059765 0.21902000904 1.2990050316 3.3237390518 0.14818389714 1.5284450054
          3.0577402115 0.15238833427 1.6229300499 3.138158083 0.46699899435 1.4169000387
          -4.4553132057 0.33380118012 0.41776010394 -4.3490223885 0.21022440493 0.13521999121
          -4.4056830406 0.16206969321 0.40360671282 -4.1121020317 0.25860318542 0.34374800324
          -1.6158000231 0.28506198525 -0.55510002375 -1.4917390347 0.24093736708 -0.86661797762
          -1.4412750006 0.12191697955 -0.58430999517 -1.4990010262 0.46406769753 -0.58357000351
          1.8257160187 0.17760980129 -0.11040610075 2.1084809303 0.16455329955 -0.24006199837
          2.1427390575 -0.046670995653 -0.085950896144 2.0466160774 0.12520329654 0.090647503734
          1.9808440208 -0.36953899264 0.4755859971 1.8311589956 -0.37597900629 0.21240459383
          2.087033987 -0.36293101311 0.27580299973 1.9639710188 -0.12883301079 0.49361902475
          3.7163519859 0.46678900719 1.408038497 3.804610014 0.20091049373 1.4191051722
          3.9769608974 0.41242301464 1.2358649969 3.6544830799 0.36574301124 1.0680350065
          1.8443620205 0.16656500101 -0.47324600816 2.2489070892 0.1272508949 -0.49432817101
          1.9594429731 0.31532198191 -0.67937397957 1.8392709494 0.14722080529 -0.76449400187
          -0.86909997463 0.24614109099 -1.6085100174 -0.85848498344 0.10293919593 -1.6076999903
          -0.72984099388 0.28546023369 -1.3866969347 -0.679880023 0.069117903709 -1.6021100283
          1.7845100164 0.61610001326 0.12772998214 1.669698596 0.61242300272 0.38457930088
          1.9902969599 0.62398999929 0.42160499096 1.8868869543 0.43748298287 0.51323801279
          1.3120340109 -0.15288600326 -0.5459626317 1.0725090504 -0.1251232028 -0.30668699741
          0.99458998442 -0.022154798731 -0.49672108889 1.2925460339 -0.051271595061 -0.25956600904
          -3.0843958855 0.47311139107 -0.64435297251 -3.2916152477 0.47306519747 -0.70392102003
          -3.2987422943 0.26889032125 -0.46421080828 -3.275526762 0.18115669489 -0.7455739975
          -2.0370030403 0.2986676991 -0.69848400354 -1.9904079437 0.054340101779 -0.69911700487
          -1.8522150517 0.15278969705 -0.4879719913 -1.8314759731 0.27363407612 -0.6662620306
          -2.0370030403 0.2986676991 -0.69848400354 -1.9904079437 0.054340101779 -0.69911700487
          -1.8314759731 0.27363407612 -0.6662620306 -1.7904880047 0.17986288667 -0.85320198536
          -3.1492960453 -0.20950199664 -0.30492499471 -3.2953541279 -0.00062000047183 -0.49288973212
          -3.3584003448 -0.26359349489 -0.49015578628 -3.0899682045 -0.29772499204 -0.5357632041
          0.045462999493 -0.42505168915 -1.3999569416 -0.19379499555 -0.24117720127 -1.3589559793
          -0.0075119999237 -0.13963499665 -1.2594619989 -0.012586000375 -0.43688291311 -1.2338080406
          3.9363288879 -0.29490798712 1.6831860542 3.718173027 -0.032231997699 1.6364309788
          3.7013010979 -0.30448499322 1.5550149679 3.9827311039 -0.10510598868 1.5950082541
          -4.4399366379 0.49330413342 -0.36716800928 -4.5005278587 0.48635560274 -0.11545810103
          -4.2408308983 0.48058089614 -0.10947950184 -4.3815760612 0.24617770314 -0.19512629509
          -2.5196659565 0.24592778087 -0.72205346823 -2.707750082 0.14897160232 -0.50897496939
          -2.7090830803 0.31708621979 -0.6229904294 -2.3634879589 0.31209561229 -0.49861198664
          -4.0016899109 0.29823037982 0.14048601687 -3.91289711 0.46681961417 0.26801300049
          -3.6804521084 0.46754148602 0.19479499757 -3.7869338989 0.27324751019 0.25282999873
          -3.93171525 0.23039670289 -0.4976850152 -4.1332221031 0.29565098882 -0.49425297976
          -3.9515781403 0.22483050823 -0.22432824969 -4.1674909592 0.13877829909 -0.35717999935
          2.9830210209 0.64096099138 1.5882970095 3.1671938896 0.66265797615 1.2060799599
          3.138158083 0.46699899435 1.4169000387 3.3933129311 0.66335201263 1.4056479931
          -4.0129318237 -0.49603816867 0.055561993271 -3.9805979729 -0.2818211019 0.12366101146
          -4.0046038628 -0.48754239082 0.27641901374 -4.2066240311 -0.3275590539 0.070990994573
          -1.6226379871 0.13752751052 -0.73393601179 -1.8314759731 0.27363407612 -0.6662620306
          -1.6775929928 0.07707464695 -0.53350001574 -1.7705160379 -0.013670380227 -0.72984999418
          -4.2212285995 -0.30168271065 -0.17994959652 -4.3315758705 -0.16536140442 0.15697599947
          -4.3956904411 -0.0096592828631 -0.099004216492 -4.0883383751 -0.19288347661 -0.063150003552
          3.804610014 0.20091049373 1.4191051722 3.9769608974 0.41242301464 1.2358649969
          4.0141201019 0.24855940044 1.621557951 3.9962799549 0.50118601322 1.5290913582
          -4.2212285995 -0.30168271065 -0.17994959652 -4.0726661682 -0.51234167814 -0.36274200678
          -4.3169722557 -0.515429914 -0.37853601575 -4.247215271 -0.5039280057 -0.16240300238
          3.7195839882 0.0037419972941 1.0903520584 3.6721630096 0.17420139909 0.90603202581
          3.9685349464 0.18286730349 0.78710997105 3.9656031132 0.16085809469 1.1511030197
          -3.2953541279 -0.00062000047183 -0.49288973212 -3.4256296158 -0.04080190137 -0.73200601339
          -3.3584003448 -0.26359349489 -0.49015578628 -3.2104935646 -0.0044391001575 -0.70767199993
          3.804610014 0.20091049373 1.4191051722 4.0141201019 0.24855940044 1.621557951
          4.0705580711 0.054460007697 1.7552939653 3.718173027 -0.032231997699 1.6364309788
          2.8278307915 0.37164700031 1.4777669907 3.138158083 0.46699899435 1.4169000387
          3.0577402115 0.15238833427 1.6229300499 3.2050361633 0.42096599936 1.7410199642
          2.0917739868 0.6197360158 -0.41446819901 2.0099020004 0.62074702978 -0.17452520132
          2.2999079227 0.63358300924 -0.23076201975 2.1847960949 0.4558160007 -0.22780369222
          3.5387530327 0.16991350055 1.193629384 3.6721630096 0.17420139909 0.90603202581
          3.7195839882 0.0037419972941 1.0903520584 3.9656031132 0.16085809469 1.1511030197
          -4.6478972435 0.31442570686 -0.57184767723 -4.6492214203 0.036135789007 -0.56955337524
          -4.5366792679 0.30343410373 -0.3805705905 -4.4355773926 0.16414380074 -0.62573999166
          3.9909090996 0.69799000025 1.3503149748 3.9769608974 0.41242301464 1.2358649969
          3.7856199741 0.69599997997 1.1387779713 3.7163519859 0.46678900719 1.408038497
          2.3722069263 0.33220499754 -0.39323601127 2.1847960949 0.4558160007 -0.22780369222
          2.1084809303 0.16455329955 -0.24006199837 1.9701869488 0.36129301786 -0.32886689901
          0.84206402302 0.052923899144 -0.65382301807 0.69450002909 0.33520320058 -0.69070541859
          0.62536001205 0.067611642182 -0.78804123402 0.93579101562 0.2607139945 -0.85697698593
          -2.7851204872 -0.2995711267 -1.2576700449 -2.8428041935 -0.50505828857 -1.0089069605
          -2.6056780815 -0.30553308129 -1.0694279671 -2.7647492886 -0.50091934204 -1.2004820108
          4.3348088264 0.0020780034829 2.0050890446 4.3718128204 0.25128540397 2.104501009
          4.5650310516 0.20493909717 2.2137980461 4.3237462044 0.042966000736 2.3439700603
          0.14480470121 -0.27436679602 -0.68005996943 0.0018850000342 -0.13561350107 -0.81675201654
          -0.13618600368 -0.29588839412 -0.75555801392 0.19156980515 -0.44301488996 -0.90191078186
          -3.0457994938 0.036590598524 -0.58276486397 -3.2953541279 -0.00062000047183 -0.49288973212
          -3.1492960453 -0.20950199664 -0.30492499471 -3.0899682045 -0.29772499204 -0.5357632041
          -1.721953392 0.25095880032 -1.5497900248 -1.795637846 0.26627320051 -1.3385109901
          -1.6338564157 0.02010091953 -1.3360049725 -1.8180626631 0.066226676106 -1.5300899744
          -3.5090770721 0.16754239798 -0.19926699996 -3.6423470974 -0.017455210909 -0.0356920138
          -3.4188709259 -0.052383501083 -0.084667012095 -3.5465004444 -0.0025727003813 -0.37637498975
          -1.3283799887 0.50588327646 -0.82055300474 -1.1999200583 0.31322172284 -0.84429401159
          -1.4006630182 0.27366858721 -1.0899891853 -1.4917390347 0.24093736708 -0.86661797762
          -1.2363820076 0.13768835366 -0.99496001005 -1.1318500042 0.052193719894 -1.1925956011
          -1.1732499599 0.28154438734 -1.1781251431 -1.3583359718 0.17316421866 -1.3048620224
          -1.1120990515 0.48050779104 -1.6057850122 -1.2948549986 0.4837462008 -1.4094699621
          -1.0256249905 0.49155002832 -1.3329880238 -1.201603055 0.29143372178 -1.4187309742
          0.5607355237 -0.26477059722 -0.21746100485 0.32017090917 -0.4122928977 -0.35579401255
          0.52299612761 -0.44770920277 -0.3446649909 0.51021200418 -0.21610671282 -0.49635899067
          -4.247215271 -0.5039280057 -0.16240300238 -4.3332242966 -0.49554929137 0.023328900337
          -4.2212285995 -0.30168271065 -0.17994959652 -4.2066240311 -0.3275590539 0.070990994573
          4.5158967972 -0.051814988256 1.7898253202 4.2373199463 -0.093296997249 1.6291577816
          4.2557749748 0.16182330251 1.8862160444 4.3348088264 0.0020780034829 2.0050890446
          -0.29748898745 0.35435709357 -1.5664999485 -0.44964700937 0.30215507746 -1.3843599558
          -0.51359897852 0.26363918185 -1.5916399956 -0.48226100206 0.47477662563 -1.5933699608
          4.7630262375 -0.078894995153 2.2290580273 4.6464409828 -0.13010598719 2.42572999
          4.8122911453 -0.30095601082 2.246833086 4.6169447899 -0.28709799051 2.2023260593
          4.7728209496 0.11897029728 2.42572999 4.7842068672 0.23646980524 2.2136070728
          4.7630262375 -0.078894995153 2.2290580273 4.9883351326 -0.0025349962525 2.1726241112
          4.838329792 -0.29386898875 1.6861670017 4.7825579643 0.012594994158 1.737795949
          4.908780098 -0.05460799858 1.9473679066 4.690433979 -0.097899012268 1.9307255745
          0.76020401716 -0.4297708869 -0.45740100741 0.51021200418 -0.21610671282 -0.49635899067
          0.85404402018 -0.22467930615 -0.32312399149 0.5607355237 -0.26477059722 -0.21746100485
          -2.6104540825 0.0081983003765 -0.20189599693 -2.4884090424 -0.28845638037 -0.25028300285
          -2.247385025 -0.11254110187 -0.34903201461 -2.526927948 -0.09825039655 -0.49015599489
          -2.1525170803 -0.34244281054 -0.58914798498 -2.1335361004 -0.33587309718 -0.85573190451
          -2.2919089794 -0.51172739267 -0.61034798622 -2.0830700397 -0.51125961542 -0.71200299263
          4.8788080215 -0.15261600912 1.3581800461 5.0868611336 -0.085908003151 1.4383300543
          4.9763240814 -0.29127800465 1.5377320051 5.0016570091 -0.09311401844 1.6771680117
          -1.6338564157 0.02010091953 -1.3360049725 -1.8840471506 -0.017964780331 -1.309893012
          -1.5908279419 -0.0042438311502 -1.0808677673 -1.8587261438 -0.19973695278 -1.1918489933
          -2.7047069073 -0.50918275118 -0.67922121286 -2.8640635014 -0.32550418377 -0.67871928215
          -2.92583251 -0.50748687983 -0.81637299061 -2.6584146023 -0.50556856394 -0.92454200983
          1.3935819864 0.57705062628 -0.88371801376 1.446663022 0.5864855051 -0.62758201361
          1.1649719477 0.37054440379 -0.89170503616 1.0837780237 0.56879729033 -0.83355396986
          -0.42743900418 -0.29611000419 -1.0441720486 -0.55270302296 -0.11456199735 -0.98753702641
          -0.6984680295 -0.26326191425 -0.85958302021 -0.74982398748 -0.23088718951 -1.0935233831
          -2.0607159138 -0.073489099741 -0.92311251163 -2.1335361004 -0.33587309718 -0.85573190451
          -2.3660526276 -0.18054547906 -1.0520470142 -2.354665041 -0.32262691855 -0.86674439907
          0.15763199329 -0.010675301775 -1.4892460108 -0.19496299326 0.017406899482 -1.3360270262
          -0.14396199584 -0.17642790079 -1.5491399765 -0.028528999537 0.095570899546 -1.5219500065
          3.1580340862 -0.10009101033 1.6749999523 3.3237390518 0.14818389714 1.5284450054
          3.1324748993 -0.012670002878 1.333466053 3.4407179356 -0.10024298728 1.6149629354
          5.3287701607 0.017804997042 1.5262700319 5.1593341827 -0.012515998445 1.8333879709
          5.2795748711 0.19745920599 1.7484179735 5.327480793 -0.087410993874 1.7155309916
          1.8443030119 0.60612398386 -0.54030299187 1.9701869488 0.36129301786 -0.32886689901
          1.9594429731 0.31532198191 -0.67937397957 1.6138050556 0.3192229867 -0.46323099732
          -5 0.15884299576 0.21330599487 -5 0.32793700695 0.27663400769
          -4.8289003372 0.15818049014 0.46990901232 -5 0.07584580034 0.38386198878
          5.2508559227 0.28233119845 1.5107899904 5.1873960495 0.42186701298 1.8164199591
          5.4746980667 0.36210200191 1.5940099955 5.2795748711 0.19745920599 1.7484179735
          -0.21260130405 0.41750350595 -0.52818000317 -0.24963200092 0.28975039721 -0.72652798891
          -0.032131001353 0.33743911982 -0.72442996502 -0.16879400611 0.54172569513 -0.80274397135
          -4.3193311691 0.46817699075 0.36364999413 -4.162466526 0.47085979581 0.13769200444
          -4.3490223885 0.21022440493 0.13521999121 -4.1121020317 0.25860318542 0.34374800324
          -4.8905801773 0.078228734434 -0.52854001522 -5.0195040703 0.27393174171 -0.50611239672
          -4.827589035 0.26959607005 -0.53942549229 -5 0.09418129921 -0.34129801393
          -2.9227018356 0.26947918534 -0.61335587502 -3.0384581089 0.17068129778 -0.37494298816
          -2.825469017 0.27062919736 -0.34245297313 -2.707750082 0.14897160232 -0.50897496939
          -3.0384581089 0.17068129778 -0.37494298816 -2.825469017 0.27062919736 -0.34245297313
          -2.9494459629 -0.043818198144 -0.28794598579 -2.8682529926 0.10229609907 -0.093391999602
          1.0542720556 -0.20917788148 -0.54995292425 1.0504629612 -0.041896902025 -0.74770897627
          0.99458998442 -0.022154798731 -0.49672108889 0.88520997763 -0.23278620839 -0.74979001284
          1.8810739517 -0.025785999373 0.24052999914 1.8071659803 -0.10879799724 -0.12797890604
          2.0466160774 0.12520329654 0.090647503734 1.8257160187 0.17760980129 -0.11040610075
          1.4039119482 0.11461269855 -1.0208369493 1.1473189592 0.12026190013 -0.89047002792
          1.3943749666 0.35700458288 -1.0173640251 1.524772048 0.25381958485 -0.94698798656
          5.0844421387 -0.30479300022 2.0486927032 5.1637601852 -0.29948699474 1.865844965
          5.3534770012 -0.30086100101 1.9398570061 5.2030038834 -0.095155008137 2.0543687344
          -3.1945888996 0.20945261419 0.039181999862 -3.2438099384 0.03149420023 -0.20086398721
          -3.3653941154 0.12199870497 0.10548699647 -3.061948061 0.073819994926 -0.013481999747
          4.1762018204 0.27362239361 1.2485419512 3.804610014 0.20091049373 1.4191051722
          4.0141201019 0.24855940044 1.621557951 4.1369771957 0.033024005592 1.3592270613
          3.3829259872 0.46805399656 0.71429997683 3.2219541073 0.45492699742 0.97522252798
          3.6095719337 0.49926799536 0.86267101765 3.427726984 0.34208199382 0.94024497271
          1.5018340349 0.60006701946 -0.26044872403 1.4334243536 0.60390299559 0.081108003855
          1.2312122583 0.39813408256 -0.034452985972 1.1987409592 0.59465539455 -0.16085501015
          -1.1318500042 0.052193719894 -1.1925956011 -1.2363820076 0.13768835366 -0.99496001005
          -0.97820800543 0.24167840183 -0.90613996983 -0.96815401316 0.02664539963 -0.92440497875
          -4.0883383751 -0.19288347661 -0.063150003552 -4.2066240311 -0.3275590539 0.070990994573
          -4.0016961098 -0.32739970088 -0.24166919291 -4.2212285995 -0.30168271065 -0.17994959652
          4.2132930756 0.66276198626 1.9194359779 4.4522380829 0.45779499412 1.8534209728
          4.4008059502 0.66251301765 2.0240740776 4.3931241035 0.68594300747 1.8131175041
          -0.84227001667 0.51791298389 -0.87789303064 -0.97820800543 0.24167840183 -0.90613996983
          -1.0079799891 0.43430522084 -0.63536000252 -0.76281398535 0.3376955986 -0.79411798716
          -4.1460008621 0.48432341218 -0.41542598605 -4.1332221031 0.29565098882 -0.49425297976
          -3.93171525 0.23039670289 -0.4976850152 -3.8304586411 0.47921529412 -0.44864699244
          -1.4142980576 -0.3536285162 -0.59887999296 -1.5314699411 -0.26643535495 -0.78901797533
          -1.5901739597 -0.51384592056 -0.59615600109 -1.5094130039 -0.50609952211 -0.78413200378
          3.5908029079 0.19661930203 1.6370530128 3.718173027 -0.032231997699 1.6364309788
          3.804610014 0.20091049373 1.4191051722 3.4360439777 -0.0026910067536 1.3680689335
          4.0705580711 0.054460007697 1.7552939653 4.0440011024 0.18789739907 1.9961689711
          3.89149189 -0.08670001477 1.8603260517 3.804297924 0.13001829386 1.8220219612
          1.4418599606 0.28709000349 -0.062245994806 1.369579196 0.12671080232 0.095050007105
          1.6255400181 0.14701509476 0.17244631052 1.4943079948 -0.043684996665 -0.058169994503
          -4.0898427963 -0.054189000279 -0.25348520279 -4.0705108643 0.13585180044 0.0080800065771
          -3.9098739624 -0.045701097697 0.062531001866 -4.0883383751 -0.19288347661 -0.063150003552
          3.804610014 0.20091049373 1.4191051722 3.804297924 0.13001829386 1.8220219612
          4.0141201019 0.24855940044 1.621557951 3.718173027 -0.032231997699 1.6364309788
          0.85404402018 -0.22467930615 -0.32312399149 0.76676100492 -0.1134057045 -0.50795000792
          0.99458998442 -0.022154798731 -0.49672108889 0.86870998144 0.033326499164 -0.31085899472
          -1.0088479519 0.19115871191 -1.3418680429 -0.85848498344 0.10293919593 -1.6076999903
          -0.99887502193 -0.062538303435 -1.3665850163 -0.7670930028 0.060932602733 -1.3277369738
          2.78916049 0.10995809734 1.4312570095 2.666932106 -0.11324400455 1.3288810253
          2.9196689129 -0.13256700337 1.2476739883 2.7450699806 0.13935770094 1.1011400223
          5.0868611336 -0.085908003151 1.4383300543 5.327480793 -0.087410993874 1.7155309916
          5.2169570923 -0.28806000948 1.5943369865 5.0016570091 -0.09311401844 1.6771680117
          -3.3199958801 0.47254309058 -0.92196601629 -3.0947728157 0.28662750125 -0.90678101778
          -3.275526762 0.18115669489 -0.7455739975 -3.2916152477 0.47306519747 -0.70392102003
          -0.04825539887 0.29193970561 -0.48039200902 0.18104350567 0.33106470108 -0.62392002344
          0.2141688019 0.56765770912 -0.42459902167 -0.0096544995904 0.55562412739 -0.53859198093
          1.0725090504 -0.1251232028 -0.30668699741 0.94075733423 -0.2887121141 0.026029000059
          1.0432590246 -0.41784200072 -0.18719400465 0.85404402018 -0.22467930615 -0.32312399149
          2.3112504482 0.13608121872 0.81553798914 2.0536108017 0.066548496485 0.89124602079
          2.2918043137 0.21171090007 1.0770230293 2.355743885 -0.0222629942 1.108060956
          -1.0256249905 0.49155002832 -1.3329880238 -1.1732499599 0.28154438734 -1.1781251431
          -0.93034297228 0.50282591581 -1.109777689 -0.84249997139 0.26520928741 -1.1529723406
          2.7515289783 0.13377730548 0.70048117638 3.0274419785 0.16455459595 0.84069955349
          2.846298933 -0.090493999422 0.57238131762 2.9822580814 -0.12804400921 0.81096309423
          2.9503769875 0.66597098112 0.50799697638 2.6370809078 0.64847302437 0.76524597406
          3.0083858967 0.66490697861 0.78671127558 2.7781450748 0.40818598866 0.68238705397
          -3.2104935646 -0.0044391001575 -0.70767199993 -2.9707868099 -0.088433094323 -0.74900501966
          -3.1669573784 -0.19655050337 -0.74350303411 -3.0457994938 0.036590598524 -0.58276486397
          -0.38811999559 -0.14212410152 -1.2827340364 -0.42777499557 0.06476470083 -1.0590546131
          -0.19496299326 0.017406899482 -1.3360270262 -0.18521800637 0.03266672045 -1.0619240999
          2.0917739868 0.6197360158 -0.41446819901 1.9701869488 0.36129301786 -0.32886689901
          1.7609839439 0.60800498724 -0.30019900203 2.0099020004 0.62074702978 -0.17452520132
          -1.199491024 -0.2731808126 -1.4120750427 -1.288203001 -0.24603740871 -1.60145998
          -1.1307909489 -0.13907830417 -1.6104199886 -1.4067959785 -0.070061728358 -1.4117490053
          2.1427390575 -0.046670995653 -0.085950896144 2.4858739376 -0.02445499599 -0.33545398712
          2.4003479481 -0.15540499985 -0.052411012352 2.4627220631 0.06453820318 0.024974999949
          -1.9959019423 -0.25378808379 -0.72344702482 -1.7501699924 -0.19925332069 -0.86327397823
          -1.7705160379 -0.013670380227 -0.72984999418 -2.0607159138 -0.073489099741 -0.92311251163
          -4.7094054222 0.49808984995 -0.25924840569 -4.9290013313 0.49626871943 -0.082679122686
          -4.8178825378 0.48557460308 0.10024909675 -4.7578816414 0.28667363524 -0.042721800506
          -3.4544520378 -0.502204597 -0.077600002289 -3.6301288605 -0.50444597006 -0.18104600906
          -3.4962136745 -0.50891906023 -0.35148981214 -3.3219630718 -0.30692452192 -0.14970101416
          3.2219541073 0.45492699742 0.97522252798 2.8959798813 0.32024499774 1.0456169844
          3.0274419785 0.16455459595 0.84069955349 2.968873024 0.46700000763 0.87133789062
          -3.1669573784 -0.19655050337 -0.74350303411 -3.0457994938 0.036590598524 -0.58276486397
          -3.2953541279 -0.00062000047183 -0.49288973212 -3.2104935646 -0.0044391001575 -0.70767199993
          -4.5885467529 0.081544041634 -0.058668099344 -4.7775506973 -0.01067915 -0.02922873944
          -4.7578816414 0.28667363524 -0.042721800506 -4.6535224915 0.13568019867 0.13374620676
          -3.8458154202 -0.0071441796608 -0.27063637972 -4.0898427963 -0.054189000279 -0.25348520279
          -3.9098739624 -0.045701097697 0.062531001866 -4.0883383751 -0.19288347661 -0.063150003552
          -0.49013099074 -0.27833321691 -0.80703800917 -0.42572999001 -0.2455662936 -0.58765000105
          -0.36743998528 -0.0037765994202 -0.87996399403 -0.29678198695 -0.19139230251 -0.85894298553
          2.547467947 0.16419440508 0.46359831095 2.7543749809 0.16338352859 0.14366000891
          2.6742250919 -0.012311006896 0.2936809957 2.7568380833 0.32088699937 0.34903898835
          -1.9959019423 -0.25378808379 -0.72344702482 -2.1525170803 -0.34244281054 -0.58914798498
          -1.8573379517 -0.51496881247 -0.5290030241 -2.0830700397 -0.51125961542 -0.71200299263
          2.0858280659 0.031003998592 0.38727900386 2.2750039101 0.14374065399 0.29926979542
          2.4130580425 -0.0050789942034 0.39745768905 2.0687611103 0.17121970654 0.57191699743
          1.369579196 0.12671080232 0.095050007105 1.1257488728 0.21291010082 0.19439199567
          1.3238321543 0.31234300137 0.3489010036 1.3497146368 0.084297902882 0.35733398795
          2.430131197 0.43304201961 1.193819046 2.7331340313 0.47387900949 1.1153179407
          2.5472946167 0.21848860383 1.2638469934 2.6483149529 0.51224297285 1.3579260111
          2.0595760345 0.26341798902 0.90939098597 2.3112504482 0.13608121872 0.81553798914
          2.387912035 0.31022301316 0.66756099463 2.0687611103 0.17121970654 0.57191699743
          -4.7829651833 -0.03583727777 0.25068509579 -4.777050972 -0.31894397736 0.2911812067
          -4.5542583466 -0.14354543388 0.282918185 -4.6497826576 -0.19200108945 0.12126010656
          1.5601429939 -0.16315901279 -0.66583400965 1.3120340109 -0.15288600326 -0.5459626317
          1.2825410366 -0.16882799566 -0.83733904362 1.3628020287 0.069748699665 -0.7095310092
          -2.6776423454 0.47449350357 -0.75034171343 -2.7501730919 0.4770526886 -0.50051802397
          -2.5764689445 0.47962999344 -0.47001102567 -2.7090830803 0.31708621979 -0.6229904294
          2.279137373 -0.3575539887 0.84426099062 2.0427997112 -0.2558940053 0.86032700539
          2.2867779732 -0.35515400767 0.54491502047 2.1764740944 -0.18138699234 0.65020596981
          -2.4078168869 -0.30346369743 -0.49435901642 -2.2852199078 -0.19466769695 -0.68211597204
          -2.526927948 -0.09825039655 -0.49015599489 -2.5790920258 -0.26749420166 -0.70352119207
          2.2037799358 0.33316999674 -0.035911995918 2.0466160774 0.12520329654 0.090647503734
          2.2181119919 0.41253200173 0.3796235919 2.2750039101 0.14374065399 0.29926979542
          0.87843650579 -0.43051719666 -0.09530800581 0.72347742319 -0.43865519762 -0.25590199232
          0.9384559989 -0.42108929157 -0.3525930047 0.85404402018 -0.22467930615 -0.32312399149
          -0.89497202635 0.0030651004054 -1.1271020174 -0.99887502193 -0.062538303435 -1.3665850163
          -1.0050040483 -0.23432028294 -1.1520009041 -0.73458898067 -0.17205369473 -1.327262044
          2.8959798813 0.32024499774 1.0456169844 2.7450699806 0.13935770094 1.1011400223
          2.9346859455 -0.010064994916 1.0378210545 3.0274419785 0.16455459595 0.84069955349
          -0.38828599453 0.11242230237 -1.4058929682 -0.55726397038 -0.032617900521 -1.40318501
          -0.47055399418 0.047336298972 -1.5825300217 -0.679880023 0.069117903709 -1.6021100283
          2.5486719608 0.4433940053 0.48740598559 2.7781450748 0.40818598866 0.68238705397
          3.0115010738 0.44793599844 0.41370400786 2.7568380833 0.32088699937 0.34903898835
          4.9700350761 0.50200498104 1.9810703993 4.6265969276 0.37918898463 2.0835940838
          4.7806420326 0.47793102264 2.2329978943 4.7842068672 0.23646980524 2.2136070728
          1.446663022 0.5864855051 -0.62758201361 1.5018340349 0.60006701946 -0.26044872403
          1.3428349495 0.40458348393 -0.38063567877 1.108150959 0.58133798838 -0.50853699446
          3.9769608974 0.41242301464 1.2358649969 3.6544830799 0.36574301124 1.0680350065
          3.9656031132 0.16085809469 1.1511030197 3.8746159077 0.2987203002 0.98308598995
          -5 -0.26007699966 0.21836000681 -4.777050972 -0.31894397736 0.2911812067
          -5 -0.12896800041 0.37591099739 -4.7829651833 -0.03583727777 0.25068509579
          -4.1674909592 0.13877829909 -0.35717999935 -4.2035307884 0.079204000533 -0.13781389594
          -3.9515781403 0.22483050823 -0.22432824969 -4.0898427963 -0.054189000279 -0.25348520279
          1.9902969599 0.62398999929 0.42160499096 1.8868869543 0.43748298287 0.51323801279
          2.2181119919 0.41253200173 0.3796235919 1.8911110163 0.31002601981 0.28474500775
          -2.4078168869 -0.30346369743 -0.49435901642 -2.526927948 -0.09825039655 -0.49015599489
          -2.7287049294 -0.2789902091 -0.37658300996 -2.5790920258 -0.26749420166 -0.70352119207
          1.7845100164 0.61610001326 0.12772998214 1.8868869543 0.43748298287 0.51323801279
          1.9902969599 0.62398999929 0.42160499096 1.8911110163 0.31002601981 0.28474500775
          -2.1506009102 0.25718417764 -1.2337720394 -2.3186562061 0.14272490144 -1.0617469549
          -2.3114500046 0.28709989786 -0.8894675374 -2.0596408844 0.23887120187 -0.93493187428
          3.7195839882 0.0037419972941 1.0903520584 3.5387530327 0.16991350055 1.193629384
          3.8552589417 -0.056183006614 1.3705922365 3.4360439777 -0.0026910067536 1.3680689335
          1.8911110163 0.31002601981 0.28474500775 1.594933033 0.40332198143 0.19972449541
          1.6232156754 0.43198397756 0.58796167374 1.5715531111 0.22482000291 0.53529620171
          3.147439003 -0.0024279970676 0.66096997261 2.9822580814 -0.12804400921 0.81096309423
          3.179639101 -0.31765601039 0.58325701952 2.846298933 -0.090493999422 0.57238131762
          -1.1120990515 0.48050779104 -1.6057850122 -1.4937491417 0.34081637859 -1.5808500051
          -1.2948549986 0.4837462008 -1.4094699621 -1.201603055 0.29143372178 -1.4187309742
          -3.0843958855 0.47311139107 -0.64435297251 -3.275526762 0.18115669489 -0.7455739975
          -3.2987422943 0.26889032125 -0.46421080828 -2.9227018356 0.26947918534 -0.61335587502
          4.4522380829 0.45779499412 1.8534209728 4.4008059502 0.66251301765 2.0240740776
          4.3931241035 0.68594300747 1.8131175041 4.5912899971 0.69010001421 1.8966654539
          2.9617218971 0.11532790214 0.41656598449 2.7515289783 0.13377730548 0.70048117638
          3.1142799854 0.34143099189 0.65826201439 3.0274419785 0.16455459595 0.84069955349
          3.4745230675 0.094017997384 0.40399199724 3.3454549313 -0.14016999304 0.62486702204
          3.5048649311 -0.11629401147 0.41244900227 3.3033549786 -0.086898997426 0.26347100735
          4.6791539192 -0.064878001809 1.5370919704 5.0016570091 -0.09311401844 1.6771680117
          4.8711438179 0.14351969957 1.5897270441 4.9265980721 0.083074003458 1.3841999769
          3.4745230675 0.094017997384 0.40399199724 3.3454549313 -0.14016999304 0.62486702204
          3.678497076 -0.014678004198 0.55156999826 3.5048649311 -0.11629401147 0.41244900227
          1.4418599606 0.28709000349 -0.062245994806 1.7167700529 0.42090001702 -0.091850601137
          1.5018340349 0.60006701946 -0.26044872403 1.3428349495 0.40458348393 -0.38063567877
          -1.3524429798 -0.2001490891 -0.93651300669 -1.1518950462 -0.061164274812 -0.8551800251
          -1.3339209557 -0.1199079901 -0.60588997602 -1.3387739658 0.1015701443 -0.80373698473
          4.2373199463 -0.093296997249 1.6291577816 4.0705580711 0.054460007697 1.7552939653
          4.2718300819 0.15794679523 1.6279176474 4.2557749748 0.16182330251 1.8862160444
          4.4522380829 0.45779499412 1.8534209728 4.3931241035 0.68594300747 1.8131175041
          4.2633280754 0.48635900021 1.6941789389 4.3675351143 0.70144999027 1.5965069532
          -2.4277570248 0.29319447279 -1.3836899996 -2.5636935234 0.46416980028 -1.3145070076
          -2.3987627029 0.46843078732 -1.1548199654 -2.4950749874 0.26449760795 -1.1571450233
          2.3722069263 0.33220499754 -0.39323601127 2.1084809303 0.16455329955 -0.24006199837
          2.4711270332 0.1866299957 -0.33196899295 2.2489070892 0.1272508949 -0.49432817101
          2.6370809078 0.64847302437 0.76524597406 2.5400059223 0.47935000062 0.92150700092
          2.2841498852 0.63460797071 0.62853097916 2.3321909904 0.63398498297 0.92614901066
          1.5832170248 0.13898870349 -0.2907756865 1.6138050556 0.3192229867 -0.46323099732
          1.303779006 0.10932320356 -0.39463099837 1.5066930056 0.24949200451 -0.69261598587
          3.9656031132 0.16085809469 1.1511030197 3.9685349464 0.18286730349 0.78710997105
          3.7195839882 0.0037419972941 1.0903520584 3.902930975 -0.018859993666 0.7255499959
          5.1873960495 0.42186701298 1.8164199591 5.199947834 0.37635299563 2.0466771126
          5.4411177635 0.54534596205 2.004693985 5.4586992264 0.38369700313 1.9621009827
          -0.84227001667 0.51791298389 -0.87789303064 -0.65340101719 0.52587407827 -0.79267400503
          -0.77550202608 0.51301789284 -1.032153964 -0.76281398535 0.3376955986 -0.79411798716
          2.9822580814 -0.12804400921 0.81096309423 2.9346859455 -0.010064994916 1.0378210545
          3.2712409496 -0.069230996072 1.0871679783 3.0215229988 -0.32744300365 0.94604861736
          -0.76539498568 -0.02696910128 -0.88151800632 -0.91159600019 0.073344998062 -0.62898999453
          -0.80769598484 0.2091087997 -0.62626999617 -0.78097099066 -0.028601998463 -0.62437999249
          0.14116099477 -0.43207919598 -1.1435899734 0.059512998909 -0.21327769756 -1.0408661366
          0.36511561275 -0.21865269542 -1.2138979435 0.36515200138 -0.25333359838 -0.93256372213
          3.1671938896 0.66265797615 1.2060799599 3.4408869743 0.48258000612 1.1898485422
          3.138158083 0.46699899435 1.4169000387 3.3933129311 0.66335201263 1.4056479931
          -3.0457994938 0.036590598524 -0.58276486397 -3.2953541279 -0.00062000047183 -0.49288973212
          -3.0899682045 -0.29772499204 -0.5357632041 -3.1669573784 -0.19655050337 -0.74350303411
          1.5018340349 0.60006701946 -0.26044872403 1.1987409592 0.59465539455 -0.16085501015
          1.3428349495 0.40458348393 -0.38063567877 1.108150959 0.58133798838 -0.50853699446
          4.4501152039 0.014983006753 1.5191400051 4.5158967972 -0.051814988256 1.7898253202
          4.4976420403 -0.29328599572 1.5345549583 4.2373199463 -0.093296997249 1.6291577816
          2.9196689129 -0.13256700337 1.2476739883 2.9346859455 -0.010064994916 1.0378210545
          3.2712409496 -0.069230996072 1.0871679783 3.1324748993 -0.012670002878 1.333466053
          2.1427390575 -0.046670995653 -0.085950896144 2.2337059975 -0.17428898811 -0.25786739588
          2.4858739376 -0.02445499599 -0.33545398712 2.1084809303 0.16455329955 -0.24006199837
          -2.5444853306 -0.19624508917 -0.90569740534 -2.3013501167 -0.0029451001901 -0.87519747019
          -2.3660526276 -0.18054547906 -1.0520470142 -2.354665041 -0.32262691855 -0.86674439907
          -0.99887502193 -0.062538303435 -1.3665850163 -1.1884590387 0.063980542123 -1.4178910255
          -1.1307909489 -0.13907830417 -1.6104199886 -0.96911400557 -0.012546800077 -1.6096899509
          -1.201603055 0.29143372178 -1.4187309742 -1.3583359718 0.17316421866 -1.3048620224
          -1.206567049 0.2027631104 -1.6014900208 -1.5488374233 0.27182540298 -1.3903579712
          -2.9494459629 -0.043818198144 -0.28794598579 -2.9584069252 -0.33283078671 -0.35879898071
          -2.7287049294 -0.2789902091 -0.37658300996 -2.8852050304 -0.13799700141 -0.5307559967
          -2.9707868099 -0.088433094323 -0.74900501966 -3.0457994938 0.036590598524 -0.58276486397
          -3.0899682045 -0.29772499204 -0.5357632041 -3.1669573784 -0.19655050337 -0.74350303411
          0.15763199329 -0.010675301775 -1.4892460108 0.22415600717 -0.082622297108 -1.3033210039
          -0.0075119999237 -0.13963499665 -1.2594619989 0.056278999895 0.056861169636 -1.3090289831
          -4.5225315094 -0.29344007373 -0.59745502472 -4.6932406425 -0.33437889814 -0.55821180344
          -4.4922027588 -0.20494790375 -0.36291068792 -4.4819908142 -0.52308231592 -0.52997338772
          -2.4830985069 0.14539518952 -0.90576428175 -2.5196659565 0.24592778087 -0.72205346823
          -2.6722416878 0.17765410244 -0.99963802099 -2.6201217175 0.47078740597 -0.97456198931
          5.0844421387 -0.30479300022 2.0486927032 4.8122911453 -0.30095601082 2.246833086
          4.8643531799 -0.29935500026 2.0071020126 4.9883351326 -0.0025349962525 2.1726241112
          -4.2212285995 -0.30168271065 -0.17994959652 -4.3332242966 -0.49554929137 0.023328900337
          -4.4366278648 -0.28509175777 -0.13918270171 -4.2066240311 -0.3275590539 0.070990994573
          2.5302391052 -0.34590399265 0.74713200331 2.279137373 -0.3575539887 0.84426099062
          2.2867779732 -0.35515400767 0.54491502047 2.3880560398 -0.17542900145 0.81797897816
          -4.2544279099 -0.066851697862 -0.67942899466 -4.0872659683 -0.040365900844 -0.50246196985
          -4.1338410378 -0.23460809886 -0.7192620039 -4.1456823349 -0.32185968757 -0.5048879981
          5.327480793 -0.087410993874 1.7155309916 5.5534300804 0.16041310132 1.7146040201
          5.4998879433 -0.18895500898 1.5840200186 5.5037498474 -0.082735002041 1.8406980038
          0.77250897884 -0.18823230267 -1.3146259785 0.61579799652 -0.14052461088 -1.0343459845
          0.36511561275 -0.21865269542 -1.2138979435 0.52286428213 -0.16449649632 -1.3978669643
          -4.3393721581 0.42342635989 -0.65198898315 -4.1332221031 0.29565098882 -0.49425297976
          -4.1460008621 0.48432341218 -0.41542598605 -4.1525735855 0.49060940742 -0.62944197655
          0.53313398361 0.019717698917 -1.1568260193 0.5862929821 0.35003548861 -1.1572810411
          0.64630901814 0.29072648287 -1.3438220024 0.74059998989 0.11394579709 -1.0505290031
          -3.0489430428 -0.05935529992 -1.1577789783 -3.0221710205 -0.28878861666 -1.1663730145
          -3.0438988209 -0.31679549813 -0.92314600945 -2.82984519 -0.19690430164 -0.8898460269
          4.8885669708 0.54565501213 1.3964899778 4.9762878418 0.4914059937 1.7501740456
          4.8287091255 0.72349202633 1.5618569851 5.0874519348 0.48010200262 1.4636000395
          -2.4950749874 0.26449760795 -1.1571450233 -2.6722416878 0.17765410244 -0.99963802099
          -2.8611981869 0.29218497872 -1.0245879889 -2.7583801746 0.46716481447 -1.1447130442
          1.1987409592 0.59465539455 -0.16085501015 0.88630062342 0.58878719807 -0.15539897978
          1.0282603502 0.59369128942 0.0024159983732 1.1137839556 0.31430581212 -0.23879601061
          -0.77550202608 0.51301789284 -1.032153964 -0.93034297228 0.50282591581 -1.109777689
          -0.97820800543 0.24167840183 -0.90613996983 -0.84249997139 0.26520928741 -1.1529723406
          4.7576980591 0.49129199982 1.9305694103 4.9558830261 0.24193349481 1.938804388
          4.9700350761 0.50200498104 1.9810703993 4.9762878418 0.4914059937 1.7501740456
          -0.50069600344 -0.11491009593 -1.5895299911 -0.80039197206 -0.22904071212 -1.6116299629
          -0.53049099445 -0.25941371918 -1.4260540009 -0.54073399305 -0.37010061741 -1.604460001
          4.7117071152 0.64353197813 1.3227100372 4.5152788162 0.44570598006 1.5512629747
          4.7165417671 0.53939402103 1.5485489368 4.7479839325 0.46574398875 1.3275200129
          -1.5631556511 -0.15877270699 -1.5688300133 -1.4067959785 -0.070061728358 -1.4117490053
          -1.2665230036 -0.018151098862 -1.5959500074 -1.288203001 -0.24603740871 -1.60145998
          2.2606570721 0.63481098413 0.14861099422 2.3142609596 0.44252300262 0.15573300421
          2.5418469906 0.64766597748 0.10435001552 2.4292700291 0.64129698277 -0.068533986807
          2.4627220631 0.06453820318 0.024974999949 2.4858739376 -0.02445499599 -0.33545398712
          2.7389440536 0.18060749769 -0.13687500358 2.4711270332 0.1866299957 -0.33196899295
          0.51523089409 0.14683929086 -1.3929450512 0.5862929821 0.35003548861 -1.1572810411
          0.64630901814 0.29072648287 -1.3438220024 0.53313398361 0.019717698917 -1.1568260193
          -0.97820800543 0.24167840183 -0.90613996983 -1.0616509914 0.19502159953 -0.62691998482
          -1.0079799891 0.43430522084 -0.63536000252 -0.80769598484 0.2091087997 -0.62626999617
          -4.1121020317 0.25860318542 0.34374800324 -4.0016899109 0.29823037982 0.14048601687
          -4.162466526 0.47085979581 0.13769200444 -4.3490223885 0.21022440493 0.13521999121
          1.5832170248 0.13898870349 -0.2907756865 1.5066930056 0.24949200451 -0.69261598587
          1.303779006 0.10932320356 -0.39463099837 1.6323230267 0.075184799731 -0.62727099657
          -0.55726397038 -0.032617900521 -1.40318501 -0.53049099445 -0.25941371918 -1.4260540009
          -0.56551098824 -0.25506937504 -1.2119810581 -0.38811999559 -0.14212410152 -1.2827340364
          1.2616900206 0.31878641248 -0.65477597713 1.446663022 0.5864855051 -0.62758201361
          1.6266590357 0.45401710272 -0.88460201025 1.5066930056 0.24949200451 -0.69261598587
          0.36111998558 0.56500959396 -0.54083001614 0.40944099426 0.2642891109 -0.64370203018
          0.56680697203 0.35435029864 -0.45947599411 0.4528760016 0.56065458059 -0.71604299545
          5.2030038834 -0.095155008137 2.0543687344 5.1686019897 0.14154189825 2.0466096401
          5.2890958786 -0.018920002505 2.382846117 4.9883351326 -0.0025349962525 2.1726241112
          -2.0235655308 -0.33051469922 -1.2762329578 -1.925401926 -0.48173299432 -1.4075479507
          -1.7574769258 -0.32169941068 -1.3376590014 -1.8249877691 -0.34991788864 -1.5306500196
          2.4003479481 -0.15540499985 -0.052411012352 2.4858739376 -0.02445499599 -0.33545398712
          2.4867670536 -0.33938100934 -0.20310901105 2.7524430752 -0.1180730015 -0.14809599519
          -0.21260130405 0.41750350595 -0.52818000317 -0.24963200092 0.28975039721 -0.72652798891
          -0.16879400611 0.54172569513 -0.80274397135 -0.3437409997 0.53887301683 -0.68746000528
          2.7300450802 -0.33142000437 0.036656998098 2.4716699123 -0.34356799722 0.095425002277
          2.4867670536 -0.33938100934 -0.20310901105 2.4003479481 -0.15540499985 -0.052411012352
          -2.8640635014 -0.32550418377 -0.67871928215 -2.9707868099 -0.088433094323 -0.74900501966
          -3.0899682045 -0.29772499204 -0.5357632041 -3.1669573784 -0.19655050337 -0.74350303411
          4.8979010582 0.32311931252 1.3858200312 4.7563681602 0.41457000375 1.7243119478
          4.8885669708 0.54565501213 1.3964899778 5.0874519348 0.48010200262 1.4636000395
          0.76676100492 -0.1134057045 -0.50795000792 0.61227500439 -0.20498250425 -0.7539935708
          0.84206402302 0.052923899144 -0.65382301807 0.56557297707 -0.05147189647 -0.61882799864
          -2.4264535904 -0.49877792597 -1.0958280563 -2.5419068336 -0.2821674943 -1.3411229849
          -2.2354676723 -0.21959285438 -1.2453320026 -2.6056780815 -0.30553308129 -1.0694279671
          1.8868869543 0.43748298287 0.51323801279 1.8012125492 0.13252429664 0.42392399907
          1.8670481443 0.33276200294 0.76933300495 2.0687611103 0.17121970654 0.57191699743
          0.99458998442 -0.022154798731 -0.49672108889 0.86870998144 0.033326499164 -0.31085899472
          1.0656369925 0.1378595978 -0.35818099976 1.0725090504 -0.1251232028 -0.30668699741
          -1.1307909489 -0.13907830417 -1.6104199886 -1.0445510149 -0.28223949671 -1.6158399582
          -0.95317101479 -0.27932810783 -1.4066259861 -0.80039197206 -0.22904071212 -1.6116299629
          -4.3315758705 -0.16536140442 0.15697599947 -4.4544172287 -0.23605190217 0.42361399531
          -4.0919470787 -0.29832312465 0.34250101447 -4.323428154 -0.48470199108 0.21382179856
          3.0217940807 0.11983050406 0.068121999502 2.8178238869 -0.16496701539 0.18457700312
          2.9617218971 0.11532790214 0.41656598449 3.0362560749 -0.12312699854 0.36283898354
          2.6742250919 -0.012311006896 0.2936809957 2.7524430752 -0.1180730015 -0.14809599519
          2.8178238869 -0.16496701539 0.18457700312 2.9222569466 -0.035557992756 -0.016389999539
          5.1202697754 0.12177520245 1.4594299793 4.9797067642 0.10058799386 1.780706048
          5.1593341827 -0.012515998445 1.8333879709 5.0016570091 -0.09311401844 1.6771680117
          0.73507022858 0.4539988935 -0.073164001107 0.79733598232 0.39415538311 -0.3318169713
          0.66420590878 0.58173090219 -0.24965699017 0.56200027466 0.3923317194 -0.18788799644
          1.6138050556 0.3192229867 -0.46323099732 1.8443620205 0.16656500101 -0.47324600816
          1.5066930056 0.24949200451 -0.69261598587 1.6323230267 0.075184799731 -0.62727099657
          1.6178350449 -0.15927900374 0.18571281433 1.3497146368 0.084297902882 0.35733398795
          1.369579196 0.12671080232 0.095050007105 1.6255400181 0.14701509476 0.17244631052
          -2.6269614697 -0.066813401878 -1.0421299934 -2.82984519 -0.19690430164 -0.8898460269
          -2.7823200226 0.016783099622 -0.68633919954 -2.548101902 -0.012899150141 -0.78901946545
          5.4746980667 0.36210200191 1.5940099955 5.4586992264 0.38369700313 1.9621009827
          5.1873960495 0.42186701298 1.8164199591 5.5018949509 0.57858800888 1.8484350443
          0.74059998989 0.11394579709 -1.0505290031 0.53313398361 0.019717698917 -1.1568260193
          0.47868400812 -0.085507400334 -0.87584412098 0.61579799652 -0.14052461088 -1.0343459845
          3.804610014 0.20091049373 1.4191051722 3.6544830799 0.36574301124 1.0680350065
          3.5387530327 0.16991350055 1.193629384 3.9656031132 0.16085809469 1.1511030197
          4.2373199463 -0.093296997249 1.6291577816 4.2718300819 0.15794679523 1.6279176474
          4.1369771957 0.033024005592 1.3592270613 4.4501152039 0.014983006753 1.5191400051
          5.2169570923 -0.28806000948 1.5943369865 5.3287701607 0.017804997042 1.5262700319
          5.4998879433 -0.18895500898 1.5840200186 5.327480793 -0.087410993874 1.7155309916
          -4.8905801773 0.078228734434 -0.52854001522 -5 0.09418129921 -0.34129801393
          -4.7995986938 0.015869349241 -0.30273678899 -5 -0.13075700402 -0.36378800869
          -1.7904880047 0.17986288667 -0.85320198536 -1.8314759731 0.27363407612 -0.6662620306
          -1.7705160379 -0.013670380227 -0.72984999418 -1.9904079437 0.054340101779 -0.69911700487
          -0.07988999784 0.53172880411 -1.0493973494 -0.33649298549 0.53052771091 -0.93731302023
          -0.26240199804 0.35430929065 -1.093870163 -0.20239399374 0.51886868477 -1.2246849537
          -1.1999200583 0.31322172284 -0.84429401159 -1.2363820076 0.13768835366 -0.99496001005
          -1.4006630182 0.27366858721 -1.0899891853 -1.4917390347 0.24093736708 -0.86661797762
          1.6178350449 -0.15927900374 0.18571281433 1.8810739517 -0.025785999373 0.24052999914
          1.9639710188 -0.12883301079 0.49361902475 1.5937000513 -0.15697298944 0.5264647007
          1.6754965782 -0.38479599357 0.46163770556 1.6178350449 -0.15927900374 0.18571281433
          1.9639710188 -0.12883301079 0.49361902475 1.5937000513 -0.15697298944 0.5264647007
          -3.9515781403 0.22483050823 -0.22432824969 -3.9705395699 0.47333359718 0.0037210055161
          -3.7695140839 0.20615190268 -0.025571003556 -4.0016899109 0.29823037982 0.14048601687
          4.9700350761 0.50200498104 1.9810703993 4.7806420326 0.47793102264 2.2329978943
          5.0139088631 0.39100199938 2.2078499794 4.7842068672 0.23646980524 2.2136070728
          -1.3583359718 0.17316421866 -1.3048620224 -1.6338564157 0.02010091953 -1.3360049725
          -1.3511379957 -0.033111680299 -1.0856614113 -1.4067959785 -0.070061728358 -1.4117490053
          5.0139088631 0.39100199938 2.2078499794 4.7806420326 0.47793102264 2.2329978943
          4.819275856 0.2937990129 2.4843699932 4.7842068672 0.23646980524 2.2136070728
          -2.8852050304 -0.13799700141 -0.5307559967 -3.1492960453 -0.20950199664 -0.30492499471
          -2.9584069252 -0.33283078671 -0.35879898071 -3.0899682045 -0.29772499204 -0.5357632041
          1.6162129641 -0.37938898802 -0.35376280546 1.4527050257 -0.19449299574 -0.29091629386
          1.5601429939 -0.16315901279 -0.66583400965 1.6553009748 -0.058208007365 -0.42940098047
          0.059512998909 -0.21327769756 -1.0408661366 0.19523879886 -0.052128598094 -0.8603233695
          0.14480470121 -0.27436679602 -0.68005996943 0.0018850000342 -0.13561350107 -0.81675201654
          1.5601429939 -0.16315901279 -0.66583400965 1.3120340109 -0.15288600326 -0.5459626317
          1.6323230267 0.075184799731 -0.62727099657 1.6553009748 -0.058208007365 -0.42940098047
          -1.3339209557 -0.1199079901 -0.60588997602 -1.542323947 -0.10029046237 -0.56713998318
          -1.4142980576 -0.3536285162 -0.59887999296 -1.5314699411 -0.26643535495 -0.78901797533
          -3.9470174313 -0.23043839633 -0.45734000206 -3.779299736 -0.33174827695 -0.59858602285
          -3.9198260307 -0.52072381973 -0.66412502527 -3.8315455914 -0.51438689232 -0.46247899532
          -2.7501730919 0.4770526886 -0.50051802397 -3.0843958855 0.47311139107 -0.64435297251
          -2.9227018356 0.26947918534 -0.61335587502 -2.9246742725 0.47127839923 -0.80925703049
          -0.032131001353 0.33743911982 -0.72442996502 -0.24963200092 0.28975039721 -0.72652798891
          -0.098812997341 0.27493330836 -0.95051121712 -0.16879400611 0.54172569513 -0.80274397135
          1.0204950571 -0.39697799087 -0.86901700497 0.93293100595 -0.41566240788 -0.55624979734
          0.75424200296 -0.42280769348 -0.65912491083 0.88520997763 -0.23278620839 -0.74979001284
          -0.24963200092 0.28975039721 -0.72652798891 -0.098812997341 0.27493330836 -0.95051121712
          -0.16879400611 0.54172569513 -0.80274397135 -0.33649298549 0.53052771091 -0.93731302023
          4.5158967972 -0.051814988256 1.7898253202 4.2373199463 -0.093296997249 1.6291577816
          4.1488780975 -0.13552299142 1.9172199965 4.3472771645 -0.29031598568 1.7298301458
          -4.0016899109 0.29823037982 0.14048601687 -3.6804521084 0.46754148602 0.19479499757
          -3.7695140839 0.20615190268 -0.025571003556 -3.7869338989 0.27324751019 0.25282999873
          1.9902969599 0.62398999929 0.42160499096 1.8868869543 0.43748298287 0.51323801279
          2.0345966816 0.62387102842 0.84213399887 2.1254868507 0.43120700121 0.6656140089
          1.8257160187 0.17760980129 -0.11040610075 1.6255400181 0.14701509476 0.17244631052
          1.8071659803 -0.10879799724 -0.12797890604 1.4943079948 -0.043684996665 -0.058169994503
          -4.1674909592 0.13877829909 -0.35717999935 -3.9515781403 0.22483050823 -0.22432824969
          -3.93171525 0.23039670289 -0.4976850152 -3.8458154202 -0.0071441796608 -0.27063637972
          5.199947834 0.37635299563 2.0466771126 4.9700350761 0.50200498104 1.9810703993
          5.0139088631 0.39100199938 2.2078499794 4.9558830261 0.24193349481 1.938804388
          4.1369771957 0.033024005592 1.3592270613 4.344976902 0.097388997674 1.2805169821
          4.2718300819 0.15794679523 1.6279176474 4.1762018204 0.27362239361 1.2485419512
          -1.7904880047 0.17986288667 -0.85320198536 -1.9829889536 0.48603790998 -0.84902697802
          -2.0596408844 0.23887120187 -0.93493187428 -1.86886096 0.2922372818 -1.0309972763
          4.0328669548 -0.29927301407 1.0428249836 3.8409628868 -0.30274599791 1.1827360392
          3.8110458851 -0.30123400688 0.9321950078 4.0087571144 -0.073222987354 1.1375299692
          -1.1171029806 0.13310749829 -0.81390601397 -1.0616509914 0.19502159953 -0.62691998482
          -1.0281820297 -0.050216499716 -0.63028001785 -1.2343740463 0.075913608074 -0.61450999975
          5.2246007919 0.71275597811 2.0305790901 4.9700350761 0.50200498104 1.9810703993
          5.199947834 0.37635299563 2.0466771126 5.1873960495 0.42186701298 1.8164199591
          4.0087571144 -0.073222987354 1.1375299692 4.2537708282 -0.29642701149 1.1315799952
          4.0328669548 -0.29927301407 1.0428249836 4.0616660118 -0.29908099771 1.2974100113
          -0.95317101479 -0.27932810783 -1.4066259861 -1.0445510149 -0.28223949671 -1.6158399582
          -1.1043089628 -0.46415549517 -1.4246920347 -0.95123302937 -0.4521523118 -1.5646049976
          4.6524858475 0.67294102907 2.2563040257 4.8932499886 0.67041701078 2.498333931
          4.8522830009 0.69435501099 2.1452889442 4.7806420326 0.47793102264 2.2329978943
          -3.3584003448 -0.26359349489 -0.49015578628 -3.5607392788 -0.34819129109 -0.49605900049
          -3.2427380085 -0.50958657265 -0.51888477802 -3.3740890026 -0.51318377256 -0.76919901371
          -3.5607392788 -0.34819129109 -0.49605900049 -3.779299736 -0.33174827695 -0.59858602285
          -3.6353495121 -0.51476502419 -0.58951199055 -3.4521927834 -0.28309810162 -0.73375397921
          -4.2544279099 -0.066851697862 -0.67942899466 -4.436715126 0.026354400441 -0.37169200182
          -4.2499485016 -0.19019518793 -0.35626098514 -4.4442939758 -0.11693099886 -0.6205059886
          -2.0370030403 0.2986676991 -0.69848400354 -2.2431271076 0.16042180359 -0.71514201164
          -1.9904079437 0.054340101779 -0.69911700487 -2.0596408844 0.23887120187 -0.93493187428
          -2.8605468273 0.030474800617 -1.0333030224 -2.8611981869 0.29218497872 -1.0245879889
          -2.9489409924 0.21040900052 -1.2003070116 -2.6722416878 0.17765410244 -0.99963802099
          4.7825579643 0.012594994158 1.737795949 5.0016570091 -0.09311401844 1.6771680117
          4.838329792 -0.29386898875 1.6861670017 4.908780098 -0.05460799858 1.9473679066
          -0.78097099066 -0.028601998463 -0.62437999249 -0.7906640172 -0.26609754562 -0.63226997852
          -0.76539498568 -0.02696910128 -0.88151800632 -0.9426779747 -0.20086880028 -0.89714598656
          -3.4521927834 -0.28309810162 -0.73375397921 -3.6353495121 -0.51476502419 -0.58951199055
          -3.5607392788 -0.34819129109 -0.49605900049 -3.3740890026 -0.51318377256 -0.76919901371
          -4.3490223885 0.21022440493 0.13521999121 -4.1666903496 0.27508330345 -0.13123139739
          -4.162466526 0.47085979581 0.13769200444 -4.3753991127 0.47727328539 0.067836903036
          1.6323230267 0.075184799731 -0.62727099657 1.8443620205 0.16656500101 -0.47324600816
          1.9303309917 -0.028858006001 -0.71749800444 1.6553009748 -0.058208007365 -0.42940098047
          -4.7318658829 0.32032591105 0.23805809021 -4.6535224915 0.13568019867 0.13374620676
          -4.5989289284 0.15179400146 0.43534138799 -4.5313487053 0.23166209459 0.25894141197
          4.7165417671 0.53939402103 1.5485489368 4.7495179176 0.70579200983 1.7540500164
          4.8287091255 0.72349202633 1.5618569851 4.9762878418 0.4914059937 1.7501740456
          -2.0357840061 -0.027981799096 -1.4841450453 -1.8180626631 0.066226676106 -1.5300899744
          -1.8840471506 -0.017964780331 -1.309893012 -2.041049242 0.1184957996 -1.4851289988
          -0.36743998528 -0.0037765994202 -0.87996399403 -0.42572999001 -0.2455662936 -0.58765000105
          -0.39273399115 0.0064351009205 -0.57656002045 -0.29678198695 -0.19139230251 -0.85894298553
          -4.2499485016 -0.19019518793 -0.35626098514 -4.0898427963 -0.054189000279 -0.25348520279
          -4.2212285995 -0.30168271065 -0.17994959652 -4.3956904411 -0.0096592828631 -0.099004216492
          4.2629752159 -0.29529801011 1.4773910046 4.0760598183 -0.29790601134 1.5380973816
          4.2373199463 -0.093296997249 1.6291577816 4.1453089714 -0.29227998853 1.7419952154
          -4.0705108643 0.13585180044 0.0080800065771 -4.1121020317 0.25860318542 0.34374800324
          -3.9893488884 0.10838919878 0.30875301361 -4.1473436356 -0.025500500575 0.13780200481
          -3.4188709259 -0.052383501083 -0.084667012095 -3.5088529587 -0.28569889069 0.1608529985
          -3.4230210781 -0.045196000487 0.12691999972 -3.2750339508 -0.14621569216 0.072559997439
          3.0362560749 -0.12312699854 0.36283898354 2.9889109135 -0.32668501139 0.69036900997
          3.179639101 -0.31765601039 0.58325701952 2.8988618851 -0.32689899206 0.32881501317
          -1.0788140297 0.51180261374 -0.85813999176 -1.1992089748 0.51642417908 -0.64087301493
          -1.1999200583 0.31322172284 -0.84429401159 -1.3283799887 0.50588327646 -0.82055300474
          3.7195839882 0.0037419972941 1.0903520584 3.804610014 0.20091049373 1.4191051722
          3.8552589417 -0.056183006614 1.3705922365 3.5387530327 0.16991350055 1.193629384
          4.0141201019 0.24855940044 1.621557951 3.9769608974 0.41242301464 1.2358649969
          4.2172560692 0.35686299205 1.4943759441 3.9962799549 0.50118601322 1.5290913582
          2.5734648705 0.64016002417 1.1225880384 2.6483149529 0.51224297285 1.3579260111
          2.7331340313 0.47387900949 1.1153179407 2.430131197 0.43304201961 1.193819046
          -2.2719159126 -0.063200898468 -1.4239000082 -2.2354676723 -0.21959285438 -1.2453320026
          -2.4806556702 -0.1127384007 -1.363214016 -2.3633306026 -0.018299350515 -1.2072839737
          -3.3653941154 0.12199870497 0.10548699647 -3.5638709068 0.10706090182 0.17637899518
          -3.4230210781 -0.045196000487 0.12691999972 -3.6423470974 -0.017455210909 -0.0356920138
          4.8522830009 0.69435501099 2.1452889442 4.7806420326 0.47793102264 2.2329978943
          5.0139088631 0.39100199938 2.2078499794 4.9700350761 0.50200498104 1.9810703993
          2.2606570721 0.63481098413 0.14861099422 2.1847960949 0.4558160007 -0.22780369222
          2.4292700291 0.64129698277 -0.068533986807 2.2999079227 0.63358300924 -0.23076201975
          3.5121660233 0.42270597816 1.6780580282 3.7163519859 0.46678900719 1.408038497
          3.5908029079 0.19661930203 1.6370530128 3.8146090508 0.38017898798 1.7155710459
          -0.47427800298 -0.47527450323 -0.90863901377 -0.29678198695 -0.19139230251 -0.85894298553
          -0.42743900418 -0.29611000419 -1.0441720486 -0.31607699394 -0.47428938746 -0.76736098528
          -0.36334300041 -0.45349159837 -1.1892901659 -0.42743900418 -0.29611000419 -1.0441720486
          -0.38811999559 -0.14212410152 -1.2827340364 -0.19269900024 -0.26168438792 -1.0995333195
          4.9495658875 0.71378302574 1.7495089769 4.7996368408 0.69749897718 1.943791151
          5.1484160423 0.71598798037 1.853268981 4.9700350761 0.50200498104 1.9810703993
          -0.19269900024 -0.26168438792 -1.0995333195 -0.33131301403 -0.1156719923 -1.0455411673
          -0.18521800637 0.03266672045 -1.0619240999 -0.29678198695 -0.19139230251 -0.85894298553
          4.8522830009 0.69435501099 2.1452889442 4.7806420326 0.47793102264 2.2329978943
          5.0743060112 0.70134097338 2.1695489883 5.0139088631 0.39100199938 2.2078499794
          2.0858280659 0.031003998592 0.38727900386 2.3737831116 -0.031773991883 0.64508098364
          2.1764740944 -0.18138699234 0.65020596981 2.0687611103 0.17121970654 0.57191699743
          -0.23330500722 -0.099709004164 -0.54330998659 -0.025832999498 0.026944899932 -0.47304499149
          0.0018850000342 -0.13561350107 -0.81675201654 -0.011990199797 -0.27998569608 -0.48404100537
          4.8979010582 0.32311931252 1.3858200312 4.7563681602 0.41457000375 1.7243119478
          5.0874519348 0.48010200262 1.4636000395 5.0031938553 0.28169769049 1.6652870178
          2.2638959885 -0.015994004905 0.14143829048 2.2750039101 0.14374065399 0.29926979542
          2.4130580425 -0.0050789942034 0.39745768905 2.0858280659 0.031003998592 0.38727900386
          -2.3114500046 0.28709989786 -0.8894675374 -2.3186562061 0.14272490144 -1.0617469549
          -2.3987627029 0.46843078732 -1.1548199654 -2.4950749874 0.26449760795 -1.1571450233
          -4.3332242966 -0.49554929137 0.023328900337 -4.4754362106 -0.32264238596 0.12133580446
          -4.2066240311 -0.3275590539 0.070990994573 -4.323428154 -0.48470199108 0.21382179856
          -3.7485210896 0.47213810682 -0.081793002784 -3.5249319077 0.4702565074 0.015981996432
          -3.7695140839 0.20615190268 -0.025571003556 -3.6804521084 0.46754148602 0.19479499757
          -0.78262102604 -0.069029003382 -1.6080299616 -0.53049099445 -0.25941371918 -1.4260540009
          -0.73458898067 -0.17205369473 -1.327262044 -0.55726397038 -0.032617900521 -1.40318501
          1.6162129641 -0.37938898802 -0.35376280546 1.4527050257 -0.19449299574 -0.29091629386
          1.4899770021 -0.38008698821 -0.65395200253 1.5601429939 -0.16315901279 -0.66583400965
          -4.3519821167 -0.3447792232 -0.6417530179 -4.2499485016 -0.19019518793 -0.35626098514
          -4.1456823349 -0.32185968757 -0.5048879981 -4.3169722557 -0.515429914 -0.37853601575
          -4.2544279099 -0.066851697862 -0.67942899466 -4.1456823349 -0.32185968757 -0.5048879981
          -4.3519821167 -0.3447792232 -0.6417530179 -4.2499485016 -0.19019518793 -0.35626098514
          -0.24963200092 0.28975039721 -0.72652798891 -0.5591750145 0.32877069712 -0.824015975
          -0.38182199001 0.22295188904 -0.90033400059 -0.4916779995 0.53283828497 -0.76185595989
          0.15763199329 -0.010675301775 -1.4892460108 0.2478390038 0.18538750708 -1.4635369778
          0.30460509658 0.093160197139 -1.2340450287 0.056278999895 0.056861169636 -1.3090289831
          -3.8458154202 -0.0071441796608 -0.27063637972 -3.7178936005 -0.30012491345 -0.34045830369
          -3.5465004444 -0.0025727003813 -0.37637498975 -3.6200819016 -0.16615739465 -0.5608189702
          -2.354665041 -0.32262691855 -0.86674439907 -2.5790920258 -0.26749420166 -0.70352119207
          -2.4078168869 -0.30346369743 -0.49435901642 -2.4582118988 -0.50782459974 -0.75783860683
          5.2508559227 0.28233119845 1.5107899904 5.1873960495 0.42186701298 1.8164199591
          5.3040738106 0.50984299183 1.5398700237 5.4746980667 0.36210200191 1.5940099955
          4.561398983 0.70336198807 1.6810460091 4.7495179176 0.70579200983 1.7540500164
          4.8287091255 0.72349202633 1.5618569851 4.7165417671 0.53939402103 1.5485489368
          1.6162129641 -0.37938898802 -0.35376280546 1.2987240553 -0.39872199297 -0.33902829885
          1.4899770021 -0.38008698821 -0.65395200253 1.4527050257 -0.19449299574 -0.29091629386
          4.7563681602 0.41457000375 1.7243119478 4.4655342102 0.20313693583 1.8080023527
          4.6735458374 0.19949239492 1.5503569841 4.5152788162 0.44570598006 1.5512629747
          -2.1130719185 -0.047264300287 -1.1963629723 -2.1257388592 -0.27721267939 -1.4604820013
          -2.0235655308 -0.33051469922 -1.2762329578 -1.8840471506 -0.017964780331 -1.309893012
          3.5387530327 0.16991350055 1.193629384 3.220927 0.38111701608 1.2094409466
          3.4179348946 0.33102399111 1.4116280079 3.2844669819 0.18207931519 1.0159295797
          4.1594829559 0.12733019888 2.2602200508 4.4526658058 0.17872619629 2.428800106
          4.3718128204 0.25128540397 2.104501009 4.3237462044 0.042966000736 2.3439700603
          -0.57344698906 -0.46036499739 -1.2049913406 -0.47427800298 -0.47527450323 -0.90863901377
          -0.42743900418 -0.29611000419 -1.0441720486 -0.36334300041 -0.45349159837 -1.1892901659
          2.5381810665 0.37671899796 0.083356015384 2.5486719608 0.4433940053 0.48740598559
          2.7388780117 0.4845879972 0.20156900585 2.4331591129 0.31312698126 0.30493488908
          0.015014999546 0.52284687757 -1.2964439392 -0.07988999784 0.53172880411 -1.0493973494
          -0.061303000897 0.37349951267 -1.1732430458 -0.20239399374 0.51886868477 -1.2246849537
          4.9883351326 -0.0025349962525 2.1726241112 5.0844421387 -0.30479300022 2.0486927032
          4.8122911453 -0.30095601082 2.246833086 5.0993762016 -0.30616301298 2.320991993
          -0.78097099066 -0.028601998463 -0.62437999249 -0.59738898277 -0.2561981082 -0.61395001411
          -0.57054299116 -0.063641503453 -0.60666000843 -0.6984680295 -0.26326191425 -0.85958302021
          1.5018340349 0.60006701946 -0.26044872403 1.7167700529 0.42090001702 -0.091850601137
          1.4334243536 0.60390299559 0.081108003855 1.7845100164 0.61610001326 0.12772998214
          2.666932106 -0.11324400455 1.3288810253 2.4782733917 -0.16793499887 1.1878299713
          2.6176869869 -0.096157990396 0.89440202713 2.5438802242 0.032495997846 1.2491639853
          -0.33131301403 -0.1156719923 -1.0455411673 -0.61719799042 -0.039664398879 -1.1887242794
          -0.42777499557 0.06476470083 -1.0590546131 -0.55270302296 -0.11456199735 -0.98753702641
          0.69450002909 0.33520320058 -0.69070541859 0.67646998167 0.33598598838 -0.95468699932
          0.83301800489 0.56610417366 -0.74389237165 0.53923499584 0.55213999748 -0.9251576066
          4.0705580711 0.054460007697 1.7552939653 4.3348088264 0.0020780034829 2.0050890446
          4.1488780975 -0.13552299142 1.9172199965 4.0440011024 0.18789739907 1.9961689711
          0.9384559989 -0.42108929157 -0.3525930047 1.0542720556 -0.20917788148 -0.54995292425
          0.93293100595 -0.41566240788 -0.55624979734 1.108948946 -0.40205231309 -0.65256047249
          4.5728478432 -0.045872993767 1.2065700293 4.725110054 0.0005410007434 1.2883199453
          4.6791539192 -0.064878001809 1.5370919704 4.4501152039 0.014983006753 1.5191400051
          2.2181119919 0.41253200173 0.3796235919 2.0687611103 0.17121970654 0.57191699743
          2.387912035 0.31022301316 0.66756099463 2.2750039101 0.14374065399 0.29926979542
          -3.0457994938 0.036590598524 -0.58276486397 -2.7823200226 0.016783099622 -0.68633919954
          -2.9227018356 0.26947918534 -0.61335587502 -2.9588835239 0.10583119839 -0.81790500879
          5.2246007919 0.71275597811 2.0305790901 5.0743060112 0.70134097338 2.1695489883
          5.1783838272 0.53621798754 2.2175490856 4.9700350761 0.50200498104 1.9810703993
          0.96178209782 -0.10965040326 0.053582999855 0.94075733423 -0.2887121141 0.026029000059
          0.85404402018 -0.22467930615 -0.32312399149 0.75101262331 -0.27248388529 -0.098263002932
          -4.7995986938 0.015869349241 -0.30273678899 -5 0.1004910022 -0.10199099779
          -5 -0.16616299748 -0.067754097283 -5 -0.13075700402 -0.36378800869
          1.6178350449 -0.15927900374 0.18571281433 1.8810739517 -0.025785999373 0.24052999914
          1.8071659803 -0.10879799724 -0.12797890604 2.0367250443 -0.15883000195 0.10807870328
          -3.275526762 0.18115669489 -0.7455739975 -3.2964999676 0.25800848007 -1.0607520342
          -3.2624089718 0.0626033023 -1.0726950169 -3.0947728157 0.28662750125 -0.90678101778
          1.1473189592 0.12026190013 -0.89047002792 1.4039119482 0.11461269855 -1.0208369493
          1.2469780445 -0.10695700347 -1.1089379787 1.4835740328 -0.047832004726 -0.98587197065
          -2.0342888832 0.096592001617 -0.42942199111 -2.0370030403 0.2986676991 -0.69848400354
          -1.9680509567 0.31546962261 -0.45382100344 -2.1832900047 0.29363209009 -0.3768529892
          0.88432902098 -0.0070595997386 -1.2622259855 0.53313398361 0.019717698917 -1.1568260193
          0.77250897884 -0.18823230267 -1.3146259785 0.64788299799 -0.0059197037481 -1.3478369713
          -1.1884590387 0.063980542123 -1.4178910255 -1.5296863317 0.075993299484 -1.5737700462
          -1.2665230036 -0.018151098862 -1.5959500074 -1.206567049 0.2027631104 -1.6014900208
          0.4462980032 0.22514030337 -1.0646909475 0.51523089409 0.14683929086 -1.3929450512
          0.30814930797 0.31706541777 -1.2523280382 0.30460509658 0.093160197139 -1.2340450287
          2.2638959885 -0.015994004905 0.14143829048 2.4627220631 0.06453820318 0.024974999949
          2.4130580425 -0.0050789942034 0.39745768905 2.2750039101 0.14374065399 0.29926979542
          -1.721953392 0.25095880032 -1.5497900248 -1.6338564157 0.02010091953 -1.3360049725
          -1.5488374233 0.27182540298 -1.3903579712 -1.5296863317 0.075993299484 -1.5737700462
          3.138158083 0.46699899435 1.4169000387 3.4179348946 0.33102399111 1.4116280079
          3.3237390518 0.14818389714 1.5284450054 3.2050361633 0.42096599936 1.7410199642
          2.204267025 -0.35545799136 0.084110699594 2.4003479481 -0.15540499985 -0.052411012352
          2.2638959885 -0.015994004905 0.14143829048 2.0367250443 -0.15883000195 0.10807870328
          0.30460509658 0.093160197139 -1.2340450287 0.51523089409 0.14683929086 -1.3929450512
          0.30814930797 0.31706541777 -1.2523280382 0.2478390038 0.18538750708 -1.4635369778
          -0.85848498344 0.10293919593 -1.6076999903 -0.7670930028 0.060932602733 -1.3277369738
          -0.72984099388 0.28546023369 -1.3866969347 -0.679880023 0.069117903709 -1.6021100283
          -4.3315758705 -0.16536140442 0.15697599947 -4.4574508667 0.019598178566 0.2031301856
          -4.5573143959 -0.13582371175 -0.061340749264 -4.3956904411 -0.0096592828631 -0.099004216492
          -4.827589035 0.26959607005 -0.53942549229 -4.7940740585 0.30425521731 -0.31099230051
          -4.6376662254 0.16694931686 -0.24515900016 -4.7995986938 0.015869349241 -0.30273678899
          4.4655342102 0.20313693583 1.8080023527 4.4522380829 0.45779499412 1.8534209728
          4.2633280754 0.48635900021 1.6941789389 4.5152788162 0.44570598006 1.5512629747
          -4.1460008621 0.48432341218 -0.41542598605 -4.2408308983 0.48058089614 -0.10947950184
          -3.9811484814 0.47856000066 -0.21228690445 -4.1666903496 0.27508330345 -0.13123139739
          2.8959798813 0.32024499774 1.0456169844 2.7515289783 0.13377730548 0.70048117638
          2.7450699806 0.13935770094 1.1011400223 3.0274419785 0.16455459595 0.84069955349
          2.1158709526 -0.35618299246 -0.26636224985 2.2337059975 -0.17428898811 -0.25786739588
          2.4003479481 -0.15540499985 -0.052411012352 2.204267025 -0.35545799136 0.084110699594
          2.5418469906 0.64766597748 0.10435001552 2.7388780117 0.4845879972 0.20156900585
          2.8823029995 0.46633699536 -0.010378999636 2.5381810665 0.37671899796 0.083356015384
          0.059512998909 -0.21327769756 -1.0408661366 0.26428851485 -0.064987801015 -1.0606349707
          0.36515200138 -0.25333359838 -0.93256372213 0.19523879886 -0.052128598094 -0.8603233695
          -1.5521390438 -0.22336211801 -1.3013720512 -1.5908279419 -0.0042438311502 -1.0808677673
          -1.5769430399 -0.27982699871 -1.0531499386 -1.8587261438 -0.19973695278 -1.1918489933
          -1.86886096 0.2922372818 -1.0309972763 -1.8356319666 0.0078969011083 -1.0082437992
          -2.0596408844 0.23887120187 -0.93493187428 -1.7904880047 0.17986288667 -0.85320198536
          -2.354665041 -0.32262691855 -0.86674439907 -2.4078168869 -0.30346369743 -0.49435901642
          -2.2919089794 -0.51172739267 -0.61034798622 -2.4582118988 -0.50782459974 -0.75783860683
          1.8443030119 0.60612398386 -0.54030299187 1.7609839439 0.60800498724 -0.30019900203
          1.9701869488 0.36129301786 -0.32886689901 1.6138050556 0.3192229867 -0.46323099732
          2.2181119919 0.41253200173 0.3796235919 2.387912035 0.31022301316 0.66756099463
          2.2841498852 0.63460797071 0.62853097916 2.5486719608 0.4433940053 0.48740598559
          3.9967598915 0.6620669961 1.8450440168 3.8874111176 0.63993400335 2.0479431152
          4.1697688103 0.64373600483 2.1378290653 3.9373788834 0.45778700709 1.9478909969
          4.486289978 0.48828300834 2.4170000553 4.2911319733 0.6131169796 2.3516499996
          4.3538961411 0.35973498225 2.428800106 4.402616024 0.45689401031 2.1667981148
          4.5372681618 0.68655800819 1.2324299812 4.559112072 0.72245299816 1.4581370354
          4.7117071152 0.64353197813 1.3227100372 4.5152788162 0.44570598006 1.5512629747
          -0.74982398748 -0.23088718951 -1.0935233831 -0.9426779747 -0.20086880028 -0.89714598656
          -0.6984680295 -0.26326191425 -0.85958302021 -0.91781198978 -0.47875839472 -1.088809967
          1.6553009748 -0.058208007365 -0.42940098047 1.8257160187 0.17760980129 -0.11040610075
          1.5832170248 0.13898870349 -0.2907756865 1.8443620205 0.16656500101 -0.47324600816
          -3.7178936005 -0.30012491345 -0.34045830369 -3.6301288605 -0.50444597006 -0.18104600906
          -3.5159258842 -0.18312910199 -0.2097529918 -3.4962136745 -0.50891906023 -0.35148981214
          -0.54605597258 0.061542298645 -0.81870001554 -0.6984680295 -0.26326191425 -0.85958302021
          -0.57054299116 -0.063641503453 -0.60666000843 -0.49013099074 -0.27833321691 -0.80703800917
          -0.57054299116 -0.063641503453 -0.60666000843 -0.42572999001 -0.2455662936 -0.58765000105
          -0.39273399115 0.0064351009205 -0.57656002045 -0.49013099074 -0.27833321691 -0.80703800917
          -4.7094054222 0.49808984995 -0.25924840569 -4.7088990211 0.50314342976 -0.47985681891
          -4.9230599403 0.50244057178 -0.30132201314 -4.7940740585 0.30425521731 -0.31099230051
          -0.47427800298 -0.47527450323 -0.90863901377 -0.6984680295 -0.26326191425 -0.85958302021
          -0.42743900418 -0.29611000419 -1.0441720486 -0.49013099074 -0.27833321691 -0.80703800917
          -1.1732499599 0.28154438734 -1.1781251431 -1.1318500042 0.052193719894 -1.1925956011
          -1.0088479519 0.19115871191 -1.3418680429 -1.3583359718 0.17316421866 -1.3048620224
          -1.0088479519 0.19115871191 -1.3418680429 -1.1732499599 0.28154438734 -1.1781251431
          -0.84249997139 0.26520928741 -1.1529723406 -1.1318500042 0.052193719894 -1.1925956011
          -3.1503348351 -0.51121389866 -0.73205798864 -3.0899682045 -0.29772499204 -0.5357632041
          -3.2427380085 -0.50958657265 -0.51888477802 -3.3584003448 -0.26359349489 -0.49015578628
          1.5832170248 0.13898870349 -0.2907756865 1.8257160187 0.17760980129 -0.11040610075
          1.6138050556 0.3192229867 -0.46323099732 1.8443620205 0.16656500101 -0.47324600816
          0.22415600717 -0.082622297108 -1.3033210039 0.056278999895 0.056861169636 -1.3090289831
          0.26428851485 -0.064987801015 -1.0606349707 -0.0075119999237 -0.13963499665 -1.2594619989
          -2.825469017 0.27062919736 -0.34245297313 -2.9054839611 0.47552779317 -0.32576698065
          -2.9465370178 0.2871569097 -0.061487998813 -3.0915300846 0.47361189127 -0.20009501278
          -0.74778497219 0.49031057954 -1.546538949 -1.1120990515 0.48050779104 -1.6057850122
          -0.83093398809 0.49481633306 -1.3887859583 -1.0532729626 0.32143890858 -1.6126300097
          -0.86909997463 0.24614109099 -1.6085100174 -0.72984099388 0.28546023369 -1.3866969347
          -1.0088479519 0.19115871191 -1.3418680429 -1.0532729626 0.32143890858 -1.6126300097
          -0.23330500722 -0.099709004164 -0.54330998659 -0.027907999232 0.12770339847 -0.67658001184
          -0.20871029794 0.16622160375 -0.5290799737 -0.19524599612 0.051735099405 -0.78870302439
          -2.4344344139 0.47441139817 -0.8509837985 -2.5196659565 0.24592778087 -0.72205346823
          -2.3374700546 0.48206248879 -0.62753897905 -2.3114500046 0.28709989786 -0.8894675374
          4.2629752159 -0.29529801011 1.4773910046 4.1453089714 -0.29227998853 1.7419952154
          4.2373199463 -0.093296997249 1.6291577816 4.3472771645 -0.29031598568 1.7298301458
          -2.7501730919 0.4770526886 -0.50051802397 -2.9227018356 0.26947918534 -0.61335587502
          -2.825469017 0.27062919736 -0.34245297313 -2.7090830803 0.31708621979 -0.6229904294
          -0.97820800543 0.24167840183 -0.90613996983 -1.1999200583 0.31322172284 -0.84429401159
          -1.0079799891 0.43430522084 -0.63536000252 -1.0616509914 0.19502159953 -0.62691998482
          -4.6497826576 -0.19200108945 0.12126010656 -4.7962985039 -0.27623388171 -0.034645497799
          -4.777050972 -0.31894397736 0.2911812067 -4.8224816322 -0.4885019958 0.14574058354
          1.4334243536 0.60390299559 0.081108003855 1.594933033 0.40332198143 0.19972449541
          1.4247305393 0.51622200012 0.439211905 1.669698596 0.61242300272 0.38457930088
          -2.8640635014 -0.32550418377 -0.67871928215 -3.1669573784 -0.19655050337 -0.74350303411
          -3.1503348351 -0.51121389866 -0.73205798864 -3.0438988209 -0.31679549813 -0.92314600945
          -2.8640635014 -0.32550418377 -0.67871928215 -2.82984519 -0.19690430164 -0.8898460269
          -3.0438988209 -0.31679549813 -0.92314600945 -2.92583251 -0.50748687983 -0.81637299061
          3.804610014 0.20091049373 1.4191051722 3.9769608974 0.41242301464 1.2358649969
          4.1762018204 0.27362239361 1.2485419512 4.0141201019 0.24855940044 1.621557951
          -0.51359897852 0.26363918185 -1.5916399956 -0.86909997463 0.24614109099 -1.6085100174
          -0.72984099388 0.28546023369 -1.3866969347 -0.679880023 0.069117903709 -1.6021100283
          -4.007420063 0.42113360763 -0.76628297567 -3.7815887928 0.27240249515 -0.66369998455
          -3.9523050785 0.21237049997 -0.78943997622 -3.93171525 0.23039670289 -0.4976850152
          0.5862929821 0.35003548861 -1.1572810411 0.51523089409 0.14683929086 -1.3929450512
          0.30814930797 0.31706541777 -1.2523280382 0.4462980032 0.22514030337 -1.0646909475
          3.3829259872 0.46805399656 0.71429997683 2.968873024 0.46700000763 0.87133789062
          3.2219541073 0.45492699742 0.97522252798 3.1142799854 0.34143099189 0.65826201439
          -0.36334300041 -0.45349159837 -1.1892901659 -0.47427800298 -0.47527450323 -0.90863901377
          -0.42743900418 -0.29611000419 -1.0441720486 -0.17229199409 -0.45925500989 -0.92756402493
          -3.5243430138 -0.15946990252 -0.9610850215 -3.6418271065 -0.31525328755 -0.91074800491
          -3.683809042 -0.017515730113 -0.89673197269 -3.6200819016 -0.16615739465 -0.5608189702
          2.0858280659 0.031003998592 0.38727900386 2.4130580425 -0.0050789942034 0.39745768905
          2.3737831116 -0.031773991883 0.64508098364 2.0687611103 0.17121970654 0.57191699743
          4.0087571144 -0.073222987354 1.1375299692 3.7195839882 0.0037419972941 1.0903520584
          3.8110458851 -0.30123400688 0.9321950078 3.7064490318 -0.11200299114 0.86057698727
          -3.93171525 0.23039670289 -0.4976850152 -4.1332221031 0.29565098882 -0.49425297976
          -3.8207867146 0.48162639141 -0.65821701288 -3.8304586411 0.47921529412 -0.44864699244
          -2.1525170803 -0.34244281054 -0.58914798498 -2.0423929691 -0.48994448781 -0.42611399293
          -2.0830700397 -0.51125961542 -0.71200299263 -2.2919089794 -0.51172739267 -0.61034798622
          3.2409238815 0.67979502678 0.59528899193 3.0083858967 0.66490697861 0.78671127558
          3.3829259872 0.46805399656 0.71429997683 3.1142799854 0.34143099189 0.65826201439
          -3.7695140839 0.20615190268 -0.025571003556 -3.7828290462 0.0534854047 0.25001400709
          -3.5638709068 0.10706090182 0.17637899518 -3.6423470974 -0.017455210909 -0.0356920138
          1.7167700529 0.42090001702 -0.091850601137 1.8911110163 0.31002601981 0.28474500775
          1.6255400181 0.14701509476 0.17244631052 1.594933033 0.40332198143 0.19972449541
          -5 -0.26007699966 0.21836000681 -4.777050972 -0.31894397736 0.2911812067
          -4.7829651833 -0.03583727777 0.25068509579 -4.6497826576 -0.19200108945 0.12126010656
          -1.0256249905 0.49155002832 -1.3329880238 -1.3278859854 0.48927980661 -1.2198700905
          -1.182997942 0.50088942051 -1.0786180496 -1.1732499599 0.28154438734 -1.1781251431
          -1.5521390438 -0.22336211801 -1.3013720512 -1.199491024 -0.2731808126 -1.4120750427
          -1.2506010532 -0.14467050135 -1.2530030012 -1.4067959785 -0.070061728358 -1.4117490053
          -3.6423470974 -0.017455210909 -0.0356920138 -3.7831549644 -0.23498553038 -0.042289998382
          -3.5159258842 -0.18312910199 -0.2097529918 -3.8458154202 -0.0071441796608 -0.27063637972
          -1.0256249905 0.49155002832 -1.3329880238 -1.182997942 0.50088942051 -1.0786180496
          -0.93034297228 0.50282591581 -1.109777689 -1.1732499599 0.28154438734 -1.1781251431
          2.7515289783 0.13377730548 0.70048117638 2.9822580814 -0.12804400921 0.81096309423
          2.6176869869 -0.096157990396 0.89440202713 2.9346859455 -0.010064994916 1.0378210545
          -4.8905801773 0.078228734434 -0.52854001522 -4.827589035 0.26959607005 -0.53942549229
          -4.7940740585 0.30425521731 -0.31099230051 -5 0.09418129921 -0.34129801393
          4.659427166 0.057737004012 2.0819699764 4.5158967972 -0.051814988256 1.7898253202
          4.4655342102 0.20313693583 1.8080023527 4.3348088264 0.0020780034829 2.0050890446
          -1.0281820297 -0.050216499716 -0.63028001785 -1.2343740463 0.075913608074 -0.61450999975
          -1.1546920538 -0.21682497859 -0.62265998125 -1.1518950462 -0.061164274812 -0.8551800251
          -2.7501730919 0.4770526886 -0.50051802397 -3.1012940407 0.47349649668 -0.42684000731
          -2.9054839611 0.47552779317 -0.32576698065 -2.9227018356 0.26947918534 -0.61335587502
          -0.098812997341 0.27493330836 -0.95051121712 -0.38182199001 0.22295188904 -0.90033400059
          -0.18521800637 0.03266672045 -1.0619240999 -0.26240199804 0.35430929065 -1.093870163
          2.1084809303 0.16455329955 -0.24006199837 1.8257160187 0.17760980129 -0.11040610075
          1.8443620205 0.16656500101 -0.47324600816 1.9701869488 0.36129301786 -0.32886689901
          1.2570589781 -0.21799020469 -0.084225989878 1.0781804323 -0.41856110096 0.0092310095206
          1.0432590246 -0.41784200072 -0.18719400465 0.94075733423 -0.2887121141 0.026029000059
          1.9639710188 -0.12883301079 0.49361902475 2.087033987 -0.36293101311 0.27580299973
          2.2042989731 -0.13768899441 0.32803380489 2.0367250443 -0.15883000195 0.10807870328
          -4.3332242966 -0.49554929137 0.023328900337 -4.2066240311 -0.3275590539 0.070990994573
          -4.0129318237 -0.49603816867 0.055561993271 -4.323428154 -0.48470199108 0.21382179856
          -2.1506009102 0.25718417764 -1.2337720394 -2.1687932014 0.46246668696 -1.4244270325
          -1.972568512 0.25535020232 -1.5025000572 -1.8760517836 0.47185769677 -1.3252899647
          4.9558830261 0.24193349481 1.938804388 4.6265969276 0.37918898463 2.0835940838
          4.7842068672 0.23646980524 2.2136070728 4.7131490707 0.21425390244 1.868008852
          3.4043519497 0.68294101954 0.87328398228 3.3829259872 0.46805399656 0.71429997683
          3.6095719337 0.49926799536 0.86267101765 3.7212340832 0.54067403078 0.62415999174
          -2.2852199078 -0.19466769695 -0.68211597204 -1.9904079437 0.054340101779 -0.69911700487
          -2.2290380001 -0.01067822054 -0.56298202276 -2.0607159138 -0.073489099741 -0.92311251163
          4.5158967972 -0.051814988256 1.7898253202 4.2373199463 -0.093296997249 1.6291577816
          4.3348088264 0.0020780034829 2.0050890446 4.1488780975 -0.13552299142 1.9172199965
          -3.8304586411 0.47921529412 -0.44864699244 -3.9515781403 0.22483050823 -0.22432824969
          -3.93171525 0.23039670289 -0.4976850152 -3.9811484814 0.47856000066 -0.21228690445
          1.0951930285 0.35682529211 -1.1645820141 0.90016597509 0.3842356205 -1.0304160118
          1.1649719477 0.37054440379 -0.89170503616 1.2157520056 0.1916974932 -1.1104990244
          1.4899770021 -0.38008698821 -0.65395200253 1.2987240553 -0.39872199297 -0.33902829885
          1.108948946 -0.40205231309 -0.65256047249 1.3120340109 -0.15288600326 -0.5459626317
          4.1866950989 -0.16452099383 0.93571001291 4.2537708282 -0.29642701149 1.1315799952
          4.0328669548 -0.29927301407 1.0428249836 4.0087571144 -0.073222987354 1.1375299692
          4.1866950989 -0.16452099383 0.93571001291 4.1854190826 0.098016999662 0.94669002295
          4.4213061333 -0.052222006023 1.1044199467 4.0087571144 -0.073222987354 1.1375299692
          4.1369771957 0.033024005592 1.3592270613 4.0616660118 -0.29908099771 1.2974100113
          4.0087571144 -0.073222987354 1.1375299692 3.8552589417 -0.056183006614 1.3705922365
          -3.0457994938 0.036590598524 -0.58276486397 -2.707750082 0.14897160232 -0.50897496939
          -3.0384581089 0.17068129778 -0.37494298816 -2.9227018356 0.26947918534 -0.61335587502
          0.93293100595 -0.41566240788 -0.55624979734 0.76020401716 -0.4297708869 -0.45740100741
          0.75424200296 -0.42280769348 -0.65912491083 0.76676100492 -0.1134057045 -0.50795000792
          -2.548101902 -0.012899150141 -0.78901946545 -2.7823200226 0.016783099622 -0.68633919954
          -2.707750082 0.14897160232 -0.50897496939 -2.526927948 -0.09825039655 -0.49015599489
          -0.23330500722 -0.099709004164 -0.54330998659 -0.19524599612 0.051735099405 -0.78870302439
          -0.20871029794 0.16622160375 -0.5290799737 -0.39273399115 0.0064351009205 -0.57656002045
          -4.007420063 0.42113360763 -0.76628297567 -3.8207867146 0.48162639141 -0.65821701288
          -3.7815887928 0.27240249515 -0.66369998455 -3.93171525 0.23039670289 -0.4976850152
          -0.89497202635 0.0030651004054 -1.1271020174 -1.0088479519 0.19115871191 -1.3418680429
          -1.1318500042 0.052193719894 -1.1925956011 -0.99887502193 -0.062538303435 -1.3665850163
          -0.89497202635 0.0030651004054 -1.1271020174 -1.1318500042 0.052193719894 -1.1925956011
          -1.0050040483 -0.23432028294 -1.1520009041 -0.99887502193 -0.062538303435 -1.3665850163
          -4.777050972 -0.31894397736 0.2911812067 -4.6756920815 -0.17933808267 0.46103820205
          -4.4544172287 -0.23605190217 0.42361399531 -4.6614847183 -0.47366380692 0.40119040012
          3.7195839882 0.0037419972941 1.0903520584 3.4617619514 -0.034863006324 0.83526402712
          3.2712409496 -0.069230996072 1.0871679783 3.5614540577 -0.13416200876 1.2109525204
          -1.7574769258 -0.32169941068 -1.3376590014 -1.925401926 -0.48173299432 -1.4075479507
          -1.9633500576 -0.49727156758 -1.0658731461 -1.6530690193 -0.4847458899 -1.2544569969
          2.9693405628 -0.31538802385 1.5350999832 2.9196689129 -0.13256700337 1.2476739883
          3.2492110729 -0.32095301151 1.4265520573 2.9097163677 -0.086468994617 1.5041099787
          -1.3511379957 -0.033111680299 -1.0856614113 -1.5769430399 -0.27982699871 -1.0531499386
          -1.3524429798 -0.2001490891 -0.93651300669 -1.225301981 -0.29465007782 -1.0979983807
          -1.3524429798 -0.2001490891 -0.93651300669 -1.5769430399 -0.27982699871 -1.0531499386
          -1.3335059881 -0.48872581124 -1.1038045883 -1.225301981 -0.29465007782 -1.0979983807
          -0.47427800298 -0.47527450323 -0.90863901377 -0.6984680295 -0.26326191425 -0.85958302021
          -0.62982201576 -0.48794570565 -0.79209601879 -0.72162300348 -0.47146120667 -1.0738427639
          5.5037498474 -0.082735002041 1.8406980038 5.4175891876 0.055754002184 2.0606226921
          5.2030038834 -0.095155008137 2.0543687344 5.1593341827 -0.012515998445 1.8333879709
          -0.29748898745 0.35435709357 -1.5664999485 -0.38828599453 0.11242230237 -1.4058929682
          -0.44964700937 0.30215507746 -1.3843599558 -0.2287349999 0.24483269453 -1.2839930058
          -0.76539498568 -0.02696910128 -0.88151800632 -1.0281820297 -0.050216499716 -0.63028001785
          -0.91159600019 0.073344998062 -0.62898999453 -0.78097099066 -0.028601998463 -0.62437999249
          -4.3956904411 -0.0096592828631 -0.099004216492 -4.3315758705 -0.16536140442 0.15697599947
          -4.1473436356 -0.025500500575 0.13780200481 -4.0883383751 -0.19288347661 -0.063150003552
          3.3760828972 -0.31359198689 0.77911198139 3.3454549313 -0.14016999304 0.62486702204
          3.232765913 -0.12802201509 0.84651488066 3.1706290245 -0.32041600347 0.80434769392
          2.3698036671 -0.32390099764 1.0980910063 2.279137373 -0.3575539887 0.84426099062
          2.5645010471 -0.34633201361 0.97681301832 2.3880560398 -0.17542900145 0.81797897816
          -2.5134499073 -0.51176577806 -0.47904199362 -2.4884090424 -0.28845638037 -0.25028300285
          -2.7287049294 -0.2789902091 -0.37658300996 -2.4078168869 -0.30346369743 -0.49435901642
          3.147439003 -0.0024279970676 0.66096997261 2.9822580814 -0.12804400921 0.81096309423
          3.232765913 -0.12802201509 0.84651488066 3.179639101 -0.31765601039 0.58325701952
          0.61227500439 -0.20498250425 -0.7539935708 0.76676100492 -0.1134057045 -0.50795000792
          0.75424200296 -0.42280769348 -0.65912491083 0.51021200418 -0.21610671282 -0.49635899067
          3.3454549313 -0.14016999304 0.62486702204 3.147439003 -0.0024279970676 0.66096997261
          3.4617619514 -0.034863006324 0.83526402712 3.232765913 -0.12802201509 0.84651488066
          0.27352508903 -0.21387378871 -0.36756598949 0.38312900066 0.045982599258 -0.55516397953
          0.10708110034 -0.12076699734 -0.43617299199 0.3360530138 -0.12368449569 -0.71136599779
          -4.1633501053 -0.0074493000284 0.35350400209 -4.4544172287 -0.23605190217 0.42361399531
          -4.0919470787 -0.29832312465 0.34250101447 -4.3315758705 -0.16536140442 0.15697599947
          0.80060499907 -0.40619540215 -0.98212498426 0.89855998755 -0.35990297794 -1.2769370079
          1.1467900276 -0.29625800252 -1.1713860035 0.94502300024 -0.16622328758 -1.0062910318
          -2.2852199078 -0.19466769695 -0.68211597204 -2.2290380001 -0.01067822054 -0.56298202276
          -2.3013501167 -0.0029451001901 -0.87519747019 -2.0607159138 -0.073489099741 -0.92311251163
          -3.9246098995 -0.1297211349 0.29268100858 -4.1633501053 -0.0074493000284 0.35350400209
          -4.0919470787 -0.29832312465 0.34250101447 -4.1473436356 -0.025500500575 0.13780200481
          -4.7088990211 0.50314342976 -0.47985681891 -4.9114747047 0.4768896997 -0.51952660084
          -4.7940740585 0.30425521731 -0.31099230051 -4.827589035 0.26959607005 -0.53942549229
          -3.9246098995 -0.1297211349 0.29268100858 -3.9098739624 -0.045701097697 0.062531001866
          -4.1473436356 -0.025500500575 0.13780200481 -3.9805979729 -0.2818211019 0.12366101146
          0.18104350567 0.33106470108 -0.62392002344 0.049058001488 0.54692262411 -0.80024498701
          -0.032131001353 0.33743911982 -0.72442996502 0.21853539348 0.33637189865 -0.98886328936
          3.6907598972 -0.3027870059 1.7716159821 3.718173027 -0.032231997699 1.6364309788
          3.5018596649 -0.19701200724 1.8944000006 3.4407179356 -0.10024298728 1.6149629354
          4.5152788162 0.44570598006 1.5512629747 4.4522380829 0.45779499412 1.8534209728
          4.7563681602 0.41457000375 1.7243119478 4.4655342102 0.20313693583 1.8080023527
          -0.38811999559 -0.14212410152 -1.2827340364 -0.38828599453 0.11242230237 -1.4058929682
          -0.19496299326 0.017406899482 -1.3360270262 -0.42777499557 0.06476470083 -1.0590546131
          0.40944099426 0.2642891109 -0.64370203018 0.18104350567 0.33106470108 -0.62392002344
          0.16142000258 0.02375430055 -0.62841498852 0.13939720392 0.18482199311 -0.80818897486
          -3.2346680164 0.26355689764 -0.22137200832 -3.4597270489 0.28559470177 -0.035445000976
          -3.5110230446 0.47337430716 -0.19270299375 -3.3044788837 0.4724803865 -0.1253259927
          1.4943079948 -0.043684996665 -0.058169994503 1.8071659803 -0.10879799724 -0.12797890604
          1.4527050257 -0.19449299574 -0.29091629386 1.6111949682 -0.21885199845 -0.057695001364
          3.2219541073 0.45492699742 0.97522252798 3.0274419785 0.16455459595 0.84069955349
          3.2844669819 0.18207931519 1.0159295797 3.1142799854 0.34143099189 0.65826201439
          1.8443620205 0.16656500101 -0.47324600816 2.2489070892 0.1272508949 -0.49432817101
          1.9303309917 -0.028858006001 -0.71749800444 1.9952529669 -0.028272999451 -0.39336639643
          5.3287701607 0.017804997042 1.5262700319 5.5534300804 0.16041310132 1.7146040201
          5.4998879433 -0.18895500898 1.5840200186 5.327480793 -0.087410993874 1.7155309916
          -0.27238899469 -0.43512588739 -1.4818589687 -0.34433600307 -0.26983401179 -1.5834399462
          -0.53049099445 -0.25941371918 -1.4260540009 -0.54073399305 -0.37010061741 -1.604460001
          -2.7312269211 -0.032895799726 -0.39067798853 -2.707750082 0.14897160232 -0.50897496939
          -2.6104540825 0.0081983003765 -0.20189599693 -2.825469017 0.27062919736 -0.34245297313
          0.94075733423 -0.2887121141 0.026029000059 0.87843650579 -0.43051719666 -0.09530800581
          1.0432590246 -0.41784200072 -0.18719400465 0.85404402018 -0.22467930615 -0.32312399149
          2.2750039101 0.14374065399 0.29926979542 2.547467947 0.16419440508 0.46359831095
          2.4331591129 0.31312698126 0.30493488908 2.4627220631 0.06453820318 0.024974999949
          -0.84227001667 0.51791298389 -0.87789303064 -0.93034297228 0.50282591581 -1.109777689
          -1.0788140297 0.51180261374 -0.85813999176 -0.97820800543 0.24167840183 -0.90613996983
          -0.84227001667 0.51791298389 -0.87789303064 -1.0788140297 0.51180261374 -0.85813999176
          -1.0079799891 0.43430522084 -0.63536000252 -0.97820800543 0.24167840183 -0.90613996983
          -0.76539498568 -0.02696910128 -0.88151800632 -0.6984680295 -0.26326191425 -0.85958302021
          -0.57054299116 -0.063641503453 -0.60666000843 -0.54605597258 0.061542298645 -0.81870001554
          -3.1125445366 -0.042645700276 -0.91890496016 -3.4256296158 -0.04080190137 -0.73200601339
          -3.1669573784 -0.19655050337 -0.74350303411 -3.2653579712 -0.18581090868 -1.0693039894
          -5 0.09418129921 -0.34129801393 -5 0.1004910022 -0.10199099779
          -4.7995986938 0.015869349241 -0.30273678899 -5 -0.13075700402 -0.36378800869
          -1.856298089 -0.15979887545 -1.5231399536 -2.1257388592 -0.27721267939 -1.4604820013
          -2.0235655308 -0.33051469922 -1.2762329578 -1.8249877691 -0.34991788864 -1.5306500196
          -1.3511379957 -0.033111680299 -1.0856614113 -1.1518950462 -0.061164274812 -0.8551800251
          -1.3387739658 0.1015701443 -0.80373698473 -1.2363820076 0.13768835366 -0.99496001005
          -1.7756780386 0.41514155269 -0.51559001207 -1.8200160265 0.49221810699 -0.71408998966
          -1.8314759731 0.27363407612 -0.6662620306 -1.6158000231 0.28506198525 -0.55510002375
          -5 0.32793700695 0.27663400769 -4.8723812103 0.4865013957 0.30406826735
          -4.7318658829 0.32032591105 0.23805809021 -4.9468126297 0.30931267142 0.46121698618
          1.0204950571 -0.39697799087 -0.86901700497 1.1467900276 -0.29625800252 -1.1713860035
          1.2359069586 -0.38188400865 -0.96120500565 0.94502300024 -0.16622328758 -1.0062910318
          -4.1121020317 0.25860318542 0.34374800324 -4.3490223885 0.21022440493 0.13521999121
          -4.4056830406 0.16206969321 0.40360671282 -4.1633501053 -0.0074493000284 0.35350400209
          4.2629752159 -0.29529801011 1.4773910046 4.2373199463 -0.093296997249 1.6291577816
          4.4976420403 -0.29328599572 1.5345549583 4.3472771645 -0.29031598568 1.7298301458
          -3.683809042 -0.017515730113 -0.89673197269 -3.6200819016 -0.16615739465 -0.5608189702
          -3.6431386471 0.012811898254 -0.67573601007 -3.5243430138 -0.15946990252 -0.9610850215
          -5 -0.16616299748 -0.067754097283 -5 -0.13075700402 -0.36378800869
          -5 -0.33370301127 -0.29875099659 -4.8024878502 -0.29730415344 -0.34576281905
          3.0217940807 0.11983050406 0.068121999502 2.9222569466 -0.035557992756 -0.016389999539
          2.8178238869 -0.16496701539 0.18457700312 3.0362560749 -0.12312699854 0.36283898354
          1.8257160187 0.17760980129 -0.11040610075 1.6255400181 0.14701509476 0.17244631052
          1.8810739517 -0.025785999373 0.24052999914 1.8071659803 -0.10879799724 -0.12797890604
          0.69177097082 -0.40261080861 -1.2026339769 0.89855998755 -0.35990297794 -1.2769370079
          0.94502300024 -0.16622328758 -1.0062910318 0.77250897884 -0.18823230267 -1.3146259785
          -3.9515781403 0.22483050823 -0.22432824969 -4.0705108643 0.13585180044 0.0080800065771
          -3.7695140839 0.20615190268 -0.025571003556 -3.8458154202 -0.0071441796608 -0.27063637972
          3.804297924 0.13001829386 1.8220219612 3.5908029079 0.19661930203 1.6370530128
          3.3313462734 0.21289689839 1.8087899685 3.4475607872 0.0026549980976 1.8703099489
          4.8788080215 -0.15261600912 1.3581800461 5.0868611336 -0.085908003151 1.4383300543
          5.0016570091 -0.09311401844 1.6771680117 4.9265980721 0.083074003458 1.3841999769
          4.659427166 0.057737004012 2.0819699764 4.5650310516 0.20493909717 2.2137980461
          4.4655342102 0.20313693583 1.8080023527 4.7131490707 0.21425390244 1.868008852
          -3.8304586411 0.47921529412 -0.44864699244 -3.7126243114 0.24968840182 -0.29950919747
          -3.9515781403 0.22483050823 -0.22432824969 -3.9811484814 0.47856000066 -0.21228690445
          -0.304708004 -0.090819396079 -1.572059989 -0.38828599453 0.11242230237 -1.4058929682
          -0.25447899103 0.057270798832 -1.5596300364 -0.19496299326 0.017406899482 -1.3360270262
          0.19523879886 -0.052128598094 -0.8603233695 0.26428851485 -0.064987801015 -1.0606349707
          0.47868400812 -0.085507400334 -0.87584412098 0.36555799842 0.082396402955 -0.88094812632
          -3.7126243114 0.24968840182 -0.29950919747 -3.9811484814 0.47856000066 -0.21228690445
          -3.7485210896 0.47213810682 -0.081793002784 -3.9515781403 0.22483050823 -0.22432824969
          3.3454549313 -0.14016999304 0.62486702204 3.1706290245 -0.32041600347 0.80434769392
          3.3760828972 -0.31359198689 0.77911198139 3.179639101 -0.31765601039 0.58325701952
          -0.47427800298 -0.47527450323 -0.90863901377 -0.49013099074 -0.27833321691 -0.80703800917
          -0.42743900418 -0.29611000419 -1.0441720486 -0.29678198695 -0.19139230251 -0.85894298553
          -0.42743900418 -0.29611000419 -1.0441720486 -0.49013099074 -0.27833321691 -0.80703800917
          -0.55270302296 -0.11456199735 -0.98753702641 -0.29678198695 -0.19139230251 -0.85894298553
          -3.6200819016 -0.16615739465 -0.5608189702 -3.5465004444 -0.0025727003813 -0.37637498975
          -3.2953541279 -0.00062000047183 -0.49288973212 -3.3584003448 -0.26359349489 -0.49015578628
          -1.542323947 -0.10029046237 -0.56713998318 -1.6226379871 0.13752751052 -0.73393601179
          -1.7705160379 -0.013670380227 -0.72984999418 -1.5145759583 -0.018870471045 -0.82699400187
          1.2570589781 -0.21799020469 -0.084225989878 1.4527050257 -0.19449299574 -0.29091629386
          1.4943079948 -0.043684996665 -0.058169994503 1.2925460339 -0.051271595061 -0.25956600904
          3.8146090508 0.38017898798 1.7155710459 3.804297924 0.13001829386 1.8220219612
          4.0141201019 0.24855940044 1.621557951 3.5908029079 0.19661930203 1.6370530128
          4.8885669708 0.54565501213 1.3964899778 4.7165417671 0.53939402103 1.5485489368
          4.8287091255 0.72349202633 1.5618569851 4.9762878418 0.4914059937 1.7501740456
          -4.1473436356 -0.025500500575 0.13780200481 -4.1633501053 -0.0074493000284 0.35350400209
          -3.9893488884 0.10838919878 0.30875301361 -3.9246098995 -0.1297211349 0.29268100858
          -3.0384581089 0.17068129778 -0.37494298816 -3.2953541279 -0.00062000047183 -0.49288973212
          -3.2987422943 0.26889032125 -0.46421080828 -3.2438099384 0.03149420023 -0.20086398721
          0.015014999546 0.52284687757 -1.2964439392 -0.061303000897 0.37349951267 -1.1732430458
          0.046897001565 0.32769879699 -1.3547029495 -0.20239399374 0.51886868477 -1.2246849537
          -4.7775506973 -0.01067915 -0.02922873944 -4.7829651833 -0.03583727777 0.25068509579
          -4.6535224915 0.13568019867 0.13374620676 -4.6497826576 -0.19200108945 0.12126010656
          0.9058868885 0.3652240932 0.037831000984 0.79733598232 0.39415538311 -0.3318169713
          0.88630062342 0.58878719807 -0.15539897978 0.73507022858 0.4539988935 -0.073164001107
          0.77250897884 -0.18823230267 -1.3146259785 0.61579799652 -0.14052461088 -1.0343459845
          0.69177097082 -0.40261080861 -1.2026339769 0.36511561275 -0.21865269542 -1.2138979435
          1.5937000513 -0.15697298944 0.5264647007 1.6178350449 -0.15927900374 0.18571281433
          1.4026149511 -0.25017899275 0.37467199564 1.6754965782 -0.38479599357 0.46163770556
          -5 -0.004447159823 0.13623799384 -5 -0.26007699966 0.21836000681
          -4.7829651833 -0.03583727777 0.25068509579 -4.6497826576 -0.19200108945 0.12126010656
          -4.7775506973 -0.01067915 -0.02922873944 -5 -0.004447159823 0.13623799384
          -4.7829651833 -0.03583727777 0.25068509579 -4.6497826576 -0.19200108945 0.12126010656
          -0.57054299116 -0.063641503453 -0.60666000843 -0.42572999001 -0.2455662936 -0.58765000105
          -0.49013099074 -0.27833321691 -0.80703800917 -0.59738898277 -0.2561981082 -0.61395001411
          1.6553009748 -0.058208007365 -0.42940098047 1.5832170248 0.13898870349 -0.2907756865
          1.303779006 0.10932320356 -0.39463099837 1.6323230267 0.075184799731 -0.62727099657
          1.8012125492 0.13252429664 0.42392399907 2.0687611103 0.17121970654 0.57191699743
          1.9639710188 -0.12883301079 0.49361902475 1.7765240669 0.044387601316 0.68126302958
          1.7845100164 0.61610001326 0.12772998214 1.7609839439 0.60800498724 -0.30019900203
          1.5018340349 0.60006701946 -0.26044872403 1.7167700529 0.42090001702 -0.091850601137
          0.19523879886 -0.052128598094 -0.8603233695 0.36555799842 0.082396402955 -0.88094812632
          0.3360530138 -0.12368449569 -0.71136599779 0.16142000258 0.02375430055 -0.62841498852
          2.0099020004 0.62074702978 -0.17452520132 1.9701869488 0.36129301786 -0.32886689901
          1.7609839439 0.60800498724 -0.30019900203 1.7167700529 0.42090001702 -0.091850601137
          3.4617619514 -0.034863006324 0.83526402712 3.147439003 -0.0024279970676 0.66096997261
          3.241795063 0.17628619075 0.51923000813 3.4640750885 0.2319137007 0.72248202562
          -1.5769430399 -0.27982699871 -1.0531499386 -1.8356319666 0.0078969011083 -1.0082437992
          -1.7501699924 -0.19925332069 -0.86327397823 -1.8587261438 -0.19973695278 -1.1918489933
          0.86870998144 0.033326499164 -0.31085899472 0.76676100492 -0.1134057045 -0.50795000792
          0.84206402302 0.052923899144 -0.65382301807 0.60305899382 0.11440300196 -0.49014899135
          -2.0596408844 0.23887120187 -0.93493187428 -2.0607159138 -0.073489099741 -0.92311251163
          -1.9904079437 0.054340101779 -0.69911700487 -1.8356319666 0.0078969011083 -1.0082437992
          -1.8356319666 0.0078969011083 -1.0082437992 -1.915242672 0.15616099536 -1.1708220243
          -1.5908279419 -0.0042438311502 -1.0808677673 -1.6238960028 0.24829168618 -1.1837819815
          3.7064490318 -0.11200299114 0.86057698727 3.5614540577 -0.13416200876 1.2109525204
          3.5389170647 -0.30982100964 1.044885993 3.4617619514 -0.034863006324 0.83526402712
          -2.3013501167 -0.0029451001901 -0.87519747019 -2.0607159138 -0.073489099741 -0.92311251163
          -2.1335361004 -0.33587309718 -0.85573190451 -2.2852199078 -0.19466769695 -0.68211597204
          5.0791130066 -0.098838992417 2.3361620903 4.8128800392 -0.12278998643 2.4790999889
          4.8122911453 -0.30095601082 2.246833086 4.7630262375 -0.078894995153 2.2290580273
          -0.38182199001 0.22295188904 -0.90033400059 -0.69384098053 0.20343409479 -0.94639998674
          -0.54605597258 0.061542298645 -0.81870001554 -0.42777499557 0.06476470083 -1.0590546131
          1.6178350449 -0.15927900374 0.18571281433 1.8071659803 -0.10879799724 -0.12797890604
          1.6111949682 -0.21885199845 -0.057695001364 2.0367250443 -0.15883000195 0.10807870328
          -4.2544279099 -0.066851697862 -0.67942899466 -4.0872659683 -0.040365900844 -0.50246196985
          -4.1456823349 -0.32185968757 -0.5048879981 -4.2499485016 -0.19019518793 -0.35626098514
          -3.275526762 0.18115669489 -0.7455739975 -3.0947728157 0.28662750125 -0.90678101778
          -3.1125445366 -0.042645700276 -0.91890496016 -2.9588835239 0.10583119839 -0.81790500879
          2.5734648705 0.64016002417 1.1225880384 2.7331340313 0.47387900949 1.1153179407
          2.5400059223 0.47935000062 0.92150700092 2.430131197 0.43304201961 1.193819046
          -4.1460008621 0.48432341218 -0.41542598605 -4.3815760612 0.24617770314 -0.19512629509
          -4.2408308983 0.48058089614 -0.10947950184 -4.1666903496 0.27508330345 -0.13123139739
          3.4179348946 0.33102399111 1.4116280079 3.7163519859 0.46678900719 1.408038497
          3.5908029079 0.19661930203 1.6370530128 3.5121660233 0.42270597816 1.6780580282
          3.5121660233 0.42270597816 1.6780580282 3.138158083 0.46699899435 1.4169000387
          3.2050361633 0.42096599936 1.7410199642 3.4179348946 0.33102399111 1.4116280079
          3.217676878 0.63562899828 1.7659000158 3.4833610058 0.65569698811 1.6809769869
          3.2050361633 0.42096599936 1.7410199642 3.5121660233 0.42270597816 1.6780580282
          -4.7962985039 -0.27623388171 -0.034645497799 -4.7719397545 -0.50261425972 -0.082141898572
          -4.8224816322 -0.4885019958 0.14574058354 -4.5369677544 -0.4948824048 0.0206808988
          -2.4884090424 -0.28845638037 -0.25028300285 -2.504308939 -0.50290739536 -0.24516999722
          -2.2511439323 -0.51482909918 -0.38649699092 -2.4078168869 -0.30346369743 -0.49435901642
          -0.55726397038 -0.032617900521 -1.40318501 -0.78262102604 -0.069029003382 -1.6080299616
          -0.7670930028 0.060932602733 -1.3277369738 -0.73458898067 -0.17205369473 -1.327262044
          3.9322690964 0.15276029706 2.1537098885 4.0169057846 0.0046400059946 2.1881299019
          4.1594829559 0.12733019888 2.2602200508 4.0440011024 0.18789739907 1.9961689711
          4.0705580711 0.054460007697 1.7552939653 3.804297924 0.13001829386 1.8220219612
          3.89149189 -0.08670001477 1.8603260517 3.718173027 -0.032231997699 1.6364309788
          -1.0281820297 -0.050216499716 -0.63028001785 -1.1518950462 -0.061164274812 -0.8551800251
          -0.9426779747 -0.20086880028 -0.89714598656 -0.96815401316 0.02664539963 -0.92440497875
          4.0440011024 0.18789739907 1.9961689711 3.9451920986 0.36131098866 2.1700799465
          4.1495599747 0.35503801703 2.2919700146 3.9322690964 0.15276029706 2.1537098885
          3.8146090508 0.38017898798 1.7155710459 3.7163519859 0.46678900719 1.408038497
          3.9962799549 0.50118601322 1.5290913582 3.8356730938 0.6680150032 1.6421200037
          3.7163519859 0.46678900719 1.408038497 3.9909090996 0.69799000025 1.3503149748
          3.9962799549 0.50118601322 1.5290913582 3.8356730938 0.6680150032 1.6421200037
          1.9658960104 -0.19827999175 -0.2762555182 2.0414140224 -0.19573998451 -0.65807902813
          2.2598950863 -0.19575500488 -0.50656956434 1.9952529669 -0.028272999451 -0.39336639643
          -2.8640635014 -0.32550418377 -0.67871928215 -3.0438988209 -0.31679549813 -0.92314600945
          -3.1503348351 -0.51121389866 -0.73205798864 -2.92583251 -0.50748687983 -0.81637299061
          -0.55726397038 -0.032617900521 -1.40318501 -0.53049099445 -0.25941371918 -1.4260540009
          -0.73458898067 -0.17205369473 -1.327262044 -0.56551098824 -0.25506937504 -1.2119810581
          2.6742250919 -0.012311006896 0.2936809957 2.846298933 -0.090493999422 0.57238131762
          2.9617218971 0.11532790214 0.41656598449 3.0362560749 -0.12312699854 0.36283898354
          1.6281830072 -0.20693098009 -0.91686797142 1.4835740328 -0.047832004726 -0.98587197065
          1.2825410366 -0.16882799566 -0.83733904362 1.2469780445 -0.10695700347 -1.1089379787
          -1.6519750357 0.49484336376 -0.84614998102 -1.6226379871 0.13752751052 -0.73393601179
          -1.4917390347 0.24093736708 -0.86661797762 -1.6665450335 0.31891724467 -0.9786170125
          5.3548870087 -0.21426801383 2.2027084827 5.0844421387 -0.30479300022 2.0486927032
          5.2030038834 -0.095155008137 2.0543687344 5.0993762016 -0.30616301298 2.320991993
          -0.84249997139 0.26520928741 -1.1529723406 -0.97820800543 0.24167840183 -0.90613996983
          -0.96815401316 0.02664539963 -0.92440497875 -0.89497202635 0.0030651004054 -1.1271020174
          2.7306396961 -0.34143799543 1.3402420282 2.4782733917 -0.16793499887 1.1878299713
          2.7898700237 -0.33725899458 1.0498950481 2.666932106 -0.11324400455 1.3288810253
          -1.1546920538 -0.21682497859 -0.62265998125 -1.1518950462 -0.061164274812 -0.8551800251
          -1.3339209557 -0.1199079901 -0.60588997602 -1.1560570002 -0.29963886738 -0.85426801443
          -1.1518950462 -0.061164274812 -0.8551800251 -1.1171029806 0.13310749829 -0.81390601397
          -1.0281820297 -0.050216499716 -0.63028001785 -1.2343740463 0.075913608074 -0.61450999975
          3.6992878914 0.65348899364 1.8166350126 3.9373788834 0.45778700709 1.9478909969
          3.9967598915 0.6620669961 1.8450440168 3.8356730938 0.6680150032 1.6421200037
          1.6178350449 -0.15927900374 0.18571281433 1.6255400181 0.14701509476 0.17244631052
          1.8810739517 -0.025785999373 0.24052999914 1.5375082493 0.031310401857 0.49632260203
          -2.3013501167 -0.0029451001901 -0.87519747019 -2.0607159138 -0.073489099741 -0.92311251163
          -2.354665041 -0.32262691855 -0.86674439907 -2.1335361004 -0.33587309718 -0.85573190451
          4.1762018204 0.27362239361 1.2485419512 4.344976902 0.097388997674 1.2805169821
          4.3814492226 0.23643480241 1.0975799561 4.1854190826 0.098016999662 0.94669002295
          0.61227500439 -0.20498250425 -0.7539935708 0.56030297279 -0.42190849781 -0.92723238468
          0.80060499907 -0.40619540215 -0.98212498426 0.61579799652 -0.14052461088 -1.0343459845
          1.0725090504 -0.1251232028 -0.30668699741 1.0656369925 0.1378595978 -0.35818099976
          1.303779006 0.10932320356 -0.39463099837 1.2925460339 -0.051271595061 -0.25956600904
          2.8616578579 0.64741098881 1.2881900072 3.138158083 0.46699899435 1.4169000387
          2.8278307915 0.37164700031 1.4777669907 2.9830210209 0.64096099138 1.5882970095
          1.2925460339 -0.051271595061 -0.25956600904 1.0725090504 -0.1251232028 -0.30668699741
          0.99458998442 -0.022154798731 -0.49672108889 1.303779006 0.10932320356 -0.39463099837
          -3.7695140839 0.20615190268 -0.025571003556 -3.9098739624 -0.045701097697 0.062531001866
          -3.7828290462 0.0534854047 0.25001400709 -3.6423470974 -0.017455210909 -0.0356920138
          -3.8458154202 -0.0071441796608 -0.27063637972 -3.8436272144 -0.0084195006639 -0.544039011
          -3.7178936005 -0.30012491345 -0.34045830369 -3.6200819016 -0.16615739465 -0.5608189702
          -3.8458154202 -0.0071441796608 -0.27063637972 -3.9470174313 -0.23043839633 -0.45734000206
          -3.7178936005 -0.30012491345 -0.34045830369 -3.8436272144 -0.0084195006639 -0.544039011
          -0.55233097076 -0.44661706686 -0.61871999502 -0.42572999001 -0.2455662936 -0.58765000105
          -0.49013099074 -0.27833321691 -0.80703800917 -0.31607699394 -0.47428938746 -0.76736098528
          4.0169057846 0.0046400059946 2.1881299019 4.3237462044 0.042966000736 2.3439700603
          4.3348088264 0.0020780034829 2.0050890446 4.2298059464 -0.09465200454 2.2884199619
          4.1594829559 0.12733019888 2.2602200508 4.3237462044 0.042966000736 2.3439700603
          4.3718128204 0.25128540397 2.104501009 4.3348088264 0.0020780034829 2.0050890446
          4.0169057846 0.0046400059946 2.1881299019 4.1594829559 0.12733019888 2.2602200508
          4.3348088264 0.0020780034829 2.0050890446 4.3237462044 0.042966000736 2.3439700603
          0.081534996629 0.22075429559 -1.1755410433 0.21853539348 0.33637189865 -0.98886328936
          0.4462980032 0.22514030337 -1.0646909475 0.060910001397 0.064430199564 -1.0059714317
          0.081534996629 0.22075429559 -1.1755410433 0.060910001397 0.064430199564 -1.0059714317
          -0.098812997341 0.27493330836 -0.95051121712 0.21853539348 0.33637189865 -0.98886328936
          3.251791954 0.13675589859 0.23980399966 3.0362560749 -0.12312699854 0.36283898354
          3.3033549786 -0.086898997426 0.26347100735 3.0622529984 -0.15697599947 0.078552998602
          1.3428349495 0.40458348393 -0.38063567877 1.1137839556 0.31430581212 -0.23879601061
          0.98193901777 0.39114138484 -0.63054037094 1.108150959 0.58133798838 -0.50853699446
          3.8110458851 -0.30123400688 0.9321950078 3.7195839882 0.0037419972941 1.0903520584
          3.8409628868 -0.30274599791 1.1827360392 3.7064490318 -0.11200299114 0.86057698727
          3.1671938896 0.66265797615 1.2060799599 3.6058731079 0.68220502138 1.2335082293
          3.4408869743 0.48258000612 1.1898485422 3.3933129311 0.66335201263 1.4056479931
          0.27174431086 0.54942148924 -0.87269937992 0.43711400032 0.35662287474 -0.86431020498
          0.21305389702 0.5571166873 -0.6557880044 0.4528760016 0.56065458059 -0.71604299545
          0.53923499584 0.55213999748 -0.9251576066 0.43711400032 0.35662287474 -0.86431020498
          0.27174431086 0.54942148924 -0.87269937992 0.4528760016 0.56065458059 -0.71604299545
          0.95458650589 0.18395619094 0.067213997245 0.79737359285 0.10921870172 -0.047456
          0.89858132601 0.2298887074 -0.23391401768 0.71466517448 0.27138009667 -0.094232998788
          -0.74982398748 -0.23088718951 -1.0935233831 -0.79623502493 -0.46506458521 -1.2561719418
          -0.91781198978 -0.47875839472 -1.088809967 -0.72162300348 -0.47146120667 -1.0738427639
          0.43711400032 0.35662287474 -0.86431020498 0.27174431086 0.54942148924 -0.87269937992
          0.35893088579 0.54108428955 -1.083673954 0.53923499584 0.55213999748 -0.9251576066
          0.4462980032 0.22514030337 -1.0646909475 0.36555799842 0.082396402955 -0.88094812632
          0.21853539348 0.33637189865 -0.98886328936 0.43711400032 0.35662287474 -0.86431020498
          1.5832170248 0.13898870349 -0.2907756865 1.6138050556 0.3192229867 -0.46323099732
          1.3428349495 0.40458348393 -0.38063567877 1.303779006 0.10932320356 -0.39463099837
          -3.93171525 0.23039670289 -0.4976850152 -3.7815887928 0.27240249515 -0.66369998455
          -3.648727417 0.16803780198 -0.52384102345 -3.8304586411 0.47921529412 -0.44864699244
          -4.0158720016 -0.37966567278 -0.75769299269 -3.9198260307 -0.52072381973 -0.66412502527
          -4.1995658875 -0.52305787802 -0.58140099049 -4.1456823349 -0.32185968757 -0.5048879981
          0.88520997763 -0.23278620839 -0.74979001284 0.61579799652 -0.14052461088 -1.0343459845
          0.94502300024 -0.16622328758 -1.0062910318 0.82348799706 -0.019467899576 -0.88339298964
          -2.6776423454 0.47449350357 -0.75034171343 -2.7090830803 0.31708621979 -0.6229904294
          -2.5764689445 0.47962999344 -0.47001102567 -2.5196659565 0.24592778087 -0.72205346823
          -0.78097099066 -0.028601998463 -0.62437999249 -0.80769598484 0.2091087997 -0.62626999617
          -0.54605597258 0.061542298645 -0.81870001554 -0.61500298977 0.28469419479 -0.60780000687
          -0.78097099066 -0.028601998463 -0.62437999249 -0.61500298977 0.28469419479 -0.60780000687
          -0.54605597258 0.061542298645 -0.81870001554 -0.57054299116 -0.063641503453 -0.60666000843
          0.80060499907 -0.40619540215 -0.98212498426 1.1467900276 -0.29625800252 -1.1713860035
          1.0204950571 -0.39697799087 -0.86901700497 0.94502300024 -0.16622328758 -1.0062910318
          -1.5521390438 -0.22336211801 -1.3013720512 -1.7574769258 -0.32169941068 -1.3376590014
          -1.6530690193 -0.4847458899 -1.2544569969 -1.5384149551 -0.474794209 -1.4103360176
          -3.5356121063 0.44416579604 -0.95966500044 -3.2916152477 0.47306519747 -0.70392102003
          -3.5222220421 0.2613735199 -0.7316250205 -3.6143445969 0.47693321109 -0.66685003042
          0.53313398361 0.019717698917 -1.1568260193 0.36555799842 0.082396402955 -0.88094812632
          0.62536001205 0.067611642182 -0.78804123402 0.47868400812 -0.085507400334 -0.87584412098
          4.5017971992 -0.076010011137 2.1854460239 4.6169447899 -0.28709799051 2.2023260593
          4.4067840576 -0.28270500898 2.1856250763 4.5203971863 -0.28261700273 2.3645069599
          -3.0843958855 0.47311139107 -0.64435297251 -3.2987422943 0.26889032125 -0.46421080828
          -3.1012940407 0.47349649668 -0.42684000731 -2.9227018356 0.26947918534 -0.61335587502
          1.8173689842 -0.37339198589 -0.084958538413 1.872320056 -0.36590901017 -0.38697499037
          2.1158709526 -0.35618299246 -0.26636224985 1.9658960104 -0.19827999175 -0.2762555182
          1.8173689842 -0.37339198589 -0.084958538413 1.9658960104 -0.19827999175 -0.2762555182
          2.1158709526 -0.35618299246 -0.26636224985 1.9846500158 -0.36595401168 0.065145798028
          -0.3437409997 0.53887301683 -0.68746000528 -0.24963200092 0.28975039721 -0.72652798891
          -0.16879400611 0.54172569513 -0.80274397135 -0.33649298549 0.53052771091 -0.93731302023
          4.5152788162 0.44570598006 1.5512629747 4.3675351143 0.70144999027 1.5965069532
          4.559112072 0.72245299816 1.4581370354 4.561398983 0.70336198807 1.6810460091
          -2.7287049294 -0.2789902091 -0.37658300996 -2.9584069252 -0.33283078671 -0.35879898071
          -2.8012299538 -0.51003861427 -0.44231700897 -2.8640635014 -0.32550418377 -0.67871928215
          4.1854190826 0.098016999662 0.94669002295 4.1035399437 0.34244701266 0.90219002962
          3.9656031132 0.16085809469 1.1511030197 3.9685349464 0.18286730349 0.78710997105
          3.804610014 0.20091049373 1.4191051722 3.9962799549 0.50118601322 1.5290913582
          4.0141201019 0.24855940044 1.621557951 3.8146090508 0.38017898798 1.7155710459
          -3.3116250038 -0.30738094449 0.088941000402 -2.9889519215 -0.24136529863 -0.040991000831
          -3.2750339508 -0.14621569216 0.072559997439 -3.3219630718 -0.30692452192 -0.14970101416
          3.804610014 0.20091049373 1.4191051722 3.8146090508 0.38017898798 1.7155710459
          4.0141201019 0.24855940044 1.621557951 3.5908029079 0.19661930203 1.6370530128
          -4.3490223885 0.21022440493 0.13521999121 -4.5313487053 0.23166209459 0.25894141197
          -4.6535224915 0.13568019867 0.13374620676 -4.5223350525 0.28749448061 0.00038830153062
          -2.041049242 0.1184957996 -1.4851289988 -2.1130719185 -0.047264300287 -1.1963629723
          -1.915242672 0.15616099536 -1.1708220243 -1.8840471506 -0.017964780331 -1.309893012
          -4.4442939758 -0.11693099886 -0.6205059886 -4.4922027588 -0.20494790375 -0.36291068792
          -4.2499485016 -0.19019518793 -0.35626098514 -4.3519821167 -0.3447792232 -0.6417530179
          2.7306396961 -0.34143799543 1.3402420282 2.7898700237 -0.33725899458 1.0498950481
          2.9925808907 -0.33054500818 1.2736970186 2.9196689129 -0.13256700337 1.2476739883
          -2.1506009102 0.25718417764 -1.2337720394 -2.1130719185 -0.047264300287 -1.1963629723
          -1.915242672 0.15616099536 -1.1708220243 -2.041049242 0.1184957996 -1.4851289988
          -4.4442939758 -0.11693099886 -0.6205059886 -4.5225315094 -0.29344007373 -0.59745502472
          -4.4922027588 -0.20494790375 -0.36291068792 -4.3519821167 -0.3447792232 -0.6417530179
          -2.8852050304 -0.13799700141 -0.5307559967 -2.707750082 0.14897160232 -0.50897496939
          -3.0457994938 0.036590598524 -0.58276486397 -2.7823200226 0.016783099622 -0.68633919954
          -1.1171029806 0.13310749829 -0.81390601397 -1.2614649534 0.29969120026 -0.61504000425
          -1.0616509914 0.19502159953 -0.62691998482 -1.2343740463 0.075913608074 -0.61450999975
          2.78916049 0.10995809734 1.4312570095 2.9196689129 -0.13256700337 1.2476739883
          2.9346859455 -0.010064994916 1.0378210545 2.7450699806 0.13935770094 1.1011400223
          -1.3278859854 0.48927980661 -1.2198700905 -1.5874071121 0.47615900636 -1.3606339693
          -1.6238960028 0.24829168618 -1.1837819815 -1.5488374233 0.27182540298 -1.3903579712
          5.1783838272 0.53621798754 2.2175490856 5.0721921921 0.69339102507 2.3749821186
          5.3322758675 0.71096599102 2.2698550224 5.3057627678 0.47182801366 2.3657300472
          0.2141688019 0.56765770912 -0.42459902167 0.13325339556 0.2185369879 -0.41051501036
          0.36366090178 0.26720348001 -0.30314698815 0.18104350567 0.33106470108 -0.62392002344
          3.658107996 -0.30566099286 1.332764864 3.5614540577 -0.13416200876 1.2109525204
          3.718173027 -0.032231997699 1.6364309788 3.4407179356 -0.10024298728 1.6149629354
          0.92953801155 0.58331018686 -0.38244798779 1.1137839556 0.31430581212 -0.23879601061
          1.108150959 0.58133798838 -0.50853699446 0.98193901777 0.39114138484 -0.63054037094
          3.4407179356 -0.10024298728 1.6149629354 3.4261219501 -0.31478399038 1.2515799999
          3.658107996 -0.30566099286 1.332764864 3.5614540577 -0.13416200876 1.2109525204
          -4.4366278648 -0.28509175777 -0.13918270171 -4.7962985039 -0.27623388171 -0.034645497799
          -4.4754362106 -0.32264238596 0.12133580446 -4.5369677544 -0.4948824048 0.0206808988
          0.98193901777 0.39114138484 -0.63054037094 0.92953801155 0.58331018686 -0.38244798779
          0.83301800489 0.56610417366 -0.74389237165 1.108150959 0.58133798838 -0.50853699446
          -4.6478972435 0.31442570686 -0.57184767723 -4.6492214203 0.036135789007 -0.56955337524
          -4.6376662254 0.16694931686 -0.24515900016 -4.5366792679 0.30343410373 -0.3805705905
          4.2805190086 0.40835601091 1.0383700132 3.9769608974 0.41242301464 1.2358649969
          4.1035399437 0.34244701266 0.90219002962 4.2127790451 0.64916598797 1.0111500025
          -1.8840471506 -0.017964780331 -1.309893012 -1.856298089 -0.15979887545 -1.5231399536
          -1.8587261438 -0.19973695278 -1.1918489933 -1.7574769258 -0.32169941068 -1.3376590014
          -1.8840471506 -0.017964780331 -1.309893012 -1.7574769258 -0.32169941068 -1.3376590014
          -1.8587261438 -0.19973695278 -1.1918489933 -1.5521390438 -0.22336211801 -1.3013720512
          1.1987409592 0.59465539455 -0.16085501015 0.88630062342 0.58878719807 -0.15539897978
          1.1137839556 0.31430581212 -0.23879601061 0.92953801155 0.58331018686 -0.38244798779
          -3.2438099384 0.03149420023 -0.20086398721 -3.2953541279 -0.00062000047183 -0.49288973212
          -3.5159258842 -0.18312910199 -0.2097529918 -3.1492960453 -0.20950199664 -0.30492499471
          -4.8178825378 0.48557460308 0.10024909675 -4.5005278587 0.48635560274 -0.11545810103
          -4.7578816414 0.28667363524 -0.042721800506 -4.5983519554 0.47850579023 0.11985320598
          -2.0755507946 0.47351419926 -1.1557840109 -2.0596408844 0.23887120187 -0.93493187428
          -2.1977200508 0.47695589066 -0.94357067347 -1.9395580292 0.48136660457 -1.0315306187
          -0.23330500722 -0.099709004164 -0.54330998659 -0.027907999232 0.12770339847 -0.67658001184
          -0.19524599612 0.051735099405 -0.78870302439 0.0018850000342 -0.13561350107 -0.81675201654
          -3.7306609154 -0.49806988239 0.0059669911861 -3.9805979729 -0.2818211019 0.12366101146
          -3.7831549644 -0.23498553038 -0.042289998382 -3.7600250244 -0.42104199529 0.24891600013
          -1.182997942 0.50088942051 -1.0786180496 -1.4006630182 0.27366858721 -1.0899891853
          -1.1732499599 0.28154438734 -1.1781251431 -1.3278859854 0.48927980661 -1.2198700905
          -0.025832999498 0.026944899932 -0.47304499149 0.13325339556 0.2185369879 -0.41051501036
          0.16142000258 0.02375430055 -0.62841498852 0.20369489491 0.076197303832 -0.38421198726
          4.7563681602 0.41457000375 1.7243119478 4.5912899971 0.69010001421 1.8966654539
          4.7576980591 0.49129199982 1.9305694103 4.4522380829 0.45779499412 1.8534209728
          2.8178238869 -0.16496701539 0.18457700312 2.6742250919 -0.012311006896 0.2936809957
          2.9617218971 0.11532790214 0.41656598449 3.0362560749 -0.12312699854 0.36283898354
          -1.8200160265 0.49221810699 -0.71408998966 -1.9829889536 0.48603790998 -0.84902697802
          -1.6665450335 0.31891724467 -0.9786170125 -1.6519750357 0.49484336376 -0.84614998102
          1.1649719477 0.37054440379 -0.89170503616 0.98193901777 0.39114138484 -0.63054037094
          0.93579101562 0.2607139945 -0.85697698593 1.0837780237 0.56879729033 -0.83355396986
          0.59374600649 0.45762971044 -1.362267971 0.58952099085 0.54303568602 -1.1641429663
          0.90715700388 0.53051358461 -1.2455300093 0.5862929821 0.35003548861 -1.1572810411
          1.2570589781 -0.21799020469 -0.084225989878 1.0725090504 -0.1251232028 -0.30668699741
          1.2925460339 -0.051271595061 -0.25956600904 1.1920820475 0.066462799907 -0.092215999961
          -1.199491024 -0.2731808126 -1.4120750427 -1.1884590387 0.063980542123 -1.4178910255
          -1.1307909489 -0.13907830417 -1.6104199886 -0.99887502193 -0.062538303435 -1.3665850163
          0.96178209782 -0.10965040326 0.053582999855 0.86870998144 0.033326499164 -0.31085899472
          1.0725090504 -0.1251232028 -0.30668699741 1.1920820475 0.066462799907 -0.092215999961
          1.2925460339 -0.051271595061 -0.25956600904 1.5832170248 0.13898870349 -0.2907756865
          1.4527050257 -0.19449299574 -0.29091629386 1.4943079948 -0.043684996665 -0.058169994503
          -2.8605468273 0.030474800617 -1.0333030224 -3.0947728157 0.28662750125 -0.90678101778
          -3.0872220993 0.1026121974 -1.1435060501 -2.8611981869 0.29218497872 -1.0245879889
          -3.4521927834 -0.28309810162 -0.73375397921 -3.4094109535 -0.28461059928 -1.0079009533
          -3.3740890026 -0.51318377256 -0.76919901371 -3.223610878 -0.51225572824 -0.90670001507
          -2.4344344139 0.47441139817 -0.8509837985 -2.4950749874 0.26449760795 -1.1571450233
          -2.3987627029 0.46843078732 -1.1548199654 -2.6201217175 0.47078740597 -0.97456198931
          -0.84249997139 0.26520928741 -1.1529723406 -0.96815401316 0.02664539963 -0.92440497875
          -0.69384098053 0.20343409479 -0.94639998674 -0.89497202635 0.0030651004054 -1.1271020174
          -2.5790920258 -0.26749420166 -0.70352119207 -2.6584146023 -0.50556856394 -0.92454200983
          -2.354665041 -0.32262691855 -0.86674439907 -2.5444853306 -0.19624508917 -0.90569740534
          -0.54605597258 0.061542298645 -0.81870001554 -0.80769598484 0.2091087997 -0.62626999617
          -0.69384098053 0.20343409479 -0.94639998674 -0.76281398535 0.3376955986 -0.79411798716
          -2.1019701958 -0.27823245525 -1.0662670135 -2.214564085 -0.50244742632 -0.93670272827
          -2.354665041 -0.32262691855 -0.86674439907 -2.1335361004 -0.33587309718 -0.85573190451
          -2.6269614697 -0.066813401878 -1.0421299934 -2.6056780815 -0.30553308129 -1.0694279671
          -2.5444853306 -0.19624508917 -0.90569740534 -2.3660526276 -0.18054547906 -1.0520470142
          4.0760598183 -0.29790601134 1.5380973816 4.3275651932 -0.10407299548 1.3448059559
          4.0616660118 -0.29908099771 1.2974100113 4.2629752159 -0.29529801011 1.4773910046
          3.427726984 0.34208199382 0.94024497271 3.4640750885 0.2319137007 0.72248202562
          3.2844669819 0.18207931519 1.0159295797 3.6721630096 0.17420139909 0.90603202581
          4.8122911453 -0.30095601082 2.246833086 4.8128800392 -0.12278998643 2.4790999889
          5.0791130066 -0.098838992417 2.3361620903 4.9569368362 -0.29035300016 2.514621973
          -2.0342888832 0.096592001617 -0.42942199111 -2.2431271076 0.16042180359 -0.71514201164
          -2.0370030403 0.2986676991 -0.69848400354 -2.1832900047 0.29363209009 -0.3768529892
          2.7781450748 0.40818598866 0.68238705397 2.547467947 0.16419440508 0.46359831095
          2.7515289783 0.13377730548 0.70048117638 2.7568380833 0.32088699937 0.34903898835
          2.9196689129 -0.13256700337 1.2476739883 2.666932106 -0.11324400455 1.3288810253
          2.9346859455 -0.010064994916 1.0378210545 2.7450699806 0.13935770094 1.1011400223
          -1.5874071121 0.47615900636 -1.3606339693 -1.7796988487 0.44841960073 -1.5478500128
          -1.795637846 0.26627320051 -1.3385109901 -1.5488374233 0.27182540298 -1.3903579712
          -1.3278859854 0.48927980661 -1.2198700905 -1.5488374233 0.27182540298 -1.3903579712
          -1.4006630182 0.27366858721 -1.0899891853 -1.3583359718 0.17316421866 -1.3048620224
          3.9656031132 0.16085809469 1.1511030197 3.8552589417 -0.056183006614 1.3705922365
          3.804610014 0.20091049373 1.4191051722 4.1369771957 0.033024005592 1.3592270613
          3.4179348946 0.33102399111 1.4116280079 3.7163519859 0.46678900719 1.408038497
          3.4408869743 0.48258000612 1.1898485422 3.6544830799 0.36574301124 1.0680350065
          -3.8458154202 -0.0071441796608 -0.27063637972 -3.7831549644 -0.23498553038 -0.042289998382
          -3.5159258842 -0.18312910199 -0.2097529918 -3.7178936005 -0.30012491345 -0.34045830369
          0.0018850000342 -0.13561350107 -0.81675201654 0.060910001397 0.064430199564 -1.0059714317
          -0.19524599612 0.051735099405 -0.78870302439 -0.18521800637 0.03266672045 -1.0619240999
          1.2825410366 -0.16882799566 -0.83733904362 1.3628020287 0.069748699665 -0.7095310092
          1.1473189592 0.12026190013 -0.89047002792 1.4835740328 -0.047832004726 -0.98587197065
          -3.9515781403 0.22483050823 -0.22432824969 -4.0016899109 0.29823037982 0.14048601687
          -3.7695140839 0.20615190268 -0.025571003556 -4.0705108643 0.13585180044 0.0080800065771
          2.7105460167 0.65613901615 0.34329998493 2.7781450748 0.40818598866 0.68238705397
          2.9503769875 0.66597098112 0.50799697638 3.0115010738 0.44793599844 0.41370400786
          4.7842068672 0.23646980524 2.2136070728 5.0963821411 0.18064403534 2.290708065
          5.1686019897 0.14154189825 2.0466096401 4.9883351326 -0.0025349962525 2.1726241112
          4.7728209496 0.11897029728 2.42572999 4.819275856 0.2937990129 2.4843699932
          5.0963821411 0.18064403534 2.290708065 5.0148458481 0.15865379572 2.5250399113
          -1.5769430399 -0.27982699871 -1.0531499386 -1.5521390438 -0.22336211801 -1.3013720512
          -1.4465429783 -0.48274430633 -1.2523479462 -1.225301981 -0.29465007782 -1.0979983807
          -1.199491024 -0.2731808126 -1.4120750427 -1.4465429783 -0.48274430633 -1.2523479462
          -1.2170039415 -0.47567608953 -1.2552779913 -1.326851964 -0.47103399038 -1.4058600664
          -1.5521390438 -0.22336211801 -1.3013720512 -1.6530690193 -0.4847458899 -1.2544569969
          -1.4465429783 -0.48274430633 -1.2523479462 -1.5384149551 -0.474794209 -1.4103360176
          0.87843650579 -0.43051719666 -0.09530800581 0.72347742319 -0.43865519762 -0.25590199232
          0.85404402018 -0.22467930615 -0.32312399149 0.75101262331 -0.27248388529 -0.098263002932
          0.75101262331 -0.27248388529 -0.098263002932 0.85404402018 -0.22467930615 -0.32312399149
          0.96178209782 -0.10965040326 0.053582999855 0.69095832109 -0.066606298089 -0.12778200209
          1.6178350449 -0.15927900374 0.18571281433 1.220471859 -0.14656609297 0.24174399674
          1.4943079948 -0.043684996665 -0.058169994503 1.369579196 0.12671080232 0.095050007105
          3.0825920105 0.52345901728 0.14255799353 3.1383700371 0.67821002007 0.30272898078
          3.3571829796 0.56413400173 0.35071998835 3.0115010738 0.44793599844 0.41370400786
          -0.96335202456 -0.23516255617 -0.63407999277 -1.0522500277 -0.4041929543 -0.63874000311
          -0.81605601311 -0.49181076884 -0.80724596977 -0.9426779747 -0.20086880028 -0.89714598656
          -2.1525170803 -0.34244281054 -0.58914798498 -2.1998250484 -0.3150857985 -0.36672699451
          -2.2511439323 -0.51482909918 -0.38649699092 -2.4078168869 -0.30346369743 -0.49435901642
          2.7781450748 0.40818598866 0.68238705397 2.387912035 0.31022301316 0.66756099463
          2.547467947 0.16419440508 0.46359831095 2.5486719608 0.4433940053 0.48740598559
          -2.6269614697 -0.066813401878 -1.0421299934 -2.6056780815 -0.30553308129 -1.0694279671
          -2.6741175652 -0.17868329585 -1.2965600491 -2.7851204872 -0.2995711267 -1.2576700449
          -1.1560570002 -0.29963886738 -0.85426801443 -1.0050040483 -0.23432028294 -1.1520009041
          -1.0521889925 -0.48985919356 -0.94649702311 -0.9426779747 -0.20086880028 -0.89714598656
          2.5438802242 0.032495997846 1.2491639853 2.355743885 -0.0222629942 1.108060956
          2.7450699806 0.13935770094 1.1011400223 2.5839250088 0.25846800208 0.93122702837
          5.0139088631 0.39100199938 2.2078499794 4.8466658592 0.47665601969 2.4843699932
          4.7806420326 0.47793102264 2.2329978943 5.0721921921 0.69339102507 2.3749821186
          0.67646998167 0.33598598838 -0.95468699932 0.77168899775 0.55329012871 -0.99214798212
          0.83301800489 0.56610417366 -0.74389237165 0.53923499584 0.55213999748 -0.9251576066
          0.69095832109 -0.066606298089 -0.12778200209 0.85404402018 -0.22467930615 -0.32312399149
          0.96178209782 -0.10965040326 0.053582999855 0.86870998144 0.033326499164 -0.31085899472
          0.93579101562 0.2607139945 -0.85697698593 0.67646998167 0.33598598838 -0.95468699932
          0.83301800489 0.56610417366 -0.74389237165 0.69450002909 0.33520320058 -0.69070541859
          5.2508559227 0.28233119845 1.5107899904 5.4746980667 0.36210200191 1.5940099955
          5.3287701607 0.017804997042 1.5262700319 5.2795748711 0.19745920599 1.7484179735
          -4.1460008621 0.48432341218 -0.41542598605 -4.1666903496 0.27508330345 -0.13123139739
          -3.9515781403 0.22483050823 -0.22432824969 -4.1332221031 0.29565098882 -0.49425297976
          -1.0088479519 0.19115871191 -1.3418680429 -1.0256249905 0.49155002832 -1.3329880238
          -0.72984099388 0.28546023369 -1.3866969347 -0.84249997139 0.26520928741 -1.1529723406
          -4.4093670845 -0.040471538901 0.40553438663 -4.6474046707 -0.00025216012727 0.44196480513
          -4.5542583466 -0.14354543388 0.282918185 -4.4574508667 0.019598178566 0.2031301856
          -4.4093670845 -0.040471538901 0.40553438663 -4.5542583466 -0.14354543388 0.282918185
          -4.3315758705 -0.16536140442 0.15697599947 -4.4574508667 0.019598178566 0.2031301856
          -4.1749300957 0.29747289419 -0.70561802387 -4.1204099655 0.088588900864 -0.72504401207
          -4.1332221031 0.29565098882 -0.49425297976 -3.93171525 0.23039670289 -0.4976850152
          4.7479839325 0.46574398875 1.3275200129 4.6735458374 0.19949239492 1.5503569841
          4.7530341148 0.20248390734 1.315179944 4.6267647743 0.34916397929 1.2565300465
          -3.4962136745 -0.50891906023 -0.35148981214 -3.3031389713 -0.50743067265 -0.25414600968
          -3.3584003448 -0.26359349489 -0.49015578628 -3.2427380085 -0.50958657265 -0.51888477802
          3.1057059765 0.21902000904 1.2990050316 3.0274419785 0.16455459595 0.84069955349
          3.2844669819 0.18207931519 1.0159295797 2.8959798813 0.32024499774 1.0456169844
          3.2219541073 0.45492699742 0.97522252798 2.8959798813 0.32024499774 1.0456169844
          3.2844669819 0.18207931519 1.0159295797 3.0274419785 0.16455459595 0.84069955349
          2.7781450748 0.40818598866 0.68238705397 3.1142799854 0.34143099189 0.65826201439
          2.7515289783 0.13377730548 0.70048117638 3.0274419785 0.16455459595 0.84069955349
          0.69450002909 0.33520320058 -0.69070541859 0.43711400032 0.35662287474 -0.86431020498
          0.53923499584 0.55213999748 -0.9251576066 0.4528760016 0.56065458059 -0.71604299545
          1.220471859 -0.14656609297 0.24174399674 0.94075733423 -0.2887121141 0.026029000059
          1.2570589781 -0.21799020469 -0.084225989878 0.96178209782 -0.10965040326 0.053582999855
          3.678497076 -0.014678004198 0.55156999826 3.4640750885 0.2319137007 0.72248202562
          3.4617619514 -0.034863006324 0.83526402712 3.4745230675 0.094017997384 0.40399199724
          1.4026149511 -0.25017899275 0.37467199564 1.5375082493 0.031310401857 0.49632260203
          1.6178350449 -0.15927900374 0.18571281433 1.5937000513 -0.15697298944 0.5264647007
          1.4026149511 -0.25017899275 0.37467199564 1.3497146368 0.084297902882 0.35733398795
          1.6178350449 -0.15927900374 0.18571281433 1.5375082493 0.031310401857 0.49632260203
          2.2750039101 0.14374065399 0.29926979542 2.4331591129 0.31312698126 0.30493488908
          2.2037799358 0.33316999674 -0.035911995918 2.4272270203 0.24140749872 -0.088780999184
          3.4640750885 0.2319137007 0.72248202562 3.4906380177 0.39700400829 0.43757998943
          3.7977409363 0.30181151628 0.66605001688 3.7212340832 0.54067403078 0.62415999174
          -2.7501730919 0.4770526886 -0.50051802397 -2.9054839611 0.47552779317 -0.32576698065
          -2.6418669224 0.48016449809 -0.30111697316 -2.825469017 0.27062919736 -0.34245297313
          -0.77550202608 0.51301789284 -1.032153964 -0.65340101719 0.52587407827 -0.79267400503
          -0.60533702374 0.52063310146 -1.0015729666 -0.76281398535 0.3376955986 -0.79411798716
          -1.1999200583 0.31322172284 -0.84429401159 -1.1992089748 0.51642417908 -0.64087301493
          -1.2614649534 0.29969120026 -0.61504000425 -1.3283799887 0.50588327646 -0.82055300474
          4.7131490707 0.21425390244 1.868008852 4.9797067642 0.10058799386 1.780706048
          4.7825579643 0.012594994158 1.737795949 4.908780098 -0.05460799858 1.9473679066
          -2.526927948 -0.09825039655 -0.49015599489 -2.7312269211 -0.032895799726 -0.39067798853
          -2.6104540825 0.0081983003765 -0.20189599693 -2.4884090424 -0.28845638037 -0.25028300285
          4.7131490707 0.21425390244 1.868008852 4.9558830261 0.24193349481 1.938804388
          4.9797067642 0.10058799386 1.780706048 4.908780098 -0.05460799858 1.9473679066
          1.3628020287 0.069748699665 -0.7095310092 1.0504629612 -0.041896902025 -0.74770897627
          1.1473189592 0.12026190013 -0.89047002792 1.1057879925 0.14166979492 -0.59393042326
          -3.5088529587 -0.28569889069 0.1608529985 -3.6423470974 -0.017455210909 -0.0356920138
          -3.4230210781 -0.045196000487 0.12691999972 -3.6694390774 -0.1800750196 0.2162040025
          -0.53049099445 -0.25941371918 -1.4260540009 -0.27238899469 -0.43512588739 -1.4818589687
          -0.63469898701 -0.45314198732 -1.3848659992 -0.36334300041 -0.45349159837 -1.1892901659
          4.6265969276 0.37918898463 2.0835940838 4.7806420326 0.47793102264 2.2329978943
          4.5650310516 0.20493909717 2.2137980461 4.6255760193 0.29108199477 2.428800106
          -4.7094054222 0.49808984995 -0.25924840569 -4.5005278587 0.48635560274 -0.11545810103
          -4.7578816414 0.28667363524 -0.042721800506 -4.8178825378 0.48557460308 0.10024909675
          -2.7501730919 0.4770526886 -0.50051802397 -2.6418669224 0.48016449809 -0.30111697316
          -2.5764689445 0.47962999344 -0.47001102567 -2.825469017 0.27062919736 -0.34245297313
          5.327480793 -0.087410993874 1.7155309916 5.2795748711 0.19745920599 1.7484179735
          5.5534300804 0.16041310132 1.7146040201 5.5037498474 -0.082735002041 1.8406980038
          4.2537708282 -0.29642701149 1.1315799952 4.4213061333 -0.052222006023 1.1044199467
          4.4422369003 -0.2959190011 1.2816729546 4.3275651932 -0.10407299548 1.3448059559
          -1.9395580292 0.48136660457 -1.0315306187 -2.0596408844 0.23887120187 -0.93493187428
          -2.1977200508 0.47695589066 -0.94357067347 -1.9829889536 0.48603790998 -0.84902697802
          3.4179348946 0.33102399111 1.4116280079 3.7163519859 0.46678900719 1.408038497
          3.804610014 0.20091049373 1.4191051722 3.5908029079 0.19661930203 1.6370530128
          3.5908029079 0.19661930203 1.6370530128 3.7163519859 0.46678900719 1.408038497
          3.804610014 0.20091049373 1.4191051722 3.8146090508 0.38017898798 1.7155710459
          -0.62982201576 -0.48794570565 -0.79209601879 -0.6984680295 -0.26326191425 -0.85958302021
          -0.47427800298 -0.47527450323 -0.90863901377 -0.49013099074 -0.27833321691 -0.80703800917
          -0.20871029794 0.16622160375 -0.5290799737 -0.025832999498 0.026944899932 -0.47304499149
          -0.04825539887 0.29193970561 -0.48039200902 -0.027907999232 0.12770339847 -0.67658001184
          1.8392709494 0.14722080529 -0.76449400187 2.2489070892 0.1272508949 -0.49432817101
          1.9303309917 -0.028858006001 -0.71749800444 1.8443620205 0.16656500101 -0.47324600816
          3.2712409496 -0.069230996072 1.0871679783 3.2109239101 -0.32089099288 1.1309139729
          3.2492110729 -0.32095301151 1.4265520573 3.4261219501 -0.31478399038 1.2515799999
          3.5387530327 0.16991350055 1.193629384 3.427726984 0.34208199382 0.94024497271
          3.4408869743 0.48258000612 1.1898485422 3.220927 0.38111701608 1.2094409466
          -0.3715389967 0.50824278593 -1.3971790075 -0.41940999031 0.51631212234 -1.1652537584
          -0.44964700937 0.30215507746 -1.3843599558 -0.59481602907 0.50138133764 -1.4068089724
          3.4408869743 0.48258000612 1.1898485422 3.427726984 0.34208199382 0.94024497271
          3.6544830799 0.36574301124 1.0680350065 3.6095719337 0.49926799536 0.86267101765
          -0.84249997139 0.26520928741 -1.1529723406 -0.69384098053 0.20343409479 -0.94639998674
          -0.53547698259 0.15860010684 -1.2386740446 -0.61719799042 -0.039664398879 -1.1887242794
          1.2616900206 0.31878641248 -0.65477597713 1.303779006 0.10932320356 -0.39463099837
          1.6138050556 0.3192229867 -0.46323099732 1.5066930056 0.24949200451 -0.69261598587
          -0.20239399374 0.51886868477 -1.2246849537 -0.41940999031 0.51631212234 -1.1652537584
          -0.44964700937 0.30215507746 -1.3843599558 -0.3715389967 0.50824278593 -1.3971790075
          2.547467947 0.16419440508 0.46359831095 2.4627220631 0.06453820318 0.024974999949
          2.6742250919 -0.012311006896 0.2936809957 2.7543749809 0.16338352859 0.14366000891
          -1.182997942 0.50088942051 -1.0786180496 -1.1999200583 0.31322172284 -0.84429401159
          -1.4006630182 0.27366858721 -1.0899891853 -1.3283799887 0.50588327646 -0.82055300474
          -1.4006630182 0.27366858721 -1.0899891853 -1.6238960028 0.24829168618 -1.1837819815
          -1.5908279419 -0.0042438311502 -1.0808677673 -1.3583359718 0.17316421866 -1.3048620224
          -1.2363820076 0.13768835366 -0.99496001005 -1.1732499599 0.28154438734 -1.1781251431
          -1.4006630182 0.27366858721 -1.0899891853 -1.3583359718 0.17316421866 -1.3048620224
          -1.4006630182 0.27366858721 -1.0899891853 -1.4917390347 0.24093736708 -0.86661797762
          -1.5908279419 -0.0042438311502 -1.0808677673 -1.6238960028 0.24829168618 -1.1837819815
          2.8178238869 -0.16496701539 0.18457700312 2.8988618851 -0.32689899206 0.32881501317
          3.0362560749 -0.12312699854 0.36283898354 3.0622529984 -0.15697599947 0.078552998602
          -5 -0.49631300569 0.38468599319 -4.6614847183 -0.47366380692 0.40119040012
          -4.8936700821 -0.25269600749 0.5 -4.777050972 -0.31894397736 0.2911812067
          -2.7915763855 -0.063147902489 -1.2559100389 -2.82984519 -0.19690430164 -0.8898460269
          -3.0489430428 -0.05935529992 -1.1577789783 -2.8605468273 0.030474800617 -1.0333030224
          -2.9494459629 -0.043818198144 -0.28794598579 -2.9889519215 -0.24136529863 -0.040991000831
          -2.7894101143 -0.19218939543 -0.12471599877 -2.9584069252 -0.33283078671 -0.35879898071
          3.0115010738 0.44793599844 0.41370400786 2.7105460167 0.65613901615 0.34329998493
          2.8988199234 0.66676598787 0.13199600577 2.9503769875 0.66597098112 0.50799697638
          -1.3283799887 0.50588327646 -0.82055300474 -1.4006630182 0.27366858721 -1.0899891853
          -1.4724910259 0.49207678437 -1.0708984137 -1.4917390347 0.24093736708 -0.86661797762
          0.89858132601 0.2298887074 -0.23391401768 0.79737359285 0.10921870172 -0.047456
          0.86870998144 0.033326499164 -0.31085899472 0.58858072758 0.152926296 -0.17830699682
          2.1027405262 -0.096268005669 0.91622400284 2.1764740944 -0.18138699234 0.65020596981
          2.2197947502 -0.2277380079 0.99411600828 2.3880560398 -0.17542900145 0.81797897816
          1.8911110163 0.31002601981 0.28474500775 1.6232156754 0.43198397756 0.58796167374
          1.8868869543 0.43748298287 0.51323801279 1.5715531111 0.22482000291 0.53529620171
          -5 -0.26007699966 0.21836000681 -4.8936700821 -0.25269600749 0.5
          -5 -0.12896800041 0.37591099739 -4.777050972 -0.31894397736 0.2911812067
          -1.3278859854 0.48927980661 -1.2198700905 -1.5874071121 0.47615900636 -1.3606339693
          -1.4724910259 0.49207678437 -1.0708984137 -1.6238960028 0.24829168618 -1.1837819815
          -1.4724910259 0.49207678437 -1.0708984137 -1.5874071121 0.47615900636 -1.3606339693
          -1.7639460564 0.4825155139 -1.1151630878 -1.6238960028 0.24829168618 -1.1837819815
          -1.8180626631 0.066226676106 -1.5300899744 -2.0357840061 -0.027981799096 -1.4841450453
          -1.8840471506 -0.017964780331 -1.309893012 -1.856298089 -0.15979887545 -1.5231399536
          -1.6338564157 0.02010091953 -1.3360049725 -1.8356319666 0.0078969011083 -1.0082437992
          -1.5908279419 -0.0042438311502 -1.0808677673 -1.8840471506 -0.017964780331 -1.309893012
          3.6721630096 0.17420139909 0.90603202581 3.7977409363 0.30181151628 0.66605001688
          3.8746159077 0.2987203002 0.98308598995 3.6544830799 0.36574301124 1.0680350065
          -4.5533809662 -0.4828903079 0.2240357995 -4.777050972 -0.31894397736 0.2911812067
          -4.4544172287 -0.23605190217 0.42361399531 -4.6614847183 -0.47366380692 0.40119040012
          -4.6497826576 -0.19200108945 0.12126010656 -4.7962985039 -0.27623388171 -0.034645497799
          -5 -0.26007699966 0.21836000681 -4.777050972 -0.31894397736 0.2911812067
          0.96178209782 -0.10965040326 0.053582999855 0.79737359285 0.10921870172 -0.047456
          1.1920820475 0.066462799907 -0.092215999961 0.95458650589 0.18395619094 0.067213997245
          3.3313462734 0.21289689839 1.8087899685 3.1580340862 -0.10009101033 1.6749999523
          3.3237390518 0.14818389714 1.5284450054 3.0577402115 0.15238833427 1.6229300499
          3.4475607872 0.0026549980976 1.8703099489 3.1580340862 -0.10009101033 1.6749999523
          3.3237390518 0.14818389714 1.5284450054 3.3313462734 0.21289689839 1.8087899685
          3.1324748993 -0.012670002878 1.333466053 3.3237390518 0.14818389714 1.5284450054
          3.0577402115 0.15238833427 1.6229300499 3.1057059765 0.21902000904 1.2990050316
          -0.098812997341 0.27493330836 -0.95051121712 -0.07988999784 0.53172880411 -1.0493973494
          -0.16879400611 0.54172569513 -0.80274397135 -0.33649298549 0.53052771091 -0.93731302023
          4.7131490707 0.21425390244 1.868008852 5.0031938553 0.28169769049 1.6652870178
          4.9797067642 0.10058799386 1.780706048 4.9558830261 0.24193349481 1.938804388
          -0.59738898277 -0.2561981082 -0.61395001411 -0.7906640172 -0.26609754562 -0.63226997852
          -0.55233097076 -0.44661706686 -0.61871999502 -0.62982201576 -0.48794570565 -0.79209601879
          -1.4937491417 0.34081637859 -1.5808500051 -1.721953392 0.25095880032 -1.5497900248
          -1.5488374233 0.27182540298 -1.3903579712 -1.5296863317 0.075993299484 -1.5737700462
          -3.7695140839 0.20615190268 -0.025571003556 -3.6804521084 0.46754148602 0.19479499757
          -3.5363500118 0.303062886 0.16877999902 -3.7869338989 0.27324751019 0.25282999873
          -3.7695140839 0.20615190268 -0.025571003556 -3.7869338989 0.27324751019 0.25282999873
          -3.5363500118 0.303062886 0.16877999902 -3.5638709068 0.10706090182 0.17637899518
          -0.38811999559 -0.14212410152 -1.2827340364 -0.42743900418 -0.29611000419 -1.0441720486
          -0.33131301403 -0.1156719923 -1.0455411673 -0.19269900024 -0.26168438792 -1.0995333195
          3.9656031132 0.16085809469 1.1511030197 3.7195839882 0.0037419972941 1.0903520584
          3.804610014 0.20091049373 1.4191051722 3.8552589417 -0.056183006614 1.3705922365
          -1.1307909489 -0.13907830417 -1.6104199886 -1.199491024 -0.2731808126 -1.4120750427
          -0.99887502193 -0.062538303435 -1.3665850163 -0.95317101479 -0.27932810783 -1.4066259861
          -3.7695140839 0.20615190268 -0.025571003556 -3.5249319077 0.4702565074 0.015981996432
          -3.5363500118 0.303062886 0.16877999902 -3.6804521084 0.46754148602 0.19479499757
          -3.7695140839 0.20615190268 -0.025571003556 -3.7869338989 0.27324751019 0.25282999873
          -3.5638709068 0.10706090182 0.17637899518 -3.7828290462 0.0534854047 0.25001400709
          -4.8905801773 0.078228734434 -0.52854001522 -4.7995986938 0.015869349241 -0.30273678899
          -4.8524708748 -0.16640077531 -0.5321289897 -5 -0.13075700402 -0.36378800869
          -4.5312843323 0.49934783578 -0.58330410719 -4.6478972435 0.31442570686 -0.57184767723
          -4.5366792679 0.30343410373 -0.3805705905 -4.4355773926 0.16414380074 -0.62573999166
          1.9269193411 -0.091003999114 0.78541302681 2.0687611103 0.17121970654 0.57191699743
          2.0536108017 0.066548496485 0.89124602079 1.7765240669 0.044387601316 0.68126302958
          4.1697688103 0.64373600483 2.1378290653 3.9373788834 0.45778700709 1.9478909969
          4.1113681793 0.48997598886 2.274960041 4.1660380363 0.37686598301 1.8869049549
          -0.89497202635 0.0030651004054 -1.1271020174 -0.96815401316 0.02664539963 -0.92440497875
          -0.69384098053 0.20343409479 -0.94639998674 -0.76539498568 -0.02696910128 -0.88151800632
          -2.7501730919 0.4770526886 -0.50051802397 -2.9227018356 0.26947918534 -0.61335587502
          -2.7090830803 0.31708621979 -0.6229904294 -2.9246742725 0.47127839923 -0.80925703049
          4.4008059502 0.66251301765 2.0240740776 4.2132930756 0.66276198626 1.9194359779
          4.1697688103 0.64373600483 2.1378290653 4.402616024 0.45689401031 2.1667981148
          -1.8855940104 -0.082297004759 -0.4747030139 -1.7705160379 -0.013670380227 -0.72984999418
          -1.9904079437 0.054340101779 -0.69911700487 -1.9959019423 -0.25378808379 -0.72344702482
          2.7515289783 0.13377730548 0.70048117638 2.5839250088 0.25846800208 0.93122702837
          2.7781450748 0.40818598866 0.68238705397 2.8959798813 0.32024499774 1.0456169844
          1.1649719477 0.37054440379 -0.89170503616 1.446663022 0.5864855051 -0.62758201361
          1.2616900206 0.31878641248 -0.65477597713 1.0837780237 0.56879729033 -0.83355396986
          3.0577402115 0.15238833427 1.6229300499 2.8278307915 0.37164700031 1.4777669907
          2.78916049 0.10995809734 1.4312570095 3.1057059765 0.21902000904 1.2990050316
          1.2254769802 0.51881307364 -1.0980240107 1.3935819864 0.57705062628 -0.88371801376
          1.1649719477 0.37054440379 -0.89170503616 1.0837780237 0.56879729033 -0.83355396986
          -0.84249997139 0.26520928741 -1.1529723406 -0.69384098053 0.20343409479 -0.94639998674
          -0.61719799042 -0.039664398879 -1.1887242794 -0.89497202635 0.0030651004054 -1.1271020174
          -1.225301981 -0.29465007782 -1.0979983807 -1.4465429783 -0.48274430633 -1.2523479462
          -1.3335059881 -0.48872581124 -1.1038045883 -1.2170039415 -0.47567608953 -1.2552779913
          -3.9470174313 -0.23043839633 -0.45734000206 -3.7178936005 -0.30012491345 -0.34045830369
          -3.6200819016 -0.16615739465 -0.5608189702 -3.779299736 -0.33174827695 -0.59858602285
          -0.76281398535 0.3376955986 -0.79411798716 -0.78456199169 0.49820140004 -0.62747001648
          -0.61500298977 0.28469419479 -0.60780000687 -0.80769598484 0.2091087997 -0.62626999617
          -3.6418271065 -0.31525328755 -0.91074800491 -3.8355240822 -0.29797300696 -0.83261597157
          -3.683809042 -0.017515730113 -0.89673197269 -3.6200819016 -0.16615739465 -0.5608189702
          -1.3511379957 -0.033111680299 -1.0856614113 -1.6338564157 0.02010091953 -1.3360049725
          -1.5908279419 -0.0042438311502 -1.0808677673 -1.4067959785 -0.070061728358 -1.4117490053
          4.1495599747 0.35503801703 2.2919700146 3.9373788834 0.45778700709 1.9478909969
          4.1113681793 0.48997598886 2.274960041 3.9451920986 0.36131098866 2.1700799465
          -0.20239399374 0.51886868477 -1.2246849537 -0.26240199804 0.35430929065 -1.093870163
          -0.2287349999 0.24483269453 -1.2839930058 -0.41940999031 0.51631212234 -1.1652537584
          0.75101262331 -0.27248388529 -0.098263002932 0.69095832109 -0.066606298089 -0.12778200209
          0.5607355237 -0.26477059722 -0.21746100485 0.85404402018 -0.22467930615 -0.32312399149
          -2.6056780815 -0.30553308129 -1.0694279671 -2.8428041935 -0.50505828857 -1.0089069605
          -2.6584146023 -0.50556856394 -0.92454200983 -2.7647492886 -0.50091934204 -1.2004820108
          -5 0.32793700695 0.27663400769 -4.9468126297 0.30931267142 0.46121698618
          -4.8289003372 0.15818049014 0.46990901232 -5 0.07584580034 0.38386198878
          4.1866950989 -0.16452099383 0.93571001291 4.4213061333 -0.052222006023 1.1044199467
          4.3275651932 -0.10407299548 1.3448059559 4.0087571144 -0.073222987354 1.1375299692
          1.220471859 -0.14656609297 0.24174399674 0.96178209782 -0.10965040326 0.053582999855
          1.1920820475 0.066462799907 -0.092215999961 1.1257488728 0.21291010082 0.19439199567
          3.4043519497 0.68294101954 0.87328398228 3.6095719337 0.49926799536 0.86267101765
          3.6306459904 0.69331997633 0.9852989912 3.7212340832 0.54067403078 0.62415999174
          -4.7775506973 -0.01067915 -0.02922873944 -5 -0.004447159823 0.13623799384
          -4.6535224915 0.13568019867 0.13374620676 -4.7829651833 -0.03583727777 0.25068509579
          4.6265969276 0.37918898463 2.0835940838 4.7806420326 0.47793102264 2.2329978943
          4.7842068672 0.23646980524 2.2136070728 4.5650310516 0.20493909717 2.2137980461
          4.3348088264 0.0020780034829 2.0050890446 4.659427166 0.057737004012 2.0819699764
          4.5017971992 -0.076010011137 2.1854460239 4.5650310516 0.20493909717 2.2137980461
          4.659427166 0.057737004012 2.0819699764 4.5650310516 0.20493909717 2.2137980461
          4.7131490707 0.21425390244 1.868008852 4.6265969276 0.37918898463 2.0835940838
          0.47881600261 -0.41453048587 -1.1412249804 0.24705900252 -0.42054501176 -1.2698409557
          0.36511561275 -0.21865269542 -1.2138979435 0.14116099477 -0.43207919598 -1.1435899734
          0.24705900252 -0.42054501176 -1.2698409557 -0.012586000375 -0.43688291311 -1.2338080406
          -0.0075119999237 -0.13963499665 -1.2594619989 0.14116099477 -0.43207919598 -1.1435899734
          1.8045516014 -0.25807699561 0.68097501993 1.9639710188 -0.12883301079 0.49361902475
          1.5937000513 -0.15697298944 0.5264647007 1.6754965782 -0.38479599357 0.46163770556
          -4.5366792679 0.30343410373 -0.3805705905 -4.6492214203 0.036135789007 -0.56955337524
          -4.436715126 0.026354400441 -0.37169200182 -4.4355773926 0.16414380074 -0.62573999166
          4.2127790451 0.64916598797 1.0111500025 4.2114582062 0.52715998888 1.3034000397
          4.3628559113 0.71818900108 1.3685749769 4.432926178 0.52034902573 1.1526700258
          4.908780098 -0.05460799858 1.9473679066 5.1686019897 0.14154189825 2.0466096401
          5.1593341827 -0.012515998445 1.8333879709 5.2030038834 -0.095155008137 2.0543687344
          -0.29748898745 0.35435709357 -1.5664999485 -0.3715389967 0.50824278593 -1.3971790075
          -0.44964700937 0.30215507746 -1.3843599558 -0.48226100206 0.47477662563 -1.5933699608
          3.5614540577 -0.13416200876 1.2109525204 3.4261219501 -0.31478399038 1.2515799999
          3.5389170647 -0.30982100964 1.044885993 3.2712409496 -0.069230996072 1.0871679783
          4.1762018204 0.27362239361 1.2485419512 4.4385910034 0.24091610312 1.4270139933
          4.344976902 0.097388997674 1.2805169821 4.2172560692 0.35686299205 1.4943759441
          -1.3339209557 -0.1199079901 -0.60588997602 -1.5314699411 -0.26643535495 -0.78901797533
          -1.4142980576 -0.3536285162 -0.59887999296 -1.3524429798 -0.2001490891 -0.93651300669
          5.0868611336 -0.085908003151 1.4383300543 5.3287701607 0.017804997042 1.5262700319
          5.2169570923 -0.28806000948 1.5943369865 5.327480793 -0.087410993874 1.7155309916
          3.1142799854 0.34143099189 0.65826201439 3.427726984 0.34208199382 0.94024497271
          3.2844669819 0.18207931519 1.0159295797 3.2219541073 0.45492699742 0.97522252798
          -1.7574769258 -0.32169941068 -1.3376590014 -1.925401926 -0.48173299432 -1.4075479507
          -1.5384149551 -0.474794209 -1.4103360176 -1.6306117773 -0.45637950301 -1.5653500557
          -3.0384581089 0.17068129778 -0.37494298816 -2.707750082 0.14897160232 -0.50897496939
          -2.7312269211 -0.032895799726 -0.39067798853 -2.825469017 0.27062919736 -0.34245297313
          -1.3182120323 -0.50291794538 -0.77375298738 -1.3524429798 -0.2001490891 -0.93651300669
          -1.4142980576 -0.3536285162 -0.59887999296 -1.5314699411 -0.26643535495 -0.78901797533
          -1.3339209557 -0.1199079901 -0.60588997602 -1.5145759583 -0.018870471045 -0.82699400187
          -1.5314699411 -0.26643535495 -0.78901797533 -1.3524429798 -0.2001490891 -0.93651300669
          -3.2438099384 0.03149420023 -0.20086398721 -3.2953541279 -0.00062000047183 -0.49288973212
          -3.2987422943 0.26889032125 -0.46421080828 -3.5090770721 0.16754239798 -0.19926699996
          5.4800391197 0.18614250422 1.908427 5.4175891876 0.055754002184 2.0606226921
          5.1686019897 0.14154189825 2.0466096401 5.4086022377 0.24544849992 2.0854845047
          -0.011990199797 -0.27998569608 -0.48404100537 0.0018850000342 -0.13561350107 -0.81675201654
          0.14480470121 -0.27436679602 -0.68005996943 0.10708110034 -0.12076699734 -0.43617299199
          0.21651309729 -0.46012639999 -0.53555697203 0.14480470121 -0.27436679602 -0.68005996943
          0.19156980515 -0.44301488996 -0.90191078186 0.44525501132 -0.44013750553 -0.72802501917
          0.21651309729 -0.46012639999 -0.53555697203 0.14480470121 -0.27436679602 -0.68005996943
          -0.0078739998862 -0.46226969361 -0.70150399208 0.19156980515 -0.44301488996 -0.90191078186
          2.9922840595 0.30892300606 0.059962000698 3.0217940807 0.11983050406 0.068121999502
          2.9617218971 0.11532790214 0.41656598449 3.1855530739 0.35112899542 0.20670999587
          2.5418469906 0.64766597748 0.10435001552 2.8823029995 0.46633699536 -0.010378999636
          2.6001980305 0.64967000484 -0.17084601521 2.5381810665 0.37671899796 0.083356015384
          -3.5222220421 0.2613735199 -0.7316250205 -3.2916152477 0.47306519747 -0.70392102003
          -3.517005682 0.27712589502 -0.40882021189 -3.4917843342 0.47428500652 -0.40278941393
          3.9373788834 0.45778700709 1.9478909969 3.6992878914 0.65348899364 1.8166350126
          3.8146090508 0.38017898798 1.7155710459 3.8356730938 0.6680150032 1.6421200037
          2.5381810665 0.37671899796 0.083356015384 2.8823029995 0.46633699536 -0.010378999636
          2.6001980305 0.64967000484 -0.17084601521 2.551858902 0.38516098261 -0.25988900661
          2.5381810665 0.37671899796 0.083356015384 2.8823029995 0.46633699536 -0.010378999636
          2.551858902 0.38516098261 -0.25988900661 2.7389440536 0.18060749769 -0.13687500358
          5.0868611336 -0.085908003151 1.4383300543 5.3287701607 0.017804997042 1.5262700319
          5.327480793 -0.087410993874 1.7155309916 5.0016570091 -0.09311401844 1.6771680117
          3.0825920105 0.52345901728 0.14255799353 2.9922840595 0.30892300606 0.059962000698
          3.0115010738 0.44793599844 0.41370400786 3.1855530739 0.35112899542 0.20670999587
          -0.76539498568 -0.02696910128 -0.88151800632 -0.69384098053 0.20343409479 -0.94639998674
          -0.55270302296 -0.11456199735 -0.98753702641 -0.54605597258 0.061542298645 -0.81870001554
          -4.1204099655 0.088588900864 -0.72504401207 -3.8928060532 -0.036693397909 -0.81056702137
          -4.0872659683 -0.040365900844 -0.50246196985 -3.8436272144 -0.0084195006639 -0.544039011
          1.6553009748 -0.058208007365 -0.42940098047 1.303779006 0.10932320356 -0.39463099837
          1.3120340109 -0.15288600326 -0.5459626317 1.3628020287 0.069748699665 -0.7095310092
          1.6178350449 -0.15927900374 0.18571281433 1.5375082493 0.031310401857 0.49632260203
          1.8810739517 -0.025785999373 0.24052999914 1.5937000513 -0.15697298944 0.5264647007
          0.79733598232 0.39415538311 -0.3318169713 0.56680697203 0.35435029864 -0.45947599411
          0.66420590878 0.58173090219 -0.24965699017 0.56200027466 0.3923317194 -0.18788799644
          3.4407179356 -0.10024298728 1.6149629354 3.4360439777 -0.0026910067536 1.3680689335
          3.5908029079 0.19661930203 1.6370530128 3.3237390518 0.14818389714 1.5284450054
          -1.2363820076 0.13768835366 -0.99496001005 -1.1468379498 -0.10479596257 -1.0598422289
          -1.3511379957 -0.033111680299 -1.0856614113 -1.1518950462 -0.061164274812 -0.8551800251
          5.2246007919 0.71275597811 2.0305790901 5.1783838272 0.53621798754 2.2175490856
          5.199947834 0.37635299563 2.0466771126 4.9700350761 0.50200498104 1.9810703993
          -4.0016961098 -0.32739970088 -0.24166919291 -4.0726661682 -0.51234167814 -0.36274200678
          -4.2212285995 -0.30168271065 -0.17994959652 -4.247215271 -0.5039280057 -0.16240300238
          -4.2844419479 0.10605479777 -0.67162799835 -4.3393721581 0.42342635989 -0.65198898315
          -4.3347187042 0.29005420208 -0.44296199083 -4.4355773926 0.16414380074 -0.62573999166
          -2.82984519 -0.19690430164 -0.8898460269 -2.6584146023 -0.50556856394 -0.92454200983
          -2.5790920258 -0.26749420166 -0.70352119207 -2.5444853306 -0.19624508917 -0.90569740534
          0.61579799652 -0.14052461088 -1.0343459845 0.36515200138 -0.25333359838 -0.93256372213
          0.36511561275 -0.21865269542 -1.2138979435 0.26428851485 -0.064987801015 -1.0606349707
          4.1594829559 0.12733019888 2.2602200508 4.4526658058 0.17872619629 2.428800106
          4.3538961411 0.35973498225 2.428800106 4.3718128204 0.25128540397 2.104501009
          1.4334243536 0.60390299559 0.081108003855 1.2312122583 0.39813408256 -0.034452985972
          1.594933033 0.40332198143 0.19972449541 1.4418599606 0.28709000349 -0.062245994806
          1.3428349495 0.40458348393 -0.38063567877 1.1987409592 0.59465539455 -0.16085501015
          1.1137839556 0.31430581212 -0.23879601061 1.108150959 0.58133798838 -0.50853699446
          1.3428349495 0.40458348393 -0.38063567877 1.6138050556 0.3192229867 -0.46323099732
          1.2616900206 0.31878641248 -0.65477597713 1.303779006 0.10932320356 -0.39463099837
          0.36511561275 -0.21865269542 -1.2138979435 0.22069999576 -0.38621020317 -1.4934259653
          0.24705900252 -0.42054501176 -1.2698409557 0.5846940279 -0.39953100681 -1.38280797
          0.26467600465 -0.18822538853 -1.4712239504 0.22069999576 -0.38621020317 -1.4934259653
          0.24705900252 -0.42054501176 -1.2698409557 0.36511561275 -0.21865269542 -1.2138979435
          2.2750039101 0.14374065399 0.29926979542 2.4272270203 0.24140749872 -0.088780999184
          2.0466160774 0.12520329654 0.090647503734 2.4627220631 0.06453820318 0.024974999949
          0.61579799652 -0.14052461088 -1.0343459845 0.36515200138 -0.25333359838 -0.93256372213
          0.47881600261 -0.41453048587 -1.1412249804 0.36511561275 -0.21865269542 -1.2138979435
          2.4627220631 0.06453820318 0.024974999949 2.0466160774 0.12520329654 0.090647503734
          2.1427390575 -0.046670995653 -0.085950896144 2.4272270203 0.24140749872 -0.088780999184
          0.26467600465 -0.18822538853 -1.4712239504 0.22069999576 -0.38621020317 -1.4934259653
          0.36511561275 -0.21865269542 -1.2138979435 0.5846940279 -0.39953100681 -1.38280797
          4.659427166 0.057737004012 2.0819699764 4.3348088264 0.0020780034829 2.0050890446
          4.4655342102 0.20313693583 1.8080023527 4.3718128204 0.25128540397 2.104501009
          0.85404402018 -0.22467930615 -0.32312399149 0.72347742319 -0.43865519762 -0.25590199232
          0.5607355237 -0.26477059722 -0.21746100485 0.75101262331 -0.27248388529 -0.098263002932
          -3.8304586411 0.47921529412 -0.44864699244 -4.1460008621 0.48432341218 -0.41542598605
          -3.9811484814 0.47856000066 -0.21228690445 -3.93171525 0.23039670289 -0.4976850152
          -4.3193311691 0.46817699075 0.36364999413 -4.162466526 0.47085979581 0.13769200444
          -4.4579524994 0.47279408574 0.21904788911 -4.3490223885 0.21022440493 0.13521999121
          -4.5989289284 0.15179400146 0.43534138799 -4.4574508667 0.019598178566 0.2031301856
          -4.6474046707 -0.00025216012727 0.44196480513 -4.4093670845 -0.040471538901 0.40553438663
          1.9269193411 -0.091003999114 0.78541302681 1.8045516014 -0.25807699561 0.68097501993
          1.9639710188 -0.12883301079 0.49361902475 1.7765240669 0.044387601316 0.68126302958
          -3.7178936005 -0.30012491345 -0.34045830369 -3.8530523777 -0.50708895922 -0.23963859677
          -3.4962136745 -0.50891906023 -0.35148981214 -3.8315455914 -0.51438689232 -0.46247899532
          -4.4553132057 0.33380118012 0.41776010394 -4.5313487053 0.23166209459 0.25894141197
          -4.6675491333 0.29210668802 0.45158019662 -4.5989289284 0.15179400146 0.43534138799
          0.88520997763 -0.23278620839 -0.74979001284 0.94502300024 -0.16622328758 -1.0062910318
          1.0504629612 -0.041896902025 -0.74770897627 0.82348799706 -0.019467899576 -0.88339298964
          -2.4344344139 0.47441139817 -0.8509837985 -2.4830985069 0.14539518952 -0.90576428175
          -2.3114500046 0.28709989786 -0.8894675374 -2.6201217175 0.47078740597 -0.97456198931
          -4.1749300957 0.29747289419 -0.70561802387 -4.1204099655 0.088588900864 -0.72504401207
          -3.93171525 0.23039670289 -0.4976850152 -3.9523050785 0.21237049997 -0.78943997622
          0.15763199329 -0.010675301775 -1.4892460108 -0.0075119999237 -0.13963499665 -1.2594619989
          -0.14396199584 -0.17642790079 -1.5491399765 -0.19496299326 0.017406899482 -1.3360270262
          -0.23330500722 -0.099709004164 -0.54330998659 -0.13618600368 -0.29588839412 -0.75555801392
          -0.19524599612 0.051735099405 -0.78870302439 -0.29678198695 -0.19139230251 -0.85894298553
          -2.6056780815 -0.30553308129 -1.0694279671 -2.6269614697 -0.066813401878 -1.0421299934
          -2.82984519 -0.19690430164 -0.8898460269 -2.7851204872 -0.2995711267 -1.2576700449
          -3.4544520378 -0.502204597 -0.077600002289 -3.5015048981 -0.45679572225 0.16008099914
          -3.564964056 -0.31996080279 -0.046510994434 -3.3116250038 -0.30738094449 0.088941000402
          -4.4579524994 0.47279408574 0.21904788911 -4.5983519554 0.47850579023 0.11985320598
          -4.5313487053 0.23166209459 0.25894141197 -4.5223350525 0.28749448061 0.00038830153062
          -3.6499538422 0.47699010372 -0.48393499851 -3.8304586411 0.47921529412 -0.44864699244
          -3.7126243114 0.24968840182 -0.29950919747 -3.648727417 0.16803780198 -0.52384102345
          -3.6499538422 0.47699010372 -0.48393499851 -3.8304586411 0.47921529412 -0.44864699244
          -3.6916606426 0.47540700436 -0.29235720634 -3.7126243114 0.24968840182 -0.29950919747
          -3.8458154202 -0.0071441796608 -0.27063637972 -3.9098739624 -0.045701097697 0.062531001866
          -3.7695140839 0.20615190268 -0.025571003556 -3.6423470974 -0.017455210909 -0.0356920138
          -3.9705395699 0.47333359718 0.0037210055161 -3.91289711 0.46681961417 0.26801300049
          -3.6804521084 0.46754148602 0.19479499757 -4.0016899109 0.29823037982 0.14048601687
          -0.0096544995904 0.55562412739 -0.53859198093 -0.16879400611 0.54172569513 -0.80274397135
          -0.032131001353 0.33743911982 -0.72442996502 0.049058001488 0.54692262411 -0.80024498701
          1.0282603502 0.59369128942 0.0024159983732 1.0784057379 0.39947220683 0.1701080054
          1.2312122583 0.39813408256 -0.034452985972 0.9058868885 0.3652240932 0.037831000984
          -0.53049099445 -0.25941371918 -1.4260540009 -0.54073399305 -0.37010061741 -1.604460001
          -0.63469898701 -0.45314198732 -1.3848659992 -0.27238899469 -0.43512588739 -1.4818589687
          -0.80039197206 -0.22904071212 -1.6116299629 -0.95317101479 -0.27932810783 -1.4066259861
          -0.53049099445 -0.25941371918 -1.4260540009 -0.63469898701 -0.45314198732 -1.3848659992
          -3.3584003448 -0.26359349489 -0.49015578628 -3.5159258842 -0.18312910199 -0.2097529918
          -3.2953541279 -0.00062000047183 -0.49288973212 -3.1492960453 -0.20950199664 -0.30492499471
          1.1057879925 0.14166979492 -0.59393042326 1.303779006 0.10932320356 -0.39463099837
          1.2616900206 0.31878641248 -0.65477597713 1.3628020287 0.069748699665 -0.7095310092
          0.44525501132 -0.44013750553 -0.72802501917 0.61227500439 -0.20498250425 -0.7539935708
          0.75424200296 -0.42280769348 -0.65912491083 0.57541400194 -0.43666920066 -0.55330497026
          -0.0075119999237 -0.13963499665 -1.2594619989 -0.18521800637 0.03266672045 -1.0619240999
          0.060910001397 0.064430199564 -1.0059714317 0.059512998909 -0.21327769756 -1.0408661366
          3.5512509346 0.3587679863 1.954660058 3.5908029079 0.19661930203 1.6370530128
          3.3313462734 0.21289689839 1.8087899685 3.7400364876 0.21424710751 2.056910038
          1.446663022 0.5864855051 -0.62758201361 1.3428349495 0.40458348393 -0.38063567877
          1.2616900206 0.31878641248 -0.65477597713 1.108150959 0.58133798838 -0.50853699446
          -2.4344344139 0.47441139817 -0.8509837985 -2.6776423454 0.47449350357 -0.75034171343
          -2.5196659565 0.24592778087 -0.72205346823 -2.6201217175 0.47078740597 -0.97456198931
          0.56680697203 0.35435029864 -0.45947599411 0.69450002909 0.33520320058 -0.69070541859
          0.73966902494 0.57453459501 -0.50246399641 0.4528760016 0.56065458059 -0.71604299545
          0.56680697203 0.35435029864 -0.45947599411 0.40944099426 0.2642891109 -0.64370203018
          0.69450002909 0.33520320058 -0.69070541859 0.4528760016 0.56065458059 -0.71604299545
          -0.74982398748 -0.23088718951 -1.0935233831 -0.91781198978 -0.47875839472 -1.088809967
          -0.6984680295 -0.26326191425 -0.85958302021 -0.72162300348 -0.47146120667 -1.0738427639
          2.5400059223 0.47935000062 0.92150700092 2.1254868507 0.43120700121 0.6656140089
          2.2841498852 0.63460797071 0.62853097916 2.3321909904 0.63398498297 0.92614901066
          2.6370809078 0.64847302437 0.76524597406 2.5400059223 0.47935000062 0.92150700092
          2.7781450748 0.40818598866 0.68238705397 2.5486719608 0.4433940053 0.48740598559
          -0.0096544995904 0.55562412739 -0.53859198093 0.18104350567 0.33106470108 -0.62392002344
          0.2141688019 0.56765770912 -0.42459902167 0.21305389702 0.5571166873 -0.6557880044
          0.049058001488 0.54692262411 -0.80024498701 0.18104350567 0.33106470108 -0.62392002344
          0.21305389702 0.5571166873 -0.6557880044 0.27174431086 0.54942148924 -0.87269937992
          0.56200027466 0.3923317194 -0.18788799644 0.36366090178 0.26720348001 -0.30314698815
          0.58858072758 0.152926296 -0.17830699682 0.56680697203 0.35435029864 -0.45947599411
          0.56680697203 0.35435029864 -0.45947599411 0.40944099426 0.2642891109 -0.64370203018
          0.60305899382 0.11440300196 -0.49014899135 0.69450002909 0.33520320058 -0.69070541859
          3.9791870117 0.71098798513 1.0759580135 3.8493919373 0.50689595938 1.0418950319
          3.9769608974 0.41242301464 1.2358649969 4.2127790451 0.64916598797 1.0111500025
          0.94502300024 -0.16622328758 -1.0062910318 0.89855998755 -0.35990297794 -1.2769370079
          1.1467900276 -0.29625800252 -1.1713860035 0.77250897884 -0.18823230267 -1.3146259785
          0.94502300024 -0.16622328758 -1.0062910318 0.77250897884 -0.18823230267 -1.3146259785
          1.1467900276 -0.29625800252 -1.1713860035 0.88432902098 -0.0070595997386 -1.2622259855
          0.94502300024 -0.16622328758 -1.0062910318 1.1467900276 -0.29625800252 -1.1713860035
          1.2469780445 -0.10695700347 -1.1089379787 0.88432902098 -0.0070595997386 -1.2622259855
          1.6178350449 -0.15927900374 0.18571281433 1.5088090897 -0.39408099651 0.20298700035
          1.4026149511 -0.25017899275 0.37467199564 1.6754965782 -0.38479599357 0.46163770556
          -2.7851204872 -0.2995711267 -1.2576700449 -3.0221710205 -0.28878861666 -1.1663730145
          -2.8428041935 -0.50505828857 -1.0089069605 -2.7647492886 -0.50091934204 -1.2004820108
          -4.3332242966 -0.49554929137 0.023328900337 -4.5533809662 -0.4828903079 0.2240357995
          -4.4754362106 -0.32264238596 0.12133580446 -4.323428154 -0.48470199108 0.21382179856
          0.36366090178 0.26720348001 -0.30314698815 0.32963371277 -0.040354099125 -0.32682800293
          0.49385619164 -0.061818897724 -0.24398499727 0.60305899382 0.11440300196 -0.49014899135
          0.88199001551 0.21808290482 -0.48142701387 0.69450002909 0.33520320058 -0.69070541859
          0.84206402302 0.052923899144 -0.65382301807 0.93579101562 0.2607139945 -0.85697698593
          3.5512509346 0.3587679863 1.954660058 3.8146090508 0.38017898798 1.7155710459
          3.804297924 0.13001829386 1.8220219612 3.7400364876 0.21424710751 2.056910038
          5.1484160423 0.71598798037 1.853268981 4.7996368408 0.69749897718 1.943791151
          4.8522830009 0.69435501099 2.1452889442 4.9700350761 0.50200498104 1.9810703993
          1.303779006 0.10932320356 -0.39463099837 1.1920820475 0.066462799907 -0.092215999961
          1.4418599606 0.28709000349 -0.062245994806 1.5832170248 0.13898870349 -0.2907756865
          4.7530341148 0.20248390734 1.315179944 4.5587711334 0.13435800374 1.2057100534
          4.6735458374 0.19949239492 1.5503569841 4.725110054 0.0005410007434 1.2883199453
          5.1686019897 0.14154189825 2.0466096401 5.2795748711 0.19745920599 1.7484179735
          5.4800391197 0.18614250422 1.908427 5.4086022377 0.24544849992 2.0854845047
          -2.0667660236 -0.090073294938 -0.4165340066 -1.9904079437 0.054340101779 -0.69911700487
          -2.2290380001 -0.01067822054 -0.56298202276 -1.9959019423 -0.25378808379 -0.72344702482
          -0.42743900418 -0.29611000419 -1.0441720486 -0.56551098824 -0.25506937504 -1.2119810581
          -0.57344698906 -0.46036499739 -1.2049913406 -0.36334300041 -0.45349159837 -1.1892901659
          1.1473189592 0.12026190013 -0.89047002792 1.2157520056 0.1916974932 -1.1104990244
          1.1071350574 0.033141098917 -1.1655050516 1.4039119482 0.11461269855 -1.0208369493
          3.4179348946 0.33102399111 1.4116280079 3.5387530327 0.16991350055 1.193629384
          3.2844669819 0.18207931519 1.0159295797 3.1057059765 0.21902000904 1.2990050316
          -0.74982398748 -0.23088718951 -1.0935233831 -0.76539498568 -0.02696910128 -0.88151800632
          -0.61719799042 -0.039664398879 -1.1887242794 -0.55270302296 -0.11456199735 -0.98753702641
          0.69450002909 0.33520320058 -0.69070541859 0.60305899382 0.11440300196 -0.49014899135
          0.62536001205 0.067611642182 -0.78804123402 0.40944099426 0.2642891109 -0.64370203018
          0.88199001551 0.21808290482 -0.48142701387 0.98193901777 0.39114138484 -0.63054037094
          0.69450002909 0.33520320058 -0.69070541859 0.93579101562 0.2607139945 -0.85697698593
          -4.3815760612 0.24617770314 -0.19512629509 -4.3490223885 0.21022440493 0.13521999121
          -4.3956904411 -0.0096592828631 -0.099004216492 -4.5223350525 0.28749448061 0.00038830153062
          1.1071350574 0.033141098917 -1.1655050516 1.1473189592 0.12026190013 -0.89047002792
          0.94502300024 -0.16622328758 -1.0062910318 0.82348799706 -0.019467899576 -0.88339298964
          1.8071659803 -0.10879799724 -0.12797890604 1.6255400181 0.14701509476 0.17244631052
          1.8810739517 -0.025785999373 0.24052999914 1.4943079948 -0.043684996665 -0.058169994503
          -1.8200160265 0.49221810699 -0.71408998966 -1.9829889536 0.48603790998 -0.84902697802
          -1.7904880047 0.17986288667 -0.85320198536 -1.86886096 0.2922372818 -1.0309972763
          -1.6338564157 0.02010091953 -1.3360049725 -1.8840471506 -0.017964780331 -1.309893012
          -1.8587261438 -0.19973695278 -1.1918489933 -1.5521390438 -0.22336211801 -1.3013720512
          -1.6338564157 0.02010091953 -1.3360049725 -1.8587261438 -0.19973695278 -1.1918489933
          -1.5908279419 -0.0042438311502 -1.0808677673 -1.5521390438 -0.22336211801 -1.3013720512
          0.67646998167 0.33598598838 -0.95468699932 0.5862929821 0.35003548861 -1.1572810411
          0.53923499584 0.55213999748 -0.9251576066 0.43711400032 0.35662287474 -0.86431020498
          5.2795748711 0.19745920599 1.7484179735 5.4586992264 0.38369700313 1.9621009827
          5.4746980667 0.36210200191 1.5940099955 5.4800391197 0.18614250422 1.908427
          -2.5196659565 0.24592778087 -0.72205346823 -2.6776423454 0.47449350357 -0.75034171343
          -2.7856142521 0.29197818041 -0.82188498974 -2.6201217175 0.47078740597 -0.97456198931
          4.7630262375 -0.078894995153 2.2290580273 4.7842068672 0.23646980524 2.2136070728
          4.659427166 0.057737004012 2.0819699764 4.9883351326 -0.0025349962525 2.1726241112
          4.0760598183 -0.29790601134 1.5380973816 3.9363288879 -0.29490798712 1.6831860542
          3.9827311039 -0.10510598868 1.5950082541 4.1453089714 -0.29227998853 1.7419952154
          5.0844421387 -0.30479300022 2.0486927032 5.2030038834 -0.095155008137 2.0543687344
          5.3534770012 -0.30086100101 1.9398570061 5.3548870087 -0.21426801383 2.2027084827
          0.056278999895 0.056861169636 -1.3090289831 0.046897001565 0.32769879699 -1.3547029495
          0.081534996629 0.22075429559 -1.1755410433 -0.2287349999 0.24483269453 -1.2839930058
          0.61227500439 -0.20498250425 -0.7539935708 0.44525501132 -0.44013750553 -0.72802501917
          0.75424200296 -0.42280769348 -0.65912491083 0.56030297279 -0.42190849781 -0.92723238468
          0.75424200296 -0.42280769348 -0.65912491083 0.56030297279 -0.42190849781 -0.92723238468
          0.80060499907 -0.40619540215 -0.98212498426 0.61227500439 -0.20498250425 -0.7539935708
          4.908780098 -0.05460799858 1.9473679066 4.7630262375 -0.078894995153 2.2290580273
          4.659427166 0.057737004012 2.0819699764 4.9883351326 -0.0025349962525 2.1726241112
          -2.9494459629 -0.043818198144 -0.28794598579 -3.1492960453 -0.20950199664 -0.30492499471
          -2.8852050304 -0.13799700141 -0.5307559967 -3.0457994938 0.036590598524 -0.58276486397
          -0.1767269969 -0.26826900244 -0.53143000603 -0.23330500722 -0.099709004164 -0.54330998659
          0.0018850000342 -0.13561350107 -0.81675201654 -0.011990199797 -0.27998569608 -0.48404100537
          -4.2544279099 -0.066851697862 -0.67942899466 -4.1204099655 0.088588900864 -0.72504401207
          -4.0872659683 -0.040365900844 -0.50246196985 -4.2844419479 0.10605479777 -0.67162799835
          5.2030038834 -0.095155008137 2.0543687344 5.4175891876 0.055754002184 2.0606226921
          5.2890958786 -0.018920002505 2.382846117 5.1686019897 0.14154189825 2.0466096401
          -3.4256296158 -0.04080190137 -0.73200601339 -3.3584003448 -0.26359349489 -0.49015578628
          -3.1669573784 -0.19655050337 -0.74350303411 -3.4521927834 -0.28309810162 -0.73375397921
          0.30814930797 0.31706541777 -1.2523280382 0.4462980032 0.22514030337 -1.0646909475
          0.081534996629 0.22075429559 -1.1755410433 0.21853539348 0.33637189865 -0.98886328936
          5.1202697754 0.12177520245 1.4594299793 5.0031938553 0.28169769049 1.6652870178
          5.0874519348 0.48010200262 1.4636000395 5.2508559227 0.28233119845 1.5107899904
          5.0031938553 0.28169769049 1.6652870178 5.1873960495 0.42186701298 1.8164199591
          5.0874519348 0.48010200262 1.4636000395 5.2508559227 0.28233119845 1.5107899904
          -3.5465004444 -0.0025727003813 -0.37637498975 -3.2953541279 -0.00062000047183 -0.49288973212
          -3.5159258842 -0.18312910199 -0.2097529918 -3.2438099384 0.03149420023 -0.20086398721
          3.6544830799 0.36574301124 1.0680350065 3.6721630096 0.17420139909 0.90603202581
          3.427726984 0.34208199382 0.94024497271 3.5387530327 0.16991350055 1.193629384
          0.36111998558 0.56500959396 -0.54083001614 0.18104350567 0.33106470108 -0.62392002344
          0.36366090178 0.26720348001 -0.30314698815 0.40944099426 0.2642891109 -0.64370203018
          3.6373169422 0.67194199562 1.4793165922 3.7856199741 0.69599997997 1.1387779713
          3.6058731079 0.68220502138 1.2335082293 3.7163519859 0.46678900719 1.408038497
          3.3760828972 -0.31359198689 0.77911198139 3.5389170647 -0.30982100964 1.044885993
          3.232765913 -0.12802201509 0.84651488066 3.4617619514 -0.034863006324 0.83526402712
          -2.4806556702 -0.1127384007 -1.363214016 -2.5419068336 -0.2821674943 -1.3411229849
          -2.6741175652 -0.17868329585 -1.2965600491 -2.3660526276 -0.18054547906 -1.0520470142
          -2.9584069252 -0.33283078671 -0.35879898071 -3.07508111 -0.50736320019 -0.289350003
          -2.8012299538 -0.51003861427 -0.44231700897 -2.9948811531 -0.50990730524 -0.57723468542
          0.3360530138 -0.12368449569 -0.71136599779 0.44525501132 -0.44013750553 -0.72802501917
          0.61227500439 -0.20498250425 -0.7539935708 0.36515200138 -0.25333359838 -0.93256372213
          -3.1503348351 -0.51121389866 -0.73205798864 -3.3584003448 -0.26359349489 -0.49015578628
          -3.2427380085 -0.50958657265 -0.51888477802 -3.4521927834 -0.28309810162 -0.73375397921
          2.7515289783 0.13377730548 0.70048117638 2.3112504482 0.13608121872 0.81553798914
          2.5839250088 0.25846800208 0.93122702837 2.6176869869 -0.096157990396 0.89440202713
          5.1873960495 0.42186701298 1.8164199591 5.1686019897 0.14154189825 2.0466096401
          5.2795748711 0.19745920599 1.7484179735 4.9558830261 0.24193349481 1.938804388
          4.9883351326 -0.0025349962525 2.1726241112 4.8128800392 -0.12278998643 2.4790999889
          5.0791130066 -0.098838992417 2.3361620903 4.7630262375 -0.078894995153 2.2290580273
          0.14116099477 -0.43207919598 -1.1435899734 -0.012586000375 -0.43688291311 -1.2338080406
          0.059512998909 -0.21327769756 -1.0408661366 0.018631000072 -0.44565591216 -1.0280195475
          -3.564964056 -0.31996080279 -0.046510994434 -3.3116250038 -0.30738094449 0.088941000402
          -3.2750339508 -0.14621569216 0.072559997439 -3.3219630718 -0.30692452192 -0.14970101416
          -3.564964056 -0.31996080279 -0.046510994434 -3.5088529587 -0.28569889069 0.1608529985
          -3.2750339508 -0.14621569216 0.072559997439 -3.3116250038 -0.30738094449 0.088941000402
          -4.1204099655 0.088588900864 -0.72504401207 -3.9709320068 -0.19345550239 -0.77938902378
          -4.1338410378 -0.23460809886 -0.7192620039 -4.0872659683 -0.040365900844 -0.50246196985
          1.0180549622 0.17184720933 -1.2025079727 0.90016597509 0.3842356205 -1.0304160118
          1.0951930285 0.35682529211 -1.1645820141 1.2157520056 0.1916974932 -1.1104990244
          2.0099020004 0.62074702978 -0.17452520132 1.9673910141 0.42298001051 0.05929357931
          2.2606570721 0.63481098413 0.14861099422 2.1847960949 0.4558160007 -0.22780369222
          0.5862929821 0.35003548861 -1.1572810411 0.35893088579 0.54108428955 -1.083673954
          0.43711400032 0.35662287474 -0.86431020498 0.4462980032 0.22514030337 -1.0646909475
          1.9952529669 -0.028272999451 -0.39336639643 1.8071659803 -0.10879799724 -0.12797890604
          1.6553009748 -0.058208007365 -0.42940098047 1.8257160187 0.17760980129 -0.11040610075
          -3.0899682045 -0.29772499204 -0.5357632041 -2.9948811531 -0.50990730524 -0.57723468542
          -2.9584069252 -0.33283078671 -0.35879898071 -2.8640635014 -0.32550418377 -0.67871928215
          2.1427390575 -0.046670995653 -0.085950896144 1.8071659803 -0.10879799724 -0.12797890604
          1.9952529669 -0.028272999451 -0.39336639643 1.8257160187 0.17760980129 -0.11040610075
          -3.8928060532 -0.036693397909 -0.81056702137 -3.779299736 -0.33174827695 -0.59858602285
          -3.9709320068 -0.19345550239 -0.77938902378 -3.8436272144 -0.0084195006639 -0.544039011
          2.7450699806 0.13935770094 1.1011400223 2.355743885 -0.0222629942 1.108060956
          2.6176869869 -0.096157990396 0.89440202713 2.5839250088 0.25846800208 0.93122702837
          -3.4282062054 0.14235441387 -0.57428902388 -3.2987422943 0.26889032125 -0.46421080828
          -3.2953541279 -0.00062000047183 -0.49288973212 -3.5465004444 -0.0025727003813 -0.37637498975
          4.9883351326 -0.0025349962525 2.1726241112 5.0963821411 0.18064403534 2.290708065
          5.1686019897 0.14154189825 2.0466096401 5.2890958786 -0.018920002505 2.382846117
          -3.2346680164 0.26355689764 -0.22137200832 -3.5110230446 0.47337430716 -0.19270299375
          -3.4917843342 0.47428500652 -0.40278941393 -3.3044788837 0.4724803865 -0.1253259927
          4.4655342102 0.20313693583 1.8080023527 4.1660380363 0.37686598301 1.8869049549
          4.2557749748 0.16182330251 1.8862160444 4.2718300819 0.15794679523 1.6279176474
          0.93293100595 -0.41566240788 -0.55624979734 1.0542720556 -0.20917788148 -0.54995292425
          0.76676100492 -0.1134057045 -0.50795000792 0.88520997763 -0.23278620839 -0.74979001284
          -1.6238960028 0.24829168618 -1.1837819815 -1.915242672 0.15616099536 -1.1708220243
          -1.5908279419 -0.0042438311502 -1.0808677673 -1.6338564157 0.02010091953 -1.3360049725
          -4.1460008621 0.48432341218 -0.41542598605 -4.4399366379 0.49330413342 -0.36716800928
          -4.2408308983 0.48058089614 -0.10947950184 -4.3347187042 0.29005420208 -0.44296199083
          1.5375082493 0.031310401857 0.49632260203 1.6255400181 0.14701509476 0.17244631052
          1.8012125492 0.13252429664 0.42392399907 1.5715531111 0.22482000291 0.53529620171
          1.8012125492 0.13252429664 0.42392399907 1.6255400181 0.14701509476 0.17244631052
          1.8911110163 0.31002601981 0.28474500775 1.5715531111 0.22482000291 0.53529620171
          2.0687611103 0.17121970654 0.57191699743 1.8012125492 0.13252429664 0.42392399907
          1.8670481443 0.33276200294 0.76933300495 1.7765240669 0.044387601316 0.68126302958
          -1.6338564157 0.02010091953 -1.3360049725 -1.856298089 -0.15979887545 -1.5231399536
          -1.5521390438 -0.22336211801 -1.3013720512 -1.5631556511 -0.15877270699 -1.5688300133
          -1.8180626631 0.066226676106 -1.5300899744 -1.856298089 -0.15979887545 -1.5231399536
          -1.6338564157 0.02010091953 -1.3360049725 -1.5631556511 -0.15877270699 -1.5688300133
          -1.5296863317 0.075993299484 -1.5737700462 -1.8180626631 0.066226676106 -1.5300899744
          -1.6338564157 0.02010091953 -1.3360049725 -1.5631556511 -0.15877270699 -1.5688300133
          4.7131490707 0.21425390244 1.868008852 5.0031938553 0.28169769049 1.6652870178
          4.8711438179 0.14351969957 1.5897270441 4.9797067642 0.10058799386 1.780706048
          1.7765240669 0.044387601316 0.68126302958 1.5375082493 0.031310401857 0.49632260203
          1.8012125492 0.13252429664 0.42392399907 1.5715531111 0.22482000291 0.53529620171
          1.8012125492 0.13252429664 0.42392399907 1.5715531111 0.22482000291 0.53529620171
          1.8670481443 0.33276200294 0.76933300495 1.7765240669 0.044387601316 0.68126302958
          -1.6338564157 0.02010091953 -1.3360049725 -1.5521390438 -0.22336211801 -1.3013720512
          -1.5908279419 -0.0042438311502 -1.0808677673 -1.4067959785 -0.070061728358 -1.4117490053
          3.217676878 0.63562899828 1.7659000158 3.138158083 0.46699899435 1.4169000387
          3.2050361633 0.42096599936 1.7410199642 3.4833610058 0.65569698811 1.6809769869
          3.217676878 0.63562899828 1.7659000158 3.3933129311 0.66335201263 1.4056479931
          3.138158083 0.46699899435 1.4169000387 3.4833610058 0.65569698811 1.6809769869
          -0.38811999559 -0.14212410152 -1.2827340364 -0.53547698259 0.15860010684 -1.2386740446
          -0.42777499557 0.06476470083 -1.0590546131 -0.61719799042 -0.039664398879 -1.1887242794
          -0.73458898067 -0.17205369473 -1.327262044 -0.79623502493 -0.46506458521 -1.2561719418
          -1.0050040483 -0.23432028294 -1.1520009041 -0.74982398748 -0.23088718951 -1.0935233831
          3.4617619514 -0.034863006324 0.83526402712 3.3454549313 -0.14016999304 0.62486702204
          3.4745230675 0.094017997384 0.40399199724 3.241795063 0.17628619075 0.51923000813
          3.4745230675 0.094017997384 0.40399199724 3.4617619514 -0.034863006324 0.83526402712
          3.678497076 -0.014678004198 0.55156999826 3.3454549313 -0.14016999304 0.62486702204
          -1.542323947 -0.10029046237 -0.56713998318 -1.6775929928 0.07707464695 -0.53350001574
          -1.715157032 -0.23626880348 -0.5269600153 -1.7705160379 -0.013670380227 -0.72984999418
          -1.5145759583 -0.018870471045 -0.82699400187 -1.7705160379 -0.013670380227 -0.72984999418
          -1.5314699411 -0.26643535495 -0.78901797533 -1.7501699924 -0.19925332069 -0.86327397823
          -1.9959019423 -0.25378808379 -0.72344702482 -1.7705160379 -0.013670380227 -0.72984999418
          -1.9904079437 0.054340101779 -0.69911700487 -2.0607159138 -0.073489099741 -0.92311251163
          -1.5145759583 -0.018870471045 -0.82699400187 -1.7904880047 0.17986288667 -0.85320198536
          -1.7705160379 -0.013670380227 -0.72984999418 -1.8356319666 0.0078969011083 -1.0082437992
          -0.51359897852 0.26363918185 -1.5916399956 -0.38828599453 0.11242230237 -1.4058929682
          -0.47055399418 0.047336298972 -1.5825300217 -0.679880023 0.069117903709 -1.6021100283
          2.2918043137 0.21171090007 1.0770230293 2.1746091843 0.4260700047 1.0060030222
          2.387912035 0.31022301316 0.66756099463 2.5839250088 0.25846800208 0.93122702837
          4.3675351143 0.70144999027 1.5965069532 4.4522380829 0.45779499412 1.8534209728
          4.3931241035 0.68594300747 1.8131175041 4.561398983 0.70336198807 1.6810460091
          3.8874111176 0.63993400335 2.0479431152 3.9373788834 0.45778700709 1.9478909969
          3.5524427891 0.59926497936 1.9792000055 3.9451920986 0.36131098866 2.1700799465
          -0.04825539887 0.29193970561 -0.48039200902 -0.025832999498 0.026944899932 -0.47304499149
          0.13325339556 0.2185369879 -0.41051501036 -0.027907999232 0.12770339847 -0.67658001184
          -1.9904079437 0.054340101779 -0.69911700487 -1.8522150517 0.15278969705 -0.4879719913
          -1.7705160379 -0.013670380227 -0.72984999418 -1.8855940104 -0.082297004759 -0.4747030139
          3.7195839882 0.0037419972941 1.0903520584 3.8552589417 -0.056183006614 1.3705922365
          4.0087571144 -0.073222987354 1.1375299692 3.8409628868 -0.30274599791 1.1827360392
          4.1866950989 -0.16452099383 0.93571001291 4.1854190826 0.098016999662 0.94669002295
          4.0087571144 -0.073222987354 1.1375299692 3.902930975 -0.018859993666 0.7255499959
          1.9639710188 -0.12883301079 0.49361902475 1.5937000513 -0.15697298944 0.5264647007
          1.8810739517 -0.025785999373 0.24052999914 1.8012125492 0.13252429664 0.42392399907
          -1.6338564157 0.02010091953 -1.3360049725 -1.915242672 0.15616099536 -1.1708220243
          -1.5908279419 -0.0042438311502 -1.0808677673 -1.8356319666 0.0078969011083 -1.0082437992
          -1.7530180216 -0.49406966567 -1.0832090378 -1.8587261438 -0.19973695278 -1.1918489933
          -1.9235659838 -0.32769143581 -0.93234062195 -1.9633500576 -0.49727156758 -1.0658731461
          -1.6408480406 -0.49996328354 -0.93084400892 -1.5769430399 -0.27982699871 -1.0531499386
          -1.9235659838 -0.32769143581 -0.93234062195 -1.7530180216 -0.49406966567 -1.0832090378
          1.8257160187 0.17760980129 -0.11040610075 1.7167700529 0.42090001702 -0.091850601137
          1.6255400181 0.14701509476 0.17244631052 1.4418599606 0.28709000349 -0.062245994806
          1.8257160187 0.17760980129 -0.11040610075 1.8911110163 0.31002601981 0.28474500775
          1.6255400181 0.14701509476 0.17244631052 1.7167700529 0.42090001702 -0.091850601137
          2.6370809078 0.64847302437 0.76524597406 2.2841498852 0.63460797071 0.62853097916
          2.5486719608 0.4433940053 0.48740598559 2.4290430546 0.64191198349 0.39004901052
          2.7105460167 0.65613901615 0.34329998493 2.7781450748 0.40818598866 0.68238705397
          3.0115010738 0.44793599844 0.41370400786 2.5486719608 0.4433940053 0.48740598559
          3.2712409496 -0.069230996072 1.0871679783 3.4360439777 -0.0026910067536 1.3680689335
          3.2492110729 -0.32095301151 1.4265520573 3.1324748993 -0.012670002878 1.333466053
          2.6370809078 0.64847302437 0.76524597406 2.4290430546 0.64191198349 0.39004901052
          2.5486719608 0.4433940053 0.48740598559 2.7105460167 0.65613901615 0.34329998493
          -2.82984519 -0.19690430164 -0.8898460269 -2.6584146023 -0.50556856394 -0.92454200983
          -2.5444853306 -0.19624508917 -0.90569740534 -2.6056780815 -0.30553308129 -1.0694279671
          -0.36334300041 -0.45349159837 -1.1892901659 -0.42743900418 -0.29611000419 -1.0441720486
          -0.19269900024 -0.26168438792 -1.0995333195 -0.17229199409 -0.45925500989 -0.92756402493
          -5 -0.004447159823 0.13623799384 -5 -0.12896800041 0.37591099739
          -5 0.07584580034 0.38386198878 -4.7829651833 -0.03583727777 0.25068509579
          3.9656031132 0.16085809469 1.1511030197 3.8746159077 0.2987203002 0.98308598995
          3.9685349464 0.18286730349 0.78710997105 4.1035399437 0.34244701266 0.90219002962
          -3.5090770721 0.16754239798 -0.19926699996 -3.4597270489 0.28559470177 -0.035445000976
          -3.6423470974 -0.017455210909 -0.0356920138 -3.7695140839 0.20615190268 -0.025571003556
          -2.0596408844 0.23887120187 -0.93493187428 -2.0607159138 -0.073489099741 -0.92311251163
          -2.2431271076 0.16042180359 -0.71514201164 -1.9904079437 0.054340101779 -0.69911700487
          -1.5145759583 -0.018870471045 -0.82699400187 -1.7904880047 0.17986288667 -0.85320198536
          -1.8356319666 0.0078969011083 -1.0082437992 -1.5908279419 -0.0042438311502 -1.0808677673
          3.0217940807 0.11983050406 0.068121999502 2.9617218971 0.11532790214 0.41656598449
          3.251791954 0.13675589859 0.23980399966 3.0362560749 -0.12312699854 0.36283898354
          -2.5362904072 0.058985300362 -1.3469660282 -2.6741175652 -0.17868329585 -1.2965600491
          -2.7915763855 -0.063147902489 -1.2559100389 -2.6269614697 -0.066813401878 -1.0421299934
          -1.6665450335 0.31891724467 -0.9786170125 -1.86886096 0.2922372818 -1.0309972763
          -1.6238960028 0.24829168618 -1.1837819815 -1.7639460564 0.4825155139 -1.1151630878
          4.7563681602 0.41457000375 1.7243119478 5.0031938553 0.28169769049 1.6652870178
          4.9762878418 0.4914059937 1.7501740456 5.0874519348 0.48010200262 1.4636000395
          -2.4275128841 0.11600639671 -0.53692299128 -2.707750082 0.14897160232 -0.50897496939
          -2.3634879589 0.31209561229 -0.49861198664 -2.4711580276 0.34027990699 -0.26157900691
          0.69450002909 0.33520320058 -0.69070541859 0.62536001205 0.067611642182 -0.78804123402
          0.93579101562 0.2607139945 -0.85697698593 0.67646998167 0.33598598838 -0.95468699932
          4.3931241035 0.68594300747 1.8131175041 4.1757931709 0.68295997381 1.7038977146
          4.2633280754 0.48635900021 1.6941789389 4.3675351143 0.70144999027 1.5965069532
          0.27352508903 -0.21387378871 -0.36756598949 0.32963371277 -0.040354099125 -0.32682800293
          0.38312900066 0.045982599258 -0.55516397953 0.51021200418 -0.21610671282 -0.49635899067
          2.7344648838 -0.33579298854 0.55702829361 2.9889109135 -0.32668501139 0.69036900997
          2.846298933 -0.090493999422 0.57238131762 2.8988618851 -0.32689899206 0.32881501317
          3.1057059765 0.21902000904 1.2990050316 3.4179348946 0.33102399111 1.4116280079
          3.3237390518 0.14818389714 1.5284450054 3.138158083 0.46699899435 1.4169000387
          3.4475607872 0.0026549980976 1.8703099489 3.3237390518 0.14818389714 1.5284450054
          3.5908029079 0.19661930203 1.6370530128 3.3313462734 0.21289689839 1.8087899685
          4.7825579643 0.012594994158 1.737795949 4.6009202003 -0.29254201055 1.7585229874
          4.6791539192 -0.064878001809 1.5370919704 4.5158967972 -0.051814988256 1.7898253202
          4.4501152039 0.014983006753 1.5191400051 4.5158967972 -0.051814988256 1.7898253202
          4.6791539192 -0.064878001809 1.5370919704 4.4976420403 -0.29328599572 1.5345549583
          4.6791539192 -0.064878001809 1.5370919704 4.6735458374 0.19949239492 1.5503569841
          4.7825579643 0.012594994158 1.737795949 4.5158967972 -0.051814988256 1.7898253202
          4.8788080215 -0.15261600912 1.3581800461 4.725110054 0.0005410007434 1.2883199453
          4.6791539192 -0.064878001809 1.5370919704 4.691215992 -0.25143399835 1.2670099735
          -0.0416380018 -0.36202129722 -1.5427700281 -0.27238899469 -0.43512588739 -1.4818589687
          -0.14396199584 -0.17642790079 -1.5491399765 -0.19379499555 -0.24117720127 -1.3589559793
          4.4501152039 0.014983006753 1.5191400051 4.6735458374 0.19949239492 1.5503569841
          4.6791539192 -0.064878001809 1.5370919704 4.5158967972 -0.051814988256 1.7898253202
          5.1637601852 -0.29948699474 1.865844965 5.327480793 -0.087410993874 1.7155309916
          5.3534770012 -0.30086100101 1.9398570061 5.1593341827 -0.012515998445 1.8333879709
          4.8788080215 -0.15261600912 1.3581800461 4.6791539192 -0.064878001809 1.5370919704
          4.7298440933 -0.29282999039 1.5341100693 4.691215992 -0.25143399835 1.2670099735
          -0.7670930028 0.060932602733 -1.3277369738 -0.84249997139 0.26520928741 -1.1529723406
          -0.61719799042 -0.039664398879 -1.1887242794 -0.89497202635 0.0030651004054 -1.1271020174
          4.9762878418 0.4914059937 1.7501740456 4.9558830261 0.24193349481 1.938804388
          5.1873960495 0.42186701298 1.8164199591 5.0031938553 0.28169769049 1.6652870178
          0.94075733423 -0.2887121141 0.026029000059 0.87843650579 -0.43051719666 -0.09530800581
          0.85404402018 -0.22467930615 -0.32312399149 0.75101262331 -0.27248388529 -0.098263002932
          -0.33649298549 0.53052771091 -0.93731302023 -0.50188398361 0.32205638289 -1.0782203674
          -0.41940999031 0.51631212234 -1.1652537584 -0.60533702374 0.52063310146 -1.0015729666
          3.804610014 0.20091049373 1.4191051722 3.6544830799 0.36574301124 1.0680350065
          3.9656031132 0.16085809469 1.1511030197 3.9769608974 0.41242301464 1.2358649969
          -4.6802415848 -0.16959774494 -0.21772760153 -4.8024878502 -0.29730415344 -0.34576281905
          -4.7666764259 -0.51139259338 -0.25473800302 -4.6099963188 -0.51237237453 -0.2558003962
          -4.3347187042 0.29005420208 -0.44296199083 -4.5366792679 0.30343410373 -0.3805705905
          -4.3815760612 0.24617770314 -0.19512629509 -4.436715126 0.026354400441 -0.37169200182
          -1.5631556511 -0.15877270699 -1.5688300133 -1.7574769258 -0.32169941068 -1.3376590014
          -1.5384149551 -0.474794209 -1.4103360176 -1.6306117773 -0.45637950301 -1.5653500557
          -2.2431271076 0.16042180359 -0.71514201164 -2.3634879589 0.31209561229 -0.49861198664
          -2.2290380001 -0.01067822054 -0.56298202276 -2.4275128841 0.11600639671 -0.53692299128
          1.220471859 -0.14656609297 0.24174399674 1.2570589781 -0.21799020469 -0.084225989878
          1.1920820475 0.066462799907 -0.092215999961 0.96178209782 -0.10965040326 0.053582999855
          1.220471859 -0.14656609297 0.24174399674 1.2570589781 -0.21799020469 -0.084225989878
          1.4943079948 -0.043684996665 -0.058169994503 1.1920820475 0.066462799907 -0.092215999961
          -2.0596408844 0.23887120187 -0.93493187428 -2.0370030403 0.2986676991 -0.69848400354
          -2.1977200508 0.47695589066 -0.94357067347 -1.9829889536 0.48603790998 -0.84902697802
          1.2570589781 -0.21799020469 -0.084225989878 1.0725090504 -0.1251232028 -0.30668699741
          1.1920820475 0.066462799907 -0.092215999961 0.96178209782 -0.10965040326 0.053582999855
          -4.0705108643 0.13585180044 0.0080800065771 -4.2035307884 0.079204000533 -0.13781389594
          -4.3490223885 0.21022440493 0.13521999121 -4.1473436356 -0.025500500575 0.13780200481
          -2.9465370178 0.2871569097 -0.061487998813 -2.9054839611 0.47552779317 -0.32576698065
          -2.8824410439 0.47557380795 -0.10396198928 -3.0915300846 0.47361189127 -0.20009501278
          1.2570589781 -0.21799020469 -0.084225989878 1.5088090897 -0.39408099651 0.20298700035
          1.4818120003 -0.39234900475 -0.097535997629 1.2357423306 -0.37867379189 0.23501800001
          0.53313398361 0.019717698917 -1.1568260193 0.22415600717 -0.082622297108 -1.3033210039
          0.26428851485 -0.064987801015 -1.0606349707 0.36511561275 -0.21865269542 -1.2138979435
          -1.1732499599 0.28154438734 -1.1781251431 -1.1999200583 0.31322172284 -0.84429401159
          -0.97820800543 0.24167840183 -0.90613996983 -1.2363820076 0.13768835366 -0.99496001005
          -1.1732499599 0.28154438734 -1.1781251431 -1.182997942 0.50088942051 -1.0786180496
          -0.97820800543 0.24167840183 -0.90613996983 -1.1999200583 0.31322172284 -0.84429401159
          -5 -0.49631300569 0.38468599319 -4.777050972 -0.31894397736 0.2911812067
          -4.8936700821 -0.25269600749 0.5 -5 -0.26007699966 0.21836000681
          0.96178209782 -0.10965040326 0.053582999855 0.94075733423 -0.2887121141 0.026029000059
          1.0725090504 -0.1251232028 -0.30668699741 0.85404402018 -0.22467930615 -0.32312399149
          1.6255400181 0.14701509476 0.17244631052 1.5715531111 0.22482000291 0.53529620171
          1.594933033 0.40332198143 0.19972449541 1.8911110163 0.31002601981 0.28474500775
          5.1484160423 0.71598798037 1.853268981 5.0743060112 0.70134097338 2.1695489883
          5.2246007919 0.71275597811 2.0305790901 4.9700350761 0.50200498104 1.9810703993
          1.594933033 0.40332198143 0.19972449541 1.8911110163 0.31002601981 0.28474500775
          1.669698596 0.61242300272 0.38457930088 1.7845100164 0.61610001326 0.12772998214
          3.251791954 0.13675589859 0.23980399966 3.241795063 0.17628619075 0.51923000813
          3.0362560749 -0.12312699854 0.36283898354 2.9617218971 0.11532790214 0.41656598449
          1.669698596 0.61242300272 0.38457930088 1.4247305393 0.51622200012 0.439211905
          1.6232156754 0.43198397756 0.58796167374 1.594933033 0.40332198143 0.19972449541
          -1.8760517836 0.47185769677 -1.3252899647 -2.0755507946 0.47351419926 -1.1557840109
          -1.915242672 0.15616099536 -1.1708220243 -2.1506009102 0.25718417764 -1.2337720394
          -2.1506009102 0.25718417764 -1.2337720394 -2.2146024704 0.15617579222 -1.4417170286
          -1.972568512 0.25535020232 -1.5025000572 -2.1687932014 0.46246668696 -1.4244270325
          1.1987409592 0.59465539455 -0.16085501015 1.2371704578 0.59994918108 0.042260996997
          1.2312122583 0.39813408256 -0.034452985972 1.0282603502 0.59369128942 0.0024159983732
          -1.5908279419 -0.0042438311502 -1.0808677673 -1.5145759583 -0.018870471045 -0.82699400187
          -1.5769430399 -0.27982699871 -1.0531499386 -1.7501699924 -0.19925332069 -0.86327397823
          -4.1460008621 0.48432341218 -0.41542598605 -4.3347187042 0.29005420208 -0.44296199083
          -4.2408308983 0.48058089614 -0.10947950184 -4.3815760612 0.24617770314 -0.19512629509
          -1.5908279419 -0.0042438311502 -1.0808677673 -1.5145759583 -0.018870471045 -0.82699400187
          -1.3524429798 -0.2001490891 -0.93651300669 -1.5769430399 -0.27982699871 -1.0531499386
          5.0743060112 0.70134097338 2.1695489883 5.0721921921 0.69339102507 2.3749821186
          5.3322758675 0.71096599102 2.2698550224 5.1783838272 0.53621798754 2.2175490856
          -4.1666903496 0.27508330345 -0.13123139739 -4.3753991127 0.47727328539 0.067836903036
          -4.3490223885 0.21022440493 0.13521999121 -4.5223350525 0.28749448061 0.00038830153062
          1.1257488728 0.21291010082 0.19439199567 1.369579196 0.12671080232 0.095050007105
          1.1920820475 0.066462799907 -0.092215999961 1.220471859 -0.14656609297 0.24174399674
          4.4655342102 0.20313693583 1.8080023527 4.1660380363 0.37686598301 1.8869049549
          4.2633280754 0.48635900021 1.6941789389 4.4522380829 0.45779499412 1.8534209728
          3.0825920105 0.52345901728 0.14255799353 3.0115010738 0.44793599844 0.41370400786
          3.3571829796 0.56413400173 0.35071998835 3.1855530739 0.35112899542 0.20670999587
          0.36366090178 0.26720348001 -0.30314698815 0.38312900066 0.045982599258 -0.55516397953
          0.32963371277 -0.040354099125 -0.32682800293 0.60305899382 0.11440300196 -0.49014899135
          -2.3660526276 -0.18054547906 -1.0520470142 -2.2354676723 -0.21959285438 -1.2453320026
          -2.4264535904 -0.49877792597 -1.0958280563 -2.1019701958 -0.27823245525 -1.0662670135
          4.7728209496 0.11897029728 2.42572999 4.7842068672 0.23646980524 2.2136070728
          4.9883351326 -0.0025349962525 2.1726241112 5.0963821411 0.18064403534 2.290708065
          4.7842068672 0.23646980524 2.2136070728 5.0963821411 0.18064403534 2.290708065
          4.9558830261 0.24193349481 1.938804388 5.1686019897 0.14154189825 2.0466096401
          -1.1546920538 -0.21682497859 -0.62265998125 -1.2343740463 0.075913608074 -0.61450999975
          -1.3339209557 -0.1199079901 -0.60588997602 -1.1518950462 -0.061164274812 -0.8551800251
          -2.4264535904 -0.49877792597 -1.0958280563 -2.2354676723 -0.21959285438 -1.2453320026
          -2.3660526276 -0.18054547906 -1.0520470142 -2.6056780815 -0.30553308129 -1.0694279671
          3.5512509346 0.3587679863 1.954660058 3.804297924 0.13001829386 1.8220219612
          3.5908029079 0.19661930203 1.6370530128 3.7400364876 0.21424710751 2.056910038
          -2.1019701958 -0.27823245525 -1.0662670135 -2.1722934246 -0.49265837669 -1.1914629936
          -2.4264535904 -0.49877792597 -1.0958280563 -2.214564085 -0.50244742632 -0.93670272827
          2.8278307915 0.37164700031 1.4777669907 2.5472946167 0.21848860383 1.2638469934
          2.78916049 0.10995809734 1.4312570095 2.7450699806 0.13935770094 1.1011400223
          4.0087571144 -0.073222987354 1.1375299692 4.344976902 0.097388997674 1.2805169821
          4.4213061333 -0.052222006023 1.1044199467 4.1369771957 0.033024005592 1.3592270613
          4.3275651932 -0.10407299548 1.3448059559 4.4501152039 0.014983006753 1.5191400051
          4.4976420403 -0.29328599572 1.5345549583 4.2373199463 -0.093296997249 1.6291577816
          -4.3753991127 0.47727328539 0.067836903036 -4.5983519554 0.47850579023 0.11985320598
          -4.4579524994 0.47279408574 0.21904788911 -4.5223350525 0.28749448061 0.00038830153062
          -4.3753991127 0.47727328539 0.067836903036 -4.4579524994 0.47279408574 0.21904788911
          -4.3490223885 0.21022440493 0.13521999121 -4.5223350525 0.28749448061 0.00038830153062
          4.2629752159 -0.29529801011 1.4773910046 4.3275651932 -0.10407299548 1.3448059559
          4.4976420403 -0.29328599572 1.5345549583 4.2373199463 -0.093296997249 1.6291577816
          4.0760598183 -0.29790601134 1.5380973816 4.2373199463 -0.093296997249 1.6291577816
          4.3275651932 -0.10407299548 1.3448059559 4.2629752159 -0.29529801011 1.4773910046
          4.4213061333 -0.052222006023 1.1044199467 4.344976902 0.097388997674 1.2805169821
          4.3275651932 -0.10407299548 1.3448059559 4.1369771957 0.033024005592 1.3592270613
          -0.72984099388 0.28546023369 -1.3866969347 -1.0256249905 0.49155002832 -1.3329880238
          -0.83093398809 0.49481633306 -1.3887859583 -0.84249997139 0.26520928741 -1.1529723406
          -2.4344344139 0.47441139817 -0.8509837985 -2.3114500046 0.28709989786 -0.8894675374
          -2.4950749874 0.26449760795 -1.1571450233 -2.6201217175 0.47078740597 -0.97456198931
          -3.9515781403 0.22483050823 -0.22432824969 -3.9705395699 0.47333359718 0.0037210055161
          -3.7485210896 0.47213810682 -0.081793002784 -3.7695140839 0.20615190268 -0.025571003556
          -3.9811484814 0.47856000066 -0.21228690445 -3.9705395699 0.47333359718 0.0037210055161
          -3.7485210896 0.47213810682 -0.081793002784 -3.9515781403 0.22483050823 -0.22432824969
          -1.3511379957 -0.033111680299 -1.0856614113 -1.5145759583 -0.018870471045 -0.82699400187
          -1.3524429798 -0.2001490891 -0.93651300669 -1.5908279419 -0.0042438311502 -1.0808677673
          -2.2719159126 -0.063200898468 -1.4239000082 -2.2354676723 -0.21959285438 -1.2453320026
          -2.3633306026 -0.018299350515 -1.2072839737 -2.1130719185 -0.047264300287 -1.1963629723
          -3.3653941154 0.12199870497 0.10548699647 -3.4597270489 0.28559470177 -0.035445000976
          -3.3263669014 0.39029639959 0.092840000987 -3.5363500118 0.303062886 0.16877999902
          2.457036972 -0.14717501402 0.22073699534 2.4627220631 0.06453820318 0.024974999949
          2.6742250919 -0.012311006896 0.2936809957 2.4130580425 -0.0050789942034 0.39745768905
          4.3977518082 -0.2796689868 1.9731270075 4.5017971992 -0.076010011137 2.1854460239
          4.3348088264 0.0020780034829 2.0050890446 4.5158967972 -0.051814988256 1.7898253202
          -3.9470174313 -0.23043839633 -0.45734000206 -4.0016961098 -0.32739970088 -0.24166919291
          -3.7178936005 -0.30012491345 -0.34045830369 -3.8315455914 -0.51438689232 -0.46247899532
          3.3829259872 0.46805399656 0.71429997683 3.0083858967 0.66490697861 0.78671127558
          3.4043519497 0.68294101954 0.87328398228 3.2219541073 0.45492699742 0.97522252798
          0.85404402018 -0.22467930615 -0.32312399149 0.69095832109 -0.066606298089 -0.12778200209
          0.5607355237 -0.26477059722 -0.21746100485 0.76676100492 -0.1134057045 -0.50795000792
          4.3472771645 -0.29031598568 1.7298301458 4.1488780975 -0.13552299142 1.9172199965
          4.3977518082 -0.2796689868 1.9731270075 4.1453089714 -0.29227998853 1.7419952154
          4.1488780975 -0.13552299142 1.9172199965 4.3472771645 -0.29031598568 1.7298301458
          4.3977518082 -0.2796689868 1.9731270075 4.5158967972 -0.051814988256 1.7898253202
          3.961992979 -0.15715098381 2.1520600319 4.1488780975 -0.13552299142 1.9172199965
          4.1882071495 -0.28400298953 2.0946230888 4.2298059464 -0.09465200454 2.2884199619
          -3.5356121063 0.44416579604 -0.95966500044 -3.4902799129 0.19203700125 -0.97851699591
          -3.7469959259 0.18661350012 -0.87160599232 -3.5222220421 0.2613735199 -0.7316250205
          -2.825469017 0.27062919736 -0.34245297313 -3.1012940407 0.47349649668 -0.42684000731
          -2.9054839611 0.47552779317 -0.32576698065 -3.0384581089 0.17068129778 -0.37494298816
          -2.9227018356 0.26947918534 -0.61335587502 -3.1012940407 0.47349649668 -0.42684000731
          -2.825469017 0.27062919736 -0.34245297313 -3.0384581089 0.17068129778 -0.37494298816
          -4.827589035 0.26959607005 -0.53942549229 -4.7995986938 0.015869349241 -0.30273678899
          -4.6376662254 0.16694931686 -0.24515900016 -4.6492214203 0.036135789007 -0.56955337524
          -4.827589035 0.26959607005 -0.53942549229 -4.8905801773 0.078228734434 -0.52854001522
          -4.7995986938 0.015869349241 -0.30273678899 -4.6492214203 0.036135789007 -0.56955337524
          -2.9227018356 0.26947918534 -0.61335587502 -3.2987422943 0.26889032125 -0.46421080828
          -3.1012940407 0.47349649668 -0.42684000731 -3.0384581089 0.17068129778 -0.37494298816
          -3.4902799129 0.19203700125 -0.97851699591 -3.7469959259 0.18661350012 -0.87160599232
          -3.5222220421 0.2613735199 -0.7316250205 -3.683809042 -0.017515730113 -0.89673197269
          -4.7578816414 0.28667363524 -0.042721800506 -4.9290013313 0.49626871943 -0.082679122686
          -5 0.28975299001 0.088944099844 -5 0.30918601155 -0.271468997
          -5 0.1004910022 -0.10199099779 -4.7578816414 0.28667363524 -0.042721800506
          -5 0.28975299001 0.088944099844 -5 0.30918601155 -0.271468997
          -1.3524429798 -0.2001490891 -0.93651300669 -1.4523919821 -0.49702548981 -0.96172600985
          -1.3335059881 -0.48872581124 -1.1038045883 -1.5769430399 -0.27982699871 -1.0531499386
          -1.5769430399 -0.27982699871 -1.0531499386 -1.4523919821 -0.49702548981 -0.96172600985
          -1.3335059881 -0.48872581124 -1.1038045883 -1.4465429783 -0.48274430633 -1.2523479462
          -4.7578816414 0.28667363524 -0.042721800506 -5 0.1004910022 -0.10199099779
          -5 0.28975299001 0.088944099844 -4.7775506973 -0.01067915 -0.02922873944
          -0.061303000897 0.37349951267 -1.1732430458 -0.26240199804 0.35430929065 -1.093870163
          -0.2287349999 0.24483269453 -1.2839930058 -0.20239399374 0.51886868477 -1.2246849537
          -1.0256249905 0.49155002832 -1.3329880238 -1.1732499599 0.28154438734 -1.1781251431
          -0.84249997139 0.26520928741 -1.1529723406 -1.0088479519 0.19115871191 -1.3418680429
          -3.6423470974 -0.017455210909 -0.0356920138 -3.7828290462 0.0534854047 0.25001400709
          -3.5638709068 0.10706090182 0.17637899518 -3.6694390774 -0.1800750196 0.2162040025
          3.8552589417 -0.056183006614 1.3705922365 3.804610014 0.20091049373 1.4191051722
          4.1369771957 0.033024005592 1.3592270613 4.0141201019 0.24855940044 1.621557951
          3.8552589417 -0.056183006614 1.3705922365 3.8821690083 -0.30057999492 1.4447215796
          3.8409628868 -0.30274599791 1.1827360392 3.658107996 -0.30566099286 1.332764864
          3.8552589417 -0.056183006614 1.3705922365 4.0616660118 -0.29908099771 1.2974100113
          3.8409628868 -0.30274599791 1.1827360392 3.8821690083 -0.30057999492 1.4447215796
          -2.0028738976 -0.28446289897 -0.43915998936 -2.0667660236 -0.090073294938 -0.4165340066
          -2.1525170803 -0.34244281054 -0.58914798498 -1.9959019423 -0.25378808379 -0.72344702482
          -2.0028738976 -0.28446289897 -0.43915998936 -2.1998250484 -0.3150857985 -0.36672699451
          -2.1525170803 -0.34244281054 -0.58914798498 -2.0667660236 -0.090073294938 -0.4165340066
          2.9196689129 -0.13256700337 1.2476739883 2.9346859455 -0.010064994916 1.0378210545
          3.1324748993 -0.012670002878 1.333466053 2.78916049 0.10995809734 1.4312570095
          1.4418599606 0.28709000349 -0.062245994806 1.369579196 0.12671080232 0.095050007105
          1.594933033 0.40332198143 0.19972449541 1.6255400181 0.14701509476 0.17244631052
          3.8552589417 -0.056183006614 1.3705922365 3.804610014 0.20091049373 1.4191051722
          3.718173027 -0.032231997699 1.6364309788 3.4360439777 -0.0026910067536 1.3680689335
          4.3977518082 -0.2796689868 1.9731270075 4.1488780975 -0.13552299142 1.9172199965
          4.1882071495 -0.28400298953 2.0946230888 4.1453089714 -0.29227998853 1.7419952154
          3.804297924 0.13001829386 1.8220219612 3.4475607872 0.0026549980976 1.8703099489
          3.8050630093 0.010312004946 2.0734400749 3.89149189 -0.08670001477 1.8603260517
          -2.8640635014 -0.32550418377 -0.67871928215 -2.5790920258 -0.26749420166 -0.70352119207
          -2.7823200226 0.016783099622 -0.68633919954 -2.82984519 -0.19690430164 -0.8898460269
          4.5158967972 -0.051814988256 1.7898253202 4.6735458374 0.19949239492 1.5503569841
          4.7825579643 0.012594994158 1.737795949 4.4655342102 0.20313693583 1.8080023527
          3.0001080036 0.49131900072 1.1801650524 3.1057059765 0.21902000904 1.2990050316
          3.220927 0.38111701608 1.2094409466 2.8959798813 0.32024499774 1.0456169844
          0.47881600261 -0.41453048587 -1.1412249804 0.14116099477 -0.43207919598 -1.1435899734
          0.36511561275 -0.21865269542 -1.2138979435 0.36515200138 -0.25333359838 -0.93256372213
          2.9693405628 -0.31538802385 1.5350999832 2.7306396961 -0.34143799543 1.3402420282
          2.9925808907 -0.33054500818 1.2736970186 2.9196689129 -0.13256700337 1.2476739883
          2.9693405628 -0.31538802385 1.5350999832 2.9925808907 -0.33054500818 1.2736970186
          3.2492110729 -0.32095301151 1.4265520573 2.9196689129 -0.13256700337 1.2476739883
          -3.648727417 0.16803780198 -0.52384102345 -3.93171525 0.23039670289 -0.4976850152
          -3.8458154202 -0.0071441796608 -0.27063637972 -3.8436272144 -0.0084195006639 -0.544039011
          -3.93171525 0.23039670289 -0.4976850152 -3.8436272144 -0.0084195006639 -0.544039011
          -3.9523050785 0.21237049997 -0.78943997622 -4.1204099655 0.088588900864 -0.72504401207
          -3.8436272144 -0.0084195006639 -0.544039011 -3.8928060532 -0.036693397909 -0.81056702137
          -3.9523050785 0.21237049997 -0.78943997622 -4.1204099655 0.088588900864 -0.72504401207
          -2.041049242 0.1184957996 -1.4851289988 -2.1130719185 -0.047264300287 -1.1963629723
          -2.0357840061 -0.027981799096 -1.4841450453 -2.2146024704 0.15617579222 -1.4417170286
          -1.5908279419 -0.0042438311502 -1.0808677673 -1.5521390438 -0.22336211801 -1.3013720512
          -1.5769430399 -0.27982699871 -1.0531499386 -1.3511379957 -0.033111680299 -1.0856614113
          -1.5908279419 -0.0042438311502 -1.0808677673 -1.5769430399 -0.27982699871 -1.0531499386
          -1.3524429798 -0.2001490891 -0.93651300669 -1.3511379957 -0.033111680299 -1.0856614113
          -4.3956904411 -0.0096592828631 -0.099004216492 -4.4922027588 -0.20494790375 -0.36291068792
          -4.4366278648 -0.28509175777 -0.13918270171 -4.2499485016 -0.19019518793 -0.35626098514
          3.9967598915 0.6620669961 1.8450440168 3.9373788834 0.45778700709 1.9478909969
          4.2132930756 0.66276198626 1.9194359779 4.1660380363 0.37686598301 1.8869049549
          -3.8436272144 -0.0084195006639 -0.544039011 -3.9470174313 -0.23043839633 -0.45734000206
          -3.7178936005 -0.30012491345 -0.34045830369 -3.6200819016 -0.16615739465 -0.5608189702
          4.7728209496 0.11897029728 2.42572999 4.8128800392 -0.12278998643 2.4790999889
          4.7630262375 -0.078894995153 2.2290580273 4.6464409828 -0.13010598719 2.42572999
          -3.9515781403 0.22483050823 -0.22432824969 -3.7126243114 0.24968840182 -0.29950919747
          -3.93171525 0.23039670289 -0.4976850152 -3.8458154202 -0.0071441796608 -0.27063637972
          -2.5251846313 -0.49511519074 -1.3098219633 -2.7851204872 -0.2995711267 -1.2576700449
          -2.6056780815 -0.30553308129 -1.0694279671 -2.7647492886 -0.50091934204 -1.2004820108
          0.51021200418 -0.21610671282 -0.49635899067 0.3360530138 -0.12368449569 -0.71136599779
          0.44525501132 -0.44013750553 -0.72802501917 0.61227500439 -0.20498250425 -0.7539935708
          -2.2290380001 -0.01067822054 -0.56298202276 -2.4275128841 0.11600639671 -0.53692299128
          -2.247385025 -0.11254110187 -0.34903201461 -2.526927948 -0.09825039655 -0.49015599489
          -2.2852199078 -0.19466769695 -0.68211597204 -2.2290380001 -0.01067822054 -0.56298202276
          -2.4275128841 0.11600639671 -0.53692299128 -2.548101902 -0.012899150141 -0.78901946545
          2.7344648838 -0.33579298854 0.55702829361 2.846298933 -0.090493999422 0.57238131762
          2.5706369877 -0.14441801608 0.49783235788 2.8988618851 -0.32689899206 0.32881501317
          2.5268170834 -0.3430339992 0.35616520047 2.8988618851 -0.32689899206 0.32881501317
          2.7344648838 -0.33579298854 0.55702829361 2.5706369877 -0.14441801608 0.49783235788
          0.51021200418 -0.21610671282 -0.49635899067 0.49385619164 -0.061818897724 -0.24398499727
          0.76676100492 -0.1134057045 -0.50795000792 0.5607355237 -0.26477059722 -0.21746100485
          -3.4521927834 -0.28309810162 -0.73375397921 -3.4094109535 -0.28461059928 -1.0079009533
          -3.223610878 -0.51225572824 -0.90670001507 -3.1669573784 -0.19655050337 -0.74350303411
          -2.247385025 -0.11254110187 -0.34903201461 -2.526927948 -0.09825039655 -0.49015599489
          -2.4078168869 -0.30346369743 -0.49435901642 -2.2290380001 -0.01067822054 -0.56298202276
          -1.0445510149 -0.28223949671 -1.6158399582 -1.2205280066 -0.4554925859 -1.6110960245
          -1.1043089628 -0.46415549517 -1.4246920347 -0.95123302937 -0.4521523118 -1.5646049976
          -2.526927948 -0.09825039655 -0.49015599489 -2.8852050304 -0.13799700141 -0.5307559967
          -2.7287049294 -0.2789902091 -0.37658300996 -2.5790920258 -0.26749420166 -0.70352119207
          -4.626159668 -0.03600018099 -0.37031018734 -4.4922027588 -0.20494790375 -0.36291068792
          -4.6876730919 -0.14474339783 -0.56215977669 -4.6802415848 -0.16959774494 -0.21772760153
          -0.80039197206 -0.22904071212 -1.6116299629 -0.95123302937 -0.4521523118 -1.5646049976
          -0.95317101479 -0.27932810783 -1.4066259861 -0.63469898701 -0.45314198732 -1.3848659992
          -2.7287049294 -0.2789902091 -0.37658300996 -2.7894101143 -0.19218939543 -0.12471599877
          -2.6104540825 0.0081983003765 -0.20189599693 -2.4884090424 -0.28845638037 -0.25028300285
          -2.7894101143 -0.19218939543 -0.12471599877 -2.7235929966 -0.46752271056 -0.15234200656
          -2.4884090424 -0.28845638037 -0.25028300285 -2.7287049294 -0.2789902091 -0.37658300996
          -2.9494459629 -0.043818198144 -0.28794598579 -3.0977869034 -0.10610190034 0.0021150000393
          -2.7894101143 -0.19218939543 -0.12471599877 -2.9889519215 -0.24136529863 -0.040991000831
          2.087033987 -0.36293101311 0.27580299973 2.0367250443 -0.15883000195 0.10807870328
          2.204267025 -0.35545799136 0.084110699594 2.2042989731 -0.13768899441 0.32803380489
          -2.9494459629 -0.043818198144 -0.28794598579 -3.0977869034 -0.10610190034 0.0021150000393
          -2.9889519215 -0.24136529863 -0.040991000831 -3.1492960453 -0.20950199664 -0.30492499471
          -2.4884090424 -0.28845638037 -0.25028300285 -2.7235929966 -0.46752271056 -0.15234200656
          -2.504308939 -0.50290739536 -0.24516999722 -2.7287049294 -0.2789902091 -0.37658300996
          -2.4884090424 -0.28845638037 -0.25028300285 -2.504308939 -0.50290739536 -0.24516999722
          -2.5134499073 -0.51176577806 -0.47904199362 -2.7287049294 -0.2789902091 -0.37658300996
          4.2805190086 0.40835601091 1.0383700132 4.2127790451 0.64916598797 1.0111500025
          4.432926178 0.52034902573 1.1526700258 4.2114582062 0.52715998888 1.3034000397
          -4.3815760612 0.24617770314 -0.19512629509 -4.1666903496 0.27508330345 -0.13123139739
          -4.3490223885 0.21022440493 0.13521999121 -4.5223350525 0.28749448061 0.00038830153062
          -0.69384098053 0.20343409479 -0.94639998674 -0.97820800543 0.24167840183 -0.90613996983
          -0.80769598484 0.2091087997 -0.62626999617 -0.76539498568 -0.02696910128 -0.88151800632
          3.4833610058 0.65569698811 1.6809769869 3.3933129311 0.66335201263 1.4056479931
          3.138158083 0.46699899435 1.4169000387 3.5121660233 0.42270597816 1.6780580282
          3.4833610058 0.65569698811 1.6809769869 3.138158083 0.46699899435 1.4169000387
          3.2050361633 0.42096599936 1.7410199642 3.5121660233 0.42270597816 1.6780580282
          -4.1666903496 0.27508330345 -0.13123139739 -4.2408308983 0.48058089614 -0.10947950184
          -4.162466526 0.47085979581 0.13769200444 -4.3753991127 0.47727328539 0.067836903036
          4.1757931709 0.68295997381 1.7038977146 3.9962799549 0.50118601322 1.5290913582
          3.9967598915 0.6620669961 1.8450440168 4.2633280754 0.48635900021 1.6941789389
          0.27352508903 -0.21387378871 -0.36756598949 0.38312900066 0.045982599258 -0.55516397953
          0.3360530138 -0.12368449569 -0.71136599779 0.51021200418 -0.21610671282 -0.49635899067
          3.9962799549 0.50118601322 1.5290913582 4.1757931709 0.68295997381 1.7038977146
          4.2114582062 0.52715998888 1.3034000397 4.2633280754 0.48635900021 1.6941789389
          4.2132930756 0.66276198626 1.9194359779 4.1757931709 0.68295997381 1.7038977146
          4.2633280754 0.48635900021 1.6941789389 4.3931241035 0.68594300747 1.8131175041
          -2.4264535904 -0.49877792597 -1.0958280563 -2.5251846313 -0.49511519074 -1.3098219633
          -2.6056780815 -0.30553308129 -1.0694279671 -2.7647492886 -0.50091934204 -1.2004820108
          2.0427997112 -0.2558940053 0.86032700539 1.9269193411 -0.091003999114 0.78541302681
          2.1764740944 -0.18138699234 0.65020596981 2.1027405262 -0.096268005669 0.91622400284
          2.1158709526 -0.35618299246 -0.26636224985 2.4003479481 -0.15540499985 -0.052411012352
          2.4867670536 -0.33938100934 -0.20310901105 2.204267025 -0.35545799136 0.084110699594
          4.838329792 -0.29386898875 1.6861670017 5.0016570091 -0.09311401844 1.6771680117
          4.9833068848 -0.29716300964 1.80032897 4.908780098 -0.05460799858 1.9473679066
          4.3348088264 0.0020780034829 2.0050890446 4.3718128204 0.25128540397 2.104501009
          4.1594829559 0.12733019888 2.2602200508 4.0440011024 0.18789739907 1.9961689711
          1.5018340349 0.60006701946 -0.26044872403 1.4418599606 0.28709000349 -0.062245994806
          1.3428349495 0.40458348393 -0.38063567877 1.2312122583 0.39813408256 -0.034452985972
          -2.8428041935 -0.50505828857 -1.0089069605 -3.0221710205 -0.28878861666 -1.1663730145
          -2.82984519 -0.19690430164 -0.8898460269 -3.0438988209 -0.31679549813 -0.92314600945
          1.4899770021 -0.38008698821 -0.65395200253 1.108948946 -0.40205231309 -0.65256047249
          1.2359069586 -0.38188400865 -0.96120500565 1.2825410366 -0.16882799566 -0.83733904362
          1.5008519888 -0.37395399809 -0.88552898169 1.4899770021 -0.38008698821 -0.65395200253
          1.2359069586 -0.38188400865 -0.96120500565 1.2825410366 -0.16882799566 -0.83733904362
          1.2825410366 -0.16882799566 -0.83733904362 1.5008519888 -0.37395399809 -0.88552898169
          1.2469780445 -0.10695700347 -1.1089379787 1.2359069586 -0.38188400865 -0.96120500565
          1.2825410366 -0.16882799566 -0.83733904362 1.1467900276 -0.29625800252 -1.1713860035
          1.2359069586 -0.38188400865 -0.96120500565 1.2469780445 -0.10695700347 -1.1089379787
          0.94502300024 -0.16622328758 -1.0062910318 1.1467900276 -0.29625800252 -1.1713860035
          1.2825410366 -0.16882799566 -0.83733904362 1.2469780445 -0.10695700347 -1.1089379787
          0.94502300024 -0.16622328758 -1.0062910318 1.1467900276 -0.29625800252 -1.1713860035
          1.2359069586 -0.38188400865 -0.96120500565 1.2825410366 -0.16882799566 -0.83733904362
          1.2825410366 -0.16882799566 -0.83733904362 1.0204950571 -0.39697799087 -0.86901700497
          1.2359069586 -0.38188400865 -0.96120500565 0.94502300024 -0.16622328758 -1.0062910318
          5.3548870087 -0.21426801383 2.2027084827 5.4175891876 0.055754002184 2.0606226921
          5.2890958786 -0.018920002505 2.382846117 5.2030038834 -0.095155008137 2.0543687344
          -3.517005682 0.27712589502 -0.40882021189 -3.648727417 0.16803780198 -0.52384102345
          -3.7126243114 0.24968840182 -0.29950919747 -3.5465004444 -0.0025727003813 -0.37637498975
          1.108948946 -0.40205231309 -0.65256047249 1.0204950571 -0.39697799087 -0.86901700497
          1.2359069586 -0.38188400865 -0.96120500565 1.2825410366 -0.16882799566 -0.83733904362
          1.4527050257 -0.19449299574 -0.29091629386 1.3120340109 -0.15288600326 -0.5459626317
          1.4899770021 -0.38008698821 -0.65395200253 1.5601429939 -0.16315901279 -0.66583400965
          3.5387530327 0.16991350055 1.193629384 3.427726984 0.34208199382 0.94024497271
          3.220927 0.38111701608 1.2094409466 3.2844669819 0.18207931519 1.0159295797
          3.2219541073 0.45492699742 0.97522252798 3.427726984 0.34208199382 0.94024497271
          3.220927 0.38111701608 1.2094409466 3.4408869743 0.48258000612 1.1898485422
          4.3348088264 0.0020780034829 2.0050890446 4.5650310516 0.20493909717 2.2137980461
          4.5017971992 -0.076010011137 2.1854460239 4.3237462044 0.042966000736 2.3439700603
          3.4043519497 0.68294101954 0.87328398228 3.4408869743 0.48258000612 1.1898485422
          3.6306459904 0.69331997633 0.9852989912 3.6095719337 0.49926799536 0.86267101765
          3.4043519497 0.68294101954 0.87328398228 3.2219541073 0.45492699742 0.97522252798
          3.4408869743 0.48258000612 1.1898485422 3.6095719337 0.49926799536 0.86267101765
          -3.8928060532 -0.036693397909 -0.81056702137 -3.8355240822 -0.29797300696 -0.83261597157
          -3.779299736 -0.33174827695 -0.59858602285 -3.6200819016 -0.16615739465 -0.5608189702
          2.832775116 0.65263402462 1.0032349825 2.7331340313 0.47387900949 1.1153179407
          2.968873024 0.46700000763 0.87133789062 2.5400059223 0.47935000062 0.92150700092
          -0.42743900418 -0.29611000419 -1.0441720486 -0.38811999559 -0.14212410152 -1.2827340364
          -0.56551098824 -0.25506937504 -1.2119810581 -0.36334300041 -0.45349159837 -1.1892901659
          -4.6802415848 -0.16959774494 -0.21772760153 -4.7962985039 -0.27623388171 -0.034645497799
          -4.5573143959 -0.13582371175 -0.061340749264 -4.4366278648 -0.28509175777 -0.13918270171
          -2.3013501167 -0.0029451001901 -0.87519747019 -2.3660526276 -0.18054547906 -1.0520470142
          -2.6269614697 -0.066813401878 -1.0421299934 -2.5444853306 -0.19624508917 -0.90569740534
          4.2718300819 0.15794679523 1.6279176474 4.0141201019 0.24855940044 1.621557951
          4.1660380363 0.37686598301 1.8869049549 4.2557749748 0.16182330251 1.8862160444
          4.5158967972 -0.051814988256 1.7898253202 4.2718300819 0.15794679523 1.6279176474
          4.4655342102 0.20313693583 1.8080023527 4.2557749748 0.16182330251 1.8862160444
          1.6976139545 -0.039864007384 -0.8608520031 1.5601429939 -0.16315901279 -0.66583400965
          1.4835740328 -0.047832004726 -0.98587197065 1.3628020287 0.069748699665 -0.7095310092
          1.1071350574 0.033141098917 -1.1655050516 0.94502300024 -0.16622328758 -1.0062910318
          1.2469780445 -0.10695700347 -1.1089379787 0.88432902098 -0.0070595997386 -1.2622259855
          2.6742250919 -0.012311006896 0.2936809957 2.4627220631 0.06453820318 0.024974999949
          2.9222569466 -0.035557992756 -0.016389999539 2.7543749809 0.16338352859 0.14366000891
          -1.715157032 -0.23626880348 -0.5269600153 -2.0028738976 -0.28446289897 -0.43915998936
          -1.7985810041 -0.32161590457 -0.69973397255 -1.8855940104 -0.082297004759 -0.4747030139
          1.896214962 -0.35974898934 -0.63775098324 1.5601429939 -0.16315901279 -0.66583400965
          1.7592899799 -0.36150300503 -0.85030698776 1.8361599445 -0.19802498817 -0.79088497162
          1.5601429939 -0.16315901279 -0.66583400965 1.2825410366 -0.16882799566 -0.83733904362
          1.4835740328 -0.047832004726 -0.98587197065 1.3628020287 0.069748699665 -0.7095310092
          -1.715157032 -0.23626880348 -0.5269600153 -2.0028738976 -0.28446289897 -0.43915998936
          -1.8573379517 -0.51496881247 -0.5290030241 -1.7985810041 -0.32161590457 -0.69973397255
          -0.9426779747 -0.20086880028 -0.89714598656 -0.76539498568 -0.02696910128 -0.88151800632
          -0.89497202635 0.0030651004054 -1.1271020174 -0.74982398748 -0.23088718951 -1.0935233831
          -0.74982398748 -0.23088718951 -1.0935233831 -0.89497202635 0.0030651004054 -1.1271020174
          -0.9426779747 -0.20086880028 -0.89714598656 -1.0050040483 -0.23432028294 -1.1520009041
          4.5158967972 -0.051814988256 1.7898253202 4.2557749748 0.16182330251 1.8862160444
          4.4655342102 0.20313693583 1.8080023527 4.3348088264 0.0020780034829 2.0050890446
          0.36366090178 0.26720348001 -0.30314698815 0.13325339556 0.2185369879 -0.41051501036
          0.38312900066 0.045982599258 -0.55516397953 0.40944099426 0.2642891109 -0.64370203018
          -3.5090770721 0.16754239798 -0.19926699996 -3.7126243114 0.24968840182 -0.29950919747
          -3.8458154202 -0.0071441796608 -0.27063637972 -3.5465004444 -0.0025727003813 -0.37637498975
          -3.5090770721 0.16754239798 -0.19926699996 -3.7126243114 0.24968840182 -0.29950919747
          -3.7695140839 0.20615190268 -0.025571003556 -3.8458154202 -0.0071441796608 -0.27063637972
          3.3829259872 0.46805399656 0.71429997683 3.4906380177 0.39700400829 0.43757998943
          3.4640750885 0.2319137007 0.72248202562 3.7212340832 0.54067403078 0.62415999174
          3.3829259872 0.46805399656 0.71429997683 3.526293993 0.69815999269 0.49317902327
          3.4906380177 0.39700400829 0.43757998943 3.7212340832 0.54067403078 0.62415999174
          -2.9494459629 -0.043818198144 -0.28794598579 -3.2953541279 -0.00062000047183 -0.49288973212
          -3.2438099384 0.03149420023 -0.20086398721 -3.1492960453 -0.20950199664 -0.30492499471
          -2.9494459629 -0.043818198144 -0.28794598579 -3.0977869034 -0.10610190034 0.0021150000393
          -3.1492960453 -0.20950199664 -0.30492499471 -3.2438099384 0.03149420023 -0.20086398721
          -3.2964999676 0.25800848007 -1.0607520342 -3.0872220993 0.1026121974 -1.1435060501
          -3.2624089718 0.0626033023 -1.0726950169 -3.0947728157 0.28662750125 -0.90678101778
          -2.8682529926 0.10229609907 -0.093391999602 -3.0977869034 -0.10610190034 0.0021150000393
          -2.7894101143 -0.19218939543 -0.12471599877 -2.9494459629 -0.043818198144 -0.28794598579
          4.486289978 0.48828300834 2.4170000553 4.5650310516 0.20493909717 2.2137980461
          4.6255760193 0.29108199477 2.428800106 4.6265969276 0.37918898463 2.0835940838
          5.2169570923 -0.28806000948 1.5943369865 5.327480793 -0.087410993874 1.7155309916
          5.3284611702 -0.29205599427 1.7498970032 5.1637601852 -0.29948699474 1.865844965
          1.3120340109 -0.15288600326 -0.5459626317 1.2987240553 -0.39872199297 -0.33902829885
          1.108948946 -0.40205231309 -0.65256047249 1.0542720556 -0.20917788148 -0.54995292425
          2.1084809303 0.16455329955 -0.24006199837 2.4858739376 -0.02445499599 -0.33545398712
          2.4627220631 0.06453820318 0.024974999949 2.4711270332 0.1866299957 -0.33196899295
          5.3287701607 0.017804997042 1.5262700319 5.2795748711 0.19745920599 1.7484179735
          5.5534300804 0.16041310132 1.7146040201 5.327480793 -0.087410993874 1.7155309916
          1.8257160187 0.17760980129 -0.11040610075 1.9952529669 -0.028272999451 -0.39336639643
          2.1427390575 -0.046670995653 -0.085950896144 2.1084809303 0.16455329955 -0.24006199837
          5.199947834 0.37635299563 2.0466771126 5.1783838272 0.53621798754 2.2175490856
          5.3812499046 0.50339800119 2.1557321548 5.3432278633 0.22682979703 2.2597339153
          -3.4282062054 0.14235441387 -0.57428902388 -3.4256296158 -0.04080190137 -0.73200601339
          -3.2104935646 -0.0044391001575 -0.70767199993 -3.275526762 0.18115669489 -0.7455739975
          3.7163519859 0.46678900719 1.408038497 3.9962799549 0.50118601322 1.5290913582
          3.804610014 0.20091049373 1.4191051722 3.8146090508 0.38017898798 1.7155710459
          3.7163519859 0.46678900719 1.408038497 3.9769608974 0.41242301464 1.2358649969
          3.804610014 0.20091049373 1.4191051722 3.9962799549 0.50118601322 1.5290913582
          3.9769608974 0.41242301464 1.2358649969 3.9909090996 0.69799000025 1.3503149748
          3.9962799549 0.50118601322 1.5290913582 3.7163519859 0.46678900719 1.408038497
          -2.1130719185 -0.047264300287 -1.1963629723 -2.3660526276 -0.18054547906 -1.0520470142
          -2.3013501167 -0.0029451001901 -0.87519747019 -2.0607159138 -0.073489099741 -0.92311251163
          3.9962799549 0.50118601322 1.5290913582 3.9909090996 0.69799000025 1.3503149748
          4.1757931709 0.68295997381 1.7038977146 3.8356730938 0.6680150032 1.6421200037
          4.1757931709 0.68295997381 1.7038977146 3.8356730938 0.6680150032 1.6421200037
          3.9967598915 0.6620669961 1.8450440168 3.9962799549 0.50118601322 1.5290913582
          3.9962799549 0.50118601322 1.5290913582 3.9373788834 0.45778700709 1.9478909969
          3.9967598915 0.6620669961 1.8450440168 4.1660380363 0.37686598301 1.8869049549
          -2.4277570248 0.29319447279 -1.3836899996 -2.5636935234 0.46416980028 -1.3145070076
          -2.4950749874 0.26449760795 -1.1571450233 -2.6970658302 0.28316840529 -1.292855978
          -0.19496299326 0.017406899482 -1.3360270262 -0.53547698259 0.15860010684 -1.2386740446
          -0.2287349999 0.24483269453 -1.2839930058 -0.42777499557 0.06476470083 -1.0590546131
          -0.54605597258 0.061542298645 -0.81870001554 -0.69384098053 0.20343409479 -0.94639998674
          -0.55270302296 -0.11456199735 -0.98753702641 -0.42777499557 0.06476470083 -1.0590546131
          2.2750039101 0.14374065399 0.29926979542 2.0687611103 0.17121970654 0.57191699743
          2.547467947 0.16419440508 0.46359831095 2.3737831116 -0.031773991883 0.64508098364
          2.2750039101 0.14374065399 0.29926979542 2.0687611103 0.17121970654 0.57191699743
          2.387912035 0.31022301316 0.66756099463 2.547467947 0.16419440508 0.46359831095
          -3.9098739624 -0.045701097697 0.062531001866 -3.9893488884 0.10838919878 0.30875301361
          -3.7828290462 0.0534854047 0.25001400709 -3.9246098995 -0.1297211349 0.29268100858
          -0.011990199797 -0.27998569608 -0.48404100537 0.10708110034 -0.12076699734 -0.43617299199
          0.14480470121 -0.27436679602 -0.68005996943 0.27352508903 -0.21387378871 -0.36756598949
          2.547467947 0.16419440508 0.46359831095 2.0687611103 0.17121970654 0.57191699743
          2.387912035 0.31022301316 0.66756099463 2.3737831116 -0.031773991883 0.64508098364
          2.547467947 0.16419440508 0.46359831095 2.7515289783 0.13377730548 0.70048117638
          2.6742250919 -0.012311006896 0.2936809957 2.846298933 -0.090493999422 0.57238131762
          2.547467947 0.16419440508 0.46359831095 2.7515289783 0.13377730548 0.70048117638
          2.9617218971 0.11532790214 0.41656598449 2.6742250919 -0.012311006896 0.2936809957
          3.9909090996 0.69799000025 1.3503149748 3.9791870117 0.71098798513 1.0759580135
          4.2114582062 0.52715998888 1.3034000397 4.2127790451 0.64916598797 1.0111500025
          3.9909090996 0.69799000025 1.3503149748 3.9791870117 0.71098798513 1.0759580135
          3.9769608974 0.41242301464 1.2358649969 4.2114582062 0.52715998888 1.3034000397
          -4.7666764259 -0.51139259338 -0.25473800302 -5 -0.33370301127 -0.29875099659
          -4.807472229 -0.51456427574 -0.41758289933 -4.8024878502 -0.29730415344 -0.34576281905
          -4.7995986938 0.015869349241 -0.30273678899 -4.8024878502 -0.29730415344 -0.34576281905
          -4.8524708748 -0.16640077531 -0.5321289897 -5 -0.13075700402 -0.36378800869
          5.1686019897 0.14154189825 2.0466096401 5.3432278633 0.22682979703 2.2597339153
          5.4175891876 0.055754002184 2.0606226921 5.2890958786 -0.018920002505 2.382846117
          4.0087571144 -0.073222987354 1.1375299692 3.9656031132 0.16085809469 1.1511030197
          3.7195839882 0.0037419972941 1.0903520584 3.902930975 -0.018859993666 0.7255499959
          4.0087571144 -0.073222987354 1.1375299692 3.8409628868 -0.30274599791 1.1827360392
          3.8110458851 -0.30123400688 0.9321950078 3.7195839882 0.0037419972941 1.0903520584
          3.9656031132 0.16085809469 1.1511030197 3.8552589417 -0.056183006614 1.3705922365
          4.0087571144 -0.073222987354 1.1375299692 3.7195839882 0.0037419972941 1.0903520584
          4.7842068672 0.23646980524 2.2136070728 5.1686019897 0.14154189825 2.0466096401
          4.9558830261 0.24193349481 1.938804388 4.9883351326 -0.0025349962525 2.1726241112
          3.9656031132 0.16085809469 1.1511030197 4.1369771957 0.033024005592 1.3592270613
          4.0087571144 -0.073222987354 1.1375299692 3.8552589417 -0.056183006614 1.3705922365
          -2.6056780815 -0.30553308129 -1.0694279671 -2.5419068336 -0.2821674943 -1.3411229849
          -2.6741175652 -0.17868329585 -1.2965600491 -2.7851204872 -0.2995711267 -1.2576700449
          4.908780098 -0.05460799858 1.9473679066 4.9558830261 0.24193349481 1.938804388
          5.1686019897 0.14154189825 2.0466096401 4.9883351326 -0.0025349962525 2.1726241112
          4.2805190086 0.40835601091 1.0383700132 4.2127790451 0.64916598797 1.0111500025
          4.2114582062 0.52715998888 1.3034000397 3.9769608974 0.41242301464 1.2358649969
          0.2141688019 0.56765770912 -0.42459902167 0.18104350567 0.33106470108 -0.62392002344
          0.36366090178 0.26720348001 -0.30314698815 0.36111998558 0.56500959396 -0.54083001614
          -4.8024878502 -0.29730415344 -0.34576281905 -4.7995986938 0.015869349241 -0.30273678899
          -5 -0.16616299748 -0.067754097283 -5 -0.13075700402 -0.36378800869
          -1.8314759731 0.27363407612 -0.6662620306 -1.9680509567 0.31546962261 -0.45382100344
          -2.0370030403 0.2986676991 -0.69848400354 -1.8200160265 0.49221810699 -0.71408998966
          2.0466160774 0.12520329654 0.090647503734 1.8810739517 -0.025785999373 0.24052999914
          1.8012125492 0.13252429664 0.42392399907 2.0858280659 0.031003998592 0.38727900386
          -3.1503348351 -0.51121389866 -0.73205798864 -3.1669573784 -0.19655050337 -0.74350303411
          -3.3584003448 -0.26359349489 -0.49015578628 -3.4521927834 -0.28309810162 -0.73375397921
          -3.4521927834 -0.28309810162 -0.73375397921 -3.3584003448 -0.26359349489 -0.49015578628
          -3.2427380085 -0.50958657265 -0.51888477802 -3.3740890026 -0.51318377256 -0.76919901371
          1.8301340342 -0.19138199091 -0.51286798716 1.6553009748 -0.058208007365 -0.42940098047
          1.9658960104 -0.19827999175 -0.2762555182 1.8071659803 -0.10879799724 -0.12797890604
          -3.4521927834 -0.28309810162 -0.73375397921 -3.622396946 -0.50692749023 -0.91552698612
          -3.6353495121 -0.51476502419 -0.58951199055 -3.3740890026 -0.51318377256 -0.76919901371
          1.3120340109 -0.15288600326 -0.5459626317 0.99458998442 -0.022154798731 -0.49672108889
          1.0504629612 -0.041896902025 -0.74770897627 1.1057879925 0.14166979492 -0.59393042326
          1.3120340109 -0.15288600326 -0.5459626317 1.0542720556 -0.20917788148 -0.54995292425
          1.0504629612 -0.041896902025 -0.74770897627 0.99458998442 -0.022154798731 -0.49672108889
          -3.6418271065 -0.31525328755 -0.91074800491 -3.622396946 -0.50692749023 -0.91552698612
          -3.6353495121 -0.51476502419 -0.58951199055 -3.4521927834 -0.28309810162 -0.73375397921
          -1.4067959785 -0.070061728358 -1.4117490053 -1.5521390438 -0.22336211801 -1.3013720512
          -1.5908279419 -0.0042438311502 -1.0808677673 -1.3511379957 -0.033111680299 -1.0856614113
          -3.7815887928 0.27240249515 -0.66369998455 -3.6499538422 0.47699010372 -0.48393499851
          -3.648727417 0.16803780198 -0.52384102345 -3.8304586411 0.47921529412 -0.44864699244
          0.3360530138 -0.12368449569 -0.71136599779 0.19523879886 -0.052128598094 -0.8603233695
          0.47868400812 -0.085507400334 -0.87584412098 0.36555799842 0.082396402955 -0.88094812632
          -1.5145759583 -0.018870471045 -0.82699400187 -1.8356319666 0.0078969011083 -1.0082437992
          -1.7501699924 -0.19925332069 -0.86327397823 -1.5908279419 -0.0042438311502 -1.0808677673
          -3.7752130032 0.42797881365 -0.85966801643 -3.7815887928 0.27240249515 -0.66369998455
          -3.7469959259 0.18661350012 -0.87160599232 -3.9523050785 0.21237049997 -0.78943997622
          4.9700350761 0.50200498104 1.9810703993 5.0743060112 0.70134097338 2.1695489883
          5.1783838272 0.53621798754 2.2175490856 5.0139088631 0.39100199938 2.2078499794
          1.5375082493 0.031310401857 0.49632260203 1.6255400181 0.14701509476 0.17244631052
          1.8810739517 -0.025785999373 0.24052999914 1.8012125492 0.13252429664 0.42392399907
          2.5645010471 -0.34633201361 0.97681301832 2.3880560398 -0.17542900145 0.81797897816
          2.5302391052 -0.34590399265 0.74713200331 2.6176869869 -0.096157990396 0.89440202713
          2.2037799358 0.33316999674 -0.035911995918 1.9673910141 0.42298001051 0.05929357931
          2.3142609596 0.44252300262 0.15573300421 2.2181119919 0.41253200173 0.3796235919
          -2.1506009102 0.25718417764 -1.2337720394 -2.4277570248 0.29319447279 -1.3836899996
          -2.1687932014 0.46246668696 -1.4244270325 -2.3987627029 0.46843078732 -1.1548199654
          3.5614540577 -0.13416200876 1.2109525204 3.4617619514 -0.034863006324 0.83526402712
          3.2712409496 -0.069230996072 1.0871679783 3.5389170647 -0.30982100964 1.044885993
          0.47422000766 0.57532548904 -0.38774099946 0.2141688019 0.56765770912 -0.42459902167
          0.36366090178 0.26720348001 -0.30314698815 0.36111998558 0.56500959396 -0.54083001614
          -4.1674909592 0.13877829909 -0.35717999935 -4.3347187042 0.29005420208 -0.44296199083
          -4.436715126 0.026354400441 -0.37169200182 -4.2844419479 0.10605479777 -0.67162799835
          -3.0489430428 -0.05935529992 -1.1577789783 -2.82984519 -0.19690430164 -0.8898460269
          -3.1125445366 -0.042645700276 -0.91890496016 -2.8605468273 0.030474800617 -1.0333030224
          -4.4093670845 -0.040471538901 0.40553438663 -4.6474046707 -0.00025216012727 0.44196480513
          -4.6756920815 -0.17933808267 0.46103820205 -4.5542583466 -0.14354543388 0.282918185
          0.4462980032 0.22514030337 -1.0646909475 0.21853539348 0.33637189865 -0.98886328936
          0.35893088579 0.54108428955 -1.083673954 0.43711400032 0.35662287474 -0.86431020498
          1.6178350449 -0.15927900374 0.18571281433 2.0367250443 -0.15883000195 0.10807870328
          1.6111949682 -0.21885199845 -0.057695001364 1.8311589956 -0.37597900629 0.21240459383
          0.30460509658 0.093160197139 -1.2340450287 0.2478390038 0.18538750708 -1.4635369778
          0.30814930797 0.31706541777 -1.2523280382 0.081534996629 0.22075429559 -1.1755410433
          -0.098812997341 0.27493330836 -0.95051121712 0.049058001488 0.54692262411 -0.80024498701
          -0.07988999784 0.53172880411 -1.0493973494 0.21853539348 0.33637189865 -0.98886328936
          0.21853539348 0.33637189865 -0.98886328936 0.049058001488 0.54692262411 -0.80024498701
          -0.07988999784 0.53172880411 -1.0493973494 0.12977400422 0.53239011765 -1.1151189804
          0.21853539348 0.33637189865 -0.98886328936 0.049058001488 0.54692262411 -0.80024498701
          0.12977400422 0.53239011765 -1.1151189804 0.27174431086 0.54942148924 -0.87269937992
          1.1071350574 0.033141098917 -1.1655050516 0.74059998989 0.11394579709 -1.0505290031
          0.94502300024 -0.16622328758 -1.0062910318 0.88432902098 -0.0070595997386 -1.2622259855
          4.6318750381 -0.28834098577 2.005959034 4.5017971992 -0.076010011137 2.1854460239
          4.4067840576 -0.28270500898 2.1856250763 4.3977518082 -0.2796689868 1.9731270075
          1.1473189592 0.12026190013 -0.89047002792 0.93579101562 0.2607139945 -0.85697698593
          0.82348799706 -0.019467899576 -0.88339298964 0.74059998989 0.11394579709 -1.0505290031
          -0.47427800298 -0.47527450323 -0.90863901377 -0.42743900418 -0.29611000419 -1.0441720486
          -0.17229199409 -0.45925500989 -0.92756402493 -0.31607699394 -0.47428938746 -0.76736098528
          3.0217940807 0.11983050406 0.068121999502 2.7543749809 0.16338352859 0.14366000891
          2.9617218971 0.11532790214 0.41656598449 2.6742250919 -0.012311006896 0.2936809957
          -0.72984099388 0.28546023369 -1.3866969347 -0.84249997139 0.26520928741 -1.1529723406
          -0.53547698259 0.15860010684 -1.2386740446 -0.7670930028 0.060932602733 -1.3277369738
          0.32963371277 -0.040354099125 -0.32682800293 0.20369489491 0.076197303832 -0.38421198726
          0.10708110034 -0.12076699734 -0.43617299199 0.38312900066 0.045982599258 -0.55516397953
          0.38312900066 0.045982599258 -0.55516397953 0.20369489491 0.076197303832 -0.38421198726
          0.10708110034 -0.12076699734 -0.43617299199 0.16142000258 0.02375430055 -0.62841498852
          2.7543749809 0.16338352859 0.14366000891 2.4627220631 0.06453820318 0.024974999949
          2.7524430752 -0.1180730015 -0.14809599519 2.7389440536 0.18060749769 -0.13687500358
          0.38312900066 0.045982599258 -0.55516397953 0.16142000258 0.02375430055 -0.62841498852
          0.10708110034 -0.12076699734 -0.43617299199 0.3360530138 -0.12368449569 -0.71136599779
          0.27352508903 -0.21387378871 -0.36756598949 0.32963371277 -0.040354099125 -0.32682800293
          0.10708110034 -0.12076699734 -0.43617299199 0.38312900066 0.045982599258 -0.55516397953
          0.36366090178 0.26720348001 -0.30314698815 0.38312900066 0.045982599258 -0.55516397953
          0.60305899382 0.11440300196 -0.49014899135 0.40944099426 0.2642891109 -0.64370203018
          5.2795748711 0.19745920599 1.7484179735 5.4800391197 0.18614250422 1.908427
          5.4746980667 0.36210200191 1.5940099955 5.5534300804 0.16041310132 1.7146040201
          5.2795748711 0.19745920599 1.7484179735 5.4746980667 0.36210200191 1.5940099955
          5.3287701607 0.017804997042 1.5262700319 5.5534300804 0.16041310132 1.7146040201
          3.9363288879 -0.29490798712 1.6831860542 3.7013010979 -0.30448499322 1.5550149679
          3.8821690083 -0.30057999492 1.4447215796 3.9827311039 -0.10510598868 1.5950082541
          5.2795748711 0.19745920599 1.7484179735 5.1593341827 -0.012515998445 1.8333879709
          5.3287701607 0.017804997042 1.5262700319 5.1202697754 0.12177520245 1.4594299793
          5.2795748711 0.19745920599 1.7484179735 5.4800391197 0.18614250422 1.908427
          5.5534300804 0.16041310132 1.7146040201 5.5037498474 -0.082735002041 1.8406980038
          -3.5465004444 -0.0025727003813 -0.37637498975 -3.6423470974 -0.017455210909 -0.0356920138
          -3.5159258842 -0.18312910199 -0.2097529918 -3.8458154202 -0.0071441796608 -0.27063637972
          -3.8458154202 -0.0071441796608 -0.27063637972 -3.7178936005 -0.30012491345 -0.34045830369
          -3.5159258842 -0.18312910199 -0.2097529918 -3.5465004444 -0.0025727003813 -0.37637498975
          -3.648727417 0.16803780198 -0.52384102345 -3.8436272144 -0.0084195006639 -0.544039011
          -3.8458154202 -0.0071441796608 -0.27063637972 -3.5465004444 -0.0025727003813 -0.37637498975
          -3.5465004444 -0.0025727003813 -0.37637498975 -3.6200819016 -0.16615739465 -0.5608189702
          -3.2953541279 -0.00062000047183 -0.49288973212 -3.4256296158 -0.04080190137 -0.73200601339
          -1.182997942 0.50088942051 -1.0786180496 -1.4006630182 0.27366858721 -1.0899891853
          -1.1999200583 0.31322172284 -0.84429401159 -1.1732499599 0.28154438734 -1.1781251431
          -3.7831549644 -0.23498553038 -0.042289998382 -3.9098739624 -0.045701097697 0.062531001866
          -3.6423470974 -0.017455210909 -0.0356920138 -3.6694390774 -0.1800750196 0.2162040025
          -3.9098739624 -0.045701097697 0.062531001866 -3.7828290462 0.0534854047 0.25001400709
          -3.6423470974 -0.017455210909 -0.0356920138 -3.6694390774 -0.1800750196 0.2162040025
          -3.9098739624 -0.045701097697 0.062531001866 -3.9246098995 -0.1297211349 0.29268100858
          -3.7828290462 0.0534854047 0.25001400709 -3.6694390774 -0.1800750196 0.2162040025
          4.4213061333 -0.052222006023 1.1044199467 4.3275651932 -0.10407299548 1.3448059559
          4.5728478432 -0.045872993767 1.2065700293 4.4422369003 -0.2959190011 1.2816729546
          -1.2506010532 -0.14467050135 -1.2530030012 -1.225301981 -0.29465007782 -1.0979983807
          -1.199491024 -0.2731808126 -1.4120750427 -1.2170039415 -0.47567608953 -1.2552779913
          -1.0050040483 -0.23432028294 -1.1520009041 -1.2506010532 -0.14467050135 -1.2530030012
          -1.199491024 -0.2731808126 -1.4120750427 -0.95317101479 -0.27932810783 -1.4066259861
          2.8988199234 0.66676598787 0.13199600577 2.9503769875 0.66597098112 0.50799697638
          3.1383700371 0.67821002007 0.30272898078 3.0115010738 0.44793599844 0.41370400786
          3.1383700371 0.67821002007 0.30272898078 3.0115010738 0.44793599844 0.41370400786
          3.2409238815 0.67979502678 0.59528899193 3.3571829796 0.56413400173 0.35071998835
          2.9503769875 0.66597098112 0.50799697638 3.0083858967 0.66490697861 0.78671127558
          3.2409238815 0.67979502678 0.59528899193 3.0115010738 0.44793599844 0.41370400786
          -0.84249997139 0.26520928741 -1.1529723406 -1.1732499599 0.28154438734 -1.1781251431
          -0.93034297228 0.50282591581 -1.109777689 -0.97820800543 0.24167840183 -0.90613996983
          -1.1732499599 0.28154438734 -1.1781251431 -1.182997942 0.50088942051 -1.0786180496
          -0.93034297228 0.50282591581 -1.109777689 -0.97820800543 0.24167840183 -0.90613996983
          3.1383700371 0.67821002007 0.30272898078 2.9503769875 0.66597098112 0.50799697638
          3.2409238815 0.67979502678 0.59528899193 3.0115010738 0.44793599844 0.41370400786
          -4.8524708748 -0.16640077531 -0.5321289897 -4.6932406425 -0.33437889814 -0.55821180344
          -4.8024878502 -0.29730415344 -0.34576281905 -4.6876730919 -0.14474339783 -0.56215977669
          3.0217940807 0.11983050406 0.068121999502 2.6742250919 -0.012311006896 0.2936809957
          2.9617218971 0.11532790214 0.41656598449 2.8178238869 -0.16496701539 0.18457700312
          2.9922840595 0.30892300606 0.059962000698 2.7568380833 0.32088699937 0.34903898835
          2.9617218971 0.11532790214 0.41656598449 2.7543749809 0.16338352859 0.14366000891
          0.88432902098 -0.0070595997386 -1.2622259855 0.53313398361 0.019717698917 -1.1568260193
          0.74059998989 0.11394579709 -1.0505290031 0.61579799652 -0.14052461088 -1.0343459845
          0.85404402018 -0.22467930615 -0.32312399149 1.0725090504 -0.1251232028 -0.30668699741
          0.96178209782 -0.10965040326 0.053582999855 0.86870998144 0.033326499164 -0.31085899472
          -2.7915763855 -0.063147902489 -1.2559100389 -2.82984519 -0.19690430164 -0.8898460269
          -2.8605468273 0.030474800617 -1.0333030224 -2.6269614697 -0.066813401878 -1.0421299934
          3.6306459904 0.69331997633 0.9852989912 3.4408869743 0.48258000612 1.1898485422
          3.6544830799 0.36574301124 1.0680350065 3.6095719337 0.49926799536 0.86267101765
          0.4462980032 0.22514030337 -1.0646909475 0.62536001205 0.067611642182 -0.78804123402
          0.67646998167 0.33598598838 -0.95468699932 0.74059998989 0.11394579709 -1.0505290031
          5.0791130066 -0.098838992417 2.3361620903 5.0844421387 -0.30479300022 2.0486927032
          4.9883351326 -0.0025349962525 2.1726241112 5.0993762016 -0.30616301298 2.320991993
          0.67646998167 0.33598598838 -0.95468699932 0.62536001205 0.067611642182 -0.78804123402
          0.93579101562 0.2607139945 -0.85697698593 0.74059998989 0.11394579709 -1.0505290031
          5.0791130066 -0.098838992417 2.3361620903 4.960849762 -0.010346002877 2.4790999889
          5.1007847786 -0.14746299386 2.5408000946 4.9569368362 -0.29035300016 2.514621973
          5.0791130066 -0.098838992417 2.3361620903 4.9883351326 -0.0025349962525 2.1726241112
          4.960849762 -0.010346002877 2.4790999889 4.8128800392 -0.12278998643 2.4790999889
          5.0993762016 -0.30616301298 2.320991993 5.0791130066 -0.098838992417 2.3361620903
          5.1007847786 -0.14746299386 2.5408000946 4.9569368362 -0.29035300016 2.514621973
          5.0791130066 -0.098838992417 2.3361620903 4.8128800392 -0.12278998643 2.4790999889
          4.960849762 -0.010346002877 2.4790999889 4.9569368362 -0.29035300016 2.514621973
          3.5387530327 0.16991350055 1.193629384 3.2844669819 0.18207931519 1.0159295797
          3.2712409496 -0.069230996072 1.0871679783 3.4617619514 -0.034863006324 0.83526402712
          3.5387530327 0.16991350055 1.193629384 3.2844669819 0.18207931519 1.0159295797
          3.4360439777 -0.0026910067536 1.3680689335 3.2712409496 -0.069230996072 1.0871679783
          3.5387530327 0.16991350055 1.193629384 3.4360439777 -0.0026910067536 1.3680689335
          3.2844669819 0.18207931519 1.0159295797 3.1057059765 0.21902000904 1.2990050316
          3.5387530327 0.16991350055 1.193629384 3.804610014 0.20091049373 1.4191051722
          3.8552589417 -0.056183006614 1.3705922365 3.4360439777 -0.0026910067536 1.3680689335
          3.5387530327 0.16991350055 1.193629384 3.5908029079 0.19661930203 1.6370530128
          3.804610014 0.20091049373 1.4191051722 3.4360439777 -0.0026910067536 1.3680689335
          1.8443620205 0.16656500101 -0.47324600816 1.9952529669 -0.028272999451 -0.39336639643
          1.9303309917 -0.028858006001 -0.71749800444 1.6553009748 -0.058208007365 -0.42940098047
          1.6553009748 -0.058208007365 -0.42940098047 1.8257160187 0.17760980129 -0.11040610075
          1.8443620205 0.16656500101 -0.47324600816 1.9952529669 -0.028272999451 -0.39336639643
          -1.3524429798 -0.2001490891 -0.93651300669 -1.1518950462 -0.061164274812 -0.8551800251
          -1.3387739658 0.1015701443 -0.80373698473 -1.3511379957 -0.033111680299 -1.0856614113
          3.1057059765 0.21902000904 1.2990050316 2.9346859455 -0.010064994916 1.0378210545
          3.2844669819 0.18207931519 1.0159295797 3.0274419785 0.16455459595 0.84069955349
          3.0274419785 0.16455459595 0.84069955349 3.2844669819 0.18207931519 1.0159295797
          3.2712409496 -0.069230996072 1.0871679783 2.9346859455 -0.010064994916 1.0378210545
          1.3120340109 -0.15288600326 -0.5459626317 1.0542720556 -0.20917788148 -0.54995292425
          1.2825410366 -0.16882799566 -0.83733904362 1.0504629612 -0.041896902025 -0.74770897627
          1.108948946 -0.40205231309 -0.65256047249 0.88520997763 -0.23278620839 -0.74979001284
          1.2825410366 -0.16882799566 -0.83733904362 1.0542720556 -0.20917788148 -0.54995292425
          0.93293100595 -0.41566240788 -0.55624979734 1.0542720556 -0.20917788148 -0.54995292425
          0.88520997763 -0.23278620839 -0.74979001284 1.108948946 -0.40205231309 -0.65256047249
          1.2157520056 0.1916974932 -1.1104990244 1.1649719477 0.37054440379 -0.89170503616
          1.3943749666 0.35700458288 -1.0173640251 1.1473189592 0.12026190013 -0.89047002792
          2.7515289783 0.13377730548 0.70048117638 3.147439003 -0.0024279970676 0.66096997261
          2.846298933 -0.090493999422 0.57238131762 3.0274419785 0.16455459595 0.84069955349
          1.2925460339 -0.051271595061 -0.25956600904 1.6553009748 -0.058208007365 -0.42940098047
          1.4527050257 -0.19449299574 -0.29091629386 1.5832170248 0.13898870349 -0.2907756865
          3.2844669819 0.18207931519 1.0159295797 3.147439003 -0.0024279970676 0.66096997261
          3.4640750885 0.2319137007 0.72248202562 3.0274419785 0.16455459595 0.84069955349
          3.2844669819 0.18207931519 1.0159295797 3.0274419785 0.16455459595 0.84069955349
          3.4640750885 0.2319137007 0.72248202562 3.1142799854 0.34143099189 0.65826201439
          2.0466160774 0.12520329654 0.090647503734 1.8012125492 0.13252429664 0.42392399907
          1.8911110163 0.31002601981 0.28474500775 2.0858280659 0.031003998592 0.38727900386
          -2.247385025 -0.11254110187 -0.34903201461 -2.2290380001 -0.01067822054 -0.56298202276
          -2.4078168869 -0.30346369743 -0.49435901642 -2.2852199078 -0.19466769695 -0.68211597204
          -2.9948811531 -0.50990730524 -0.57723468542 -3.0899682045 -0.29772499204 -0.5357632041
          -3.1503348351 -0.51121389866 -0.73205798864 -2.8640635014 -0.32550418377 -0.67871928215
          0.98193901777 0.39114138484 -0.63054037094 1.0656369925 0.1378595978 -0.35818099976
          1.1137839556 0.31430581212 -0.23879601061 1.1057879925 0.14166979492 -0.59393042326
          0.98193901777 0.39114138484 -0.63054037094 0.88199001551 0.21808290482 -0.48142701387
          1.0656369925 0.1378595978 -0.35818099976 1.1057879925 0.14166979492 -0.59393042326
          -0.84227001667 0.51791298389 -0.87789303064 -0.77550202608 0.51301789284 -1.032153964
          -0.97820800543 0.24167840183 -0.90613996983 -0.76281398535 0.3376955986 -0.79411798716
          2.2750039101 0.14374065399 0.29926979542 2.0858280659 0.031003998592 0.38727900386
          1.8911110163 0.31002601981 0.28474500775 2.0687611103 0.17121970654 0.57191699743
          0.14480470121 -0.27436679602 -0.68005996943 0.0018850000342 -0.13561350107 -0.81675201654
          0.16142000258 0.02375430055 -0.62841498852 0.10708110034 -0.12076699734 -0.43617299199
          1.9952529669 -0.028272999451 -0.39336639643 1.8257160187 0.17760980129 -0.11040610075
          1.8443620205 0.16656500101 -0.47324600816 2.1084809303 0.16455329955 -0.24006199837
          -0.55270302296 -0.11456199735 -0.98753702641 -0.74982398748 -0.23088718951 -1.0935233831
          -0.42743900418 -0.29611000419 -1.0441720486 -0.56551098824 -0.25506937504 -1.2119810581
          -3.4188709259 -0.052383501083 -0.084667012095 -3.1492960453 -0.20950199664 -0.30492499471
          -3.5159258842 -0.18312910199 -0.2097529918 -3.3219630718 -0.30692452192 -0.14970101416
          0.9058868885 0.3652240932 0.037831000984 0.89858132601 0.2298887074 -0.23391401768
          0.79733598232 0.39415538311 -0.3318169713 0.73507022858 0.4539988935 -0.073164001107
          -4.2499485016 -0.19019518793 -0.35626098514 -4.3169722557 -0.515429914 -0.37853601575
          -4.4366278648 -0.28509175777 -0.13918270171 -4.2212285995 -0.30168271065 -0.17994959652
          -4.7094054222 0.49808984995 -0.25924840569 -4.9230599403 0.50244057178 -0.30132201314
          -4.9290013313 0.49626871943 -0.082679122686 -4.7940740585 0.30425521731 -0.31099230051
          4.7298440933 -0.29282999039 1.5341100693 4.8788080215 -0.15261600912 1.3581800461
          4.9763240814 -0.29127800465 1.5377320051 4.838329792 -0.29386898875 1.6861670017
          -0.7906640172 -0.26609754562 -0.63226997852 -0.9426779747 -0.20086880028 -0.89714598656
          -0.81605601311 -0.49181076884 -0.80724596977 -0.6984680295 -0.26326191425 -0.85958302021
          -0.7906640172 -0.26609754562 -0.63226997852 -0.6984680295 -0.26326191425 -0.85958302021
          -0.81605601311 -0.49181076884 -0.80724596977 -0.62982201576 -0.48794570565 -0.79209601879
          -0.62982201576 -0.48794570565 -0.79209601879 -0.6984680295 -0.26326191425 -0.85958302021
          -0.81605601311 -0.49181076884 -0.80724596977 -0.72162300348 -0.47146120667 -1.0738427639
          4.2557749748 0.16182330251 1.8862160444 4.0440011024 0.18789739907 1.9961689711
          4.3348088264 0.0020780034829 2.0050890446 4.0705580711 0.054460007697 1.7552939653
          4.2373199463 -0.093296997249 1.6291577816 4.0705580711 0.054460007697 1.7552939653
          4.2557749748 0.16182330251 1.8862160444 4.3348088264 0.0020780034829 2.0050890446
          -0.6984680295 -0.26326191425 -0.85958302021 -0.9426779747 -0.20086880028 -0.89714598656
          -0.74982398748 -0.23088718951 -1.0935233831 -0.76539498568 -0.02696910128 -0.88151800632
          -0.6984680295 -0.26326191425 -0.85958302021 -0.76539498568 -0.02696910128 -0.88151800632
          -0.74982398748 -0.23088718951 -1.0935233831 -0.55270302296 -0.11456199735 -0.98753702641
          3.5121660233 0.42270597816 1.6780580282 3.7163519859 0.46678900719 1.408038497
          3.8146090508 0.38017898798 1.7155710459 3.8356730938 0.6680150032 1.6421200037
          -1.5488374233 0.27182540298 -1.3903579712 -1.7796988487 0.44841960073 -1.5478500128
          -1.795637846 0.26627320051 -1.3385109901 -1.721953392 0.25095880032 -1.5497900248
          -1.5488374233 0.27182540298 -1.3903579712 -1.795637846 0.26627320051 -1.3385109901
          -1.5874071121 0.47615900636 -1.3606339693 -1.6238960028 0.24829168618 -1.1837819815
          -2.1506009102 0.25718417764 -1.2337720394 -2.3987627029 0.46843078732 -1.1548199654
          -2.4950749874 0.26449760795 -1.1571450233 -2.4277570248 0.29319447279 -1.3836899996
          -1.3583359718 0.17316421866 -1.3048620224 -1.5488374233 0.27182540298 -1.3903579712
          -1.2948549986 0.4837462008 -1.4094699621 -1.3278859854 0.48927980661 -1.2198700905
          -3.8530523777 -0.50708895922 -0.23963859677 -3.7306609154 -0.49806988239 0.0059669911861
          -3.7831549644 -0.23498553038 -0.042289998382 -3.6301288605 -0.50444597006 -0.18104600906
          1.9303309917 -0.028858006001 -0.71749800444 1.5601429939 -0.16315901279 -0.66583400965
          1.8361599445 -0.19802498817 -0.79088497162 1.6976139545 -0.039864007384 -0.8608520031
          2.6742250919 -0.012311006896 0.2936809957 2.4627220631 0.06453820318 0.024974999949
          2.7524430752 -0.1180730015 -0.14809599519 2.9222569466 -0.035557992756 -0.016389999539
          -3.0489430428 -0.05935529992 -1.1577789783 -3.0438988209 -0.31679549813 -0.92314600945
          -3.2653579712 -0.18581090868 -1.0693039894 -3.1125445366 -0.042645700276 -0.91890496016
          -3.2624089718 0.0626033023 -1.0726950169 -3.4256296158 -0.04080190137 -0.73200601339
          -3.1125445366 -0.042645700276 -0.91890496016 -3.2653579712 -0.18581090868 -1.0693039894
          -1.4067959785 -0.070061728358 -1.4117490053 -1.1884590387 0.063980542123 -1.4178910255
          -1.1307909489 -0.13907830417 -1.6104199886 -1.199491024 -0.2731808126 -1.4120750427
          0.74059998989 0.11394579709 -1.0505290031 0.51523089409 0.14683929086 -1.3929450512
          0.53313398361 0.019717698917 -1.1568260193 0.64788299799 -0.0059197037481 -1.3478369713
          -0.39273399115 0.0064351009205 -0.57656002045 -0.42486399412 0.21323770285 -0.57991999388
          -0.57054299116 -0.063641503453 -0.60666000843 -0.54605597258 0.061542298645 -0.81870001554
          -3.2624089718 0.0626033023 -1.0726950169 -3.0489430428 -0.05935529992 -1.1577789783
          -3.2653579712 -0.18581090868 -1.0693039894 -3.1125445366 -0.042645700276 -0.91890496016
          -0.54605597258 0.061542298645 -0.81870001554 -0.42486399412 0.21323770285 -0.57991999388
          -0.57054299116 -0.063641503453 -0.60666000843 -0.61500298977 0.28469419479 -0.60780000687
          -1.4937491417 0.34081637859 -1.5808500051 -1.7796988487 0.44841960073 -1.5478500128
          -1.5874071121 0.47615900636 -1.3606339693 -1.5488374233 0.27182540298 -1.3903579712
          -1.4937491417 0.34081637859 -1.5808500051 -1.5488374233 0.27182540298 -1.3903579712
          -1.206567049 0.2027631104 -1.6014900208 -1.5296863317 0.075993299484 -1.5737700462
          -4.2544279099 -0.066851697862 -0.67942899466 -4.2844419479 0.10605479777 -0.67162799835
          -4.0872659683 -0.040365900844 -0.50246196985 -4.436715126 0.026354400441 -0.37169200182
          3.5121660233 0.42270597816 1.6780580282 3.3933129311 0.66335201263 1.4056479931
          3.138158083 0.46699899435 1.4169000387 3.4179348946 0.33102399111 1.4116280079
          3.5121660233 0.42270597816 1.6780580282 3.3933129311 0.66335201263 1.4056479931
          3.4179348946 0.33102399111 1.4116280079 3.7163519859 0.46678900719 1.408038497
          3.5121660233 0.42270597816 1.6780580282 3.3313462734 0.21289689839 1.8087899685
          3.2050361633 0.42096599936 1.7410199642 3.5512509346 0.3587679863 1.954660058
          3.2050361633 0.42096599936 1.7410199642 3.5121660233 0.42270597816 1.6780580282
          3.5512509346 0.3587679863 1.954660058 3.5524427891 0.59926497936 1.9792000055
          3.5908029079 0.19661930203 1.6370530128 3.3313462734 0.21289689839 1.8087899685
          3.5121660233 0.42270597816 1.6780580282 3.5512509346 0.3587679863 1.954660058
          3.3829259872 0.46805399656 0.71429997683 3.4906380177 0.39700400829 0.43757998943
          3.1142799854 0.34143099189 0.65826201439 3.241795063 0.17628619075 0.51923000813
          3.241795063 0.17628619075 0.51923000813 2.9617218971 0.11532790214 0.41656598449
          3.251791954 0.13675589859 0.23980399966 3.1855530739 0.35112899542 0.20670999587
          3.4906380177 0.39700400829 0.43757998943 3.241795063 0.17628619075 0.51923000813
          3.251791954 0.13675589859 0.23980399966 3.1855530739 0.35112899542 0.20670999587
          1.7845100164 0.61610001326 0.12772998214 1.8911110163 0.31002601981 0.28474500775
          1.9902969599 0.62398999929 0.42160499096 2.0226778984 0.62434697151 0.18275760114
          2.0226778984 0.62434697151 0.18275760114 1.8911110163 0.31002601981 0.28474500775
          1.9902969599 0.62398999929 0.42160499096 2.2181119919 0.41253200173 0.3796235919
          -0.19269900024 -0.26168438792 -1.0995333195 -0.42743900418 -0.29611000419 -1.0441720486
          -0.33131301403 -0.1156719923 -1.0455411673 -0.29678198695 -0.19139230251 -0.85894298553
          2.1746091843 0.4260700047 1.0060030222 1.8670481443 0.33276200294 0.76933300495
          2.1254868507 0.43120700121 0.6656140089 2.0345966816 0.62387102842 0.84213399887
          2.3321909904 0.63398498297 0.92614901066 2.1746091843 0.4260700047 1.0060030222
          2.1254868507 0.43120700121 0.6656140089 2.0345966816 0.62387102842 0.84213399887
          2.3321909904 0.63398498297 0.92614901066 2.1254868507 0.43120700121 0.6656140089
          2.2841498852 0.63460797071 0.62853097916 2.0345966816 0.62387102842 0.84213399887
          -2.4950749874 0.26449760795 -1.1571450233 -2.6970658302 0.28316840529 -1.292855978
          -2.7324504852 0.10715190321 -1.2788300514 -2.5362904072 0.058985300362 -1.3469660282
          -1.7705160379 -0.013670380227 -0.72984999418 -1.542323947 -0.10029046237 -0.56713998318
          -1.5314699411 -0.26643535495 -0.78901797533 -1.7501699924 -0.19925332069 -0.86327397823
          3.9962799549 0.50118601322 1.5290913582 3.8146090508 0.38017898798 1.7155710459
          3.9373788834 0.45778700709 1.9478909969 4.1660380363 0.37686598301 1.8869049549
          4.1660380363 0.37686598301 1.8869049549 3.8146090508 0.38017898798 1.7155710459
          3.9373788834 0.45778700709 1.9478909969 4.0440011024 0.18789739907 1.9961689711
          1.1987409592 0.59465539455 -0.16085501015 1.2312122583 0.39813408256 -0.034452985972
          1.1137839556 0.31430581212 -0.23879601061 1.0282603502 0.59369128942 0.0024159983732
          4.1660380363 0.37686598301 1.8869049549 3.9373788834 0.45778700709 1.9478909969
          3.9451920986 0.36131098866 2.1700799465 4.0440011024 0.18789739907 1.9961689711
          0.30460509658 0.093160197139 -1.2340450287 0.36555799842 0.082396402955 -0.88094812632
          0.4462980032 0.22514030337 -1.0646909475 0.26428851485 -0.064987801015 -1.0606349707
          -0.96815401316 0.02664539963 -0.92440497875 -0.97820800543 0.24167840183 -0.90613996983
          -0.69384098053 0.20343409479 -0.94639998674 -0.76539498568 -0.02696910128 -0.88151800632
          -0.55726397038 -0.032617900521 -1.40318501 -0.679880023 0.069117903709 -1.6021100283
          -0.7670930028 0.060932602733 -1.3277369738 -0.78262102604 -0.069029003382 -1.6080299616
          1.1473189592 0.12026190013 -0.89047002792 0.93579101562 0.2607139945 -0.85697698593
          1.0504629612 -0.041896902025 -0.74770897627 0.82348799706 -0.019467899576 -0.88339298964
          0.74059998989 0.11394579709 -1.0505290031 0.82348799706 -0.019467899576 -0.88339298964
          0.94502300024 -0.16622328758 -1.0062910318 0.61579799652 -0.14052461088 -1.0343459845
          0.84206402302 0.052923899144 -0.65382301807 0.61227500439 -0.20498250425 -0.7539935708
          0.82348799706 -0.019467899576 -0.88339298964 0.62536001205 0.067611642182 -0.78804123402
          0.84206402302 0.052923899144 -0.65382301807 0.61227500439 -0.20498250425 -0.7539935708
          0.88520997763 -0.23278620839 -0.74979001284 0.82348799706 -0.019467899576 -0.88339298964
          0.15763199329 -0.010675301775 -1.4892460108 0.2478390038 0.18538750708 -1.4635369778
          0.39721819758 -0.010242197663 -1.4243580103 0.30460509658 0.093160197139 -1.2340450287
          4.6735458374 0.19949239492 1.5503569841 4.7131490707 0.21425390244 1.868008852
          4.7825579643 0.012594994158 1.737795949 4.4655342102 0.20313693583 1.8080023527
          4.6735458374 0.19949239492 1.5503569841 4.7563681602 0.41457000375 1.7243119478
          4.7131490707 0.21425390244 1.868008852 4.4655342102 0.20313693583 1.8080023527
          4.7563681602 0.41457000375 1.7243119478 4.4522380829 0.45779499412 1.8534209728
          4.7131490707 0.21425390244 1.868008852 4.4655342102 0.20313693583 1.8080023527
          -1.5769430399 -0.27982699871 -1.0531499386 -1.7530180216 -0.49406966567 -1.0832090378
          -1.4523919821 -0.49702548981 -0.96172600985 -1.6530690193 -0.4847458899 -1.2544569969
          4.7131490707 0.21425390244 1.868008852 4.4522380829 0.45779499412 1.8534209728
          4.6265969276 0.37918898463 2.0835940838 4.4655342102 0.20313693583 1.8080023527
          4.7131490707 0.21425390244 1.868008852 4.3718128204 0.25128540397 2.104501009
          4.4655342102 0.20313693583 1.8080023527 4.6265969276 0.37918898463 2.0835940838
          4.7131490707 0.21425390244 1.868008852 4.6265969276 0.37918898463 2.0835940838
          4.7842068672 0.23646980524 2.2136070728 4.659427166 0.057737004012 2.0819699764
          4.659427166 0.057737004012 2.0819699764 4.7131490707 0.21425390244 1.868008852
          4.4655342102 0.20313693583 1.8080023527 4.5158967972 -0.051814988256 1.7898253202
          4.7131490707 0.21425390244 1.868008852 4.7825579643 0.012594994158 1.737795949
          4.4655342102 0.20313693583 1.8080023527 4.5158967972 -0.051814988256 1.7898253202
          3.4407179356 -0.10024298728 1.6149629354 3.4475607872 0.0026549980976 1.8703099489
          3.5018596649 -0.19701200724 1.8944000006 3.1580340862 -0.10009101033 1.6749999523
          4.6169447899 -0.28709799051 2.2023260593 4.6464409828 -0.13010598719 2.42572999
          4.8122911453 -0.30095601082 2.246833086 4.5203971863 -0.28261700273 2.3645069599
          -2.526927948 -0.09825039655 -0.49015599489 -2.548101902 -0.012899150141 -0.78901946545
          -2.7823200226 0.016783099622 -0.68633919954 -2.5790920258 -0.26749420166 -0.70352119207
          -2.8640635014 -0.32550418377 -0.67871928215 -2.5790920258 -0.26749420166 -0.70352119207
          -2.8852050304 -0.13799700141 -0.5307559967 -2.7823200226 0.016783099622 -0.68633919954
          4.432926178 0.52034902573 1.1526700258 4.4385910034 0.24091610312 1.4270139933
          4.5152788162 0.44570598006 1.5512629747 4.6267647743 0.34916397929 1.2565300465
          0.18104350567 0.33106470108 -0.62392002344 0.13325339556 0.2185369879 -0.41051501036
          0.36366090178 0.26720348001 -0.30314698815 0.40944099426 0.2642891109 -0.64370203018
          -0.0075119999237 -0.13963499665 -1.2594619989 0.060910001397 0.064430199564 -1.0059714317
          0.26428851485 -0.064987801015 -1.0606349707 0.059512998909 -0.21327769756 -1.0408661366
          0.060910001397 0.064430199564 -1.0059714317 0.36555799842 0.082396402955 -0.88094812632
          0.4462980032 0.22514030337 -1.0646909475 0.30460509658 0.093160197139 -1.2340450287
          4.6735458374 0.19949239492 1.5503569841 4.4655342102 0.20313693583 1.8080023527
          4.4501152039 0.014983006753 1.5191400051 4.4385910034 0.24091610312 1.4270139933
          4.6735458374 0.19949239492 1.5503569841 4.4655342102 0.20313693583 1.8080023527
          4.4385910034 0.24091610312 1.4270139933 4.5152788162 0.44570598006 1.5512629747
          4.5152788162 0.44570598006 1.5512629747 4.6735458374 0.19949239492 1.5503569841
          4.6267647743 0.34916397929 1.2565300465 4.4385910034 0.24091610312 1.4270139933
          4.7530341148 0.20248390734 1.315179944 4.8711438179 0.14351969957 1.5897270441
          4.9265980721 0.083074003458 1.3841999769 4.6735458374 0.19949239492 1.5503569841
          4.8979010582 0.32311931252 1.3858200312 4.8711438179 0.14351969957 1.5897270441
          4.7530341148 0.20248390734 1.315179944 4.6735458374 0.19949239492 1.5503569841
          4.725110054 0.0005410007434 1.2883199453 4.7530341148 0.20248390734 1.315179944
          4.9265980721 0.083074003458 1.3841999769 4.6735458374 0.19949239492 1.5503569841
          4.8979010582 0.32311931252 1.3858200312 4.8711438179 0.14351969957 1.5897270441
          4.9265980721 0.083074003458 1.3841999769 4.7530341148 0.20248390734 1.315179944
          1.0725090504 -0.1251232028 -0.30668699741 1.4527050257 -0.19449299574 -0.29091629386
          1.2987240553 -0.39872199297 -0.33902829885 1.2570589781 -0.21799020469 -0.084225989878
          1.0725090504 -0.1251232028 -0.30668699741 1.3120340109 -0.15288600326 -0.5459626317
          1.2987240553 -0.39872199297 -0.33902829885 1.4527050257 -0.19449299574 -0.29091629386
          1.4527050257 -0.19449299574 -0.29091629386 1.2987240553 -0.39872199297 -0.33902829885
          1.4899770021 -0.38008698821 -0.65395200253 1.3120340109 -0.15288600326 -0.5459626317
          -2.0370030403 0.2986676991 -0.69848400354 -2.0342888832 0.096592001617 -0.42942199111
          -1.9904079437 0.054340101779 -0.69911700487 -2.2431271076 0.16042180359 -0.71514201164
          -2.0370030403 0.2986676991 -0.69848400354 -2.0342888832 0.096592001617 -0.42942199111
          -1.8522150517 0.15278969705 -0.4879719913 -1.9904079437 0.054340101779 -0.69911700487
          -1.7501699924 -0.19925332069 -0.86327397823 -1.7985810041 -0.32161590457 -0.69973397255
          -1.8400460482 -0.50811260939 -0.77786999941 -1.9235659838 -0.32769143581 -0.93234062195
          -1.715157032 -0.23626880348 -0.5269600153 -1.7985810041 -0.32161590457 -0.69973397255
          -1.7705160379 -0.013670380227 -0.72984999418 -1.8855940104 -0.082297004759 -0.4747030139
          -2.0370030403 0.2986676991 -0.69848400354 -2.1107180119 0.488994807 -0.53275901079
          -1.9680509567 0.31546962261 -0.45382100344 -2.1832900047 0.29363209009 -0.3768529892
          -2.1107180119 0.488994807 -0.53275901079 -1.9680509567 0.31546962261 -0.45382100344
          -1.8200160265 0.49221810699 -0.71408998966 -2.0370030403 0.2986676991 -0.69848400354
          1.1473189592 0.12026190013 -0.89047002792 1.1057879925 0.14166979492 -0.59393042326
          0.93579101562 0.2607139945 -0.85697698593 1.2616900206 0.31878641248 -0.65477597713
          -4.1473436356 -0.025500500575 0.13780200481 -3.9098739624 -0.045701097697 0.062531001866
          -4.0705108643 0.13585180044 0.0080800065771 -4.0883383751 -0.19288347661 -0.063150003552
          -3.9246098995 -0.1297211349 0.29268100858 -4.1473436356 -0.025500500575 0.13780200481
          -4.0919470787 -0.29832312465 0.34250101447 -3.9805979729 -0.2818211019 0.12366101146
          1.0504629612 -0.041896902025 -0.74770897627 1.3628020287 0.069748699665 -0.7095310092
          1.1473189592 0.12026190013 -0.89047002792 1.2825410366 -0.16882799566 -0.83733904362
          1.1071350574 0.033141098917 -1.1655050516 1.1473189592 0.12026190013 -0.89047002792
          1.2469780445 -0.10695700347 -1.1089379787 0.94502300024 -0.16622328758 -1.0062910318
          1.2825410366 -0.16882799566 -0.83733904362 1.1473189592 0.12026190013 -0.89047002792
          1.2469780445 -0.10695700347 -1.1089379787 1.4835740328 -0.047832004726 -0.98587197065
          1.1473189592 0.12026190013 -0.89047002792 1.0504629612 -0.041896902025 -0.74770897627
          0.93579101562 0.2607139945 -0.85697698593 1.1057879925 0.14166979492 -0.59393042326
          1.3120340109 -0.15288600326 -0.5459626317 1.0725090504 -0.1251232028 -0.30668699741
          1.0542720556 -0.20917788148 -0.54995292425 0.99458998442 -0.022154798731 -0.49672108889
          5.3284611702 -0.29205599427 1.7498970032 5.327480793 -0.087410993874 1.7155309916
          5.3534770012 -0.30086100101 1.9398570061 5.1637601852 -0.29948699474 1.865844965
          -4.626159668 -0.03600018099 -0.37031018734 -4.6876730919 -0.14474339783 -0.56215977669
          -4.8524708748 -0.16640077531 -0.5321289897 -4.8024878502 -0.29730415344 -0.34576281905
          -0.14396199584 -0.17642790079 -1.5491399765 -0.27238899469 -0.43512588739 -1.4818589687
          -0.34433600307 -0.26983401179 -1.5834399462 -0.19379499555 -0.24117720127 -1.3589559793
          -4.7578816414 0.28667363524 -0.042721800506 -5 0.15884299576 0.21330599487
          -5 0.28975299001 0.088944099844 -4.6535224915 0.13568019867 0.13374620676
          -3.061948061 0.073819994926 -0.013481999747 -3.2438099384 0.03149420023 -0.20086398721
          -2.9494459629 -0.043818198144 -0.28794598579 -3.0384581089 0.17068129778 -0.37494298816
          -0.85848498344 0.10293919593 -1.6076999903 -1.0088479519 0.19115871191 -1.3418680429
          -0.72984099388 0.28546023369 -1.3866969347 -0.7670930028 0.060932602733 -1.3277369738
          -1.0532729626 0.32143890858 -1.6126300097 -1.201603055 0.29143372178 -1.4187309742
          -1.0088479519 0.19115871191 -1.3418680429 -1.0434730053 0.12597134709 -1.60631001
          -0.69384098053 0.20343409479 -0.94639998674 -0.5591750145 0.32877069712 -0.824015975
          -0.54605597258 0.061542298645 -0.81870001554 -0.61500298977 0.28469419479 -0.60780000687
          4.5728478432 -0.045872993767 1.2065700293 4.3275651932 -0.10407299548 1.3448059559
          4.4976420403 -0.29328599572 1.5345549583 4.4422369003 -0.2959190011 1.2816729546
          -2.8682529926 0.10229609907 -0.093391999602 -3.061948061 0.073819994926 -0.013481999747
          -2.9494459629 -0.043818198144 -0.28794598579 -3.0384581089 0.17068129778 -0.37494298816
          2.3698036671 -0.32390099764 1.0980910063 2.2197947502 -0.2277380079 0.99411600828
          2.3880560398 -0.17542900145 0.81797897816 2.4782733917 -0.16793499887 1.1878299713
          2.4782733917 -0.16793499887 1.1878299713 2.3698036671 -0.32390099764 1.0980910063
          2.5645010471 -0.34633201361 0.97681301832 2.3880560398 -0.17542900145 0.81797897816
          -4.0016899109 0.29823037982 0.14048601687 -3.7869338989 0.27324751019 0.25282999873
          -3.7695140839 0.20615190268 -0.025571003556 -3.7828290462 0.0534854047 0.25001400709
          -1.288203001 -0.24603740871 -1.60145998 -1.2205280066 -0.4554925859 -1.6110960245
          -1.199491024 -0.2731808126 -1.4120750427 -1.0445510149 -0.28223949671 -1.6158399582
          4.3977518082 -0.2796689868 1.9731270075 4.3348088264 0.0020780034829 2.0050890446
          4.1882071495 -0.28400298953 2.0946230888 4.1488780975 -0.13552299142 1.9172199965
          4.7728209496 0.11897029728 2.42572999 4.8128800392 -0.12278998643 2.4790999889
          4.960849762 -0.010346002877 2.4790999889 4.7630262375 -0.078894995153 2.2290580273
          -1.2506010532 -0.14467050135 -1.2530030012 -1.3583359718 0.17316421866 -1.3048620224
          -1.4067959785 -0.070061728358 -1.4117490053 -1.1884590387 0.063980542123 -1.4178910255
          0.47868400812 -0.085507400334 -0.87584412098 0.62536001205 0.067611642182 -0.78804123402
          0.61227500439 -0.20498250425 -0.7539935708 0.56557297707 -0.05147189647 -0.61882799864
          1.5018340349 0.60006701946 -0.26044872403 1.4334243536 0.60390299559 0.081108003855
          1.4418599606 0.28709000349 -0.062245994806 1.2312122583 0.39813408256 -0.034452985972
          4.0705580711 0.054460007697 1.7552939653 4.1488780975 -0.13552299142 1.9172199965
          3.89149189 -0.08670001477 1.8603260517 4.0440011024 0.18789739907 1.9961689711
          -2.4264535904 -0.49877792597 -1.0958280563 -2.3369340897 -0.31915336847 -1.4069160223
          -2.5419068336 -0.2821674943 -1.3411229849 -2.5251846313 -0.49511519074 -1.3098219633
          -2.4264535904 -0.49877792597 -1.0958280563 -2.2753708363 -0.4886584878 -1.4040980339
          -2.3369340897 -0.31915336847 -1.4069160223 -2.5251846313 -0.49511519074 -1.3098219633
          -2.1722934246 -0.49265837669 -1.1914629936 -2.2753708363 -0.4886584878 -1.4040980339
          -2.3369340897 -0.31915336847 -1.4069160223 -2.4264535904 -0.49877792597 -1.0958280563
          -1.2506010532 -0.14467050135 -1.2530030012 -1.1884590387 0.063980542123 -1.4178910255
          -0.99887502193 -0.062538303435 -1.3665850163 -1.1318500042 0.052193719894 -1.1925956011
          -1.2506010532 -0.14467050135 -1.2530030012 -1.3583359718 0.17316421866 -1.3048620224
          -1.1884590387 0.063980542123 -1.4178910255 -1.1318500042 0.052193719894 -1.1925956011
          -4.7829651833 -0.03583727777 0.25068509579 -4.777050972 -0.31894397736 0.2911812067
          -4.6756920815 -0.17933808267 0.46103820205 -4.5542583466 -0.14354543388 0.282918185
          -4.6756920815 -0.17933808267 0.46103820205 -4.777050972 -0.31894397736 0.2911812067
          -4.4544172287 -0.23605190217 0.42361399531 -4.5542583466 -0.14354543388 0.282918185
          0.89858132601 0.2298887074 -0.23391401768 1.1137839556 0.31430581212 -0.23879601061
          1.1920820475 0.066462799907 -0.092215999961 0.95458650589 0.18395619094 0.067213997245
          0.9058868885 0.3652240932 0.037831000984 0.95458650589 0.18395619094 0.067213997245
          1.1137839556 0.31430581212 -0.23879601061 0.89858132601 0.2298887074 -0.23391401768
          0.9058868885 0.3652240932 0.037831000984 0.89858132601 0.2298887074 -0.23391401768
          1.1137839556 0.31430581212 -0.23879601061 0.79733598232 0.39415538311 -0.3318169713
          -0.74982398748 -0.23088718951 -1.0935233831 -0.79623502493 -0.46506458521 -1.2561719418
          -1.0050040483 -0.23432028294 -1.1520009041 -0.91781198978 -0.47875839472 -1.088809967
          0.56680697203 0.35435029864 -0.45947599411 0.36366090178 0.26720348001 -0.30314698815
          0.60305899382 0.11440300196 -0.49014899135 0.40944099426 0.2642891109 -0.64370203018
          0.56680697203 0.35435029864 -0.45947599411 0.36366090178 0.26720348001 -0.30314698815
          0.58858072758 0.152926296 -0.17830699682 0.60305899382 0.11440300196 -0.49014899135
          1.8257160187 0.17760980129 -0.11040610075 1.7167700529 0.42090001702 -0.091850601137
          1.4418599606 0.28709000349 -0.062245994806 1.5832170248 0.13898870349 -0.2907756865
          1.8257160187 0.17760980129 -0.11040610075 1.4418599606 0.28709000349 -0.062245994806
          1.6255400181 0.14701509476 0.17244631052 1.5832170248 0.13898870349 -0.2907756865
          1.8257160187 0.17760980129 -0.11040610075 1.5832170248 0.13898870349 -0.2907756865
          1.6255400181 0.14701509476 0.17244631052 1.4943079948 -0.043684996665 -0.058169994503
          1.8071659803 -0.10879799724 -0.12797890604 1.4943079948 -0.043684996665 -0.058169994503
          1.5832170248 0.13898870349 -0.2907756865 1.8257160187 0.17760980129 -0.11040610075
          1.8071659803 -0.10879799724 -0.12797890604 1.5832170248 0.13898870349 -0.2907756865
          1.6553009748 -0.058208007365 -0.42940098047 1.8257160187 0.17760980129 -0.11040610075
          1.8071659803 -0.10879799724 -0.12797890604 1.4943079948 -0.043684996665 -0.058169994503
          1.6553009748 -0.058208007365 -0.42940098047 1.5832170248 0.13898870349 -0.2907756865
          1.5832170248 0.13898870349 -0.2907756865 1.6553009748 -0.058208007365 -0.42940098047
          1.4527050257 -0.19449299574 -0.29091629386 1.4943079948 -0.043684996665 -0.058169994503
          1.5832170248 0.13898870349 -0.2907756865 1.4418599606 0.28709000349 -0.062245994806
          1.6255400181 0.14701509476 0.17244631052 1.4943079948 -0.043684996665 -0.058169994503
          1.5832170248 0.13898870349 -0.2907756865 1.1920820475 0.066462799907 -0.092215999961
          1.4418599606 0.28709000349 -0.062245994806 1.4943079948 -0.043684996665 -0.058169994503
          -4.0872659683 -0.040365900844 -0.50246196985 -3.93171525 0.23039670289 -0.4976850152
          -3.8436272144 -0.0084195006639 -0.544039011 -3.8458154202 -0.0071441796608 -0.27063637972
          -1.1999200583 0.31322172284 -0.84429401159 -1.2614649534 0.29969120026 -0.61504000425
          -1.3387739658 0.1015701443 -0.80373698473 -1.4917390347 0.24093736708 -0.86661797762
          -4.0872659683 -0.040365900844 -0.50246196985 -4.1674909592 0.13877829909 -0.35717999935
          -4.2499485016 -0.19019518793 -0.35626098514 -4.436715126 0.026354400441 -0.37169200182
          -4.5225315094 -0.29344007373 -0.59745502472 -4.4819908142 -0.52308231592 -0.52997338772
          -4.4922027588 -0.20494790375 -0.36291068792 -4.3519821167 -0.3447792232 -0.6417530179
          -4.4922027588 -0.20494790375 -0.36291068792 -4.4819908142 -0.52308231592 -0.52997338772
          -4.3169722557 -0.515429914 -0.37853601575 -4.3519821167 -0.3447792232 -0.6417530179
          -4.2499485016 -0.19019518793 -0.35626098514 -4.4922027588 -0.20494790375 -0.36291068792
          -4.3169722557 -0.515429914 -0.37853601575 -4.3519821167 -0.3447792232 -0.6417530179
          -4.2499485016 -0.19019518793 -0.35626098514 -4.4922027588 -0.20494790375 -0.36291068792
          -4.4366278648 -0.28509175777 -0.13918270171 -4.3169722557 -0.515429914 -0.37853601575
          -2.4830985069 0.14539518952 -0.90576428175 -2.2431271076 0.16042180359 -0.71514201164
          -2.548101902 -0.012899150141 -0.78901946545 -2.5196659565 0.24592778087 -0.72205346823
          -4.4922027588 -0.20494790375 -0.36291068792 -4.4819908142 -0.52308231592 -0.52997338772
          -4.6099963188 -0.51237237453 -0.2558003962 -4.3169722557 -0.515429914 -0.37853601575
          -4.4922027588 -0.20494790375 -0.36291068792 -4.6932406425 -0.33437889814 -0.55821180344
          -4.6099963188 -0.51237237453 -0.2558003962 -4.4819908142 -0.52308231592 -0.52997338772
          4.3472771645 -0.29031598568 1.7298301458 4.2373199463 -0.093296997249 1.6291577816
          4.1488780975 -0.13552299142 1.9172199965 4.1453089714 -0.29227998853 1.7419952154
          -2.0028738976 -0.28446289897 -0.43915998936 -2.0423929691 -0.48994448781 -0.42611399293
          -2.1525170803 -0.34244281054 -0.58914798498 -2.1998250484 -0.3150857985 -0.36672699451
          -2.1525170803 -0.34244281054 -0.58914798498 -2.0423929691 -0.48994448781 -0.42611399293
          -1.8573379517 -0.51496881247 -0.5290030241 -2.0830700397 -0.51125961542 -0.71200299263
          -2.1998250484 -0.3150857985 -0.36672699451 -2.2511439323 -0.51482909918 -0.38649699092
          -2.0423929691 -0.48994448781 -0.42611399293 -2.1525170803 -0.34244281054 -0.58914798498
          2.8823029995 0.46633699536 -0.010378999636 2.9922840595 0.30892300606 0.059962000698
          2.7388780117 0.4845879972 0.20156900585 3.0825920105 0.52345901728 0.14255799353
          2.9922840595 0.30892300606 0.059962000698 2.8823029995 0.46633699536 -0.010378999636
          2.7388780117 0.4845879972 0.20156900585 2.7543749809 0.16338352859 0.14366000891
          0.059512998909 -0.21327769756 -1.0408661366 0.14480470121 -0.27436679602 -0.68005996943
          0.19156980515 -0.44301488996 -0.90191078186 0.0018850000342 -0.13561350107 -0.81675201654
          0.059512998909 -0.21327769756 -1.0408661366 0.36515200138 -0.25333359838 -0.93256372213
          0.19156980515 -0.44301488996 -0.90191078186 0.14480470121 -0.27436679602 -0.68005996943
          0.44525501132 -0.44013750553 -0.72802501917 0.19156980515 -0.44301488996 -0.90191078186
          0.36515200138 -0.25333359838 -0.93256372213 0.14480470121 -0.27436679602 -0.68005996943
          0.44525501132 -0.44013750553 -0.72802501917 0.14480470121 -0.27436679602 -0.68005996943
          0.36515200138 -0.25333359838 -0.93256372213 0.3360530138 -0.12368449569 -0.71136599779
          0.21651309729 -0.46012639999 -0.53555697203 -0.011990199797 -0.27998569608 -0.48404100537
          -0.0078739998862 -0.46226969361 -0.70150399208 0.14480470121 -0.27436679602 -0.68005996943
          1.108948946 -0.40205231309 -0.65256047249 1.0204950571 -0.39697799087 -0.86901700497
          1.2825410366 -0.16882799566 -0.83733904362 0.88520997763 -0.23278620839 -0.74979001284
          -0.54605597258 0.061542298645 -0.81870001554 -0.76281398535 0.3376955986 -0.79411798716
          -0.69384098053 0.20343409479 -0.94639998674 -0.61500298977 0.28469419479 -0.60780000687
          0.75424200296 -0.42280769348 -0.65912491083 0.80060499907 -0.40619540215 -0.98212498426
          1.0204950571 -0.39697799087 -0.86901700497 0.88520997763 -0.23278620839 -0.74979001284
          0.75424200296 -0.42280769348 -0.65912491083 0.80060499907 -0.40619540215 -0.98212498426
          0.88520997763 -0.23278620839 -0.74979001284 0.61227500439 -0.20498250425 -0.7539935708
          0.61227500439 -0.20498250425 -0.7539935708 0.80060499907 -0.40619540215 -0.98212498426
          0.88520997763 -0.23278620839 -0.74979001284 0.61579799652 -0.14052461088 -1.0343459845
          -4.1473436356 -0.025500500575 0.13780200481 -4.3956904411 -0.0096592828631 -0.099004216492
          -4.4574508667 0.019598178566 0.2031301856 -4.3315758705 -0.16536140442 0.15697599947
          -4.1473436356 -0.025500500575 0.13780200481 -4.3315758705 -0.16536140442 0.15697599947
          -4.4574508667 0.019598178566 0.2031301856 -4.1633501053 -0.0074493000284 0.35350400209
          0.88520997763 -0.23278620839 -0.74979001284 0.80060499907 -0.40619540215 -0.98212498426
          0.94502300024 -0.16622328758 -1.0062910318 0.61579799652 -0.14052461088 -1.0343459845
          0.88520997763 -0.23278620839 -0.74979001284 0.80060499907 -0.40619540215 -0.98212498426
          1.0204950571 -0.39697799087 -0.86901700497 0.94502300024 -0.16622328758 -1.0062910318
          0.88520997763 -0.23278620839 -0.74979001284 1.0204950571 -0.39697799087 -0.86901700497
          1.2825410366 -0.16882799566 -0.83733904362 0.94502300024 -0.16622328758 -1.0062910318
          -2.9494459629 -0.043818198144 -0.28794598579 -3.1492960453 -0.20950199664 -0.30492499471
          -3.0457994938 0.036590598524 -0.58276486397 -3.2953541279 -0.00062000047183 -0.49288973212
          -3.0384581089 0.17068129778 -0.37494298816 -2.9494459629 -0.043818198144 -0.28794598579
          -3.0457994938 0.036590598524 -0.58276486397 -3.2953541279 -0.00062000047183 -0.49288973212
          -3.0457994938 0.036590598524 -0.58276486397 -3.2953541279 -0.00062000047183 -0.49288973212
          -3.2987422943 0.26889032125 -0.46421080828 -3.0384581089 0.17068129778 -0.37494298816
          -0.028528999537 0.095570899546 -1.5219500065 -0.080162003636 0.27255320549 -1.5318399668
          0.046897001565 0.32769879699 -1.3547029495 -0.2287349999 0.24483269453 -1.2839930058
          -3.6143445969 0.47693321109 -0.66685003042 -3.5222220421 0.2613735199 -0.7316250205
          -3.6499538422 0.47699010372 -0.48393499851 -3.517005682 0.27712589502 -0.40882021189
          -4.6802415848 -0.16959774494 -0.21772760153 -4.7775506973 -0.01067915 -0.02922873944
          -5 -0.16616299748 -0.067754097283 -4.7995986938 0.015869349241 -0.30273678899
          -4.7775506973 -0.01067915 -0.02922873944 -5 0.1004910022 -0.10199099779
          -5 -0.16616299748 -0.067754097283 -4.7995986938 0.015869349241 -0.30273678899
          -4.7995986938 0.015869349241 -0.30273678899 -5 0.1004910022 -0.10199099779
          -4.7578816414 0.28667363524 -0.042721800506 -4.7775506973 -0.01067915 -0.02922873944
          -4.6376662254 0.16694931686 -0.24515900016 -4.7995986938 0.015869349241 -0.30273678899
          -4.7578816414 0.28667363524 -0.042721800506 -4.7775506973 -0.01067915 -0.02922873944
          -2.9227018356 0.26947918534 -0.61335587502 -3.1012940407 0.47349649668 -0.42684000731
          -2.9054839611 0.47552779317 -0.32576698065 -2.825469017 0.27062919736 -0.34245297313
          -2.7501730919 0.4770526886 -0.50051802397 -2.9227018356 0.26947918534 -0.61335587502
          -2.9054839611 0.47552779317 -0.32576698065 -2.825469017 0.27062919736 -0.34245297313
          -4.5885467529 0.081544041634 -0.058668099344 -4.7578816414 0.28667363524 -0.042721800506
          -4.5223350525 0.28749448061 0.00038830153062 -4.6535224915 0.13568019867 0.13374620676
          -4.5223350525 0.28749448061 0.00038830153062 -4.3490223885 0.21022440493 0.13521999121
          -4.5885467529 0.081544041634 -0.058668099344 -4.6535224915 0.13568019867 0.13374620676
          -4.5223350525 0.28749448061 0.00038830153062 -4.3490223885 0.21022440493 0.13521999121
          -4.3956904411 -0.0096592828631 -0.099004216492 -4.5885467529 0.081544041634 -0.058668099344
          -4.5885467529 0.081544041634 -0.058668099344 -4.3815760612 0.24617770314 -0.19512629509
          -4.3956904411 -0.0096592828631 -0.099004216492 -4.5223350525 0.28749448061 0.00038830153062
          4.7806420326 0.47793102264 2.2329978943 4.6838960648 0.53327900171 2.4624800682
          4.819275856 0.2937990129 2.4843699932 4.6255760193 0.29108199477 2.428800106
          4.7842068672 0.23646980524 2.2136070728 4.7806420326 0.47793102264 2.2329978943
          4.819275856 0.2937990129 2.4843699932 4.6255760193 0.29108199477 2.428800106
          -3.7752130032 0.42797881365 -0.85966801643 -3.6143445969 0.47693321109 -0.66685003042
          -3.7815887928 0.27240249515 -0.66369998455 -3.8207867146 0.48162639141 -0.65821701288
          4.6265969276 0.37918898463 2.0835940838 4.7806420326 0.47793102264 2.2329978943
          4.6255760193 0.29108199477 2.428800106 4.486289978 0.48828300834 2.4170000553
          4.7806420326 0.47793102264 2.2329978943 4.486289978 0.48828300834 2.4170000553
          4.6265969276 0.37918898463 2.0835940838 4.402616024 0.45689401031 2.1667981148
          4.7806420326 0.47793102264 2.2329978943 4.6838960648 0.53327900171 2.4624800682
          4.6255760193 0.29108199477 2.428800106 4.486289978 0.48828300834 2.4170000553
          -1.5769430399 -0.27982699871 -1.0531499386 -1.5908279419 -0.0042438311502 -1.0808677673
          -1.8356319666 0.0078969011083 -1.0082437992 -1.8587261438 -0.19973695278 -1.1918489933
          -1.5769430399 -0.27982699871 -1.0531499386 -1.5908279419 -0.0042438311502 -1.0808677673
          -1.7501699924 -0.19925332069 -0.86327397823 -1.8356319666 0.0078969011083 -1.0082437992
          -2.0607159138 -0.073489099741 -0.92311251163 -2.1130719185 -0.047264300287 -1.1963629723
          -1.8587261438 -0.19973695278 -1.1918489933 -1.8356319666 0.0078969011083 -1.0082437992
          -2.4950749874 0.26449760795 -1.1571450233 -2.8611981869 0.29218497872 -1.0245879889
          -2.6970658302 0.28316840529 -1.292855978 -2.7583801746 0.46716481447 -1.1447130442
          -4.6474046707 -0.00025216012727 0.44196480513 -4.5989289284 0.15179400146 0.43534138799
          -4.8289003372 0.15818049014 0.46990901232 -4.7829651833 -0.03583727777 0.25068509579
          0.9058868885 0.3652240932 0.037831000984 0.95458650589 0.18395619094 0.067213997245
          0.89858132601 0.2298887074 -0.23391401768 0.71466517448 0.27138009667 -0.094232998788
          -4.1674909592 0.13877829909 -0.35717999935 -4.3815760612 0.24617770314 -0.19512629509
          -4.436715126 0.026354400441 -0.37169200182 -4.3347187042 0.29005420208 -0.44296199083
          -3.0384581089 0.17068129778 -0.37494298816 -3.2346680164 0.26355689764 -0.22137200832
          -3.0915300846 0.47361189127 -0.20009501278 -2.9465370178 0.2871569097 -0.061487998813
          -4.3393721581 0.42342635989 -0.65198898315 -4.5312843323 0.49934783578 -0.58330410719
          -4.3347187042 0.29005420208 -0.44296199083 -4.4355773926 0.16414380074 -0.62573999166
          -4.3393721581 0.42342635989 -0.65198898315 -4.5312843323 0.49934783578 -0.58330410719
          -4.4399366379 0.49330413342 -0.36716800928 -4.3347187042 0.29005420208 -0.44296199083
          -4.3347187042 0.29005420208 -0.44296199083 -4.4399366379 0.49330413342 -0.36716800928
          -4.2408308983 0.48058089614 -0.10947950184 -4.3815760612 0.24617770314 -0.19512629509
          1.6754965782 -0.38479599357 0.46163770556 1.6178350449 -0.15927900374 0.18571281433
          1.8311589956 -0.37597900629 0.21240459383 1.9639710188 -0.12883301079 0.49361902475
          1.9808440208 -0.36953899264 0.4755859971 1.6754965782 -0.38479599357 0.46163770556
          1.8311589956 -0.37597900629 0.21240459383 1.9639710188 -0.12883301079 0.49361902475
          -0.56551098824 -0.25506937504 -1.2119810581 -0.61719799042 -0.039664398879 -1.1887242794
          -0.73458898067 -0.17205369473 -1.327262044 -0.55726397038 -0.032617900521 -1.40318501
          3.1671938896 0.66265797615 1.2060799599 3.0001080036 0.49131900072 1.1801650524
          3.138158083 0.46699899435 1.4169000387 3.220927 0.38111701608 1.2094409466
          -4.5366792679 0.30343410373 -0.3805705905 -4.5005278587 0.48635560274 -0.11545810103
          -4.3815760612 0.24617770314 -0.19512629509 -4.6376662254 0.16694931686 -0.24515900016
          -2.1506009102 0.25718417764 -1.2337720394 -2.3186562061 0.14272490144 -1.0617469549
          -2.0596408844 0.23887120187 -0.93493187428 -2.1116633415 0.079452298582 -1.0412242413
          -4.7088990211 0.50314342976 -0.47985681891 -4.5312843323 0.49934783578 -0.58330410719
          -4.6478972435 0.31442570686 -0.57184767723 -4.5366792679 0.30343410373 -0.3805705905
          3.0001080036 0.49131900072 1.1801650524 3.220927 0.38111701608 1.2094409466
          3.2219541073 0.45492699742 0.97522252798 2.8959798813 0.32024499774 1.0456169844
          2.2197947502 -0.2277380079 0.99411600828 2.0427997112 -0.2558940053 0.86032700539
          2.1764740944 -0.18138699234 0.65020596981 2.1027405262 -0.096268005669 0.91622400284
          3.138158083 0.46699899435 1.4169000387 3.4179348946 0.33102399111 1.4116280079
          3.220927 0.38111701608 1.2094409466 3.1057059765 0.21902000904 1.2990050316
          2.2197947502 -0.2277380079 0.99411600828 2.0427997112 -0.2558940053 0.86032700539
          2.279137373 -0.3575539887 0.84426099062 2.1764740944 -0.18138699234 0.65020596981
          3.2219541073 0.45492699742 0.97522252798 3.427726984 0.34208199382 0.94024497271
          3.2844669819 0.18207931519 1.0159295797 3.220927 0.38111701608 1.2094409466
          1.9808440208 -0.36953899264 0.4755859971 2.1764740944 -0.18138699234 0.65020596981
          1.9639710188 -0.12883301079 0.49361902475 2.2042989731 -0.13768899441 0.32803380489
          2.3737831116 -0.031773991883 0.64508098364 2.1764740944 -0.18138699234 0.65020596981
          2.5706369877 -0.14441801608 0.49783235788 2.2042989731 -0.13768899441 0.32803380489
          2.3737831116 -0.031773991883 0.64508098364 2.2867779732 -0.35515400767 0.54491502047
          2.5706369877 -0.14441801608 0.49783235788 2.1764740944 -0.18138699234 0.65020596981
          -0.33131301403 -0.1156719923 -1.0455411673 -0.56551098824 -0.25506937504 -1.2119810581
          -0.42743900418 -0.29611000419 -1.0441720486 -0.38811999559 -0.14212410152 -1.2827340364
          -3.5110230446 0.47337430716 -0.19270299375 -3.6916606426 0.47540700436 -0.29235720634
          -3.7485210896 0.47213810682 -0.081793002784 -3.7126243114 0.24968840182 -0.29950919747
          -1.0050040483 -0.23432028294 -1.1520009041 -1.2506010532 -0.14467050135 -1.2530030012
          -0.95317101479 -0.27932810783 -1.4066259861 -0.99887502193 -0.062538303435 -1.3665850163
          -1.0050040483 -0.23432028294 -1.1520009041 -0.99887502193 -0.062538303435 -1.3665850163
          -0.95317101479 -0.27932810783 -1.4066259861 -0.73458898067 -0.17205369473 -1.327262044
          -4.3956904411 -0.0096592828631 -0.099004216492 -4.5573143959 -0.13582371175 -0.061340749264
          -4.4366278648 -0.28509175777 -0.13918270171 -4.4922027588 -0.20494790375 -0.36291068792
          -4.5573143959 -0.13582371175 -0.061340749264 -4.6802415848 -0.16959774494 -0.21772760153
          -4.4366278648 -0.28509175777 -0.13918270171 -4.4922027588 -0.20494790375 -0.36291068792
          -4.4366278648 -0.28509175777 -0.13918270171 -4.7962985039 -0.27623388171 -0.034645497799
          -4.5573143959 -0.13582371175 -0.061340749264 -4.4754362106 -0.32264238596 0.12133580446
          1.3120340109 -0.15288600326 -0.5459626317 1.108948946 -0.40205231309 -0.65256047249
          1.2825410366 -0.16882799566 -0.83733904362 1.0542720556 -0.20917788148 -0.54995292425
          -4.626159668 -0.03600018099 -0.37031018734 -4.6802415848 -0.16959774494 -0.21772760153
          -4.6876730919 -0.14474339783 -0.56215977669 -4.8024878502 -0.29730415344 -0.34576281905
          -1.1546920538 -0.21682497859 -0.62265998125 -1.3182120323 -0.50291794538 -0.77375298738
          -1.0522500277 -0.4041929543 -0.63874000311 -1.1560570002 -0.29963886738 -0.85426801443
          4.7842068672 0.23646980524 2.2136070728 5.0139088631 0.39100199938 2.2078499794
          4.9558830261 0.24193349481 1.938804388 5.0963821411 0.18064403534 2.290708065
          4.7842068672 0.23646980524 2.2136070728 4.819275856 0.2937990129 2.4843699932
          5.0139088631 0.39100199938 2.2078499794 5.0963821411 0.18064403534 2.290708065
          4.819275856 0.2937990129 2.4843699932 5.0230960846 0.41076001525 2.4843699932
          5.0139088631 0.39100199938 2.2078499794 5.0963821411 0.18064403534 2.290708065
          4.819275856 0.2937990129 2.4843699932 5.0230960846 0.41076001525 2.4843699932
          5.0963821411 0.18064403534 2.290708065 5.0148458481 0.15865379572 2.5250399113
          5.0139088631 0.39100199938 2.2078499794 5.0230960846 0.41076001525 2.4843699932
          5.3057627678 0.47182801366 2.3657300472 5.0963821411 0.18064403534 2.290708065
          5.3432278633 0.22682979703 2.2597339153 5.0139088631 0.39100199938 2.2078499794
          5.3057627678 0.47182801366 2.3657300472 5.0963821411 0.18064403534 2.290708065
          5.3432278633 0.22682979703 2.2597339153 5.0963821411 0.18064403534 2.290708065
          5.3057627678 0.47182801366 2.3657300472 5.2506189346 0.27369219065 2.5230898857
          5.0963821411 0.18064403534 2.290708065 5.0230960846 0.41076001525 2.4843699932
          5.3057627678 0.47182801366 2.3657300472 5.2506189346 0.27369219065 2.5230898857
          4.9883351326 -0.0025349962525 2.1726241112 5.0791130066 -0.098838992417 2.3361620903
          4.8122911453 -0.30095601082 2.246833086 4.7630262375 -0.078894995153 2.2290580273
          5.0963821411 0.18064403534 2.290708065 5.0139088631 0.39100199938 2.2078499794
          4.9558830261 0.24193349481 1.938804388 5.1686019897 0.14154189825 2.0466096401
          5.0963821411 0.18064403534 2.290708065 5.0148458481 0.15865379572 2.5250399113
          5.2068247795 0.041992999613 2.5940599442 5.2890958786 -0.018920002505 2.382846117
          -1.0445510149 -0.28223949671 -1.6158399582 -1.199491024 -0.2731808126 -1.4120750427
          -1.1307909489 -0.13907830417 -1.6104199886 -0.95317101479 -0.27932810783 -1.4066259861
          -0.6984680295 -0.26326191425 -0.85958302021 -0.59738898277 -0.2561981082 -0.61395001411
          -0.57054299116 -0.063641503453 -0.60666000843 -0.49013099074 -0.27833321691 -0.80703800917
          -0.83093398809 0.49481633306 -1.3887859583 -1.1120990515 0.48050779104 -1.6057850122
          -1.0256249905 0.49155002832 -1.3329880238 -1.0532729626 0.32143890858 -1.6126300097
          4.0087571144 -0.073222987354 1.1375299692 4.1369771957 0.033024005592 1.3592270613
          3.9656031132 0.16085809469 1.1511030197 4.1854190826 0.098016999662 0.94669002295
          4.1854190826 0.098016999662 0.94669002295 3.9685349464 0.18286730349 0.78710997105
          3.9656031132 0.16085809469 1.1511030197 4.0087571144 -0.073222987354 1.1375299692
          4.1854190826 0.098016999662 0.94669002295 3.9685349464 0.18286730349 0.78710997105
          4.0087571144 -0.073222987354 1.1375299692 3.902930975 -0.018859993666 0.7255499959
          4.0087571144 -0.073222987354 1.1375299692 3.9685349464 0.18286730349 0.78710997105
          3.9656031132 0.16085809469 1.1511030197 3.902930975 -0.018859993666 0.7255499959
          1.0504629612 -0.041896902025 -0.74770897627 1.1057879925 0.14166979492 -0.59393042326
          1.3628020287 0.069748699665 -0.7095310092 1.3120340109 -0.15288600326 -0.5459626317
          -3.3653941154 0.12199870497 0.10548699647 -3.4188709259 -0.052383501083 -0.084667012095
          -3.4230210781 -0.045196000487 0.12691999972 -3.2750339508 -0.14621569216 0.072559997439
          3.8146090508 0.38017898798 1.7155710459 4.1660380363 0.37686598301 1.8869049549
          4.0141201019 0.24855940044 1.621557951 4.0440011024 0.18789739907 1.9961689711
          3.9962799549 0.50118601322 1.5290913582 3.8146090508 0.38017898798 1.7155710459
          4.1660380363 0.37686598301 1.8869049549 4.0141201019 0.24855940044 1.621557951
          -0.78262102604 -0.069029003382 -1.6080299616 -0.55726397038 -0.032617900521 -1.40318501
          -0.679880023 0.069117903709 -1.6021100283 -0.50069600344 -0.11491009593 -1.5895299911
          -4.7962985039 -0.27623388171 -0.034645497799 -4.7666764259 -0.51139259338 -0.25473800302
          -4.9766492844 -0.50082987547 -0.16668698192 -4.7719397545 -0.50261425972 -0.082141898572
          5.0139088631 0.39100199938 2.2078499794 5.3057627678 0.47182801366 2.3657300472
          5.1783838272 0.53621798754 2.2175490856 5.3432278633 0.22682979703 2.2597339153
          3.804610014 0.20091049373 1.4191051722 3.5908029079 0.19661930203 1.6370530128
          4.0141201019 0.24855940044 1.621557951 3.804297924 0.13001829386 1.8220219612
          -2.3013501167 -0.0029451001901 -0.87519747019 -1.9904079437 0.054340101779 -0.69911700487
          -2.2431271076 0.16042180359 -0.71514201164 -2.0607159138 -0.073489099741 -0.92311251163
          -2.3013501167 -0.0029451001901 -0.87519747019 -2.2431271076 0.16042180359 -0.71514201164
          -2.4275128841 0.11600639671 -0.53692299128 -2.548101902 -0.012899150141 -0.78901946545
          -3.4282062054 0.14235441387 -0.57428902388 -3.2104935646 -0.0044391001575 -0.70767199993
          -3.2953541279 -0.00062000047183 -0.49288973212 -3.275526762 0.18115669489 -0.7455739975
          -0.032131001353 0.33743911982 -0.72442996502 0.049058001488 0.54692262411 -0.80024498701
          -0.098812997341 0.27493330836 -0.95051121712 0.21853539348 0.33637189865 -0.98886328936
          0.13939720392 0.18482199311 -0.80818897486 -0.032131001353 0.33743911982 -0.72442996502
          -0.098812997341 0.27493330836 -0.95051121712 0.21853539348 0.33637189865 -0.98886328936
          0.69450002909 0.33520320058 -0.69070541859 0.62536001205 0.067611642182 -0.78804123402
          0.67646998167 0.33598598838 -0.95468699932 0.43711400032 0.35662287474 -0.86431020498
          -4.4078559875 -0.44284930825 0.41885921359 -4.4754362106 -0.32264238596 0.12133580446
          -4.5533809662 -0.4828903079 0.2240357995 -4.323428154 -0.48470199108 0.21382179856
          -2.8496210575 -0.34875020385 -0.099053002894 -3.0166881084 -0.40625160933 -0.028389999643
          -2.7235929966 -0.46752271056 -0.15234200656 -3.07508111 -0.50736320019 -0.289350003
          2.087033987 -0.36293101311 0.27580299973 1.9846500158 -0.36595401168 0.065145798028
          2.204267025 -0.35545799136 0.084110699594 2.0367250443 -0.15883000195 0.10807870328
          -4.5533809662 -0.4828903079 0.2240357995 -4.4754362106 -0.32264238596 0.12133580446
          -4.4544172287 -0.23605190217 0.42361399531 -4.777050972 -0.31894397736 0.2911812067
          -4.4078559875 -0.44284930825 0.41885921359 -4.4544172287 -0.23605190217 0.42361399531
          -4.4754362106 -0.32264238596 0.12133580446 -4.323428154 -0.48470199108 0.21382179856
          -2.8852050304 -0.13799700141 -0.5307559967 -3.0457994938 0.036590598524 -0.58276486397
          -3.1492960453 -0.20950199664 -0.30492499471 -3.0899682045 -0.29772499204 -0.5357632041
          0.21853539348 0.33637189865 -0.98886328936 0.13939720392 0.18482199311 -0.80818897486
          0.18104350567 0.33106470108 -0.62392002344 0.43711400032 0.35662287474 -0.86431020498
          0.36555799842 0.082396402955 -0.88094812632 0.13939720392 0.18482199311 -0.80818897486
          0.21853539348 0.33637189865 -0.98886328936 0.43711400032 0.35662287474 -0.86431020498
          0.36555799842 0.082396402955 -0.88094812632 0.13939720392 0.18482199311 -0.80818897486
          0.43711400032 0.35662287474 -0.86431020498 0.40944099426 0.2642891109 -0.64370203018
          1.6111949682 -0.21885199845 -0.057695001364 2.0367250443 -0.15883000195 0.10807870328
          1.8173689842 -0.37339198589 -0.084958538413 1.8311589956 -0.37597900629 0.21240459383
          -4.5369677544 -0.4948824048 0.0206808988 -4.4754362106 -0.32264238596 0.12133580446
          -4.5533809662 -0.4828903079 0.2240357995 -4.8224816322 -0.4885019958 0.14574058354
          0.30814930797 0.31706541777 -1.2523280382 0.51523089409 0.14683929086 -1.3929450512
          0.24196699262 0.39278018475 -1.4639049768 0.2478390038 0.18538750708 -1.4635369778
          1.6111949682 -0.21885199845 -0.057695001364 1.8173689842 -0.37339198589 -0.084958538413
          1.6162129641 -0.37938898802 -0.35376280546 1.4818120003 -0.39234900475 -0.097535997629
          0.30814930797 0.31706541777 -1.2523280382 0.4462980032 0.22514030337 -1.0646909475
          0.21853539348 0.33637189865 -0.98886328936 0.35893088579 0.54108428955 -1.083673954
          4.2172560692 0.35686299205 1.4943759441 4.2718300819 0.15794679523 1.6279176474
          4.5152788162 0.44570598006 1.5512629747 4.4385910034 0.24091610312 1.4270139933
          -4.7666764259 -0.51139259338 -0.25473800302 -4.8024878502 -0.29730415344 -0.34576281905
          -4.807472229 -0.51456427574 -0.41758289933 -4.6099963188 -0.51237237453 -0.2558003962
          4.2718300819 0.15794679523 1.6279176474 4.0141201019 0.24855940044 1.621557951
          4.1369771957 0.033024005592 1.3592270613 4.2172560692 0.35686299205 1.4943759441
          4.2718300819 0.15794679523 1.6279176474 4.2172560692 0.35686299205 1.4943759441
          4.1660380363 0.37686598301 1.8869049549 4.0141201019 0.24855940044 1.621557951
          -3.9470174313 -0.23043839633 -0.45734000206 -3.8315455914 -0.51438689232 -0.46247899532
          -3.9198260307 -0.52072381973 -0.66412502527 -4.1456823349 -0.32185968757 -0.5048879981
          -1.0532729626 0.32143890858 -1.6126300097 -0.83093398809 0.49481633306 -1.3887859583
          -1.0088479519 0.19115871191 -1.3418680429 -1.0256249905 0.49155002832 -1.3329880238
          4.2718300819 0.15794679523 1.6279176474 4.4655342102 0.20313693583 1.8080023527
          4.4385910034 0.24091610312 1.4270139933 4.4501152039 0.014983006753 1.5191400051
          4.2718300819 0.15794679523 1.6279176474 4.4655342102 0.20313693583 1.8080023527
          4.5152788162 0.44570598006 1.5512629747 4.4385910034 0.24091610312 1.4270139933
          -0.18521800637 0.03266672045 -1.0619240999 0.060910001397 0.064430199564 -1.0059714317
          -0.098812997341 0.27493330836 -0.95051121712 0.081534996629 0.22075429559 -1.1755410433
          -0.19524599612 0.051735099405 -0.78870302439 0.060910001397 0.064430199564 -1.0059714317
          -0.098812997341 0.27493330836 -0.95051121712 -0.18521800637 0.03266672045 -1.0619240999
          1.2987240553 -0.39872199297 -0.33902829885 1.2570589781 -0.21799020469 -0.084225989878
          1.0432590246 -0.41784200072 -0.18719400465 1.0725090504 -0.1251232028 -0.30668699741
          0.060910001397 0.064430199564 -1.0059714317 0.13939720392 0.18482199311 -0.80818897486
          -0.098812997341 0.27493330836 -0.95051121712 0.21853539348 0.33637189865 -0.98886328936
          0.060910001397 0.064430199564 -1.0059714317 0.13939720392 0.18482199311 -0.80818897486
          0.21853539348 0.33637189865 -0.98886328936 0.36555799842 0.082396402955 -0.88094812632
          0.060910001397 0.064430199564 -1.0059714317 0.21853539348 0.33637189865 -0.98886328936
          0.4462980032 0.22514030337 -1.0646909475 0.36555799842 0.082396402955 -0.88094812632
          0.16142000258 0.02375430055 -0.62841498852 0.13939720392 0.18482199311 -0.80818897486
          0.36555799842 0.082396402955 -0.88094812632 0.40944099426 0.2642891109 -0.64370203018
          0.21853539348 0.33637189865 -0.98886328936 0.27174431086 0.54942148924 -0.87269937992
          0.35893088579 0.54108428955 -1.083673954 0.43711400032 0.35662287474 -0.86431020498
          -2.0667660236 -0.090073294938 -0.4165340066 -2.0342888832 0.096592001617 -0.42942199111
          -2.2290380001 -0.01067822054 -0.56298202276 -1.9904079437 0.054340101779 -0.69911700487
          -2.2290380001 -0.01067822054 -0.56298202276 -2.0667660236 -0.090073294938 -0.4165340066
          -2.247385025 -0.11254110187 -0.34903201461 -2.0342888832 0.096592001617 -0.42942199111
          0.21853539348 0.33637189865 -0.98886328936 0.18104350567 0.33106470108 -0.62392002344
          0.27174431086 0.54942148924 -0.87269937992 0.43711400032 0.35662287474 -0.86431020498
          -4.8224816322 -0.4885019958 0.14574058354 -4.6497826576 -0.19200108945 0.12126010656
          -4.4754362106 -0.32264238596 0.12133580446 -4.777050972 -0.31894397736 0.2911812067
          2.2037799358 0.33316999674 -0.035911995918 1.9673910141 0.42298001051 0.05929357931
          2.2606570721 0.63481098413 0.14861099422 2.3142609596 0.44252300262 0.15573300421
          -4.8224816322 -0.4885019958 0.14574058354 -4.4754362106 -0.32264238596 0.12133580446
          -4.5533809662 -0.4828903079 0.2240357995 -4.777050972 -0.31894397736 0.2911812067
          -4.5369677544 -0.4948824048 0.0206808988 -4.6497826576 -0.19200108945 0.12126010656
          -4.4754362106 -0.32264238596 0.12133580446 -4.8224816322 -0.4885019958 0.14574058354
          -4.4078559875 -0.44284930825 0.41885921359 -4.4544172287 -0.23605190217 0.42361399531
          -4.5533809662 -0.4828903079 0.2240357995 -4.4754362106 -0.32264238596 0.12133580446
          -3.0899682045 -0.29772499204 -0.5357632041 -3.2953541279 -0.00062000047183 -0.49288973212
          -3.3584003448 -0.26359349489 -0.49015578628 -3.1669573784 -0.19655050337 -0.74350303411
          -2.9948811531 -0.50990730524 -0.57723468542 -3.0899682045 -0.29772499204 -0.5357632041
          -3.2427380085 -0.50958657265 -0.51888477802 -3.1503348351 -0.51121389866 -0.73205798864
          -2.9948811531 -0.50990730524 -0.57723468542 -3.0899682045 -0.29772499204 -0.5357632041
          -3.07508111 -0.50736320019 -0.289350003 -3.2427380085 -0.50958657265 -0.51888477802
          3.6992878914 0.65348899364 1.8166350126 3.4833610058 0.65569698811 1.6809769869
          3.5121660233 0.42270597816 1.6780580282 3.6373169422 0.67194199562 1.4793165922
          1.6178350449 -0.15927900374 0.18571281433 1.8810739517 -0.025785999373 0.24052999914
          2.0367250443 -0.15883000195 0.10807870328 1.8311589956 -0.37597900629 0.21240459383
          3.6992878914 0.65348899364 1.8166350126 3.6373169422 0.67194199562 1.4793165922
          3.5121660233 0.42270597816 1.6780580282 3.8356730938 0.6680150032 1.6421200037
          -3.3031389713 -0.50743067265 -0.25414600968 -3.07508111 -0.50736320019 -0.289350003
          -3.1492960453 -0.20950199664 -0.30492499471 -3.0899682045 -0.29772499204 -0.5357632041
          -3.3031389713 -0.50743067265 -0.25414600968 -3.0899682045 -0.29772499204 -0.5357632041
          -3.1492960453 -0.20950199664 -0.30492499471 -3.2427380085 -0.50958657265 -0.51888477802
          -3.3031389713 -0.50743067265 -0.25414600968 -3.07508111 -0.50736320019 -0.289350003
          -3.0899682045 -0.29772499204 -0.5357632041 -3.2427380085 -0.50958657265 -0.51888477802
          3.9909090996 0.69799000025 1.3503149748 4.1757931709 0.68295997381 1.7038977146
          4.2114582062 0.52715998888 1.3034000397 3.9962799549 0.50118601322 1.5290913582
          4.2114582062 0.52715998888 1.3034000397 4.2172560692 0.35686299205 1.4943759441
          4.5152788162 0.44570598006 1.5512629747 4.4385910034 0.24091610312 1.4270139933
          4.2114582062 0.52715998888 1.3034000397 3.9791870117 0.71098798513 1.0759580135
          3.9769608974 0.41242301464 1.2358649969 4.2127790451 0.64916598797 1.0111500025
          0.98193901777 0.39114138484 -0.63054037094 0.73966902494 0.57453459501 -0.50246399641
          0.83301800489 0.56610417366 -0.74389237165 0.92953801155 0.58331018686 -0.38244798779
          1.2987240553 -0.39872199297 -0.33902829885 1.0432590246 -0.41784200072 -0.18719400465
          0.9384559989 -0.42108929157 -0.3525930047 1.0725090504 -0.1251232028 -0.30668699741
          4.402616024 0.45689401031 2.1667981148 4.5650310516 0.20493909717 2.2137980461
          4.6265969276 0.37918898463 2.0835940838 4.3718128204 0.25128540397 2.104501009
          1.6138050556 0.3192229867 -0.46323099732 1.8443620205 0.16656500101 -0.47324600816
          1.9594429731 0.31532198191 -0.67937397957 1.7081429958 0.28754499555 -0.84163600206
          1.8531999588 0.48722600937 -0.73915499449 1.6138050556 0.3192229867 -0.46323099732
          1.9594429731 0.31532198191 -0.67937397957 1.7081429958 0.28754499555 -0.84163600206
          -0.71466398239 0.50439506769 -1.2475240231 -0.84249997139 0.26520928741 -1.1529723406
          -0.50188398361 0.32205638289 -1.0782203674 -0.72984099388 0.28546023369 -1.3866969347
          -0.42743900418 -0.29611000419 -1.0441720486 -0.74982398748 -0.23088718951 -1.0935233831
          -0.6984680295 -0.26326191425 -0.85958302021 -0.72162300348 -0.47146120667 -1.0738427639
          -4.1332221031 0.29565098882 -0.49425297976 -4.1749300957 0.29747289419 -0.70561802387
          -3.93171525 0.23039670289 -0.4976850152 -4.007420063 0.42113360763 -0.76628297567
          -3.93171525 0.23039670289 -0.4976850152 -4.1332221031 0.29565098882 -0.49425297976
          -4.007420063 0.42113360763 -0.76628297567 -3.8207867146 0.48162639141 -0.65821701288
          -0.84249997139 0.26520928741 -1.1529723406 -0.69384098053 0.20343409479 -0.94639998674
          -0.50188398361 0.32205638289 -1.0782203674 -0.53547698259 0.15860010684 -1.2386740446
          -3.0489430428 -0.05935529992 -1.1577789783 -2.82984519 -0.19690430164 -0.8898460269
          -3.0438988209 -0.31679549813 -0.92314600945 -3.1125445366 -0.042645700276 -0.91890496016
          -4.4579524994 0.47279408574 0.21904788911 -4.162466526 0.47085979581 0.13769200444
          -4.3753991127 0.47727328539 0.067836903036 -4.3490223885 0.21022440493 0.13521999121
          4.2633280754 0.48635900021 1.6941789389 4.4655342102 0.20313693583 1.8080023527
          4.5152788162 0.44570598006 1.5512629747 4.2718300819 0.15794679523 1.6279176474
          4.3977518082 -0.2796689868 1.9731270075 4.6318750381 -0.28834098577 2.005959034
          4.5017971992 -0.076010011137 2.1854460239 4.690433979 -0.097899012268 1.9307255745
          -3.6499538422 0.47699010372 -0.48393499851 -3.5222220421 0.2613735199 -0.7316250205
          -3.648727417 0.16803780198 -0.52384102345 -3.517005682 0.27712589502 -0.40882021189
          -4.6497826576 -0.19200108945 0.12126010656 -4.7962985039 -0.27623388171 -0.034645497799
          -4.8224816322 -0.4885019958 0.14574058354 -4.5369677544 -0.4948824048 0.0206808988
          2.8988618851 -0.32689899206 0.32881501317 2.8178238869 -0.16496701539 0.18457700312
          2.7300450802 -0.33142000437 0.036656998098 3.0622529984 -0.15697599947 0.078552998602
          -4.4366278648 -0.28509175777 -0.13918270171 -4.6228103638 -0.50389355421 -0.10335719585
          -4.5369677544 -0.4948824048 0.0206808988 -4.4421896935 -0.50854843855 -0.17462399602
          -4.4421896935 -0.50854843855 -0.17462399602 -4.5369677544 -0.4948824048 0.0206808988
          -4.4366278648 -0.28509175777 -0.13918270171 -4.3332242966 -0.49554929137 0.023328900337
          -1.8855940104 -0.082297004759 -0.4747030139 -2.0342888832 0.096592001617 -0.42942199111
          -2.0667660236 -0.090073294938 -0.4165340066 -1.9904079437 0.054340101779 -0.69911700487
          -4.7962985039 -0.27623388171 -0.034645497799 -5 -0.004447159823 0.13623799384
          -4.6497826576 -0.19200108945 0.12126010656 -5 -0.26007699966 0.21836000681
          -5 -0.16616299748 -0.067754097283 -5 -0.004447159823 0.13623799384
          -4.7962985039 -0.27623388171 -0.034645497799 -5 -0.26007699966 0.21836000681
          -5 -0.16616299748 -0.067754097283 -5 -0.39700898528 0.035171099007
          -5 -0.26007699966 0.21836000681 -4.7962985039 -0.27623388171 -0.034645497799
          -5 -0.16616299748 -0.067754097283 -4.9766492844 -0.50082987547 -0.16668698192
          -5 -0.39700898528 0.035171099007 -4.7962985039 -0.27623388171 -0.034645497799
          -5 -0.16616299748 -0.067754097283 -5 -0.33370301127 -0.29875099659
          -4.9766492844 -0.50082987547 -0.16668698192 -4.7962985039 -0.27623388171 -0.034645497799
          1.2925460339 -0.051271595061 -0.25956600904 1.3120340109 -0.15288600326 -0.5459626317
          1.0725090504 -0.1251232028 -0.30668699741 1.4527050257 -0.19449299574 -0.29091629386
          -5 -0.16616299748 -0.067754097283 -4.7775506973 -0.01067915 -0.02922873944
          -4.6802415848 -0.16959774494 -0.21772760153 -4.7962985039 -0.27623388171 -0.034645497799
          -5 -0.16616299748 -0.067754097283 -5 -0.004447159823 0.13623799384
          -4.7775506973 -0.01067915 -0.02922873944 -4.7962985039 -0.27623388171 -0.034645497799
          -4.7775506973 -0.01067915 -0.02922873944 -5 -0.004447159823 0.13623799384
          -4.6497826576 -0.19200108945 0.12126010656 -4.7962985039 -0.27623388171 -0.034645497799
          4.1762018204 0.27362239361 1.2485419512 4.0141201019 0.24855940044 1.621557951
          4.2172560692 0.35686299205 1.4943759441 4.1369771957 0.033024005592 1.3592270613
          -4.7962985039 -0.27623388171 -0.034645497799 -5 -0.39700898528 0.035171099007
          -5 -0.26007699966 0.21836000681 -4.8224816322 -0.4885019958 0.14574058354
          -2.3369340897 -0.31915336847 -1.4069160223 -2.0235655308 -0.33051469922 -1.2762329578
          -2.1722934246 -0.49265837669 -1.1914629936 -2.2354676723 -0.21959285438 -1.2453320026
          -2.2719159126 -0.063200898468 -1.4239000082 -2.1257388592 -0.27721267939 -1.4604820013
          -2.2354676723 -0.21959285438 -1.2453320026 -2.0357840061 -0.027981799096 -1.4841450453
          -2.2354676723 -0.21959285438 -1.2453320026 -2.1722934246 -0.49265837669 -1.1914629936
          -2.3369340897 -0.31915336847 -1.4069160223 -2.4264535904 -0.49877792597 -1.0958280563
          -2.7090830803 0.31708621979 -0.6229904294 -2.5196659565 0.24592778087 -0.72205346823
          -2.6776423454 0.47449350357 -0.75034171343 -2.7856142521 0.29197818041 -0.82188498974
          -2.3369340897 -0.31915336847 -1.4069160223 -2.1257388592 -0.27721267939 -1.4604820013
          -2.0235655308 -0.33051469922 -1.2762329578 -2.2354676723 -0.21959285438 -1.2453320026
          -1.1999200583 0.31322172284 -0.84429401159 -1.2614649534 0.29969120026 -0.61504000425
          -1.0079799891 0.43430522084 -0.63536000252 -1.0616509914 0.19502159953 -0.62691998482
          -1.1999200583 0.31322172284 -0.84429401159 -1.182997942 0.50088942051 -1.0786180496
          -0.97820800543 0.24167840183 -0.90613996983 -1.0788140297 0.51180261374 -0.85813999176
          2.0687611103 0.17121970654 0.57191699743 2.0536108017 0.066548496485 0.89124602079
          2.3112504482 0.13608121872 0.81553798914 2.3737831116 -0.031773991883 0.64508098364
          4.838329792 -0.29386898875 1.6861670017 4.6791539192 -0.064878001809 1.5370919704
          5.0016570091 -0.09311401844 1.6771680117 4.7825579643 0.012594994158 1.737795949
          4.7825579643 0.012594994158 1.737795949 4.6009202003 -0.29254201055 1.7585229874
          4.838329792 -0.29386898875 1.6861670017 4.6791539192 -0.064878001809 1.5370919704
          2.547467947 0.16419440508 0.46359831095 2.3737831116 -0.031773991883 0.64508098364
          2.3112504482 0.13608121872 0.81553798914 2.7515289783 0.13377730548 0.70048117638
          -1.9235659838 -0.32769143581 -0.93234062195 -2.0607159138 -0.073489099741 -0.92311251163
          -2.1335361004 -0.33587309718 -0.85573190451 -2.1019701958 -0.27823245525 -1.0662670135
          3.718173027 -0.032231997699 1.6364309788 3.4475607872 0.0026549980976 1.8703099489
          3.89149189 -0.08670001477 1.8603260517 3.5018596649 -0.19701200724 1.8944000006
          3.89149189 -0.08670001477 1.8603260517 3.4475607872 0.0026549980976 1.8703099489
          3.8050630093 0.010312004946 2.0734400749 3.5018596649 -0.19701200724 1.8944000006
          2.204267025 -0.35545799136 0.084110699594 2.4003479481 -0.15540499985 -0.052411012352
          2.4867670536 -0.33938100934 -0.20310901105 2.4716699123 -0.34356799722 0.095425002277
          0.14480470121 -0.27436679602 -0.68005996943 -0.011990199797 -0.27998569608 -0.48404100537
          -0.0078739998862 -0.46226969361 -0.70150399208 -0.13618600368 -0.29588839412 -0.75555801392
          -0.97820800543 0.24167840183 -0.90613996983 -1.1999200583 0.31322172284 -0.84429401159
          -1.1171029806 0.13310749829 -0.81390601397 -1.2363820076 0.13768835366 -0.99496001005
          4.7728209496 0.11897029728 2.42572999 4.960849762 -0.010346002877 2.4790999889
          4.9883351326 -0.0025349962525 2.1726241112 4.7630262375 -0.078894995153 2.2290580273
          2.5839250088 0.25846800208 0.93122702837 2.7450699806 0.13935770094 1.1011400223
          2.7515289783 0.13377730548 0.70048117638 2.6176869869 -0.096157990396 0.89440202713
          3.1057059765 0.21902000904 1.2990050316 2.8278307915 0.37164700031 1.4777669907
          2.7450699806 0.13935770094 1.1011400223 2.8959798813 0.32024499774 1.0456169844
          2.7450699806 0.13935770094 1.1011400223 2.9346859455 -0.010064994916 1.0378210545
          3.1057059765 0.21902000904 1.2990050316 2.8959798813 0.32024499774 1.0456169844
          -1.6338564157 0.02010091953 -1.3360049725 -1.5296863317 0.075993299484 -1.5737700462
          -1.4067959785 -0.070061728358 -1.4117490053 -1.3583359718 0.17316421866 -1.3048620224
          -1.5296863317 0.075993299484 -1.5737700462 -1.5631556511 -0.15877270699 -1.5688300133
          -1.6338564157 0.02010091953 -1.3360049725 -1.4067959785 -0.070061728358 -1.4117490053
          -1.5296863317 0.075993299484 -1.5737700462 -1.5631556511 -0.15877270699 -1.5688300133
          -1.4067959785 -0.070061728358 -1.4117490053 -1.2665230036 -0.018151098862 -1.5959500074
          4.960849762 -0.010346002877 2.4790999889 4.8128800392 -0.12278998643 2.4790999889
          4.9883351326 -0.0025349962525 2.1726241112 4.7630262375 -0.078894995153 2.2290580273
          -1.3387739658 0.1015701443 -0.80373698473 -1.6226379871 0.13752751052 -0.73393601179
          -1.5145759583 -0.018870471045 -0.82699400187 -1.4917390347 0.24093736708 -0.86661797762
          -1.6226379871 0.13752751052 -0.73393601179 -1.7904880047 0.17986288667 -0.85320198536
          -1.4917390347 0.24093736708 -0.86661797762 -1.6665450335 0.31891724467 -0.9786170125
          -0.72984099388 0.28546023369 -1.3866969347 -0.7670930028 0.060932602733 -1.3277369738
          -0.53547698259 0.15860010684 -1.2386740446 -0.55726397038 -0.032617900521 -1.40318501
          -2.4078168869 -0.30346369743 -0.49435901642 -2.4884090424 -0.28845638037 -0.25028300285
          -2.7287049294 -0.2789902091 -0.37658300996 -2.526927948 -0.09825039655 -0.49015599489
          -2.247385025 -0.11254110187 -0.34903201461 -2.4884090424 -0.28845638037 -0.25028300285
          -2.4078168869 -0.30346369743 -0.49435901642 -2.526927948 -0.09825039655 -0.49015599489
          -2.3633306026 -0.018299350515 -1.2072839737 -2.2719159126 -0.063200898468 -1.4239000082
          -2.1130719185 -0.047264300287 -1.1963629723 -2.2146024704 0.15617579222 -1.4417170286
          -2.247385025 -0.11254110187 -0.34903201461 -2.4078168869 -0.30346369743 -0.49435901642
          -2.1998250484 -0.3150857985 -0.36672699451 -2.2852199078 -0.19466769695 -0.68211597204
          -2.247385025 -0.11254110187 -0.34903201461 -2.4884090424 -0.28845638037 -0.25028300285
          -2.1998250484 -0.3150857985 -0.36672699451 -2.4078168869 -0.30346369743 -0.49435901642
          3.8552589417 -0.056183006614 1.3705922365 3.804610014 0.20091049373 1.4191051722
          4.0141201019 0.24855940044 1.621557951 3.9827311039 -0.10510598868 1.5950082541
          -1.199491024 -0.2731808126 -1.4120750427 -1.2170039415 -0.47567608953 -1.2552779913
          -1.0146249533 -0.47085028887 -1.2508219481 -1.1043089628 -0.46415549517 -1.4246920347
          -3.9805979729 -0.2818211019 0.12366101146 -4.0919470787 -0.29832312465 0.34250101447
          -3.9246098995 -0.1297211349 0.29268100858 -3.7600250244 -0.42104199529 0.24891600013
          -3.9805979729 -0.2818211019 0.12366101146 -3.9246098995 -0.1297211349 0.29268100858
          -3.6694390774 -0.1800750196 0.2162040025 -3.7600250244 -0.42104199529 0.24891600013
          -3.9805979729 -0.2818211019 0.12366101146 -3.9246098995 -0.1297211349 0.29268100858
          -3.9098739624 -0.045701097697 0.062531001866 -3.6694390774 -0.1800750196 0.2162040025
          -1.199491024 -0.2731808126 -1.4120750427 -1.1043089628 -0.46415549517 -1.4246920347
          -0.95317101479 -0.27932810783 -1.4066259861 -1.0445510149 -0.28223949671 -1.6158399582
          -3.9805979729 -0.2818211019 0.12366101146 -4.0919470787 -0.29832312465 0.34250101447
          -3.7600250244 -0.42104199529 0.24891600013 -4.0046038628 -0.48754239082 0.27641901374
          3.8552589417 -0.056183006614 1.3705922365 4.0141201019 0.24855940044 1.621557951
          4.1369771957 0.033024005592 1.3592270613 3.9827311039 -0.10510598868 1.5950082541
          0.38312900066 0.045982599258 -0.55516397953 0.32963371277 -0.040354099125 -0.32682800293
          0.60305899382 0.11440300196 -0.49014899135 0.49385619164 -0.061818897724 -0.24398499727
          -1.3278859854 0.48927980661 -1.2198700905 -1.6238960028 0.24829168618 -1.1837819815
          -1.4724910259 0.49207678437 -1.0708984137 -1.4006630182 0.27366858721 -1.0899891853
          3.9769608974 0.41242301464 1.2358649969 3.6544830799 0.36574301124 1.0680350065
          3.8746159077 0.2987203002 0.98308598995 3.8493919373 0.50689595938 1.0418950319
          3.5387530327 0.16991350055 1.193629384 3.6544830799 0.36574301124 1.0680350065
          3.6721630096 0.17420139909 0.90603202581 3.8746159077 0.2987203002 0.98308598995
          3.5387530327 0.16991350055 1.193629384 3.8746159077 0.2987203002 0.98308598995
          3.6721630096 0.17420139909 0.90603202581 3.9656031132 0.16085809469 1.1511030197
          3.8746159077 0.2987203002 0.98308598995 3.9433920383 0.50324100256 0.79245001078
          3.7977409363 0.30181151628 0.66605001688 3.9685349464 0.18286730349 0.78710997105
          -4.777050972 -0.31894397736 0.2911812067 -4.8936700821 -0.25269600749 0.5
          -5 -0.12896800041 0.37591099739 -4.7829651833 -0.03583727777 0.25068509579
          -4.777050972 -0.31894397736 0.2911812067 -4.7962985039 -0.27623388171 -0.034645497799
          -5 -0.26007699966 0.21836000681 -4.8224816322 -0.4885019958 0.14574058354
          4.1035399437 0.34244701266 0.90219002962 3.9769608974 0.41242301464 1.2358649969
          4.1762018204 0.27362239361 1.2485419512 3.9656031132 0.16085809469 1.1511030197
          -4.7666764259 -0.51139259338 -0.25473800302 -5 -0.33370301127 -0.29875099659
          -4.9766492844 -0.50082987547 -0.16668698192 -4.807472229 -0.51456427574 -0.41758289933
          5.0016570091 -0.09311401844 1.6771680117 5.1593341827 -0.012515998445 1.8333879709
          4.9833068848 -0.29716300964 1.80032897 4.908780098 -0.05460799858 1.9473679066
          5.1202697754 0.12177520245 1.4594299793 5.3287701607 0.017804997042 1.5262700319
          5.0016570091 -0.09311401844 1.6771680117 5.1593341827 -0.012515998445 1.8333879709
          5.1202697754 0.12177520245 1.4594299793 5.3287701607 0.017804997042 1.5262700319
          5.0868611336 -0.085908003151 1.4383300543 5.0016570091 -0.09311401844 1.6771680117
          2.2042989731 -0.13768899441 0.32803380489 2.2638959885 -0.015994004905 0.14143829048
          2.4130580425 -0.0050789942034 0.39745768905 2.0858280659 0.031003998592 0.38727900386
          4.9763240814 -0.29127800465 1.5377320051 5.0868611336 -0.085908003151 1.4383300543
          5.2169570923 -0.28806000948 1.5943369865 5.0016570091 -0.09311401844 1.6771680117
          -0.29678198695 -0.19139230251 -0.85894298553 -0.18521800637 0.03266672045 -1.0619240999
          -0.36743998528 -0.0037765994202 -0.87996399403 -0.33131301403 -0.1156719923 -1.0455411673
          -0.29678198695 -0.19139230251 -0.85894298553 -0.36743998528 -0.0037765994202 -0.87996399403
          -0.55270302296 -0.11456199735 -0.98753702641 -0.33131301403 -0.1156719923 -1.0455411673
          5.199947834 0.37635299563 2.0466771126 5.0139088631 0.39100199938 2.2078499794
          5.3432278633 0.22682979703 2.2597339153 5.0963821411 0.18064403534 2.290708065
          -0.33131301403 -0.1156719923 -1.0455411673 -0.36743998528 -0.0037765994202 -0.87996399403
          -0.55270302296 -0.11456199735 -0.98753702641 -0.42777499557 0.06476470083 -1.0590546131
          -1.6519750357 0.49484336376 -0.84614998102 -1.4917390347 0.24093736708 -0.86661797762
          -1.4724910259 0.49207678437 -1.0708984137 -1.6665450335 0.31891724467 -0.9786170125
          -1.1468379498 -0.10479596257 -1.0598422289 -1.225301981 -0.29465007782 -1.0979983807
          -1.3524429798 -0.2001490891 -0.93651300669 -1.1560570002 -0.29963886738 -0.85426801443
          -1.6519750357 0.49484336376 -0.84614998102 -1.6665450335 0.31891724467 -0.9786170125
          -1.4724910259 0.49207678437 -1.0708984137 -1.7639460564 0.4825155139 -1.1151630878
          5.1873960495 0.42186701298 1.8164199591 5.4586992264 0.38369700313 1.9621009827
          5.2795748711 0.19745920599 1.7484179735 5.199947834 0.37635299563 2.0466771126
          5.1873960495 0.42186701298 1.8164199591 5.2795748711 0.19745920599 1.7484179735
          5.1686019897 0.14154189825 2.0466096401 5.199947834 0.37635299563 2.0466771126
          5.199947834 0.37635299563 2.0466771126 5.2795748711 0.19745920599 1.7484179735
          5.1686019897 0.14154189825 2.0466096401 5.4086022377 0.24544849992 2.0854845047
          5.2795748711 0.19745920599 1.7484179735 5.199947834 0.37635299563 2.0466771126
          5.4800391197 0.18614250422 1.908427 5.4086022377 0.24544849992 2.0854845047
          5.2795748711 0.19745920599 1.7484179735 5.4586992264 0.38369700313 1.9621009827
          5.4800391197 0.18614250422 1.908427 5.199947834 0.37635299563 2.0466771126
          5.199947834 0.37635299563 2.0466771126 5.4586992264 0.38369700313 1.9621009827
          5.4800391197 0.18614250422 1.908427 5.4086022377 0.24544849992 2.0854845047
          5.199947834 0.37635299563 2.0466771126 5.3812499046 0.50339800119 2.1557321548
          5.4586992264 0.38369700313 1.9621009827 5.4086022377 0.24544849992 2.0854845047
          -0.34433600307 -0.26983401179 -1.5834399462 -0.53049099445 -0.25941371918 -1.4260540009
          -0.304708004 -0.090819396079 -1.572059989 -0.19379499555 -0.24117720127 -1.3589559793
          -4.0872659683 -0.040365900844 -0.50246196985 -3.9470174313 -0.23043839633 -0.45734000206
          -4.2499485016 -0.19019518793 -0.35626098514 -4.0898427963 -0.054189000279 -0.25348520279
          -4.0872659683 -0.040365900844 -0.50246196985 -3.9470174313 -0.23043839633 -0.45734000206
          -4.0898427963 -0.054189000279 -0.25348520279 -3.8458154202 -0.0071441796608 -0.27063637972
          -2.3013501167 -0.0029451001901 -0.87519747019 -2.0607159138 -0.073489099741 -0.92311251163
          -2.3660526276 -0.18054547906 -1.0520470142 -2.354665041 -0.32262691855 -0.86674439907
          -2.3660526276 -0.18054547906 -1.0520470142 -2.1019701958 -0.27823245525 -1.0662670135
          -2.4264535904 -0.49877792597 -1.0958280563 -2.354665041 -0.32262691855 -0.86674439907
          -2.3660526276 -0.18054547906 -1.0520470142 -2.6056780815 -0.30553308129 -1.0694279671
          -2.354665041 -0.32262691855 -0.86674439907 -2.4264535904 -0.49877792597 -1.0958280563
          -2.6056780815 -0.30553308129 -1.0694279671 -2.6584146023 -0.50556856394 -0.92454200983
          -2.354665041 -0.32262691855 -0.86674439907 -2.4264535904 -0.49877792597 -1.0958280563
          -2.354665041 -0.32262691855 -0.86674439907 -2.6584146023 -0.50556856394 -0.92454200983
          -2.4582118988 -0.50782459974 -0.75783860683 -2.4264535904 -0.49877792597 -1.0958280563
          -2.214564085 -0.50244742632 -0.93670272827 -2.354665041 -0.32262691855 -0.86674439907
          -2.4582118988 -0.50782459974 -0.75783860683 -2.4264535904 -0.49877792597 -1.0958280563
          -2.354665041 -0.32262691855 -0.86674439907 -2.1019701958 -0.27823245525 -1.0662670135
          -2.4264535904 -0.49877792597 -1.0958280563 -2.214564085 -0.50244742632 -0.93670272827
          0.88199001551 0.21808290482 -0.48142701387 0.84206402302 0.052923899144 -0.65382301807
          1.1057879925 0.14166979492 -0.59393042326 0.93579101562 0.2607139945 -0.85697698593
          0.77250897884 -0.18823230267 -1.3146259785 0.5846940279 -0.39953100681 -1.38280797
          0.69177097082 -0.40261080861 -1.2026339769 0.89855998755 -0.35990297794 -1.2769370079
          -2.2852199078 -0.19466769695 -0.68211597204 -2.4078168869 -0.30346369743 -0.49435901642
          -2.2919089794 -0.51172739267 -0.61034798622 -2.354665041 -0.32262691855 -0.86674439907
          -2.2852199078 -0.19466769695 -0.68211597204 -2.5790920258 -0.26749420166 -0.70352119207
          -2.4078168869 -0.30346369743 -0.49435901642 -2.354665041 -0.32262691855 -0.86674439907
          3.804297924 0.13001829386 1.8220219612 3.718173027 -0.032231997699 1.6364309788
          3.5908029079 0.19661930203 1.6370530128 3.4475607872 0.0026549980976 1.8703099489
          3.718173027 -0.032231997699 1.6364309788 3.4475607872 0.0026549980976 1.8703099489
          3.804297924 0.13001829386 1.8220219612 3.89149189 -0.08670001477 1.8603260517
          0.98193901777 0.39114138484 -0.63054037094 1.1057879925 0.14166979492 -0.59393042326
          1.1137839556 0.31430581212 -0.23879601061 1.2616900206 0.31878641248 -0.65477597713
          0.98193901777 0.39114138484 -0.63054037094 1.1057879925 0.14166979492 -0.59393042326
          1.2616900206 0.31878641248 -0.65477597713 0.93579101562 0.2607139945 -0.85697698593
          0.98193901777 0.39114138484 -0.63054037094 0.88199001551 0.21808290482 -0.48142701387
          1.1057879925 0.14166979492 -0.59393042326 0.93579101562 0.2607139945 -0.85697698593
          -2.1525170803 -0.34244281054 -0.58914798498 -2.354665041 -0.32262691855 -0.86674439907
          -2.2919089794 -0.51172739267 -0.61034798622 -2.1335361004 -0.33587309718 -0.85573190451
          2.7515289783 0.13377730548 0.70048117638 2.3737831116 -0.031773991883 0.64508098364
          2.3112504482 0.13608121872 0.81553798914 2.6176869869 -0.096157990396 0.89440202713
          2.2037799358 0.33316999674 -0.035911995918 2.3142609596 0.44252300262 0.15573300421
          2.4331591129 0.31312698126 0.30493488908 2.2750039101 0.14374065399 0.29926979542
          3.220927 0.38111701608 1.2094409466 3.4179348946 0.33102399111 1.4116280079
          3.2844669819 0.18207931519 1.0159295797 3.1057059765 0.21902000904 1.2990050316
          1.1057879925 0.14166979492 -0.59393042326 1.3428349495 0.40458348393 -0.38063567877
          1.2616900206 0.31878641248 -0.65477597713 1.303779006 0.10932320356 -0.39463099837
          3.0362560749 -0.12312699854 0.36283898354 2.8988618851 -0.32689899206 0.32881501317
          3.2719910145 -0.31246700883 0.38419899344 3.0622529984 -0.15697599947 0.078552998602
          -2.3186562061 0.14272490144 -1.0617469549 -2.3633306026 -0.018299350515 -1.2072839737
          -2.6269614697 -0.066813401878 -1.0421299934 -2.3013501167 -0.0029451001901 -0.87519747019
          2.846298933 -0.090493999422 0.57238131762 2.9889109135 -0.32668501139 0.69036900997
          3.0362560749 -0.12312699854 0.36283898354 2.8988618851 -0.32689899206 0.32881501317
          4.725110054 0.0005410007434 1.2883199453 4.4501152039 0.014983006753 1.5191400051
          4.6735458374 0.19949239492 1.5503569841 4.6791539192 -0.064878001809 1.5370919704
          4.725110054 0.0005410007434 1.2883199453 4.6735458374 0.19949239492 1.5503569841
          4.9265980721 0.083074003458 1.3841999769 4.6791539192 -0.064878001809 1.5370919704
          4.725110054 0.0005410007434 1.2883199453 4.9265980721 0.083074003458 1.3841999769
          4.8788080215 -0.15261600912 1.3581800461 4.6791539192 -0.064878001809 1.5370919704
          4.8788080215 -0.15261600912 1.3581800461 5.0016570091 -0.09311401844 1.6771680117
          4.6791539192 -0.064878001809 1.5370919704 4.9265980721 0.083074003458 1.3841999769
          2.0858280659 0.031003998592 0.38727900386 2.0367250443 -0.15883000195 0.10807870328
          2.2042989731 -0.13768899441 0.32803380489 2.2638959885 -0.015994004905 0.14143829048
          2.204267025 -0.35545799136 0.084110699594 2.2638959885 -0.015994004905 0.14143829048
          2.457036972 -0.14717501402 0.22073699534 2.2042989731 -0.13768899441 0.32803380489
          4.5158967972 -0.051814988256 1.7898253202 4.6009202003 -0.29254201055 1.7585229874
          4.6791539192 -0.064878001809 1.5370919704 4.4976420403 -0.29328599572 1.5345549583
          4.6791539192 -0.064878001809 1.5370919704 4.6009202003 -0.29254201055 1.7585229874
          4.7298440933 -0.29282999039 1.5341100693 4.4976420403 -0.29328599572 1.5345549583
          4.691215992 -0.25143399835 1.2670099735 4.6791539192 -0.064878001809 1.5370919704
          4.7298440933 -0.29282999039 1.5341100693 4.4976420403 -0.29328599572 1.5345549583
          3.8120110035 0.1275023967 0.66295999289 3.7977409363 0.30181151628 0.66605001688
          3.9685349464 0.18286730349 0.78710997105 3.6721630096 0.17420139909 0.90603202581
          3.8120110035 0.1275023967 0.66295999289 3.7977409363 0.30181151628 0.66605001688
          3.6721630096 0.17420139909 0.90603202581 3.6354649067 0.20033504069 0.53394001722
          3.8120110035 0.1275023967 0.66295999289 3.6721630096 0.17420139909 0.90603202581
          3.4640750885 0.2319137007 0.72248202562 3.6354649067 0.20033504069 0.53394001722
          3.8120110035 0.1275023967 0.66295999289 3.4640750885 0.2319137007 0.72248202562
          3.6721630096 0.17420139909 0.90603202581 3.678497076 -0.014678004198 0.55156999826
          -4.0883383751 -0.19288347661 -0.063150003552 -3.9805979729 -0.2818211019 0.12366101146
          -4.0129318237 -0.49603816867 0.055561993271 -4.2066240311 -0.3275590539 0.070990994573
          3.6721630096 0.17420139909 0.90603202581 3.4640750885 0.2319137007 0.72248202562
          3.4617619514 -0.034863006324 0.83526402712 3.678497076 -0.014678004198 0.55156999826
          3.4640750885 0.2319137007 0.72248202562 3.4617619514 -0.034863006324 0.83526402712
          3.2844669819 0.18207931519 1.0159295797 3.6721630096 0.17420139909 0.90603202581
          3.6721630096 0.17420139909 0.90603202581 3.4617619514 -0.034863006324 0.83526402712
          3.2844669819 0.18207931519 1.0159295797 3.5387530327 0.16991350055 1.193629384
          3.6721630096 0.17420139909 0.90603202581 3.7977409363 0.30181151628 0.66605001688
          3.4640750885 0.2319137007 0.72248202562 3.6354649067 0.20033504069 0.53394001722
          3.7195839882 0.0037419972941 1.0903520584 3.5387530327 0.16991350055 1.193629384
          3.5614540577 -0.13416200876 1.2109525204 3.2712409496 -0.069230996072 1.0871679783
          4.8466658592 0.47665601969 2.4843699932 4.8932499886 0.67041701078 2.498333931
          5.0721921921 0.69339102507 2.3749821186 5.0230960846 0.41076001525 2.4843699932
          -3.8530523777 -0.50708895922 -0.23963859677 -4.0129318237 -0.49603816867 0.055561993271
          -4.0016961098 -0.32739970088 -0.24166919291 -3.7831549644 -0.23498553038 -0.042289998382
          -4.0016961098 -0.32739970088 -0.24166919291 -4.0129318237 -0.49603816867 0.055561993271
          -3.8530523777 -0.50708895922 -0.23963859677 -4.247215271 -0.5039280057 -0.16240300238
          -4.0726661682 -0.51234167814 -0.36274200678 -4.0016961098 -0.32739970088 -0.24166919291
          -3.8530523777 -0.50708895922 -0.23963859677 -4.247215271 -0.5039280057 -0.16240300238
          -4.0016961098 -0.32739970088 -0.24166919291 -3.8315455914 -0.51438689232 -0.46247899532
          -4.0726661682 -0.51234167814 -0.36274200678 -3.8530523777 -0.50708895922 -0.23963859677
          -4.0016961098 -0.32739970088 -0.24166919291 -3.7831549644 -0.23498553038 -0.042289998382
          -3.9805979729 -0.2818211019 0.12366101146 -4.0883383751 -0.19288347661 -0.063150003552
          -4.0016961098 -0.32739970088 -0.24166919291 -3.8458154202 -0.0071441796608 -0.27063637972
          -3.7831549644 -0.23498553038 -0.042289998382 -4.0883383751 -0.19288347661 -0.063150003552
          -4.0883383751 -0.19288347661 -0.063150003552 -3.8458154202 -0.0071441796608 -0.27063637972
          -4.0898427963 -0.054189000279 -0.25348520279 -4.0016961098 -0.32739970088 -0.24166919291
          -1.8314759731 0.27363407612 -0.6662620306 -1.9680509567 0.31546962261 -0.45382100344
          -1.8522150517 0.15278969705 -0.4879719913 -2.0370030403 0.2986676991 -0.69848400354
          -4.0016961098 -0.32739970088 -0.24166919291 -4.0898427963 -0.054189000279 -0.25348520279
          -4.2499485016 -0.19019518793 -0.35626098514 -3.9470174313 -0.23043839633 -0.45734000206
          -4.0016961098 -0.32739970088 -0.24166919291 -3.8458154202 -0.0071441796608 -0.27063637972
          -4.0898427963 -0.054189000279 -0.25348520279 -3.9470174313 -0.23043839633 -0.45734000206
          -3.9470174313 -0.23043839633 -0.45734000206 -3.8458154202 -0.0071441796608 -0.27063637972
          -3.7178936005 -0.30012491345 -0.34045830369 -4.0016961098 -0.32739970088 -0.24166919291
          -3.7178936005 -0.30012491345 -0.34045830369 -3.8458154202 -0.0071441796608 -0.27063637972
          -3.7831549644 -0.23498553038 -0.042289998382 -4.0016961098 -0.32739970088 -0.24166919291
          -4.7500705719 0.47674080729 0.47327038646 -4.9468126297 0.30931267142 0.46121698618
          -4.6675491333 0.29210668802 0.45158019662 -4.7318658829 0.32032591105 0.23805809021
          -4.7500705719 0.47674080729 0.47327038646 -4.9468126297 0.30931267142 0.46121698618
          -4.7318658829 0.32032591105 0.23805809021 -4.8723812103 0.4865013957 0.30406826735
          2.547467947 0.16419440508 0.46359831095 2.7543749809 0.16338352859 0.14366000891
          2.4331591129 0.31312698126 0.30493488908 2.4627220631 0.06453820318 0.024974999949
          -4.5983519554 0.47850579023 0.11985320598 -4.8723812103 0.4865013957 0.30406826735
          -4.7318658829 0.32032591105 0.23805809021 -4.8178825378 0.48557460308 0.10024909675
          -4.8178825378 0.48557460308 0.10024909675 -4.7578816414 0.28667363524 -0.042721800506
          -4.7318658829 0.32032591105 0.23805809021 -4.5983519554 0.47850579023 0.11985320598
          -4.7318658829 0.32032591105 0.23805809021 -4.7578816414 0.28667363524 -0.042721800506
          -4.8178825378 0.48557460308 0.10024909675 -5 0.28975299001 0.088944099844
          -5 0.32793700695 0.27663400769 -4.7318658829 0.32032591105 0.23805809021
          -4.8178825378 0.48557460308 0.10024909675 -5 0.28975299001 0.088944099844
          -4.6535224915 0.13568019867 0.13374620676 -4.7578816414 0.28667363524 -0.042721800506
          -4.7318658829 0.32032591105 0.23805809021 -5 0.28975299001 0.088944099844
          -4.7578816414 0.28667363524 -0.042721800506 -4.5223350525 0.28749448061 0.00038830153062
          -4.6535224915 0.13568019867 0.13374620676 -4.7318658829 0.32032591105 0.23805809021
          -4.7578816414 0.28667363524 -0.042721800506 -4.5223350525 0.28749448061 0.00038830153062
          -4.7318658829 0.32032591105 0.23805809021 -4.5983519554 0.47850579023 0.11985320598
          -4.6802415848 -0.16959774494 -0.21772760153 -4.6228103638 -0.50389355421 -0.10335719585
          -4.7962985039 -0.27623388171 -0.034645497799 -4.4366278648 -0.28509175777 -0.13918270171
          -2.4830985069 0.14539518952 -0.90576428175 -2.6722416878 0.17765410244 -0.99963802099
          -2.4950749874 0.26449760795 -1.1571450233 -2.6201217175 0.47078740597 -0.97456198931
          -4.7318658829 0.32032591105 0.23805809021 -4.8723812103 0.4865013957 0.30406826735
          -5 0.32793700695 0.27663400769 -4.8178825378 0.48557460308 0.10024909675
          1.7592899799 -0.36150300503 -0.85030698776 1.5601429939 -0.16315901279 -0.66583400965
          1.5008519888 -0.37395399809 -0.88552898169 1.6281830072 -0.20693098009 -0.91686797142
          1.8361599445 -0.19802498817 -0.79088497162 1.5601429939 -0.16315901279 -0.66583400965
          1.7592899799 -0.36150300503 -0.85030698776 1.6281830072 -0.20693098009 -0.91686797142
          1.8361599445 -0.19802498817 -0.79088497162 1.5601429939 -0.16315901279 -0.66583400965
          1.6281830072 -0.20693098009 -0.91686797142 1.6976139545 -0.039864007384 -0.8608520031
          1.6281830072 -0.20693098009 -0.91686797142 1.5601429939 -0.16315901279 -0.66583400965
          1.4835740328 -0.047832004726 -0.98587197065 1.6976139545 -0.039864007384 -0.8608520031
          1.6281830072 -0.20693098009 -0.91686797142 1.2825410366 -0.16882799566 -0.83733904362
          1.4835740328 -0.047832004726 -0.98587197065 1.5601429939 -0.16315901279 -0.66583400965
          1.6281830072 -0.20693098009 -0.91686797142 1.5601429939 -0.16315901279 -0.66583400965
          1.5008519888 -0.37395399809 -0.88552898169 1.2825410366 -0.16882799566 -0.83733904362
          1.5601429939 -0.16315901279 -0.66583400965 1.4899770021 -0.38008698821 -0.65395200253
          1.5008519888 -0.37395399809 -0.88552898169 1.2825410366 -0.16882799566 -0.83733904362
          -3.8530523777 -0.50708895922 -0.23963859677 -3.6301288605 -0.50444597006 -0.18104600906
          -3.7178936005 -0.30012491345 -0.34045830369 -3.4962136745 -0.50891906023 -0.35148981214
          -3.0489430428 -0.05935529992 -1.1577789783 -3.0221710205 -0.28878861666 -1.1663730145
          -3.2653579712 -0.18581090868 -1.0693039894 -3.0438988209 -0.31679549813 -0.92314600945
          -3.0221710205 -0.28878861666 -1.1663730145 -3.3226380348 -0.42967289686 -1.0436520576
          -3.2653579712 -0.18581090868 -1.0693039894 -3.0438988209 -0.31679549813 -0.92314600945
          1.0725090504 -0.1251232028 -0.30668699741 1.0656369925 0.1378595978 -0.35818099976
          0.99458998442 -0.022154798731 -0.49672108889 1.303779006 0.10932320356 -0.39463099837
          3.8696250916 -0.23204101622 0.68651998043 3.8110458851 -0.30123400688 0.9321950078
          3.6239950657 -0.30487498641 0.76384800673 3.7064490318 -0.11200299114 0.86057698727
          3.6596939564 -0.24626901746 0.52350002527 3.6239950657 -0.30487498641 0.76384800673
          3.7064490318 -0.11200299114 0.86057698727 3.8696250916 -0.23204101622 0.68651998043
          3.8110458851 -0.30123400688 0.9321950078 3.7064490318 -0.11200299114 0.86057698727
          3.5389170647 -0.30982100964 1.044885993 3.6239950657 -0.30487498641 0.76384800673
          3.6596939564 -0.24626901746 0.52350002527 3.7064490318 -0.11200299114 0.86057698727
          3.678497076 -0.014678004198 0.55156999826 3.8696250916 -0.23204101622 0.68651998043
          -3.7126243114 0.24968840182 -0.29950919747 -3.648727417 0.16803780198 -0.52384102345
          -3.8458154202 -0.0071441796608 -0.27063637972 -3.5465004444 -0.0025727003813 -0.37637498975
          3.1671938896 0.66265797615 1.2060799599 3.2219541073 0.45492699742 0.97522252798
          3.0001080036 0.49131900072 1.1801650524 3.220927 0.38111701608 1.2094409466
          2.5302391052 -0.34590399265 0.74713200331 2.2867779732 -0.35515400767 0.54491502047
          2.5268170834 -0.3430339992 0.35616520047 2.5706369877 -0.14441801608 0.49783235788
          2.5706369877 -0.14441801608 0.49783235788 2.2867779732 -0.35515400767 0.54491502047
          2.5268170834 -0.3430339992 0.35616520047 2.2042989731 -0.13768899441 0.32803380489
          -4.5366792679 0.30343410373 -0.3805705905 -4.6376662254 0.16694931686 -0.24515900016
          -4.3815760612 0.24617770314 -0.19512629509 -4.436715126 0.026354400441 -0.37169200182
          -4.7940740585 0.30425521731 -0.31099230051 -4.9114747047 0.4768896997 -0.51952660084
          -5.0195040703 0.27393174171 -0.50611239672 -4.827589035 0.26959607005 -0.53942549229
          -4.827589035 0.26959607005 -0.53942549229 -5.0195040703 0.27393174171 -0.50611239672
          -4.7940740585 0.30425521731 -0.31099230051 -5 0.09418129921 -0.34129801393
          2.3737831116 -0.031773991883 0.64508098364 2.7515289783 0.13377730548 0.70048117638
          2.547467947 0.16419440508 0.46359831095 2.5706369877 -0.14441801608 0.49783235788
          2.3737831116 -0.031773991883 0.64508098364 2.7515289783 0.13377730548 0.70048117638
          2.5706369877 -0.14441801608 0.49783235788 2.6176869869 -0.096157990396 0.89440202713
          2.5706369877 -0.14441801608 0.49783235788 2.7515289783 0.13377730548 0.70048117638
          2.846298933 -0.090493999422 0.57238131762 2.6176869869 -0.096157990396 0.89440202713
          2.5706369877 -0.14441801608 0.49783235788 2.7515289783 0.13377730548 0.70048117638
          2.547467947 0.16419440508 0.46359831095 2.846298933 -0.090493999422 0.57238131762
          -0.69384098053 0.20343409479 -0.94639998674 -0.53547698259 0.15860010684 -1.2386740446
          -0.42777499557 0.06476470083 -1.0590546131 -0.50188398361 0.32205638289 -1.0782203674
          0.51021200418 -0.21610671282 -0.49635899067 0.32963371277 -0.040354099125 -0.32682800293
          0.38312900066 0.045982599258 -0.55516397953 0.49385619164 -0.061818897724 -0.24398499727
          -2.548101902 -0.012899150141 -0.78901946545 -2.82984519 -0.19690430164 -0.8898460269
          -2.5790920258 -0.26749420166 -0.70352119207 -2.5444853306 -0.19624508917 -0.90569740534
          -2.548101902 -0.012899150141 -0.78901946545 -2.5444853306 -0.19624508917 -0.90569740534
          -2.5790920258 -0.26749420166 -0.70352119207 -2.2852199078 -0.19466769695 -0.68211597204
          4.4067840576 -0.28270500898 2.1856250763 4.3348088264 0.0020780034829 2.0050890446
          4.5017971992 -0.076010011137 2.1854460239 4.1882071495 -0.28400298953 2.0946230888
          -4.4366278648 -0.28509175777 -0.13918270171 -4.6228103638 -0.50389355421 -0.10335719585
          -4.7962985039 -0.27623388171 -0.034645497799 -4.5369677544 -0.4948824048 0.0206808988
          -4.2844419479 0.10605479777 -0.67162799835 -4.1204099655 0.088588900864 -0.72504401207
          -4.0872659683 -0.040365900844 -0.50246196985 -4.1674909592 0.13877829909 -0.35717999935
          0.56200027466 0.3923317194 -0.18788799644 0.56680697203 0.35435029864 -0.45947599411
          0.58858072758 0.152926296 -0.17830699682 0.79733598232 0.39415538311 -0.3318169713
          0.56680697203 0.35435029864 -0.45947599411 0.60305899382 0.11440300196 -0.49014899135
          0.58858072758 0.152926296 -0.17830699682 0.79733598232 0.39415538311 -0.3318169713
          0.56680697203 0.35435029864 -0.45947599411 0.60305899382 0.11440300196 -0.49014899135
          0.79733598232 0.39415538311 -0.3318169713 0.88199001551 0.21808290482 -0.48142701387
          0.56680697203 0.35435029864 -0.45947599411 0.88199001551 0.21808290482 -0.48142701387
          0.79733598232 0.39415538311 -0.3318169713 0.69450002909 0.33520320058 -0.69070541859
          0.56680697203 0.35435029864 -0.45947599411 0.79733598232 0.39415538311 -0.3318169713
          0.73966902494 0.57453459501 -0.50246399641 0.69450002909 0.33520320058 -0.69070541859
          0.73966902494 0.57453459501 -0.50246399641 0.79733598232 0.39415538311 -0.3318169713
          0.98193901777 0.39114138484 -0.63054037094 0.69450002909 0.33520320058 -0.69070541859
          0.92953801155 0.58331018686 -0.38244798779 0.79733598232 0.39415538311 -0.3318169713
          0.98193901777 0.39114138484 -0.63054037094 0.73966902494 0.57453459501 -0.50246399641
          0.92953801155 0.58331018686 -0.38244798779 0.73966902494 0.57453459501 -0.50246399641
          0.66420590878 0.58173090219 -0.24965699017 0.79733598232 0.39415538311 -0.3318169713
          0.88630062342 0.58878719807 -0.15539897978 0.92953801155 0.58331018686 -0.38244798779
          0.66420590878 0.58173090219 -0.24965699017 0.79733598232 0.39415538311 -0.3318169713
          0.88630062342 0.58878719807 -0.15539897978 0.79733598232 0.39415538311 -0.3318169713
          0.66420590878 0.58173090219 -0.24965699017 0.73507022858 0.4539988935 -0.073164001107
          1.1137839556 0.31430581212 -0.23879601061 0.92953801155 0.58331018686 -0.38244798779
          0.88630062342 0.58878719807 -0.15539897978 0.79733598232 0.39415538311 -0.3318169713
          0.92953801155 0.58331018686 -0.38244798779 0.79733598232 0.39415538311 -0.3318169713
          1.1137839556 0.31430581212 -0.23879601061 0.98193901777 0.39114138484 -0.63054037094
          0.79733598232 0.39415538311 -0.3318169713 0.88199001551 0.21808290482 -0.48142701387
          1.1137839556 0.31430581212 -0.23879601061 0.98193901777 0.39114138484 -0.63054037094
          0.79733598232 0.39415538311 -0.3318169713 0.88199001551 0.21808290482 -0.48142701387
          0.98193901777 0.39114138484 -0.63054037094 0.69450002909 0.33520320058 -0.69070541859
          -2.3013501167 -0.0029451001901 -0.87519747019 -2.1335361004 -0.33587309718 -0.85573190451
          -2.354665041 -0.32262691855 -0.86674439907 -2.2852199078 -0.19466769695 -0.68211597204
          -0.84227001667 0.51791298389 -0.87789303064 -0.93034297228 0.50282591581 -1.109777689
          -0.97820800543 0.24167840183 -0.90613996983 -0.77550202608 0.51301789284 -1.032153964
          0.89858132601 0.2298887074 -0.23391401768 0.95458650589 0.18395619094 0.067213997245
          1.1920820475 0.066462799907 -0.092215999961 0.79737359285 0.10921870172 -0.047456
          0.27174431086 0.54942148924 -0.87269937992 0.18104350567 0.33106470108 -0.62392002344
          0.21305389702 0.5571166873 -0.6557880044 0.43711400032 0.35662287474 -0.86431020498
          0.43711400032 0.35662287474 -0.86431020498 0.18104350567 0.33106470108 -0.62392002344
          0.21305389702 0.5571166873 -0.6557880044 0.40944099426 0.2642891109 -0.64370203018
          0.43711400032 0.35662287474 -0.86431020498 0.40944099426 0.2642891109 -0.64370203018
          0.21305389702 0.5571166873 -0.6557880044 0.4528760016 0.56065458059 -0.71604299545
          0.43711400032 0.35662287474 -0.86431020498 0.13939720392 0.18482199311 -0.80818897486
          0.18104350567 0.33106470108 -0.62392002344 0.40944099426 0.2642891109 -0.64370203018
          0.43711400032 0.35662287474 -0.86431020498 0.62536001205 0.067611642182 -0.78804123402
          0.4462980032 0.22514030337 -1.0646909475 0.36555799842 0.082396402955 -0.88094812632
          4.5205311775 0.023049006239 2.42572999 4.6464409828 -0.13010598719 2.42572999
          4.5017971992 -0.076010011137 2.1854460239 4.5203971863 -0.28261700273 2.3645069599
          3.4475607872 0.0026549980976 1.8703099489 3.4407179356 -0.10024298728 1.6149629354
          3.718173027 -0.032231997699 1.6364309788 3.5908029079 0.19661930203 1.6370530128
          -3.7815887928 0.27240249515 -0.66369998455 -3.6143445969 0.47693321109 -0.66685003042
          -3.5222220421 0.2613735199 -0.7316250205 -3.648727417 0.16803780198 -0.52384102345
          2.547467947 0.16419440508 0.46359831095 2.3737831116 -0.031773991883 0.64508098364
          2.4130580425 -0.0050789942034 0.39745768905 2.2750039101 0.14374065399 0.29926979542
          -0.61719799042 -0.039664398879 -1.1887242794 -0.89497202635 0.0030651004054 -1.1271020174
          -0.74982398748 -0.23088718951 -1.0935233831 -0.73458898067 -0.17205369473 -1.327262044
          -0.74982398748 -0.23088718951 -1.0935233831 -0.76539498568 -0.02696910128 -0.88151800632
          -0.89497202635 0.0030651004054 -1.1271020174 -0.61719799042 -0.039664398879 -1.1887242794
          -4.8905801773 0.078228734434 -0.52854001522 -4.7995986938 0.015869349241 -0.30273678899
          -4.6876730919 -0.14474339783 -0.56215977669 -4.8524708748 -0.16640077531 -0.5321289897
          3.718173027 -0.032231997699 1.6364309788 3.4475607872 0.0026549980976 1.8703099489
          3.5018596649 -0.19701200724 1.8944000006 3.4407179356 -0.10024298728 1.6149629354
          4.6464409828 -0.13010598719 2.42572999 4.6169447899 -0.28709799051 2.2023260593
          4.5017971992 -0.076010011137 2.1854460239 4.5203971863 -0.28261700273 2.3645069599
          0.47868400812 -0.085507400334 -0.87584412098 0.53313398361 0.019717698917 -1.1568260193
          0.36555799842 0.082396402955 -0.88094812632 0.26428851485 -0.064987801015 -1.0606349707
          4.5017971992 -0.076010011137 2.1854460239 4.3348088264 0.0020780034829 2.0050890446
          4.2298059464 -0.09465200454 2.2884199619 4.1882071495 -0.28400298953 2.0946230888
          -3.0457994938 0.036590598524 -0.58276486397 -2.707750082 0.14897160232 -0.50897496939
          -2.9227018356 0.26947918534 -0.61335587502 -2.7823200226 0.016783099622 -0.68633919954
          -2.707750082 0.14897160232 -0.50897496939 -2.548101902 -0.012899150141 -0.78901946545
          -2.5196659565 0.24592778087 -0.72205346823 -2.7823200226 0.016783099622 -0.68633919954
          -2.6722416878 0.17765410244 -0.99963802099 -2.6269614697 -0.066813401878 -1.0421299934
          -2.8605468273 0.030474800617 -1.0333030224 -2.7823200226 0.016783099622 -0.68633919954
          -2.6269614697 -0.066813401878 -1.0421299934 -2.82984519 -0.19690430164 -0.8898460269
          -2.8605468273 0.030474800617 -1.0333030224 -2.7823200226 0.016783099622 -0.68633919954
          4.402616024 0.45689401031 2.1667981148 4.1495599747 0.35503801703 2.2919700146
          4.1113681793 0.48997598886 2.274960041 4.3538961411 0.35973498225 2.428800106
          -4.5225315094 -0.29344007373 -0.59745502472 -4.6932406425 -0.33437889814 -0.55821180344
          -4.6876730919 -0.14474339783 -0.56215977669 -4.4922027588 -0.20494790375 -0.36291068792
          -4.6876730919 -0.14474339783 -0.56215977669 -4.6932406425 -0.33437889814 -0.55821180344
          -4.8024878502 -0.29730415344 -0.34576281905 -4.4922027588 -0.20494790375 -0.36291068792
          -0.098785996437 -0.43900081515 -0.51937001944 -0.011990199797 -0.27998569608 -0.48404100537
          -0.0078739998862 -0.46226969361 -0.70150399208 0.21651309729 -0.46012639999 -0.53555697203
          -3.4544520378 -0.502204597 -0.077600002289 -3.564964056 -0.31996080279 -0.046510994434
          -3.6301288605 -0.50444597006 -0.18104600906 -3.3219630718 -0.30692452192 -0.14970101416
          3.5048649311 -0.11629401147 0.41244900227 3.3454549313 -0.14016999304 0.62486702204
          3.6596939564 -0.24626901746 0.52350002527 3.2719910145 -0.31246700883 0.38419899344
          0.3360530138 -0.12368449569 -0.71136599779 0.19523879886 -0.052128598094 -0.8603233695
          0.36515200138 -0.25333359838 -0.93256372213 0.47868400812 -0.085507400334 -0.87584412098
          0.47868400812 -0.085507400334 -0.87584412098 0.36555799842 0.082396402955 -0.88094812632
          0.62536001205 0.067611642182 -0.78804123402 0.56557297707 -0.05147189647 -0.61882799864
          2.5400059223 0.47935000062 0.92150700092 2.8959798813 0.32024499774 1.0456169844
          2.7781450748 0.40818598866 0.68238705397 2.5839250088 0.25846800208 0.93122702837
          2.387912035 0.31022301316 0.66756099463 2.5839250088 0.25846800208 0.93122702837
          2.5400059223 0.47935000062 0.92150700092 2.7781450748 0.40818598866 0.68238705397
          2.5400059223 0.47935000062 0.92150700092 2.387912035 0.31022301316 0.66756099463
          2.7781450748 0.40818598866 0.68238705397 2.5486719608 0.4433940053 0.48740598559
          2.5400059223 0.47935000062 0.92150700092 2.2841498852 0.63460797071 0.62853097916
          2.387912035 0.31022301316 0.66756099463 2.5486719608 0.4433940053 0.48740598559
          2.387912035 0.31022301316 0.66756099463 2.1254868507 0.43120700121 0.6656140089
          2.2841498852 0.63460797071 0.62853097916 2.5400059223 0.47935000062 0.92150700092
          2.387912035 0.31022301316 0.66756099463 2.1746091843 0.4260700047 1.0060030222
          2.1254868507 0.43120700121 0.6656140089 2.5400059223 0.47935000062 0.92150700092
          2.5839250088 0.25846800208 0.93122702837 2.1746091843 0.4260700047 1.0060030222
          2.387912035 0.31022301316 0.66756099463 2.5400059223 0.47935000062 0.92150700092
          2.2918043137 0.21171090007 1.0770230293 2.1746091843 0.4260700047 1.0060030222
          2.5839250088 0.25846800208 0.93122702837 2.5400059223 0.47935000062 0.92150700092
          2.2918043137 0.21171090007 1.0770230293 2.5400059223 0.47935000062 0.92150700092
          2.5839250088 0.25846800208 0.93122702837 2.430131197 0.43304201961 1.193819046
          2.2918043137 0.21171090007 1.0770230293 2.1746091843 0.4260700047 1.0060030222
          2.5400059223 0.47935000062 0.92150700092 2.430131197 0.43304201961 1.193819046
          -1.9904079437 0.054340101779 -0.69911700487 -1.7705160379 -0.013670380227 -0.72984999418
          -1.8356319666 0.0078969011083 -1.0082437992 -2.0607159138 -0.073489099741 -0.92311251163
          -1.9904079437 0.054340101779 -0.69911700487 -1.7705160379 -0.013670380227 -0.72984999418
          -1.7904880047 0.17986288667 -0.85320198536 -1.8356319666 0.0078969011083 -1.0082437992
          0.22415600717 -0.082622297108 -1.3033210039 0.26467600465 -0.18822538853 -1.4712239504
          -0.0075119999237 -0.13963499665 -1.2594619989 0.24705900252 -0.42054501176 -1.2698409557
          -0.38828599453 0.11242230237 -1.4058929682 -0.72984099388 0.28546023369 -1.3866969347
          -0.55726397038 -0.032617900521 -1.40318501 -0.679880023 0.069117903709 -1.6021100283
          -4.4574508667 0.019598178566 0.2031301856 -4.7829651833 -0.03583727777 0.25068509579
          -4.6497826576 -0.19200108945 0.12126010656 -4.6535224915 0.13568019867 0.13374620676
          3.9769608974 0.41242301464 1.2358649969 3.8493919373 0.50689595938 1.0418950319
          3.8746159077 0.2987203002 0.98308598995 4.1035399437 0.34244701266 0.90219002962
          2.2606570721 0.63481098413 0.14861099422 2.4290430546 0.64191198349 0.39004901052
          2.3142609596 0.44252300262 0.15573300421 2.2181119919 0.41253200173 0.3796235919
          -4.3490223885 0.21022440493 0.13521999121 -4.4056830406 0.16206969321 0.40360671282
          -4.1633501053 -0.0074493000284 0.35350400209 -4.4574508667 0.019598178566 0.2031301856
          -2.526927948 -0.09825039655 -0.49015599489 -2.7287049294 -0.2789902091 -0.37658300996
          -2.7312269211 -0.032895799726 -0.39067798853 -2.4884090424 -0.28845638037 -0.25028300285
          4.486289978 0.48828300834 2.4170000553 4.3538961411 0.35973498225 2.428800106
          4.6255760193 0.29108199477 2.428800106 4.5650310516 0.20493909717 2.2137980461
          4.3348088264 0.0020780034829 2.0050890446 4.659427166 0.057737004012 2.0819699764
          4.5650310516 0.20493909717 2.2137980461 4.3718128204 0.25128540397 2.104501009
          0.47868400812 -0.085507400334 -0.87584412098 0.26428851485 -0.064987801015 -1.0606349707
          0.36515200138 -0.25333359838 -0.93256372213 0.61579799652 -0.14052461088 -1.0343459845
          3.1580340862 -0.10009101033 1.6749999523 3.3237390518 0.14818389714 1.5284450054
          3.0577402115 0.15238833427 1.6229300499 3.1324748993 -0.012670002878 1.333466053
          -0.2287349999 0.24483269453 -1.2839930058 -0.44964700937 0.30215507746 -1.3843599558
          -0.50188398361 0.32205638289 -1.0782203674 -0.53547698259 0.15860010684 -1.2386740446
          4.7576980591 0.49129199982 1.9305694103 4.4522380829 0.45779499412 1.8534209728
          4.6265969276 0.37918898463 2.0835940838 4.7131490707 0.21425390244 1.868008852
          -4.4366278648 -0.28509175777 -0.13918270171 -4.3315758705 -0.16536140442 0.15697599947
          -4.3956904411 -0.0096592828631 -0.099004216492 -4.2212285995 -0.30168271065 -0.17994959652
          4.9700350761 0.50200498104 1.9810703993 4.7996368408 0.69749897718 1.943791151
          4.7576980591 0.49129199982 1.9305694103 4.9762878418 0.4914059937 1.7501740456
          -0.72984099388 0.28546023369 -1.3866969347 -0.44964700937 0.30215507746 -1.3843599558
          -0.53547698259 0.15860010684 -1.2386740446 -0.50188398361 0.32205638289 -1.0782203674
          -0.72984099388 0.28546023369 -1.3866969347 -0.44964700937 0.30215507746 -1.3843599558
          -0.50188398361 0.32205638289 -1.0782203674 -0.71466398239 0.50439506769 -1.2475240231
          -3.6200819016 -0.16615739465 -0.5608189702 -3.779299736 -0.33174827695 -0.59858602285
          -3.5607392788 -0.34819129109 -0.49605900049 -3.4521927834 -0.28309810162 -0.73375397921
          -3.4962136745 -0.50891906023 -0.35148981214 -3.5159258842 -0.18312910199 -0.2097529918
          -3.7178936005 -0.30012491345 -0.34045830369 -3.5607392788 -0.34819129109 -0.49605900049
          -3.3584003448 -0.26359349489 -0.49015578628 -3.5607392788 -0.34819129109 -0.49605900049
          -3.4962136745 -0.50891906023 -0.35148981214 -3.2427380085 -0.50958657265 -0.51888477802
          -0.44964700937 0.30215507746 -1.3843599558 -0.41940999031 0.51631212234 -1.1652537584
          -0.50188398361 0.32205638289 -1.0782203674 -0.71466398239 0.50439506769 -1.2475240231
          2.7543749809 0.16338352859 0.14366000891 2.7568380833 0.32088699937 0.34903898835
          2.9617218971 0.11532790214 0.41656598449 2.6742250919 -0.012311006896 0.2936809957
          -2.4950749874 0.26449760795 -1.1571450233 -2.6269614697 -0.066813401878 -1.0421299934
          -2.5362904072 0.058985300362 -1.3469660282 -2.6722416878 0.17765410244 -0.99963802099
          0.86870998144 0.033326499164 -0.31085899472 0.89858132601 0.2298887074 -0.23391401768
          1.1920820475 0.066462799907 -0.092215999961 0.79737359285 0.10921870172 -0.047456
          -3.648727417 0.16803780198 -0.52384102345 -3.6431386471 0.012811898254 -0.67573601007
          -3.5465004444 -0.0025727003813 -0.37637498975 -3.4282062054 0.14235441387 -0.57428902388
          -2.5636935234 0.46416980028 -1.3145070076 -2.7583801746 0.46716481447 -1.1447130442
          -2.4950749874 0.26449760795 -1.1571450233 -2.6970658302 0.28316840529 -1.292855978
          -2.5636935234 0.46416980028 -1.3145070076 -2.7583801746 0.46716481447 -1.1447130442
          -2.3987627029 0.46843078732 -1.1548199654 -2.4950749874 0.26449760795 -1.1571450233
          -2.6201217175 0.47078740597 -0.97456198931 -2.4950749874 0.26449760795 -1.1571450233
          -2.3987627029 0.46843078732 -1.1548199654 -2.7583801746 0.46716481447 -1.1447130442
          -2.6201217175 0.47078740597 -0.97456198931 -2.6722416878 0.17765410244 -0.99963802099
          -2.4950749874 0.26449760795 -1.1571450233 -2.7583801746 0.46716481447 -1.1447130442
          4.908780098 -0.05460799858 1.9473679066 4.9797067642 0.10058799386 1.780706048
          5.1593341827 -0.012515998445 1.8333879709 5.1686019897 0.14154189825 2.0466096401
          4.5152788162 0.44570598006 1.5512629747 4.6735458374 0.19949239492 1.5503569841
          4.7479839325 0.46574398875 1.3275200129 4.6267647743 0.34916397929 1.2565300465
          -0.13618600368 -0.29588839412 -0.75555801392 -0.011990199797 -0.27998569608 -0.48404100537
          -0.1767269969 -0.26826900244 -0.53143000603 0.0018850000342 -0.13561350107 -0.81675201654
          -3.3584003448 -0.26359349489 -0.49015578628 -3.3219630718 -0.30692452192 -0.14970101416
          -3.5159258842 -0.18312910199 -0.2097529918 -3.1492960453 -0.20950199664 -0.30492499471
          -3.3584003448 -0.26359349489 -0.49015578628 -3.3031389713 -0.50743067265 -0.25414600968
          -3.3219630718 -0.30692452192 -0.14970101416 -3.1492960453 -0.20950199664 -0.30492499471
          -3.4962136745 -0.50891906023 -0.35148981214 -3.3031389713 -0.50743067265 -0.25414600968
          -3.3219630718 -0.30692452192 -0.14970101416 -3.3584003448 -0.26359349489 -0.49015578628
          -3.4962136745 -0.50891906023 -0.35148981214 -3.3219630718 -0.30692452192 -0.14970101416
          -3.5159258842 -0.18312910199 -0.2097529918 -3.3584003448 -0.26359349489 -0.49015578628
          3.658107996 -0.30566099286 1.332764864 3.718173027 -0.032231997699 1.6364309788
          3.7013010979 -0.30448499322 1.5550149679 3.4407179356 -0.10024298728 1.6149629354
          -3.4544520378 -0.502204597 -0.077600002289 -3.3219630718 -0.30692452192 -0.14970101416
          -3.4962136745 -0.50891906023 -0.35148981214 -3.3031389713 -0.50743067265 -0.25414600968
          -3.4544520378 -0.502204597 -0.077600002289 -3.2368340492 -0.50209462643 0.021059993654
          -3.3219630718 -0.30692452192 -0.14970101416 -3.3031389713 -0.50743067265 -0.25414600968
          -3.4544520378 -0.502204597 -0.077600002289 -3.2368340492 -0.50209462643 0.021059993654
          -3.3116250038 -0.30738094449 0.088941000402 -3.3219630718 -0.30692452192 -0.14970101416
          4.486289978 0.48828300834 2.4170000553 4.3538961411 0.35973498225 2.428800106
          4.5650310516 0.20493909717 2.2137980461 4.402616024 0.45689401031 2.1667981148
          4.5017971992 -0.076010011137 2.1854460239 4.659427166 0.057737004012 2.0819699764
          4.5205311775 0.023049006239 2.42572999 4.5650310516 0.20493909717 2.2137980461
          4.486289978 0.48828300834 2.4170000553 4.402616024 0.45689401031 2.1667981148
          4.5650310516 0.20493909717 2.2137980461 4.6265969276 0.37918898463 2.0835940838
          -3.2368340492 -0.50209462643 0.021059993654 -3.0166881084 -0.40625160933 -0.028389999643
          -3.3116250038 -0.30738094449 0.088941000402 -3.3219630718 -0.30692452192 -0.14970101416
          -3.2368340492 -0.50209462643 0.021059993654 -3.0166881084 -0.40625160933 -0.028389999643
          -3.3219630718 -0.30692452192 -0.14970101416 -3.07508111 -0.50736320019 -0.289350003
          -3.2368340492 -0.50209462643 0.021059993654 -3.3219630718 -0.30692452192 -0.14970101416
          -3.3031389713 -0.50743067265 -0.25414600968 -3.07508111 -0.50736320019 -0.289350003
          -3.3031389713 -0.50743067265 -0.25414600968 -3.3219630718 -0.30692452192 -0.14970101416
          -3.1492960453 -0.20950199664 -0.30492499471 -3.07508111 -0.50736320019 -0.289350003
          -3.3219630718 -0.30692452192 -0.14970101416 -3.0166881084 -0.40625160933 -0.028389999643
          -3.1492960453 -0.20950199664 -0.30492499471 -3.07508111 -0.50736320019 -0.289350003
          -3.3219630718 -0.30692452192 -0.14970101416 -3.0166881084 -0.40625160933 -0.028389999643
          -2.9889519215 -0.24136529863 -0.040991000831 -3.1492960453 -0.20950199664 -0.30492499471
          -3.3219630718 -0.30692452192 -0.14970101416 -2.9889519215 -0.24136529863 -0.040991000831
          -3.0977869034 -0.10610190034 0.0021150000393 -3.1492960453 -0.20950199664 -0.30492499471
          4.908780098 -0.05460799858 1.9473679066 4.9558830261 0.24193349481 1.938804388
          4.9797067642 0.10058799386 1.780706048 5.1686019897 0.14154189825 2.0466096401
          2.4003479481 -0.15540499985 -0.052411012352 2.1427390575 -0.046670995653 -0.085950896144
          2.2638959885 -0.015994004905 0.14143829048 2.0367250443 -0.15883000195 0.10807870328
          -3.3116250038 -0.30738094449 0.088941000402 -3.0166881084 -0.40625160933 -0.028389999643
          -2.9889519215 -0.24136529863 -0.040991000831 -3.3219630718 -0.30692452192 -0.14970101416
          -0.80039197206 -0.22904071212 -1.6116299629 -0.95317101479 -0.27932810783 -1.4066259861
          -0.73458898067 -0.17205369473 -1.327262044 -0.53049099445 -0.25941371918 -1.4260540009
          -0.53049099445 -0.25941371918 -1.4260540009 -0.34433600307 -0.26983401179 -1.5834399462
          -0.50069600344 -0.11491009593 -1.5895299911 -0.54073399305 -0.37010061741 -1.604460001
          2.0099020004 0.62074702978 -0.17452520132 1.7845100164 0.61610001326 0.12772998214
          2.0226778984 0.62434697151 0.18275760114 1.9673910141 0.42298001051 0.05929357931
          2.0099020004 0.62074702978 -0.17452520132 2.0226778984 0.62434697151 0.18275760114
          2.2606570721 0.63481098413 0.14861099422 1.9673910141 0.42298001051 0.05929357931
          1.7167700529 0.42090001702 -0.091850601137 1.9673910141 0.42298001051 0.05929357931
          1.594933033 0.40332198143 0.19972449541 1.7845100164 0.61610001326 0.12772998214
          1.7167700529 0.42090001702 -0.091850601137 1.8911110163 0.31002601981 0.28474500775
          1.594933033 0.40332198143 0.19972449541 1.9673910141 0.42298001051 0.05929357931
          1.9673910141 0.42298001051 0.05929357931 1.8911110163 0.31002601981 0.28474500775
          1.594933033 0.40332198143 0.19972449541 1.7845100164 0.61610001326 0.12772998214
          1.9673910141 0.42298001051 0.05929357931 1.8911110163 0.31002601981 0.28474500775
          2.2181119919 0.41253200173 0.3796235919 2.0466160774 0.12520329654 0.090647503734
          3.4906380177 0.39700400829 0.43757998943 3.4640750885 0.2319137007 0.72248202562
          3.6354649067 0.20033504069 0.53394001722 3.241795063 0.17628619075 0.51923000813
          3.4906380177 0.39700400829 0.43757998943 3.241795063 0.17628619075 0.51923000813
          3.6354649067 0.20033504069 0.53394001722 3.4745230675 0.094017997384 0.40399199724
          3.4906380177 0.39700400829 0.43757998943 3.241795063 0.17628619075 0.51923000813
          3.4745230675 0.094017997384 0.40399199724 3.251791954 0.13675589859 0.23980399966
          3.241795063 0.17628619075 0.51923000813 3.4640750885 0.2319137007 0.72248202562
          3.6354649067 0.20033504069 0.53394001722 3.4745230675 0.094017997384 0.40399199724
          3.0274419785 0.16455459595 0.84069955349 3.241795063 0.17628619075 0.51923000813
          3.4640750885 0.2319137007 0.72248202562 3.1142799854 0.34143099189 0.65826201439
          2.9617218971 0.11532790214 0.41656598449 3.0274419785 0.16455459595 0.84069955349
          3.1142799854 0.34143099189 0.65826201439 3.241795063 0.17628619075 0.51923000813
          3.1142799854 0.34143099189 0.65826201439 3.0115010738 0.44793599844 0.41370400786
          2.9617218971 0.11532790214 0.41656598449 3.241795063 0.17628619075 0.51923000813
          3.1142799854 0.34143099189 0.65826201439 3.0115010738 0.44793599844 0.41370400786
          3.241795063 0.17628619075 0.51923000813 3.1855530739 0.35112899542 0.20670999587
          3.241795063 0.17628619075 0.51923000813 3.0115010738 0.44793599844 0.41370400786
          2.9617218971 0.11532790214 0.41656598449 3.1855530739 0.35112899542 0.20670999587
          2.9617218971 0.11532790214 0.41656598449 3.0274419785 0.16455459595 0.84069955349
          3.241795063 0.17628619075 0.51923000813 3.147439003 -0.0024279970676 0.66096997261
          3.241795063 0.17628619075 0.51923000813 3.147439003 -0.0024279970676 0.66096997261
          3.0362560749 -0.12312699854 0.36283898354 2.9617218971 0.11532790214 0.41656598449
          3.241795063 0.17628619075 0.51923000813 3.147439003 -0.0024279970676 0.66096997261
          3.3033549786 -0.086898997426 0.26347100735 3.0362560749 -0.12312699854 0.36283898354
          3.0274419785 0.16455459595 0.84069955349 3.147439003 -0.0024279970676 0.66096997261
          3.4640750885 0.2319137007 0.72248202562 3.241795063 0.17628619075 0.51923000813
          -3.8355240822 -0.29797300696 -0.83261597157 -3.622396946 -0.50692749023 -0.91552698612
          -3.9198260307 -0.52072381973 -0.66412502527 -3.779299736 -0.33174827695 -0.59858602285
          -3.6418271065 -0.31525328755 -0.91074800491 -3.8355240822 -0.29797300696 -0.83261597157
          -3.779299736 -0.33174827695 -0.59858602285 -3.622396946 -0.50692749023 -0.91552698612
          -3.6418271065 -0.31525328755 -0.91074800491 -3.779299736 -0.33174827695 -0.59858602285
          -3.6353495121 -0.51476502419 -0.58951199055 -3.622396946 -0.50692749023 -0.91552698612
          -3.779299736 -0.33174827695 -0.59858602285 -3.6418271065 -0.31525328755 -0.91074800491
          -3.6353495121 -0.51476502419 -0.58951199055 -3.4521927834 -0.28309810162 -0.73375397921
          2.2337059975 -0.17428898811 -0.25786739588 1.9658960104 -0.19827999175 -0.2762555182
          1.9952529669 -0.028272999451 -0.39336639643 2.1427390575 -0.046670995653 -0.085950896144
          -3.6200819016 -0.16615739465 -0.5608189702 -3.6418271065 -0.31525328755 -0.91074800491
          -3.779299736 -0.33174827695 -0.59858602285 -3.4521927834 -0.28309810162 -0.73375397921
          -3.6200819016 -0.16615739465 -0.5608189702 -3.8355240822 -0.29797300696 -0.83261597157
          -3.779299736 -0.33174827695 -0.59858602285 -3.6418271065 -0.31525328755 -0.91074800491
          -3.7815887928 0.27240249515 -0.66369998455 -3.6143445969 0.47693321109 -0.66685003042
          -3.648727417 0.16803780198 -0.52384102345 -3.6499538422 0.47699010372 -0.48393499851
          1.8071659803 -0.10879799724 -0.12797890604 1.6162129641 -0.37938898802 -0.35376280546
          1.9658960104 -0.19827999175 -0.2762555182 1.8301340342 -0.19138199091 -0.51286798716
          -3.779299736 -0.33174827695 -0.59858602285 -3.9198260307 -0.52072381973 -0.66412502527
          -3.8315455914 -0.51438689232 -0.46247899532 -3.6353495121 -0.51476502419 -0.58951199055
          -3.779299736 -0.33174827695 -0.59858602285 -3.622396946 -0.50692749023 -0.91552698612
          -3.9198260307 -0.52072381973 -0.66412502527 -3.6353495121 -0.51476502419 -0.58951199055
          -1.2363820076 0.13768835366 -0.99496001005 -1.4006630182 0.27366858721 -1.0899891853
          -1.3511379957 -0.033111680299 -1.0856614113 -1.3583359718 0.17316421866 -1.3048620224
          -1.2363820076 0.13768835366 -0.99496001005 -1.3583359718 0.17316421866 -1.3048620224
          -1.3511379957 -0.033111680299 -1.0856614113 -1.1318500042 0.052193719894 -1.1925956011
          -1.3511379957 -0.033111680299 -1.0856614113 -1.4006630182 0.27366858721 -1.0899891853
          -1.5908279419 -0.0042438311502 -1.0808677673 -1.3583359718 0.17316421866 -1.3048620224
          -1.3583359718 0.17316421866 -1.3048620224 -1.6338564157 0.02010091953 -1.3360049725
          -1.5908279419 -0.0042438311502 -1.0808677673 -1.3511379957 -0.033111680299 -1.0856614113
          -1.3511379957 -0.033111680299 -1.0856614113 -1.4917390347 0.24093736708 -0.86661797762
          -1.5908279419 -0.0042438311502 -1.0808677673 -1.4006630182 0.27366858721 -1.0899891853
          -1.3511379957 -0.033111680299 -1.0856614113 -1.4917390347 0.24093736708 -0.86661797762
          -1.5145759583 -0.018870471045 -0.82699400187 -1.5908279419 -0.0042438311502 -1.0808677673
          -2.3660526276 -0.18054547906 -1.0520470142 -2.2354676723 -0.21959285438 -1.2453320026
          -2.1019701958 -0.27823245525 -1.0662670135 -2.1130719185 -0.047264300287 -1.1963629723
          -2.9588835239 0.10583119839 -0.81790500879 -2.7856142521 0.29197818041 -0.82188498974
          -2.9227018356 0.26947918534 -0.61335587502 -3.0947728157 0.28662750125 -0.90678101778
          -1.3511379957 -0.033111680299 -1.0856614113 -1.5521390438 -0.22336211801 -1.3013720512
          -1.5769430399 -0.27982699871 -1.0531499386 -1.2506010532 -0.14467050135 -1.2530030012
          -1.4067959785 -0.070061728358 -1.4117490053 -1.5521390438 -0.22336211801 -1.3013720512
          -1.3511379957 -0.033111680299 -1.0856614113 -1.2506010532 -0.14467050135 -1.2530030012
          4.9558830261 0.24193349481 1.938804388 4.7576980591 0.49129199982 1.9305694103
          4.7131490707 0.21425390244 1.868008852 4.7563681602 0.41457000375 1.7243119478
          2.8823029995 0.46633699536 -0.010378999636 2.7388780117 0.4845879972 0.20156900585
          2.8988199234 0.66676598787 0.13199600577 3.0825920105 0.52345901728 0.14255799353
          4.9762878418 0.4914059937 1.7501740456 4.7996368408 0.69749897718 1.943791151
          4.7576980591 0.49129199982 1.9305694103 4.9495658875 0.71378302574 1.7495089769
          4.7563681602 0.41457000375 1.7243119478 4.9558830261 0.24193349481 1.938804388
          4.7576980591 0.49129199982 1.9305694103 4.9762878418 0.4914059937 1.7501740456
          -4.2066240311 -0.3275590539 0.070990994573 -4.3315758705 -0.16536140442 0.15697599947
          -4.2212285995 -0.30168271065 -0.17994959652 -4.0883383751 -0.19288347661 -0.063150003552
          4.6267647743 0.34916397929 1.2565300465 4.5152788162 0.44570598006 1.5512629747
          4.7117071152 0.64353197813 1.3227100372 4.7479839325 0.46574398875 1.3275200129
          0.3360530138 -0.12368449569 -0.71136599779 0.16142000258 0.02375430055 -0.62841498852
          0.36555799842 0.082396402955 -0.88094812632 0.38312900066 0.045982599258 -0.55516397953
          -1.5874071121 0.47615900636 -1.3606339693 -1.795637846 0.26627320051 -1.3385109901
          -1.7639460564 0.4825155139 -1.1151630878 -1.6238960028 0.24829168618 -1.1837819815
          -1.795637846 0.26627320051 -1.3385109901 -2.041049242 0.1184957996 -1.4851289988
          -1.915242672 0.15616099536 -1.1708220243 -1.8840471506 -0.017964780331 -1.309893012
          -1.795637846 0.26627320051 -1.3385109901 -1.915242672 0.15616099536 -1.1708220243
          -1.6238960028 0.24829168618 -1.1837819815 -1.6338564157 0.02010091953 -1.3360049725
          1.9902969599 0.62398999929 0.42160499096 2.1254868507 0.43120700121 0.6656140089
          2.2181119919 0.41253200173 0.3796235919 1.8868869543 0.43748298287 0.51323801279
          4.7131490707 0.21425390244 1.868008852 4.8711438179 0.14351969957 1.5897270441
          4.7825579643 0.012594994158 1.737795949 4.9797067642 0.10058799386 1.780706048
          2.0466160774 0.12520329654 0.090647503734 1.8810739517 -0.025785999373 0.24052999914
          1.8911110163 0.31002601981 0.28474500775 1.8012125492 0.13252429664 0.42392399907
          2.5302391052 -0.34590399265 0.74713200331 2.6176869869 -0.096157990396 0.89440202713
          2.3880560398 -0.17542900145 0.81797897816 2.5706369877 -0.14441801608 0.49783235788
          -1.8760517836 0.47185769677 -1.3252899647 -2.1506009102 0.25718417764 -1.2337720394
          -1.915242672 0.15616099536 -1.1708220243 -1.795637846 0.26627320051 -1.3385109901
          -1.795637846 0.26627320051 -1.3385109901 -2.1506009102 0.25718417764 -1.2337720394
          -1.915242672 0.15616099536 -1.1708220243 -2.041049242 0.1184957996 -1.4851289988
          0.9384559989 -0.42108929157 -0.3525930047 1.0542720556 -0.20917788148 -0.54995292425
          0.85404402018 -0.22467930615 -0.32312399149 0.93293100595 -0.41566240788 -0.55624979734
          -1.1318500042 0.052193719894 -1.1925956011 -1.3583359718 0.17316421866 -1.3048620224
          -1.1884590387 0.063980542123 -1.4178910255 -1.0088479519 0.19115871191 -1.3418680429
          -2.0357840061 -0.027981799096 -1.4841450453 -2.1257388592 -0.27721267939 -1.4604820013
          -1.8840471506 -0.017964780331 -1.309893012 -1.856298089 -0.15979887545 -1.5231399536
          -2.1130719185 -0.047264300287 -1.1963629723 -2.1257388592 -0.27721267939 -1.4604820013
          -1.8840471506 -0.017964780331 -1.309893012 -2.0357840061 -0.027981799096 -1.4841450453
          4.7728209496 0.11897029728 2.42572999 5.0963821411 0.18064403534 2.290708065
          4.9883351326 -0.0025349962525 2.1726241112 4.960849762 -0.010346002877 2.4790999889
          -1.8356319666 0.0078969011083 -1.0082437992 -2.1130719185 -0.047264300287 -1.1963629723
          -1.8587261438 -0.19973695278 -1.1918489933 -1.8840471506 -0.017964780331 -1.309893012
          -1.8840471506 -0.017964780331 -1.309893012 -1.8356319666 0.0078969011083 -1.0082437992
          -1.5908279419 -0.0042438311502 -1.0808677673 -1.8587261438 -0.19973695278 -1.1918489933
          -1.8356319666 0.0078969011083 -1.0082437992 -2.1130719185 -0.047264300287 -1.1963629723
          -1.8840471506 -0.017964780331 -1.309893012 -1.915242672 0.15616099536 -1.1708220243
          2.4782733917 -0.16793499887 1.1878299713 2.3880560398 -0.17542900145 0.81797897816
          2.5645010471 -0.34633201361 0.97681301832 2.6176869869 -0.096157990396 0.89440202713
          2.4782733917 -0.16793499887 1.1878299713 2.3880560398 -0.17542900145 0.81797897816
          2.6176869869 -0.096157990396 0.89440202713 2.355743885 -0.0222629942 1.108060956
          2.4782733917 -0.16793499887 1.1878299713 2.2197947502 -0.2277380079 0.99411600828
          2.3880560398 -0.17542900145 0.81797897816 2.355743885 -0.0222629942 1.108060956
          2.3698036671 -0.32390099764 1.0980910063 2.279137373 -0.3575539887 0.84426099062
          2.3880560398 -0.17542900145 0.81797897816 2.2197947502 -0.2277380079 0.99411600828
          -0.36743998528 -0.0037765994202 -0.87996399403 -0.18521800637 0.03266672045 -1.0619240999
          -0.19524599612 0.051735099405 -0.78870302439 -0.38182199001 0.22295188904 -0.90033400059
          -0.33131301403 -0.1156719923 -1.0455411673 -0.18521800637 0.03266672045 -1.0619240999
          -0.36743998528 -0.0037765994202 -0.87996399403 -0.42777499557 0.06476470083 -1.0590546131
          -0.2287349999 0.24483269453 -1.2839930058 -0.26240199804 0.35430929065 -1.093870163
          -0.42777499557 0.06476470083 -1.0590546131 -0.53547698259 0.15860010684 -1.2386740446
          -0.2287349999 0.24483269453 -1.2839930058 -0.26240199804 0.35430929065 -1.093870163
          -0.18521800637 0.03266672045 -1.0619240999 -0.42777499557 0.06476470083 -1.0590546131
          -0.26240199804 0.35430929065 -1.093870163 -0.38182199001 0.22295188904 -0.90033400059
          -0.18521800637 0.03266672045 -1.0619240999 -0.42777499557 0.06476470083 -1.0590546131
          -0.26240199804 0.35430929065 -1.093870163 -0.38182199001 0.22295188904 -0.90033400059
          -0.42777499557 0.06476470083 -1.0590546131 -0.50188398361 0.32205638289 -1.0782203674
          -0.26240199804 0.35430929065 -1.093870163 -0.50188398361 0.32205638289 -1.0782203674
          -0.42777499557 0.06476470083 -1.0590546131 -0.53547698259 0.15860010684 -1.2386740446
          -0.26240199804 0.35430929065 -1.093870163 -0.33649298549 0.53052771091 -0.93731302023
          -0.38182199001 0.22295188904 -0.90033400059 -0.50188398361 0.32205638289 -1.0782203674
          -0.26240199804 0.35430929065 -1.093870163 -0.33649298549 0.53052771091 -0.93731302023
          -0.50188398361 0.32205638289 -1.0782203674 -0.41940999031 0.51631212234 -1.1652537584
          -0.26240199804 0.35430929065 -1.093870163 -0.41940999031 0.51631212234 -1.1652537584
          -0.50188398361 0.32205638289 -1.0782203674 -0.44964700937 0.30215507746 -1.3843599558
          3.3237390518 0.14818389714 1.5284450054 3.5908029079 0.19661930203 1.6370530128
          3.5387530327 0.16991350055 1.193629384 3.4360439777 -0.0026910067536 1.3680689335
          3.3237390518 0.14818389714 1.5284450054 3.4360439777 -0.0026910067536 1.3680689335
          3.5387530327 0.16991350055 1.193629384 3.1057059765 0.21902000904 1.2990050316
          3.4179348946 0.33102399111 1.4116280079 3.3237390518 0.14818389714 1.5284450054
          3.5387530327 0.16991350055 1.193629384 3.1057059765 0.21902000904 1.2990050316
          3.4179348946 0.33102399111 1.4116280079 3.5908029079 0.19661930203 1.6370530128
          3.5387530327 0.16991350055 1.193629384 3.3237390518 0.14818389714 1.5284450054
          3.4179348946 0.33102399111 1.4116280079 3.3237390518 0.14818389714 1.5284450054
          3.5121660233 0.42270597816 1.6780580282 3.5908029079 0.19661930203 1.6370530128
          3.4179348946 0.33102399111 1.4116280079 3.3237390518 0.14818389714 1.5284450054
          3.2050361633 0.42096599936 1.7410199642 3.5121660233 0.42270597816 1.6780580282
          3.3237390518 0.14818389714 1.5284450054 3.3313462734 0.21289689839 1.8087899685
          3.2050361633 0.42096599936 1.7410199642 3.5121660233 0.42270597816 1.6780580282
          3.3237390518 0.14818389714 1.5284450054 3.3313462734 0.21289689839 1.8087899685
          3.5121660233 0.42270597816 1.6780580282 3.5908029079 0.19661930203 1.6370530128
          -0.76539498568 -0.02696910128 -0.88151800632 -0.69384098053 0.20343409479 -0.94639998674
          -0.61719799042 -0.039664398879 -1.1887242794 -0.55270302296 -0.11456199735 -0.98753702641
          -0.42777499557 0.06476470083 -1.0590546131 -0.69384098053 0.20343409479 -0.94639998674
          -0.55270302296 -0.11456199735 -0.98753702641 -0.61719799042 -0.039664398879 -1.1887242794
          -3.4094109535 -0.28461059928 -1.0079009533 -3.3226380348 -0.42967289686 -1.0436520576
          -3.3740890026 -0.51318377256 -0.76919901371 -3.223610878 -0.51225572824 -0.90670001507
          -3.4256296158 -0.04080190137 -0.73200601339 -3.4521927834 -0.28309810162 -0.73375397921
          -3.1669573784 -0.19655050337 -0.74350303411 -3.4094109535 -0.28461059928 -1.0079009533
          -3.4094109535 -0.28461059928 -1.0079009533 -3.622396946 -0.50692749023 -0.91552698612
          -3.3740890026 -0.51318377256 -0.76919901371 -3.3226380348 -0.42967289686 -1.0436520576
          0.38312900066 0.045982599258 -0.55516397953 0.40944099426 0.2642891109 -0.64370203018
          0.62536001205 0.067611642182 -0.78804123402 0.60305899382 0.11440300196 -0.49014899135
          0.38312900066 0.045982599258 -0.55516397953 0.36555799842 0.082396402955 -0.88094812632
          0.62536001205 0.067611642182 -0.78804123402 0.40944099426 0.2642891109 -0.64370203018
          0.38312900066 0.045982599258 -0.55516397953 0.16142000258 0.02375430055 -0.62841498852
          0.36555799842 0.082396402955 -0.88094812632 0.40944099426 0.2642891109 -0.64370203018
          0.40944099426 0.2642891109 -0.64370203018 0.38312900066 0.045982599258 -0.55516397953
          0.16142000258 0.02375430055 -0.62841498852 0.18104350567 0.33106470108 -0.62392002344
          0.40944099426 0.2642891109 -0.64370203018 0.13325339556 0.2185369879 -0.41051501036
          0.38312900066 0.045982599258 -0.55516397953 0.18104350567 0.33106470108 -0.62392002344
          0.38312900066 0.045982599258 -0.55516397953 0.13325339556 0.2185369879 -0.41051501036
          0.16142000258 0.02375430055 -0.62841498852 0.18104350567 0.33106470108 -0.62392002344
          0.38312900066 0.045982599258 -0.55516397953 0.13325339556 0.2185369879 -0.41051501036
          0.20369489491 0.076197303832 -0.38421198726 0.16142000258 0.02375430055 -0.62841498852
          -2.2290380001 -0.01067822054 -0.56298202276 -1.9904079437 0.054340101779 -0.69911700487
          -2.2431271076 0.16042180359 -0.71514201164 -2.3013501167 -0.0029451001901 -0.87519747019
          -2.2290380001 -0.01067822054 -0.56298202276 -1.9904079437 0.054340101779 -0.69911700487
          -2.3013501167 -0.0029451001901 -0.87519747019 -2.0607159138 -0.073489099741 -0.92311251163
          -2.2290380001 -0.01067822054 -0.56298202276 -2.0342888832 0.096592001617 -0.42942199111
          -2.2431271076 0.16042180359 -0.71514201164 -1.9904079437 0.054340101779 -0.69911700487
          -2.2431271076 0.16042180359 -0.71514201164 -2.1832900047 0.29363209009 -0.3768529892
          -2.0342888832 0.096592001617 -0.42942199111 -2.2290380001 -0.01067822054 -0.56298202276
          4.1762018204 0.27362239361 1.2485419512 3.9769608974 0.41242301464 1.2358649969
          4.2172560692 0.35686299205 1.4943759441 4.0141201019 0.24855940044 1.621557951
          3.9769608974 0.41242301464 1.2358649969 4.1762018204 0.27362239361 1.2485419512
          4.2172560692 0.35686299205 1.4943759441 4.2114582062 0.52715998888 1.3034000397
          3.9769608974 0.41242301464 1.2358649969 4.2805190086 0.40835601091 1.0383700132
          4.1762018204 0.27362239361 1.2485419512 4.2114582062 0.52715998888 1.3034000397
          4.2805190086 0.40835601091 1.0383700132 4.2114582062 0.52715998888 1.3034000397
          4.432926178 0.52034902573 1.1526700258 4.1762018204 0.27362239361 1.2485419512
          4.2805190086 0.40835601091 1.0383700132 4.1762018204 0.27362239361 1.2485419512
          4.432926178 0.52034902573 1.1526700258 4.3814492226 0.23643480241 1.0975799561
          4.2805190086 0.40835601091 1.0383700132 4.1762018204 0.27362239361 1.2485419512
          4.3814492226 0.23643480241 1.0975799561 4.1854190826 0.098016999662 0.94669002295
          -0.86909997463 0.24614109099 -1.6085100174 -0.74778497219 0.49031057954 -1.546538949
          -0.83093398809 0.49481633306 -1.3887859583 -1.0532729626 0.32143890858 -1.6126300097
          4.3814492226 0.23643480241 1.0975799561 4.1762018204 0.27362239361 1.2485419512
          4.432926178 0.52034902573 1.1526700258 4.4385910034 0.24091610312 1.4270139933
          4.1762018204 0.27362239361 1.2485419512 4.2114582062 0.52715998888 1.3034000397
          4.432926178 0.52034902573 1.1526700258 4.4385910034 0.24091610312 1.4270139933
          4.1762018204 0.27362239361 1.2485419512 4.2172560692 0.35686299205 1.4943759441
          4.2114582062 0.52715998888 1.3034000397 4.4385910034 0.24091610312 1.4270139933
          -0.83093398809 0.49481633306 -1.3887859583 -0.72984099388 0.28546023369 -1.3866969347
          -1.0088479519 0.19115871191 -1.3418680429 -1.0256249905 0.49155002832 -1.3329880238
          -5 -0.16616299748 -0.067754097283 -5 -0.33370301127 -0.29875099659
          -4.7962985039 -0.27623388171 -0.034645497799 -4.8024878502 -0.29730415344 -0.34576281905
          -5 -0.16616299748 -0.067754097283 -4.8024878502 -0.29730415344 -0.34576281905
          -4.7962985039 -0.27623388171 -0.034645497799 -4.6802415848 -0.16959774494 -0.21772760153
          -4.6802415848 -0.16959774494 -0.21772760153 -4.7995986938 0.015869349241 -0.30273678899
          -5 -0.16616299748 -0.067754097283 -4.8024878502 -0.29730415344 -0.34576281905
          -4.7962985039 -0.27623388171 -0.034645497799 -4.8024878502 -0.29730415344 -0.34576281905
          -4.7666764259 -0.51139259338 -0.25473800302 -4.6802415848 -0.16959774494 -0.21772760153
          -4.7962985039 -0.27623388171 -0.034645497799 -4.8024878502 -0.29730415344 -0.34576281905
          -4.9766492844 -0.50082987547 -0.16668698192 -4.7666764259 -0.51139259338 -0.25473800302
          -4.7962985039 -0.27623388171 -0.034645497799 -5 -0.33370301127 -0.29875099659
          -4.9766492844 -0.50082987547 -0.16668698192 -4.8024878502 -0.29730415344 -0.34576281905
          -4.8024878502 -0.29730415344 -0.34576281905 -5 -0.33370301127 -0.29875099659
          -4.9766492844 -0.50082987547 -0.16668698192 -4.7666764259 -0.51139259338 -0.25473800302
          -5 -0.13075700402 -0.36378800869 -5.0139594078 -0.40017938614 -0.50585860014
          -5 -0.33370301127 -0.29875099659 -4.8024878502 -0.29730415344 -0.34576281905
          -5 -0.13075700402 -0.36378800869 -5.0139594078 -0.40017938614 -0.50585860014
          -4.8024878502 -0.29730415344 -0.34576281905 -4.8524708748 -0.16640077531 -0.5321289897
          -4.8524708748 -0.16640077531 -0.5321289897 -5.0139594078 -0.40017938614 -0.50585860014
          -4.8024878502 -0.29730415344 -0.34576281905 -4.6932406425 -0.33437889814 -0.55821180344
          -4.8024878502 -0.29730415344 -0.34576281905 -5.0139594078 -0.40017938614 -0.50585860014
          -4.807472229 -0.51456427574 -0.41758289933 -4.6932406425 -0.33437889814 -0.55821180344
          -4.8024878502 -0.29730415344 -0.34576281905 -4.6932406425 -0.33437889814 -0.55821180344
          -4.807472229 -0.51456427574 -0.41758289933 -4.6099963188 -0.51237237453 -0.2558003962
          -4.8024878502 -0.29730415344 -0.34576281905 -4.6932406425 -0.33437889814 -0.55821180344
          -4.6099963188 -0.51237237453 -0.2558003962 -4.4922027588 -0.20494790375 -0.36291068792
          -5 -0.33370301127 -0.29875099659 -5.0139594078 -0.40017938614 -0.50585860014
          -4.807472229 -0.51456427574 -0.41758289933 -4.8024878502 -0.29730415344 -0.34576281905
          2.0367250443 -0.15883000195 0.10807870328 2.1427390575 -0.046670995653 -0.085950896144
          2.2638959885 -0.015994004905 0.14143829048 2.0466160774 0.12520329654 0.090647503734
          -2.1506009102 0.25718417764 -1.2337720394 -2.3633306026 -0.018299350515 -1.2072839737
          -2.2146024704 0.15617579222 -1.4417170286 -2.4277570248 0.29319447279 -1.3836899996
          -2.1506009102 0.25718417764 -1.2337720394 -2.4950749874 0.26449760795 -1.1571450233
          -2.3633306026 -0.018299350515 -1.2072839737 -2.4277570248 0.29319447279 -1.3836899996
          -2.1506009102 0.25718417764 -1.2337720394 -2.3186562061 0.14272490144 -1.0617469549
          -2.3633306026 -0.018299350515 -1.2072839737 -2.4950749874 0.26449760795 -1.1571450233
          -2.3186562061 0.14272490144 -1.0617469549 -2.1130719185 -0.047264300287 -1.1963629723
          -2.1506009102 0.25718417764 -1.2337720394 -2.3633306026 -0.018299350515 -1.2072839737
          -2.3186562061 0.14272490144 -1.0617469549 -2.3633306026 -0.018299350515 -1.2072839737
          -2.4950749874 0.26449760795 -1.1571450233 -2.6722416878 0.17765410244 -0.99963802099
          -2.3186562061 0.14272490144 -1.0617469549 -2.6269614697 -0.066813401878 -1.0421299934
          -2.3633306026 -0.018299350515 -1.2072839737 -2.6722416878 0.17765410244 -0.99963802099
          -2.3633306026 -0.018299350515 -1.2072839737 -2.6269614697 -0.066813401878 -1.0421299934
          -2.4950749874 0.26449760795 -1.1571450233 -2.6722416878 0.17765410244 -0.99963802099
          -2.3633306026 -0.018299350515 -1.2072839737 -2.6269614697 -0.066813401878 -1.0421299934
          -2.5362904072 0.058985300362 -1.3469660282 -2.4950749874 0.26449760795 -1.1571450233
          -2.3633306026 -0.018299350515 -1.2072839737 -2.4950749874 0.26449760795 -1.1571450233
          -2.5362904072 0.058985300362 -1.3469660282 -2.4277570248 0.29319447279 -1.3836899996
          -2.2146024704 0.15617579222 -1.4417170286 -2.3633306026 -0.018299350515 -1.2072839737
          -2.5362904072 0.058985300362 -1.3469660282 -2.4277570248 0.29319447279 -1.3836899996
          -2.3633306026 -0.018299350515 -1.2072839737 -2.5362904072 0.058985300362 -1.3469660282
          -2.2719159126 -0.063200898468 -1.4239000082 -2.2146024704 0.15617579222 -1.4417170286
          -0.59481602907 0.50138133764 -1.4068089724 -0.41940999031 0.51631212234 -1.1652537584
          -0.44964700937 0.30215507746 -1.3843599558 -0.71466398239 0.50439506769 -1.2475240231
          4.2373199463 -0.093296997249 1.6291577816 4.0705580711 0.054460007697 1.7552939653
          4.3348088264 0.0020780034829 2.0050890446 4.1488780975 -0.13552299142 1.9172199965
          1.1920820475 0.066462799907 -0.092215999961 1.369579196 0.12671080232 0.095050007105
          1.4943079948 -0.043684996665 -0.058169994503 1.220471859 -0.14656609297 0.24174399674
          -2.2719159126 -0.063200898468 -1.4239000082 -2.4806556702 -0.1127384007 -1.363214016
          -2.5362904072 0.058985300362 -1.3469660282 -2.3633306026 -0.018299350515 -1.2072839737
          -2.2719159126 -0.063200898468 -1.4239000082 -2.3369340897 -0.31915336847 -1.4069160223
          -2.4806556702 -0.1127384007 -1.363214016 -2.2354676723 -0.21959285438 -1.2453320026
          4.1866950989 -0.16452099383 0.93571001291 4.4213061333 -0.052222006023 1.1044199467
          4.2537708282 -0.29642701149 1.1315799952 4.3275651932 -0.10407299548 1.3448059559
          4.2537708282 -0.29642701149 1.1315799952 4.3275651932 -0.10407299548 1.3448059559
          4.4422369003 -0.2959190011 1.2816729546 4.2629752159 -0.29529801011 1.4773910046
          4.0616660118 -0.29908099771 1.2974100113 4.3275651932 -0.10407299548 1.3448059559
          4.2537708282 -0.29642701149 1.1315799952 4.2629752159 -0.29529801011 1.4773910046
          -4.0016899109 0.29823037982 0.14048601687 -3.91289711 0.46681961417 0.26801300049
          -4.162466526 0.47085979581 0.13769200444 -3.9705395699 0.47333359718 0.0037210055161
          -3.2624089718 0.0626033023 -1.0726950169 -3.275526762 0.18115669489 -0.7455739975
          -3.2104935646 -0.0044391001575 -0.70767199993 -3.4256296158 -0.04080190137 -0.73200601339
          5.0139088631 0.39100199938 2.2078499794 5.1783838272 0.53621798754 2.2175490856
          5.199947834 0.37635299563 2.0466771126 5.3432278633 0.22682979703 2.2597339153
          -2.0596408844 0.23887120187 -0.93493187428 -2.3013501167 -0.0029451001901 -0.87519747019
          -2.3114500046 0.28709989786 -0.8894675374 -2.2431271076 0.16042180359 -0.71514201164
          -2.0596408844 0.23887120187 -0.93493187428 -2.2431271076 0.16042180359 -0.71514201164
          -2.3114500046 0.28709989786 -0.8894675374 -2.0370030403 0.2986676991 -0.69848400354
          -2.0596408844 0.23887120187 -0.93493187428 -2.3114500046 0.28709989786 -0.8894675374
          -2.1977200508 0.47695589066 -0.94357067347 -2.0370030403 0.2986676991 -0.69848400354
          -2.0370030403 0.2986676991 -0.69848400354 -2.3374700546 0.48206248879 -0.62753897905
          -2.3114500046 0.28709989786 -0.8894675374 -2.1977200508 0.47695589066 -0.94357067347
          -2.0370030403 0.2986676991 -0.69848400354 -2.3374700546 0.48206248879 -0.62753897905
          -2.2431271076 0.16042180359 -0.71514201164 -2.3114500046 0.28709989786 -0.8894675374
          -2.3114500046 0.28709989786 -0.8894675374 -2.5196659565 0.24592778087 -0.72205346823
          -2.3374700546 0.48206248879 -0.62753897905 -2.2431271076 0.16042180359 -0.71514201164
          -3.4282062054 0.14235441387 -0.57428902388 -3.4256296158 -0.04080190137 -0.73200601339
          -3.2953541279 -0.00062000047183 -0.49288973212 -3.2104935646 -0.0044391001575 -0.70767199993
          2.6742250919 -0.012311006896 0.2936809957 2.4130580425 -0.0050789942034 0.39745768905
          2.5706369877 -0.14441801608 0.49783235788 2.457036972 -0.14717501402 0.22073699534
          2.2750039101 0.14374065399 0.29926979542 2.4627220631 0.06453820318 0.024974999949
          2.4130580425 -0.0050789942034 0.39745768905 2.547467947 0.16419440508 0.46359831095
          -0.061303000897 0.37349951267 -1.1732430458 0.21853539348 0.33637189865 -0.98886328936
          -0.07988999784 0.53172880411 -1.0493973494 0.12977400422 0.53239011765 -1.1151189804
          -1.1120990515 0.48050779104 -1.6057850122 -1.201603055 0.29143372178 -1.4187309742
          -1.0532729626 0.32143890858 -1.6126300097 -1.206567049 0.2027631104 -1.6014900208
          -1.201603055 0.29143372178 -1.4187309742 -1.2948549986 0.4837462008 -1.4094699621
          -1.3278859854 0.48927980661 -1.2198700905 -1.3583359718 0.17316421866 -1.3048620224
          0.12977400422 0.53239011765 -1.1151189804 -0.061303000897 0.37349951267 -1.1732430458
          0.015014999546 0.52284687757 -1.2964439392 -0.07988999784 0.53172880411 -1.0493973494
          0.081534996629 0.22075429559 -1.1755410433 0.21853539348 0.33637189865 -0.98886328936
          -0.061303000897 0.37349951267 -1.1732430458 0.12977400422 0.53239011765 -1.1151189804
          -1.1518950462 -0.061164274812 -0.8551800251 -1.1468379498 -0.10479596257 -1.0598422289
          -0.9426779747 -0.20086880028 -0.89714598656 -0.96815401316 0.02664539963 -0.92440497875
          -1.2363820076 0.13768835366 -0.99496001005 -1.1318500042 0.052193719894 -1.1925956011
          -1.3511379957 -0.033111680299 -1.0856614113 -1.1468379498 -0.10479596257 -1.0598422289
          -1.2363820076 0.13768835366 -0.99496001005 -1.1468379498 -0.10479596257 -1.0598422289
          -1.1518950462 -0.061164274812 -0.8551800251 -0.96815401316 0.02664539963 -0.92440497875
          -1.1518950462 -0.061164274812 -0.8551800251 -1.1468379498 -0.10479596257 -1.0598422289
          -1.1560570002 -0.29963886738 -0.85426801443 -0.9426779747 -0.20086880028 -0.89714598656
          2.666932106 -0.11324400455 1.3288810253 2.6176869869 -0.096157990396 0.89440202713
          2.9196689129 -0.13256700337 1.2476739883 2.9346859455 -0.010064994916 1.0378210545
          2.7306396961 -0.34143799543 1.3402420282 2.7898700237 -0.33725899458 1.0498950481
          2.9196689129 -0.13256700337 1.2476739883 2.666932106 -0.11324400455 1.3288810253
          2.9693405628 -0.31538802385 1.5350999832 2.7306396961 -0.34143799543 1.3402420282
          2.9196689129 -0.13256700337 1.2476739883 2.9097163677 -0.086468994617 1.5041099787
          -1.5769430399 -0.27982699871 -1.0531499386 -1.8587261438 -0.19973695278 -1.1918489933
          -1.7501699924 -0.19925332069 -0.86327397823 -1.9235659838 -0.32769143581 -0.93234062195
          -1.5769430399 -0.27982699871 -1.0531499386 -1.8587261438 -0.19973695278 -1.1918489933
          -1.9235659838 -0.32769143581 -0.93234062195 -1.7530180216 -0.49406966567 -1.0832090378
          -1.9235659838 -0.32769143581 -0.93234062195 -1.8356319666 0.0078969011083 -1.0082437992
          -2.0607159138 -0.073489099741 -0.92311251163 -1.8587261438 -0.19973695278 -1.1918489933
          -1.8587261438 -0.19973695278 -1.1918489933 -2.0607159138 -0.073489099741 -0.92311251163
          -1.9235659838 -0.32769143581 -0.93234062195 -2.1019701958 -0.27823245525 -1.0662670135
          1.3935819864 0.57705062628 -0.88371801376 1.446663022 0.5864855051 -0.62758201361
          1.653785944 0.59295141697 -0.72733402252 1.6266590357 0.45401710272 -0.88460201025
          1.5066930056 0.24949200451 -0.69261598587 1.446663022 0.5864855051 -0.62758201361
          1.6266590357 0.45401710272 -0.88460201025 1.653785944 0.59295141697 -0.72733402252
          -1.8400460482 -0.50811260939 -0.77786999941 -1.9959019423 -0.25378808379 -0.72344702482
          -2.0830700397 -0.51125961542 -0.71200299263 -1.9235659838 -0.32769143581 -0.93234062195
          -1.8400460482 -0.50811260939 -0.77786999941 -1.9235659838 -0.32769143581 -0.93234062195
          -2.0830700397 -0.51125961542 -0.71200299263 -1.9633500576 -0.49727156758 -1.0658731461
          0.76676100492 -0.1134057045 -0.50795000792 0.61227500439 -0.20498250425 -0.7539935708
          0.88520997763 -0.23278620839 -0.74979001284 0.84206402302 0.052923899144 -0.65382301807
          -3.5090770721 0.16754239798 -0.19926699996 -3.4188709259 -0.052383501083 -0.084667012095
          -3.3653941154 0.12199870497 0.10548699647 -3.2438099384 0.03149420023 -0.20086398721
          -4.1121020317 0.25860318542 0.34374800324 -4.1473436356 -0.025500500575 0.13780200481
          -4.3490223885 0.21022440493 0.13521999121 -4.1633501053 -0.0074493000284 0.35350400209
          2.1746091843 0.4260700047 1.0060030222 2.0595760345 0.26341798902 0.90939098597
          2.1254868507 0.43120700121 0.6656140089 1.8670481443 0.33276200294 0.76933300495
          -4.1473436356 -0.025500500575 0.13780200481 -4.4574508667 0.019598178566 0.2031301856
          -4.3490223885 0.21022440493 0.13521999121 -4.1633501053 -0.0074493000284 0.35350400209
          2.1254868507 0.43120700121 0.6656140089 2.0595760345 0.26341798902 0.90939098597
          2.0687611103 0.17121970654 0.57191699743 1.8670481443 0.33276200294 0.76933300495
          2.0595760345 0.26341798902 0.90939098597 2.0536108017 0.066548496485 0.89124602079
          2.0687611103 0.17121970654 0.57191699743 1.8670481443 0.33276200294 0.76933300495
          2.2918043137 0.21171090007 1.0770230293 2.3112504482 0.13608121872 0.81553798914
          2.387912035 0.31022301316 0.66756099463 2.1746091843 0.4260700047 1.0060030222
          2.5839250088 0.25846800208 0.93122702837 2.387912035 0.31022301316 0.66756099463
          2.2918043137 0.21171090007 1.0770230293 2.3112504482 0.13608121872 0.81553798914
          2.3112504482 0.13608121872 0.81553798914 2.1027405262 -0.096268005669 0.91622400284
          2.3737831116 -0.031773991883 0.64508098364 2.0536108017 0.066548496485 0.89124602079
          2.355743885 -0.0222629942 1.108060956 2.1027405262 -0.096268005669 0.91622400284
          2.3112504482 0.13608121872 0.81553798914 2.0536108017 0.066548496485 0.89124602079
          3.220927 0.38111701608 1.2094409466 3.1057059765 0.21902000904 1.2990050316
          3.2844669819 0.18207931519 1.0159295797 2.8959798813 0.32024499774 1.0456169844
          3.9373788834 0.45778700709 1.9478909969 3.5512509346 0.3587679863 1.954660058
          3.5524427891 0.59926497936 1.9792000055 3.9451920986 0.36131098866 2.1700799465
          3.9373788834 0.45778700709 1.9478909969 3.5512509346 0.3587679863 1.954660058
          3.9451920986 0.36131098866 2.1700799465 3.7400364876 0.21424710751 2.056910038
          4.0440011024 0.18789739907 1.9961689711 3.9373788834 0.45778700709 1.9478909969
          3.9451920986 0.36131098866 2.1700799465 3.7400364876 0.21424710751 2.056910038
          3.9373788834 0.45778700709 1.9478909969 3.7400364876 0.21424710751 2.056910038
          4.0440011024 0.18789739907 1.9961689711 3.804297924 0.13001829386 1.8220219612
          3.8146090508 0.38017898798 1.7155710459 3.9373788834 0.45778700709 1.9478909969
          4.0440011024 0.18789739907 1.9961689711 3.804297924 0.13001829386 1.8220219612
          3.8146090508 0.38017898798 1.7155710459 3.7400364876 0.21424710751 2.056910038
          3.9373788834 0.45778700709 1.9478909969 3.804297924 0.13001829386 1.8220219612
          3.8146090508 0.38017898798 1.7155710459 3.5512509346 0.3587679863 1.954660058
          3.9373788834 0.45778700709 1.9478909969 3.7400364876 0.21424710751 2.056910038
          -0.20871029794 0.16622160375 -0.5290799737 -0.027907999232 0.12770339847 -0.67658001184
          -0.04825539887 0.29193970561 -0.48039200902 -0.032131001353 0.33743911982 -0.72442996502
          -0.20871029794 0.16622160375 -0.5290799737 -0.19524599612 0.051735099405 -0.78870302439
          -0.027907999232 0.12770339847 -0.67658001184 -0.24963200092 0.28975039721 -0.72652798891
          -1.0050040483 -0.23432028294 -1.1520009041 -1.2170039415 -0.47567608953 -1.2552779913
          -1.225301981 -0.29465007782 -1.0979983807 -1.0146249533 -0.47085028887 -1.2508219481
          -1.225301981 -0.29465007782 -1.0979983807 -1.2170039415 -0.47567608953 -1.2552779913
          -1.0521889925 -0.48985919356 -0.94649702311 -1.0146249533 -0.47085028887 -1.2508219481
          -1.225301981 -0.29465007782 -1.0979983807 -1.3335059881 -0.48872581124 -1.1038045883
          -1.0521889925 -0.48985919356 -0.94649702311 -1.2170039415 -0.47567608953 -1.2552779913
          -2.8428041935 -0.50505828857 -1.0089069605 -2.82984519 -0.19690430164 -0.8898460269
          -2.92583251 -0.50748687983 -0.81637299061 -3.0438988209 -0.31679549813 -0.92314600945
          -3.0438988209 -0.31679549813 -0.92314600945 -3.0530843735 -0.50840169191 -1.0475519896
          -2.92583251 -0.50748687983 -0.81637299061 -2.8428041935 -0.50505828857 -1.0089069605
          1.8173689842 -0.37339198589 -0.084958538413 1.6162129641 -0.37938898802 -0.35376280546
          1.872320056 -0.36590901017 -0.38697499037 1.9658960104 -0.19827999175 -0.2762555182
          1.9658960104 -0.19827999175 -0.2762555182 1.8071659803 -0.10879799724 -0.12797890604
          1.9952529669 -0.028272999451 -0.39336639643 2.1427390575 -0.046670995653 -0.085950896144
          -3.4282062054 0.14235441387 -0.57428902388 -3.6431386471 0.012811898254 -0.67573601007
          -3.5465004444 -0.0025727003813 -0.37637498975 -3.4256296158 -0.04080190137 -0.73200601339
          -3.4256296158 -0.04080190137 -0.73200601339 -3.5222220421 0.2613735199 -0.7316250205
          -3.4282062054 0.14235441387 -0.57428902388 -3.6431386471 0.012811898254 -0.67573601007
          -3.5222220421 0.2613735199 -0.7316250205 -3.4282062054 0.14235441387 -0.57428902388
          -3.275526762 0.18115669489 -0.7455739975 -3.4256296158 -0.04080190137 -0.73200601339
          -3.6143445969 0.47693321109 -0.66685003042 -3.517005682 0.27712589502 -0.40882021189
          -3.6499538422 0.47699010372 -0.48393499851 -3.4917843342 0.47428500652 -0.40278941393
          1.9658960104 -0.19827999175 -0.2762555182 1.6162129641 -0.37938898802 -0.35376280546
          1.872320056 -0.36590901017 -0.38697499037 1.8301340342 -0.19138199091 -0.51286798716
          -3.5222220421 0.2613735199 -0.7316250205 -3.2987422943 0.26889032125 -0.46421080828
          -3.275526762 0.18115669489 -0.7455739975 -3.4282062054 0.14235441387 -0.57428902388
          -2.6776423454 0.47449350357 -0.75034171343 -2.9246742725 0.47127839923 -0.80925703049
          -2.7856142521 0.29197818041 -0.82188498974 -2.6201217175 0.47078740597 -0.97456198931
          -2.7856142521 0.29197818041 -0.82188498974 -2.9246742725 0.47127839923 -0.80925703049
          -2.9227018356 0.26947918534 -0.61335587502 -3.0947728157 0.28662750125 -0.90678101778
          -2.0235655308 -0.33051469922 -1.2762329578 -2.2753708363 -0.4886584878 -1.4040980339
          -2.3369340897 -0.31915336847 -1.4069160223 -2.1722934246 -0.49265837669 -1.1914629936
          -2.0235655308 -0.33051469922 -1.2762329578 -2.2753708363 -0.4886584878 -1.4040980339
          -2.1722934246 -0.49265837669 -1.1914629936 -1.925401926 -0.48173299432 -1.4075479507
          -2.1257388592 -0.27721267939 -1.4604820013 -2.2753708363 -0.4886584878 -1.4040980339
          -2.0235655308 -0.33051469922 -1.2762329578 -1.925401926 -0.48173299432 -1.4075479507
          -2.0235655308 -0.33051469922 -1.2762329578 -2.1257388592 -0.27721267939 -1.4604820013
          -1.925401926 -0.48173299432 -1.4075479507 -1.8249877691 -0.34991788864 -1.5306500196
          0.85404402018 -0.22467930615 -0.32312399149 0.51021200418 -0.21610671282 -0.49635899067
          0.76676100492 -0.1134057045 -0.50795000792 0.5607355237 -0.26477059722 -0.21746100485
          -2.1257388592 -0.27721267939 -1.4604820013 -2.2753708363 -0.4886584878 -1.4040980339
          -2.3369340897 -0.31915336847 -1.4069160223 -2.0235655308 -0.33051469922 -1.2762329578
          -2.1019701958 -0.27823245525 -1.0662670135 -2.0235655308 -0.33051469922 -1.2762329578
          -2.1722934246 -0.49265837669 -1.1914629936 -1.9633500576 -0.49727156758 -1.0658731461
          -2.1019701958 -0.27823245525 -1.0662670135 -1.8587261438 -0.19973695278 -1.1918489933
          -2.0235655308 -0.33051469922 -1.2762329578 -1.9633500576 -0.49727156758 -1.0658731461
          -2.1130719185 -0.047264300287 -1.1963629723 -2.0235655308 -0.33051469922 -1.2762329578
          -2.1019701958 -0.27823245525 -1.0662670135 -1.8587261438 -0.19973695278 -1.1918489933
          -1.8587261438 -0.19973695278 -1.1918489933 -1.9633500576 -0.49727156758 -1.0658731461
          -1.7530180216 -0.49406966567 -1.0832090378 -2.0235655308 -0.33051469922 -1.2762329578
          3.1057059765 0.21902000904 1.2990050316 2.8278307915 0.37164700031 1.4777669907
          2.78916049 0.10995809734 1.4312570095 2.7450699806 0.13935770094 1.1011400223
          2.78916049 0.10995809734 1.4312570095 2.9346859455 -0.010064994916 1.0378210545
          3.1057059765 0.21902000904 1.2990050316 2.7450699806 0.13935770094 1.1011400223
          2.78916049 0.10995809734 1.4312570095 2.666932106 -0.11324400455 1.3288810253
          2.7450699806 0.13935770094 1.1011400223 2.5438802242 0.032495997846 1.2491639853
          2.666932106 -0.11324400455 1.3288810253 2.6176869869 -0.096157990396 0.89440202713
          2.7450699806 0.13935770094 1.1011400223 2.5438802242 0.032495997846 1.2491639853
          2.666932106 -0.11324400455 1.3288810253 2.6176869869 -0.096157990396 0.89440202713
          2.9346859455 -0.010064994916 1.0378210545 2.7450699806 0.13935770094 1.1011400223
          2.7450699806 0.13935770094 1.1011400223 2.9346859455 -0.010064994916 1.0378210545
          2.7515289783 0.13377730548 0.70048117638 2.6176869869 -0.096157990396 0.89440202713
          2.7450699806 0.13935770094 1.1011400223 2.7515289783 0.13377730548 0.70048117638
          2.9346859455 -0.010064994916 1.0378210545 3.0274419785 0.16455459595 0.84069955349
          2.5438802242 0.032495997846 1.2491639853 2.355743885 -0.0222629942 1.108060956
          2.6176869869 -0.096157990396 0.89440202713 2.7450699806 0.13935770094 1.1011400223
          5.3548870087 -0.21426801383 2.2027084827 5.2030038834 -0.095155008137 2.0543687344
          5.0791130066 -0.098838992417 2.3361620903 5.0993762016 -0.30616301298 2.320991993
          1.2254769802 0.51881307364 -1.0980240107 1.1649719477 0.37054440379 -0.89170503616
          1.3943749666 0.35700458288 -1.0173640251 1.0951930285 0.35682529211 -1.1645820141
          1.2254769802 0.51881307364 -1.0980240107 1.3935819864 0.57705062628 -0.88371801376
          1.3943749666 0.35700458288 -1.0173640251 1.1649719477 0.37054440379 -0.89170503616
          1.3935819864 0.57705062628 -0.88371801376 1.2616900206 0.31878641248 -0.65477597713
          1.3943749666 0.35700458288 -1.0173640251 1.1649719477 0.37054440379 -0.89170503616
          1.3935819864 0.57705062628 -0.88371801376 1.446663022 0.5864855051 -0.62758201361
          1.2616900206 0.31878641248 -0.65477597713 1.1649719477 0.37054440379 -0.89170503616
          1.2616900206 0.31878641248 -0.65477597713 0.98193901777 0.39114138484 -0.63054037094
          0.93579101562 0.2607139945 -0.85697698593 1.1649719477 0.37054440379 -0.89170503616
          -0.95317101479 -0.27932810783 -1.4066259861 -1.1043089628 -0.46415549517 -1.4246920347
          -0.79623502493 -0.46506458521 -1.2561719418 -0.95123302937 -0.4521523118 -1.5646049976
          -0.95317101479 -0.27932810783 -1.4066259861 -0.95123302937 -0.4521523118 -1.5646049976
          -0.79623502493 -0.46506458521 -1.2561719418 -0.63469898701 -0.45314198732 -1.3848659992
          -0.95317101479 -0.27932810783 -1.4066259861 -1.1043089628 -0.46415549517 -1.4246920347
          -1.0146249533 -0.47085028887 -1.2508219481 -0.79623502493 -0.46506458521 -1.2561719418
          -0.95317101479 -0.27932810783 -1.4066259861 -1.0146249533 -0.47085028887 -1.2508219481
          -1.0050040483 -0.23432028294 -1.1520009041 -0.79623502493 -0.46506458521 -1.2561719418
          -4.3315758705 -0.16536140442 0.15697599947 -4.4754362106 -0.32264238596 0.12133580446
          -4.4366278648 -0.28509175777 -0.13918270171 -4.5573143959 -0.13582371175 -0.061340749264
          2.457036972 -0.14717501402 0.22073699534 2.5706369877 -0.14441801608 0.49783235788
          2.5268170834 -0.3430339992 0.35616520047 2.2042989731 -0.13768899441 0.32803380489
          2.5268170834 -0.3430339992 0.35616520047 2.204267025 -0.35545799136 0.084110699594
          2.457036972 -0.14717501402 0.22073699534 2.2042989731 -0.13768899441 0.32803380489
          2.5268170834 -0.3430339992 0.35616520047 2.204267025 -0.35545799136 0.084110699594
          2.4716699123 -0.34356799722 0.095425002277 2.457036972 -0.14717501402 0.22073699534
          -0.53049099445 -0.25941371918 -1.4260540009 -0.63469898701 -0.45314198732 -1.3848659992
          -0.56551098824 -0.25506937504 -1.2119810581 -0.57344698906 -0.46036499739 -1.2049913406
          2.457036972 -0.14717501402 0.22073699534 2.4716699123 -0.34356799722 0.095425002277
          2.7300450802 -0.33142000437 0.036656998098 2.4003479481 -0.15540499985 -0.052411012352
          -0.72162300348 -0.47146120667 -1.0738427639 -0.42743900418 -0.29611000419 -1.0441720486
          -0.56551098824 -0.25506937504 -1.2119810581 -0.57344698906 -0.46036499739 -1.2049913406
          2.4003479481 -0.15540499985 -0.052411012352 2.4627220631 0.06453820318 0.024974999949
          2.7524430752 -0.1180730015 -0.14809599519 2.457036972 -0.14717501402 0.22073699534
          2.1027405262 -0.096268005669 0.91622400284 2.1764740944 -0.18138699234 0.65020596981
          2.3737831116 -0.031773991883 0.64508098364 2.0536108017 0.066548496485 0.89124602079
          2.1027405262 -0.096268005669 0.91622400284 1.9269193411 -0.091003999114 0.78541302681
          2.1764740944 -0.18138699234 0.65020596981 2.0536108017 0.066548496485 0.89124602079
          2.204267025 -0.35545799136 0.084110699594 2.4003479481 -0.15540499985 -0.052411012352
          2.4716699123 -0.34356799722 0.095425002277 2.457036972 -0.14717501402 0.22073699534
          -0.50069600344 -0.11491009593 -1.5895299911 -0.47055399418 0.047336298972 -1.5825300217
          -0.304708004 -0.090819396079 -1.572059989 -0.55726397038 -0.032617900521 -1.40318501
          -4.7995986938 0.015869349241 -0.30273678899 -4.7940740585 0.30425521731 -0.31099230051
          -5 0.1004910022 -0.10199099779 -5 0.09418129921 -0.34129801393
          -4.7940740585 0.30425521731 -0.31099230051 -5 0.30918601155 -0.271468997
          -5 0.1004910022 -0.10199099779 -5 0.09418129921 -0.34129801393
          -4.7940740585 0.30425521731 -0.31099230051 -5.0195040703 0.27393174171 -0.50611239672
          -5 0.30918601155 -0.271468997 -5 0.09418129921 -0.34129801393
          -4.7940740585 0.30425521731 -0.31099230051 -5.0195040703 0.27393174171 -0.50611239672
          -4.9230599403 0.50244057178 -0.30132201314 -5 0.30918601155 -0.271468997
          -4.7940740585 0.30425521731 -0.31099230051 -4.9230599403 0.50244057178 -0.30132201314
          -4.9290013313 0.49626871943 -0.082679122686 -5 0.30918601155 -0.271468997
          -4.7578816414 0.28667363524 -0.042721800506 -4.7940740585 0.30425521731 -0.31099230051
          -4.9290013313 0.49626871943 -0.082679122686 -5 0.30918601155 -0.271468997
          -4.7940740585 0.30425521731 -0.31099230051 -4.7578816414 0.28667363524 -0.042721800506
          -5 0.1004910022 -0.10199099779 -5 0.30918601155 -0.271468997
          -4.9114747047 0.4768896997 -0.51952660084 -5.0195040703 0.27393174171 -0.50611239672
          -4.9230599403 0.50244057178 -0.30132201314 -4.7940740585 0.30425521731 -0.31099230051
          -4.7088990211 0.50314342976 -0.47985681891 -4.9114747047 0.4768896997 -0.51952660084
          -4.9230599403 0.50244057178 -0.30132201314 -4.7940740585 0.30425521731 -0.31099230051
          0.34664174914 0.52966880798 -1.3116159439 0.046897001565 0.32769879699 -1.3547029495
          0.015014999546 0.52284687757 -1.2964439392 0.30814930797 0.31706541777 -1.2523280382
          -2.6534280777 0.29591062665 -0.18428100646 -2.9054839611 0.47552779317 -0.32576698065
          -2.8824410439 0.47557380795 -0.10396198928 -2.825469017 0.27062919736 -0.34245297313
          -2.6534280777 0.29591062665 -0.18428100646 -2.825469017 0.27062919736 -0.34245297313
          -2.8824410439 0.47557380795 -0.10396198928 -2.9465370178 0.2871569097 -0.061487998813
          -2.825469017 0.27062919736 -0.34245297313 -2.9054839611 0.47552779317 -0.32576698065
          -2.8824410439 0.47557380795 -0.10396198928 -2.9465370178 0.2871569097 -0.061487998813
          2.7898700237 -0.33725899458 1.0498950481 2.9346859455 -0.010064994916 1.0378210545
          2.9822580814 -0.12804400921 0.81096309423 3.0215229988 -0.32744300365 0.94604861736
          2.7898700237 -0.33725899458 1.0498950481 2.9822580814 -0.12804400921 0.81096309423
          2.7733221054 -0.33622100949 0.79974299669 3.0215229988 -0.32744300365 0.94604861736
          2.7898700237 -0.33725899458 1.0498950481 2.9822580814 -0.12804400921 0.81096309423
          2.6176869869 -0.096157990396 0.89440202713 2.7733221054 -0.33622100949 0.79974299669
          2.7898700237 -0.33725899458 1.0498950481 2.9346859455 -0.010064994916 1.0378210545
          2.6176869869 -0.096157990396 0.89440202713 2.9822580814 -0.12804400921 0.81096309423
          2.6176869869 -0.096157990396 0.89440202713 2.846298933 -0.090493999422 0.57238131762
          2.7733221054 -0.33622100949 0.79974299669 2.9822580814 -0.12804400921 0.81096309423
          2.7733221054 -0.33622100949 0.79974299669 2.846298933 -0.090493999422 0.57238131762
          2.9889109135 -0.32668501139 0.69036900997 2.9822580814 -0.12804400921 0.81096309423
          2.7733221054 -0.33622100949 0.79974299669 2.9822580814 -0.12804400921 0.81096309423
          2.9889109135 -0.32668501139 0.69036900997 3.0215229988 -0.32744300365 0.94604861736
          2.9822580814 -0.12804400921 0.81096309423 2.9889109135 -0.32668501139 0.69036900997
          3.179639101 -0.31765601039 0.58325701952 2.846298933 -0.090493999422 0.57238131762
          -3.0947728157 0.28662750125 -0.90678101778 -2.8605468273 0.030474800617 -1.0333030224
          -3.0872220993 0.1026121974 -1.1435060501 -2.9588835239 0.10583119839 -0.81790500879
          -3.4188709259 -0.052383501083 -0.084667012095 -3.1492960453 -0.20950199664 -0.30492499471
          -3.3219630718 -0.30692452192 -0.14970101416 -3.0977869034 -0.10610190034 0.0021150000393
          -1.9959019423 -0.25378808379 -0.72344702482 -2.1335361004 -0.33587309718 -0.85573190451
          -2.0830700397 -0.51125961542 -0.71200299263 -1.9235659838 -0.32769143581 -0.93234062195
          -3.3653941154 0.12199870497 0.10548699647 -3.6423470974 -0.017455210909 -0.0356920138
          -3.4230210781 -0.045196000487 0.12691999972 -3.4188709259 -0.052383501083 -0.084667012095
          0.53313398361 0.019717698917 -1.1568260193 0.61579799652 -0.14052461088 -1.0343459845
          0.77250897884 -0.18823230267 -1.3146259785 0.52286428213 -0.16449649632 -1.3978669643
          -0.33649298549 0.53052771091 -0.93731302023 -0.5591750145 0.32877069712 -0.824015975
          -0.50188398361 0.32205638289 -1.0782203674 -0.60533702374 0.52063310146 -1.0015729666
          -0.33649298549 0.53052771091 -0.93731302023 -0.4916779995 0.53283828497 -0.76185595989
          -0.5591750145 0.32877069712 -0.824015975 -0.60533702374 0.52063310146 -1.0015729666
          -0.33649298549 0.53052771091 -0.93731302023 -0.38182199001 0.22295188904 -0.90033400059
          -0.5591750145 0.32877069712 -0.824015975 -0.4916779995 0.53283828497 -0.76185595989
          -0.33649298549 0.53052771091 -0.93731302023 -0.38182199001 0.22295188904 -0.90033400059
          -0.50188398361 0.32205638289 -1.0782203674 -0.5591750145 0.32877069712 -0.824015975
          -0.50188398361 0.32205638289 -1.0782203674 -0.5591750145 0.32877069712 -0.824015975
          -0.38182199001 0.22295188904 -0.90033400059 -0.69384098053 0.20343409479 -0.94639998674
          -0.60533702374 0.52063310146 -1.0015729666 -0.65340101719 0.52587407827 -0.79267400503
          -0.4916779995 0.53283828497 -0.76185595989 -0.5591750145 0.32877069712 -0.824015975
          -0.65340101719 0.52587407827 -0.79267400503 -0.4916779995 0.53283828497 -0.76185595989
          -0.5591750145 0.32877069712 -0.824015975 -0.55409598351 0.49938008189 -0.60413002968
          -0.65340101719 0.52587407827 -0.79267400503 -0.5591750145 0.32877069712 -0.824015975
          -0.61500298977 0.28469419479 -0.60780000687 -0.55409598351 0.49938008189 -0.60413002968
          -5 -0.004447159823 0.13623799384 -5 0.15884299576 0.21330599487
          -4.6535224915 0.13568019867 0.13374620676 -4.7829651833 -0.03583727777 0.25068509579
          -4.7829651833 -0.03583727777 0.25068509579 -4.6535224915 0.13568019867 0.13374620676
          -4.7318658829 0.32032591105 0.23805809021 -5 0.15884299576 0.21330599487
          -1.1999200583 0.31322172284 -0.84429401159 -1.2614649534 0.29969120026 -0.61504000425
          -1.1171029806 0.13310749829 -0.81390601397 -1.3387739658 0.1015701443 -0.80373698473
          -0.61500298977 0.28469419479 -0.60780000687 -0.5591750145 0.32877069712 -0.824015975
          -0.42486399412 0.21323770285 -0.57991999388 -0.55409598351 0.49938008189 -0.60413002968
          -0.5591750145 0.32877069712 -0.824015975 -0.42486399412 0.21323770285 -0.57991999388
          -0.54605597258 0.061542298645 -0.81870001554 -0.61500298977 0.28469419479 -0.60780000687
          -0.5591750145 0.32877069712 -0.824015975 -0.4916779995 0.53283828497 -0.76185595989
          -0.42486399412 0.21323770285 -0.57991999388 -0.55409598351 0.49938008189 -0.60413002968
          -0.5591750145 0.32877069712 -0.824015975 -0.42486399412 0.21323770285 -0.57991999388
          -0.4916779995 0.53283828497 -0.76185595989 -0.3437409997 0.53887301683 -0.68746000528
          -4.1666903496 0.27508330345 -0.13123139739 -4.3347187042 0.29005420208 -0.44296199083
          -4.3815760612 0.24617770314 -0.19512629509 -4.1674909592 0.13877829909 -0.35717999935
          0.51021200418 -0.21610671282 -0.49635899067 0.38312900066 0.045982599258 -0.55516397953
          0.56557297707 -0.05147189647 -0.61882799864 0.49385619164 -0.061818897724 -0.24398499727
          0.56557297707 -0.05147189647 -0.61882799864 0.36555799842 0.082396402955 -0.88094812632
          0.62536001205 0.067611642182 -0.78804123402 0.38312900066 0.045982599258 -0.55516397953
          0.38312900066 0.045982599258 -0.55516397953 0.62536001205 0.067611642182 -0.78804123402
          0.56557297707 -0.05147189647 -0.61882799864 0.60305899382 0.11440300196 -0.49014899135
          0.56557297707 -0.05147189647 -0.61882799864 0.61227500439 -0.20498250425 -0.7539935708
          0.84206402302 0.052923899144 -0.65382301807 0.62536001205 0.067611642182 -0.78804123402
          0.84206402302 0.052923899144 -0.65382301807 0.56557297707 -0.05147189647 -0.61882799864
          0.62536001205 0.067611642182 -0.78804123402 0.60305899382 0.11440300196 -0.49014899135
          0.3360530138 -0.12368449569 -0.71136599779 0.36555799842 0.082396402955 -0.88094812632
          0.56557297707 -0.05147189647 -0.61882799864 0.38312900066 0.045982599258 -0.55516397953
          0.3360530138 -0.12368449569 -0.71136599779 0.38312900066 0.045982599258 -0.55516397953
          0.56557297707 -0.05147189647 -0.61882799864 0.51021200418 -0.21610671282 -0.49635899067
          -4.0016899109 0.29823037982 0.14048601687 -4.0705108643 0.13585180044 0.0080800065771
          -4.1666903496 0.27508330345 -0.13123139739 -4.3490223885 0.21022440493 0.13521999121
          -4.0016899109 0.29823037982 0.14048601687 -4.1666903496 0.27508330345 -0.13123139739
          -4.162466526 0.47085979581 0.13769200444 -4.3490223885 0.21022440493 0.13521999121
          -4.1666903496 0.27508330345 -0.13123139739 -4.0016899109 0.29823037982 0.14048601687
          -4.162466526 0.47085979581 0.13769200444 -3.9705395699 0.47333359718 0.0037210055161
          -3.9515781403 0.22483050823 -0.22432824969 -3.9705395699 0.47333359718 0.0037210055161
          -4.0016899109 0.29823037982 0.14048601687 -4.1666903496 0.27508330345 -0.13123139739
          -3.9515781403 0.22483050823 -0.22432824969 -4.1666903496 0.27508330345 -0.13123139739
          -4.0016899109 0.29823037982 0.14048601687 -4.0705108643 0.13585180044 0.0080800065771
          -4.1666903496 0.27508330345 -0.13123139739 -3.9705395699 0.47333359718 0.0037210055161
          -3.9811484814 0.47856000066 -0.21228690445 -3.9515781403 0.22483050823 -0.22432824969
          -1.0532729626 0.32143890858 -1.6126300097 -0.72984099388 0.28546023369 -1.3866969347
          -1.0088479519 0.19115871191 -1.3418680429 -0.83093398809 0.49481633306 -1.3887859583
          4.0087571144 -0.073222987354 1.1375299692 4.4213061333 -0.052222006023 1.1044199467
          4.3275651932 -0.10407299548 1.3448059559 4.1369771957 0.033024005592 1.3592270613
          -0.72984099388 0.28546023369 -1.3866969347 -0.83093398809 0.49481633306 -1.3887859583
          -0.71466398239 0.50439506769 -1.2475240231 -0.84249997139 0.26520928741 -1.1529723406
          4.0087571144 -0.073222987354 1.1375299692 4.1854190826 0.098016999662 0.94669002295
          4.4213061333 -0.052222006023 1.1044199467 4.344976902 0.097388997674 1.2805169821
          4.1854190826 0.098016999662 0.94669002295 4.3814492226 0.23643480241 1.0975799561
          4.4213061333 -0.052222006023 1.1044199467 4.344976902 0.097388997674 1.2805169821
          4.1762018204 0.27362239361 1.2485419512 4.344976902 0.097388997674 1.2805169821
          4.2718300819 0.15794679523 1.6279176474 4.2172560692 0.35686299205 1.4943759441
          -1.5488374233 0.27182540298 -1.3903579712 -1.6238960028 0.24829168618 -1.1837819815
          -1.4006630182 0.27366858721 -1.0899891853 -1.3583359718 0.17316421866 -1.3048620224
          -1.5488374233 0.27182540298 -1.3903579712 -1.6238960028 0.24829168618 -1.1837819815
          -1.3583359718 0.17316421866 -1.3048620224 -1.6338564157 0.02010091953 -1.3360049725
          -1.5488374233 0.27182540298 -1.3903579712 -1.6338564157 0.02010091953 -1.3360049725
          -1.3583359718 0.17316421866 -1.3048620224 -1.5296863317 0.075993299484 -1.5737700462
          -1.5488374233 0.27182540298 -1.3903579712 -1.3583359718 0.17316421866 -1.3048620224
          -1.206567049 0.2027631104 -1.6014900208 -1.5296863317 0.075993299484 -1.5737700462
          1.8868869543 0.43748298287 0.51323801279 1.8670481443 0.33276200294 0.76933300495
          2.1254868507 0.43120700121 0.6656140089 2.0687611103 0.17121970654 0.57191699743
          1.8868869543 0.43748298287 0.51323801279 2.1254868507 0.43120700121 0.6656140089
          2.2181119919 0.41253200173 0.3796235919 2.0687611103 0.17121970654 0.57191699743
          2.1254868507 0.43120700121 0.6656140089 1.8868869543 0.43748298287 0.51323801279
          2.0345966816 0.62387102842 0.84213399887 1.8670481443 0.33276200294 0.76933300495
          1.8868869543 0.43748298287 0.51323801279 1.7462838888 0.61548000574 0.6637160182
          2.0345966816 0.62387102842 0.84213399887 1.8670481443 0.33276200294 0.76933300495
          1.8868869543 0.43748298287 0.51323801279 1.7462838888 0.61548000574 0.6637160182
          1.8670481443 0.33276200294 0.76933300495 1.6232156754 0.43198397756 0.58796167374
          1.8868869543 0.43748298287 0.51323801279 1.6232156754 0.43198397756 0.58796167374
          1.8670481443 0.33276200294 0.76933300495 1.5715531111 0.22482000291 0.53529620171
          1.8868869543 0.43748298287 0.51323801279 1.7462838888 0.61548000574 0.6637160182
          1.6232156754 0.43198397756 0.58796167374 1.669698596 0.61242300272 0.38457930088
          1.669698596 0.61242300272 0.38457930088 1.594933033 0.40332198143 0.19972449541
          1.6232156754 0.43198397756 0.58796167374 1.8868869543 0.43748298287 0.51323801279
          -0.36743998528 -0.0037765994202 -0.87996399403 -0.19524599612 0.051735099405 -0.78870302439
          -0.42486399412 0.21323770285 -0.57991999388 -0.38182199001 0.22295188904 -0.90033400059
          -1.4006630182 0.27366858721 -1.0899891853 -1.4724910259 0.49207678437 -1.0708984137
          -1.6665450335 0.31891724467 -0.9786170125 -1.6238960028 0.24829168618 -1.1837819815
          -1.4006630182 0.27366858721 -1.0899891853 -1.4724910259 0.49207678437 -1.0708984137
          -1.4917390347 0.24093736708 -0.86661797762 -1.6665450335 0.31891724467 -0.9786170125
          -1.6665450335 0.31891724467 -0.9786170125 -1.6238960028 0.24829168618 -1.1837819815
          -1.4724910259 0.49207678437 -1.0708984137 -1.7639460564 0.4825155139 -1.1151630878
          -1.795637846 0.26627320051 -1.3385109901 -2.041049242 0.1184957996 -1.4851289988
          -1.8840471506 -0.017964780331 -1.309893012 -1.8180626631 0.066226676106 -1.5300899744
          -1.1468379498 -0.10479596257 -1.0598422289 -1.0050040483 -0.23432028294 -1.1520009041
          -1.225301981 -0.29465007782 -1.0979983807 -1.1560570002 -0.29963886738 -0.85426801443
          -1.1518950462 -0.061164274812 -0.8551800251 -1.3511379957 -0.033111680299 -1.0856614113
          -1.3524429798 -0.2001490891 -0.93651300669 -1.1468379498 -0.10479596257 -1.0598422289
          -1.795637846 0.26627320051 -1.3385109901 -1.972568512 0.25535020232 -1.5025000572
          -2.041049242 0.1184957996 -1.4851289988 -1.8180626631 0.066226676106 -1.5300899744
          -1.6665450335 0.31891724467 -0.9786170125 -1.8356319666 0.0078969011083 -1.0082437992
          -1.5908279419 -0.0042438311502 -1.0808677673 -1.6238960028 0.24829168618 -1.1837819815
          1.6976139545 -0.039864007384 -0.8608520031 1.5601429939 -0.16315901279 -0.66583400965
          1.3628020287 0.069748699665 -0.7095310092 1.6323230267 0.075184799731 -0.62727099657
          0.80060499907 -0.40619540215 -0.98212498426 0.56030297279 -0.42190849781 -0.92723238468
          0.69177097082 -0.40261080861 -1.2026339769 0.61579799652 -0.14052461088 -1.0343459845
          0.69177097082 -0.40261080861 -1.2026339769 0.56030297279 -0.42190849781 -0.92723238468
          0.47881600261 -0.41453048587 -1.1412249804 0.61579799652 -0.14052461088 -1.0343459845
          0.69177097082 -0.40261080861 -1.2026339769 0.61579799652 -0.14052461088 -1.0343459845
          0.47881600261 -0.41453048587 -1.1412249804 0.36511561275 -0.21865269542 -1.2138979435
          1.5832170248 0.13898870349 -0.2907756865 1.8443620205 0.16656500101 -0.47324600816
          1.6138050556 0.3192229867 -0.46323099732 1.6323230267 0.075184799731 -0.62727099657
          0.80060499907 -0.40619540215 -0.98212498426 0.69177097082 -0.40261080861 -1.2026339769
          0.94502300024 -0.16622328758 -1.0062910318 0.61579799652 -0.14052461088 -1.0343459845
          0.36511561275 -0.21865269542 -1.2138979435 0.5846940279 -0.39953100681 -1.38280797
          0.47881600261 -0.41453048587 -1.1412249804 0.69177097082 -0.40261080861 -1.2026339769
          0.52286428213 -0.16449649632 -1.3978669643 0.5846940279 -0.39953100681 -1.38280797
          0.36511561275 -0.21865269542 -1.2138979435 0.69177097082 -0.40261080861 -1.2026339769
          1.8392709494 0.14722080529 -0.76449400187 1.8443620205 0.16656500101 -0.47324600816
          1.9303309917 -0.028858006001 -0.71749800444 1.6323230267 0.075184799731 -0.62727099657
          5.3284611702 -0.29205599427 1.7498970032 5.5037498474 -0.082735002041 1.8406980038
          5.5221610069 -0.28970301151 1.7819349766 5.3534770012 -0.30086100101 1.9398570061
          -4.4579524994 0.47279408574 0.21904788911 -4.5983519554 0.47850579023 0.11985320598
          -4.7318658829 0.32032591105 0.23805809021 -4.5313487053 0.23166209459 0.25894141197
          0.30460509658 0.093160197139 -1.2340450287 0.060910001397 0.064430199564 -1.0059714317
          0.26428851485 -0.064987801015 -1.0606349707 0.056278999895 0.056861169636 -1.3090289831
          0.30460509658 0.093160197139 -1.2340450287 0.081534996629 0.22075429559 -1.1755410433
          0.060910001397 0.064430199564 -1.0059714317 0.056278999895 0.056861169636 -1.3090289831
          0.056278999895 0.056861169636 -1.3090289831 0.2478390038 0.18538750708 -1.4635369778
          0.30460509658 0.093160197139 -1.2340450287 0.081534996629 0.22075429559 -1.1755410433
          3.3829259872 0.46805399656 0.71429997683 3.0083858967 0.66490697861 0.78671127558
          3.2219541073 0.45492699742 0.97522252798 2.968873024 0.46700000763 0.87133789062
          3.3829259872 0.46805399656 0.71429997683 3.0083858967 0.66490697861 0.78671127558
          2.968873024 0.46700000763 0.87133789062 3.1142799854 0.34143099189 0.65826201439
          3.1671938896 0.66265797615 1.2060799599 2.968873024 0.46700000763 0.87133789062
          3.2219541073 0.45492699742 0.97522252798 3.0083858967 0.66490697861 0.78671127558
          -0.028528999537 0.095570899546 -1.5219500065 0.056278999895 0.056861169636 -1.3090289831
          -0.19496299326 0.017406899482 -1.3360270262 -0.2287349999 0.24483269453 -1.2839930058
          -0.19496299326 0.017406899482 -1.3360270262 0.056278999895 0.056861169636 -1.3090289831
          -0.18521800637 0.03266672045 -1.0619240999 -0.2287349999 0.24483269453 -1.2839930058
          -0.0075119999237 -0.13963499665 -1.2594619989 0.056278999895 0.056861169636 -1.3090289831
          -0.18521800637 0.03266672045 -1.0619240999 -0.19496299326 0.017406899482 -1.3360270262
          -0.0075119999237 -0.13963499665 -1.2594619989 0.056278999895 0.056861169636 -1.3090289831
          0.060910001397 0.064430199564 -1.0059714317 -0.18521800637 0.03266672045 -1.0619240999
          0.056278999895 0.056861169636 -1.3090289831 0.060910001397 0.064430199564 -1.0059714317
          0.26428851485 -0.064987801015 -1.0606349707 -0.0075119999237 -0.13963499665 -1.2594619989
          0.056278999895 0.056861169636 -1.3090289831 0.081534996629 0.22075429559 -1.1755410433
          0.060910001397 0.064430199564 -1.0059714317 -0.18521800637 0.03266672045 -1.0619240999
          0.056278999895 0.056861169636 -1.3090289831 0.081534996629 0.22075429559 -1.1755410433
          -0.18521800637 0.03266672045 -1.0619240999 -0.2287349999 0.24483269453 -1.2839930058
          3.1671938896 0.66265797615 1.2060799599 2.832775116 0.65263402462 1.0032349825
          2.968873024 0.46700000763 0.87133789062 3.0083858967 0.66490697861 0.78671127558
          0.61227500439 -0.20498250425 -0.7539935708 0.61579799652 -0.14052461088 -1.0343459845
          0.88520997763 -0.23278620839 -0.74979001284 0.82348799706 -0.019467899576 -0.88339298964
          2.2042989731 -0.13768899441 0.32803380489 2.1764740944 -0.18138699234 0.65020596981
          1.9639710188 -0.12883301079 0.49361902475 2.0858280659 0.031003998592 0.38727900386
          -4.1473436356 -0.025500500575 0.13780200481 -4.1633501053 -0.0074493000284 0.35350400209
          -4.0919470787 -0.29832312465 0.34250101447 -4.3315758705 -0.16536140442 0.15697599947
          -4.1473436356 -0.025500500575 0.13780200481 -4.3315758705 -0.16536140442 0.15697599947
          -4.0919470787 -0.29832312465 0.34250101447 -3.9805979729 -0.2818211019 0.12366101146
          3.9827311039 -0.10510598868 1.5950082541 4.0616660118 -0.29908099771 1.2974100113
          3.8552589417 -0.056183006614 1.3705922365 3.8821690083 -0.30057999492 1.4447215796
          -3.9805979729 -0.2818211019 0.12366101146 -3.9098739624 -0.045701097697 0.062531001866
          -4.1473436356 -0.025500500575 0.13780200481 -4.0883383751 -0.19288347661 -0.063150003552
          -4.1121020317 0.25860318542 0.34374800324 -4.0705108643 0.13585180044 0.0080800065771
          -4.3490223885 0.21022440493 0.13521999121 -4.1473436356 -0.025500500575 0.13780200481
          0.3360530138 -0.12368449569 -0.71136599779 0.56557297707 -0.05147189647 -0.61882799864
          0.61227500439 -0.20498250425 -0.7539935708 0.51021200418 -0.21610671282 -0.49635899067
          -4.1473436356 -0.025500500575 0.13780200481 -4.3956904411 -0.0096592828631 -0.099004216492
          -4.3490223885 0.21022440493 0.13521999121 -4.4574508667 0.019598178566 0.2031301856
          -1.0050040483 -0.23432028294 -1.1520009041 -1.199491024 -0.2731808126 -1.4120750427
          -1.0146249533 -0.47085028887 -1.2508219481 -0.95317101479 -0.27932810783 -1.4066259861
          -1.0050040483 -0.23432028294 -1.1520009041 -1.2170039415 -0.47567608953 -1.2552779913
          -1.0146249533 -0.47085028887 -1.2508219481 -1.199491024 -0.2731808126 -1.4120750427
          -1.199491024 -0.2731808126 -1.4120750427 -1.225301981 -0.29465007782 -1.0979983807
          -1.0050040483 -0.23432028294 -1.1520009041 -1.2170039415 -0.47567608953 -1.2552779913
          -0.95317101479 -0.27932810783 -1.4066259861 -1.199491024 -0.2731808126 -1.4120750427
          -0.99887502193 -0.062538303435 -1.3665850163 -1.2506010532 -0.14467050135 -1.2530030012
          -1.2506010532 -0.14467050135 -1.2530030012 -1.199491024 -0.2731808126 -1.4120750427
          -0.99887502193 -0.062538303435 -1.3665850163 -1.1884590387 0.063980542123 -1.4178910255
          -1.2506010532 -0.14467050135 -1.2530030012 -1.4067959785 -0.070061728358 -1.4117490053
          -1.199491024 -0.2731808126 -1.4120750427 -1.1884590387 0.063980542123 -1.4178910255
          -3.061948061 0.073819994926 -0.013481999747 -3.0977869034 -0.10610190034 0.0021150000393
          -2.9494459629 -0.043818198144 -0.28794598579 -3.2438099384 0.03149420023 -0.20086398721
          -3.061948061 0.073819994926 -0.013481999747 -3.0384581089 0.17068129778 -0.37494298816
          -3.2346680164 0.26355689764 -0.22137200832 -3.2438099384 0.03149420023 -0.20086398721
          -2.7851204872 -0.2995711267 -1.2576700449 -2.8428041935 -0.50505828857 -1.0089069605
          -2.82984519 -0.19690430164 -0.8898460269 -2.6056780815 -0.30553308129 -1.0694279671
          -1.199491024 -0.2731808126 -1.4120750427 -1.2205280066 -0.4554925859 -1.6110960245
          -1.326851964 -0.47103399038 -1.4058600664 -1.1043089628 -0.46415549517 -1.4246920347
          -1.199491024 -0.2731808126 -1.4120750427 -1.2205280066 -0.4554925859 -1.6110960245
          -1.1043089628 -0.46415549517 -1.4246920347 -1.0445510149 -0.28223949671 -1.6158399582
          -0.33131301403 -0.1156719923 -1.0455411673 -0.61719799042 -0.039664398879 -1.1887242794
          -0.56551098824 -0.25506937504 -1.2119810581 -0.38811999559 -0.14212410152 -1.2827340364
          2.1158709526 -0.35618299246 -0.26636224985 2.0414140224 -0.19573998451 -0.65807902813
          1.9658960104 -0.19827999175 -0.2762555182 1.872320056 -0.36590901017 -0.38697499037
          -1.0088479519 0.19115871191 -1.3418680429 -1.201603055 0.29143372178 -1.4187309742
          -1.1732499599 0.28154438734 -1.1781251431 -1.3583359718 0.17316421866 -1.3048620224
          -1.3583359718 0.17316421866 -1.3048620224 -1.201603055 0.29143372178 -1.4187309742
          -1.1884590387 0.063980542123 -1.4178910255 -1.0088479519 0.19115871191 -1.3418680429
          -1.3583359718 0.17316421866 -1.3048620224 -1.206567049 0.2027631104 -1.6014900208
          -1.1884590387 0.063980542123 -1.4178910255 -1.201603055 0.29143372178 -1.4187309742
          -2.8682529926 0.10229609907 -0.093391999602 -3.0977869034 -0.10610190034 0.0021150000393
          -2.9494459629 -0.043818198144 -0.28794598579 -3.061948061 0.073819994926 -0.013481999747
          -1.0532729626 0.32143890858 -1.6126300097 -1.201603055 0.29143372178 -1.4187309742
          -1.0256249905 0.49155002832 -1.3329880238 -1.0088479519 0.19115871191 -1.3418680429
          -1.0256249905 0.49155002832 -1.3329880238 -1.201603055 0.29143372178 -1.4187309742
          -1.1732499599 0.28154438734 -1.1781251431 -1.0088479519 0.19115871191 -1.3418680429
          -1.0256249905 0.49155002832 -1.3329880238 -1.201603055 0.29143372178 -1.4187309742
          -1.3278859854 0.48927980661 -1.2198700905 -1.1732499599 0.28154438734 -1.1781251431
          -1.0256249905 0.49155002832 -1.3329880238 -1.2948549986 0.4837462008 -1.4094699621
          -1.3278859854 0.48927980661 -1.2198700905 -1.201603055 0.29143372178 -1.4187309742
          0.74059998989 0.11394579709 -1.0505290031 0.36555799842 0.082396402955 -0.88094812632
          0.62536001205 0.067611642182 -0.78804123402 0.53313398361 0.019717698917 -1.1568260193
          0.74059998989 0.11394579709 -1.0505290031 0.4462980032 0.22514030337 -1.0646909475
          0.36555799842 0.082396402955 -0.88094812632 0.53313398361 0.019717698917 -1.1568260193
          1.6178350449 -0.15927900374 0.18571281433 1.6111949682 -0.21885199845 -0.057695001364
          1.8071659803 -0.10879799724 -0.12797890604 1.4943079948 -0.043684996665 -0.058169994503
          0.51523089409 0.14683929086 -1.3929450512 0.53313398361 0.019717698917 -1.1568260193
          0.64630901814 0.29072648287 -1.3438220024 0.74059998989 0.11394579709 -1.0505290031
          1.6178350449 -0.15927900374 0.18571281433 1.2570589781 -0.21799020469 -0.084225989878
          1.6111949682 -0.21885199845 -0.057695001364 1.4943079948 -0.043684996665 -0.058169994503
          0.53313398361 0.019717698917 -1.1568260193 0.51523089409 0.14683929086 -1.3929450512
          0.4462980032 0.22514030337 -1.0646909475 0.30460509658 0.093160197139 -1.2340450287
          0.4462980032 0.22514030337 -1.0646909475 0.30460509658 0.093160197139 -1.2340450287
          0.26428851485 -0.064987801015 -1.0606349707 0.53313398361 0.019717698917 -1.1568260193
          0.53313398361 0.019717698917 -1.1568260193 0.4462980032 0.22514030337 -1.0646909475
          0.36555799842 0.082396402955 -0.88094812632 0.26428851485 -0.064987801015 -1.0606349707
          -0.19379499555 -0.24117720127 -1.3589559793 -0.304708004 -0.090819396079 -1.572059989
          -0.14396199584 -0.17642790079 -1.5491399765 -0.19496299326 0.017406899482 -1.3360270262
          2.2042989731 -0.13768899441 0.32803380489 2.1764740944 -0.18138699234 0.65020596981
          2.0858280659 0.031003998592 0.38727900386 2.3737831116 -0.031773991883 0.64508098364
          0.53313398361 0.019717698917 -1.1568260193 0.51523089409 0.14683929086 -1.3929450512
          0.30460509658 0.093160197139 -1.2340450287 0.39721819758 -0.010242197663 -1.4243580103
          0.53313398361 0.019717698917 -1.1568260193 0.39721819758 -0.010242197663 -1.4243580103
          0.36511561275 -0.21865269542 -1.2138979435 0.52286428213 -0.16449649632 -1.3978669643
          -2.707750082 0.14897160232 -0.50897496939 -2.7090830803 0.31708621979 -0.6229904294
          -2.9227018356 0.26947918534 -0.61335587502 -2.7823200226 0.016783099622 -0.68633919954
          -2.707750082 0.14897160232 -0.50897496939 -2.5196659565 0.24592778087 -0.72205346823
          -2.7090830803 0.31708621979 -0.6229904294 -2.7823200226 0.016783099622 -0.68633919954
          3.9967598915 0.6620669961 1.8450440168 3.9373788834 0.45778700709 1.9478909969
          4.1697688103 0.64373600483 2.1378290653 4.2132930756 0.66276198626 1.9194359779
          -3.0947728157 0.28662750125 -0.90678101778 -2.9768784046 0.46844089031 -1.0279990435
          -2.9489409924 0.21040900052 -1.2003070116 -2.8611981869 0.29218497872 -1.0245879889
          3.9962799549 0.50118601322 1.5290913582 4.2633280754 0.48635900021 1.6941789389
          4.2114582062 0.52715998888 1.3034000397 4.2172560692 0.35686299205 1.4943759441
          3.9962799549 0.50118601322 1.5290913582 4.0141201019 0.24855940044 1.621557951
          4.2633280754 0.48635900021 1.6941789389 4.2172560692 0.35686299205 1.4943759441
          3.9962799549 0.50118601322 1.5290913582 4.0141201019 0.24855940044 1.621557951
          4.1660380363 0.37686598301 1.8869049549 4.2633280754 0.48635900021 1.6941789389
          4.2633280754 0.48635900021 1.6941789389 3.9962799549 0.50118601322 1.5290913582
          3.9967598915 0.6620669961 1.8450440168 4.1660380363 0.37686598301 1.8869049549
          4.2633280754 0.48635900021 1.6941789389 4.0141201019 0.24855940044 1.621557951
          4.1660380363 0.37686598301 1.8869049549 4.2172560692 0.35686299205 1.4943759441
          4.2114582062 0.52715998888 1.3034000397 4.2172560692 0.35686299205 1.4943759441
          4.2633280754 0.48635900021 1.6941789389 4.5152788162 0.44570598006 1.5512629747
          4.2114582062 0.52715998888 1.3034000397 4.2633280754 0.48635900021 1.6941789389
          4.3675351143 0.70144999027 1.5965069532 4.5152788162 0.44570598006 1.5512629747
          4.2633280754 0.48635900021 1.6941789389 4.1757931709 0.68295997381 1.7038977146
          4.2114582062 0.52715998888 1.3034000397 4.3675351143 0.70144999027 1.5965069532
          -4.0158720016 -0.37966567278 -0.75769299269 -3.779299736 -0.33174827695 -0.59858602285
          -3.9198260307 -0.52072381973 -0.66412502527 -3.9470174313 -0.23043839633 -0.45734000206
          -4.1456823349 -0.32185968757 -0.5048879981 -3.8315455914 -0.51438689232 -0.46247899532
          -3.9198260307 -0.52072381973 -0.66412502527 -4.0726661682 -0.51234167814 -0.36274200678
          -4.1456823349 -0.32185968757 -0.5048879981 -3.9198260307 -0.52072381973 -0.66412502527
          -4.1995658875 -0.52305787802 -0.58140099049 -4.0726661682 -0.51234167814 -0.36274200678
          -4.1456823349 -0.32185968757 -0.5048879981 -4.0726661682 -0.51234167814 -0.36274200678
          -4.1995658875 -0.52305787802 -0.58140099049 -4.3169722557 -0.515429914 -0.37853601575
          -1.7756780386 0.41514155269 -0.51559001207 -1.9680509567 0.31546962261 -0.45382100344
          -1.8314759731 0.27363407612 -0.6662620306 -1.8200160265 0.49221810699 -0.71408998966
          -2.7501730919 0.4770526886 -0.50051802397 -2.7090830803 0.31708621979 -0.6229904294
          -2.6776423454 0.47449350357 -0.75034171343 -2.9246742725 0.47127839923 -0.80925703049
          -1.4917390347 0.24093736708 -0.86661797762 -1.2614649534 0.29969120026 -0.61504000425
          -1.3387739658 0.1015701443 -0.80373698473 -1.4412750006 0.12191697955 -0.58430999517
          -0.38811999559 -0.14212410152 -1.2827340364 -0.53547698259 0.15860010684 -1.2386740446
          -0.38828599453 0.11242230237 -1.4058929682 -0.42777499557 0.06476470083 -1.0590546131
          -1.3387739658 0.1015701443 -0.80373698473 -1.4917390347 0.24093736708 -0.86661797762
          -1.5145759583 -0.018870471045 -0.82699400187 -1.3511379957 -0.033111680299 -1.0856614113
          -1.3387739658 0.1015701443 -0.80373698473 -1.4412750006 0.12191697955 -0.58430999517
          -1.3339209557 -0.1199079901 -0.60588997602 -1.5145759583 -0.018870471045 -0.82699400187
          -1.2343740463 0.075913608074 -0.61450999975 -1.4412750006 0.12191697955 -0.58430999517
          -1.3339209557 -0.1199079901 -0.60588997602 -1.3387739658 0.1015701443 -0.80373698473
          -1.3387739658 0.1015701443 -0.80373698473 -1.2614649534 0.29969120026 -0.61504000425
          -1.2343740463 0.075913608074 -0.61450999975 -1.4412750006 0.12191697955 -0.58430999517
          -2.2354676723 -0.21959285438 -1.2453320026 -2.5419068336 -0.2821674943 -1.3411229849
          -2.3660526276 -0.18054547906 -1.0520470142 -2.6056780815 -0.30553308129 -1.0694279671
          -2.2354676723 -0.21959285438 -1.2453320026 -2.1257388592 -0.27721267939 -1.4604820013
          -2.1130719185 -0.047264300287 -1.1963629723 -2.0357840061 -0.027981799096 -1.4841450453
          -2.2354676723 -0.21959285438 -1.2453320026 -2.1257388592 -0.27721267939 -1.4604820013
          -2.0235655308 -0.33051469922 -1.2762329578 -2.1130719185 -0.047264300287 -1.1963629723
          -2.2354676723 -0.21959285438 -1.2453320026 -2.0235655308 -0.33051469922 -1.2762329578
          -2.1019701958 -0.27823245525 -1.0662670135 -2.1130719185 -0.047264300287 -1.1963629723
          -2.2354676723 -0.21959285438 -1.2453320026 -2.0235655308 -0.33051469922 -1.2762329578
          -2.1722934246 -0.49265837669 -1.1914629936 -2.1019701958 -0.27823245525 -1.0662670135
          -2.2354676723 -0.21959285438 -1.2453320026 -2.1722934246 -0.49265837669 -1.1914629936
          -2.4264535904 -0.49877792597 -1.0958280563 -2.1019701958 -0.27823245525 -1.0662670135
          1.6178350449 -0.15927900374 0.18571281433 1.220471859 -0.14656609297 0.24174399674
          1.369579196 0.12671080232 0.095050007105 1.3497146368 0.084297902882 0.35733398795
          1.6178350449 -0.15927900374 0.18571281433 1.369579196 0.12671080232 0.095050007105
          1.4943079948 -0.043684996665 -0.058169994503 1.6255400181 0.14701509476 0.17244631052
          4.1453089714 -0.29227998853 1.7419952154 4.1488780975 -0.13552299142 1.9172199965
          3.9701340199 -0.29213601351 1.9327290058 3.9363288879 -0.29490798712 1.6831860542
          4.1453089714 -0.29227998853 1.7419952154 4.1488780975 -0.13552299142 1.9172199965
          4.1882071495 -0.28400298953 2.0946230888 3.9701340199 -0.29213601351 1.9327290058
          3.9701340199 -0.29213601351 1.9327290058 4.1488780975 -0.13552299142 1.9172199965
          4.1882071495 -0.28400298953 2.0946230888 3.961992979 -0.15715098381 2.1520600319
          3.9701340199 -0.29213601351 1.9327290058 3.89149189 -0.08670001477 1.8603260517
          4.1488780975 -0.13552299142 1.9172199965 3.961992979 -0.15715098381 2.1520600319
          4.1488780975 -0.13552299142 1.9172199965 3.89149189 -0.08670001477 1.8603260517
          3.9701340199 -0.29213601351 1.9327290058 3.9363288879 -0.29490798712 1.6831860542
          1.4334243536 0.60390299559 0.081108003855 1.2316360474 0.45880398154 0.28732401133
          1.594933033 0.40332198143 0.19972449541 1.2312122583 0.39813408256 -0.034452985972
          1.2371704578 0.59994918108 0.042260996997 1.2312122583 0.39813408256 -0.034452985972
          1.0784057379 0.39947220683 0.1701080054 1.2316360474 0.45880398154 0.28732401133
          4.0440011024 0.18789739907 1.9961689711 3.7400364876 0.21424710751 2.056910038
          3.9322690964 0.15276029706 2.1537098885 3.804297924 0.13001829386 1.8220219612
          4.0440011024 0.18789739907 1.9961689711 3.9451920986 0.36131098866 2.1700799465
          3.9322690964 0.15276029706 2.1537098885 3.7400364876 0.21424710751 2.056910038
          4.1488780975 -0.13552299142 1.9172199965 4.3348088264 0.0020780034829 2.0050890446
          4.1882071495 -0.28400298953 2.0946230888 4.2298059464 -0.09465200454 2.2884199619
          4.838329792 -0.29386898875 1.6861670017 4.6009202003 -0.29254201055 1.7585229874
          4.7298440933 -0.29282999039 1.5341100693 4.6791539192 -0.064878001809 1.5370919704
          -0.2076960057 -0.44123241305 -1.3097250462 -0.53049099445 -0.25941371918 -1.4260540009
          -0.19379499555 -0.24117720127 -1.3589559793 -0.36334300041 -0.45349159837 -1.1892901659
          -0.19379499555 -0.24117720127 -1.3589559793 -0.53049099445 -0.25941371918 -1.4260540009
          -0.38811999559 -0.14212410152 -1.2827340364 -0.36334300041 -0.45349159837 -1.1892901659
          -0.27238899469 -0.43512588739 -1.4818589687 -0.0416380018 -0.36202129722 -1.5427700281
          -0.14396199584 -0.17642790079 -1.5491399765 -0.34433600307 -0.26983401179 -1.5834399462
          -0.13618600368 -0.29588839412 -0.75555801392 0.0018850000342 -0.13561350107 -0.81675201654
          -0.19524599612 0.051735099405 -0.78870302439 -0.29678198695 -0.19139230251 -0.85894298553
          -0.29678198695 -0.19139230251 -0.85894298553 -0.19269900024 -0.26168438792 -1.0995333195
          -0.13618600368 -0.29588839412 -0.75555801392 0.0018850000342 -0.13561350107 -0.81675201654
          -0.29678198695 -0.19139230251 -0.85894298553 -0.19269900024 -0.26168438792 -1.0995333195
          -0.17229199409 -0.45925500989 -0.92756402493 -0.13618600368 -0.29588839412 -0.75555801392
          -0.31607699394 -0.47428938746 -0.76736098528 -0.29678198695 -0.19139230251 -0.85894298553
          -0.17229199409 -0.45925500989 -0.92756402493 -0.13618600368 -0.29588839412 -0.75555801392
          -0.31607699394 -0.47428938746 -0.76736098528 -0.13618600368 -0.29588839412 -0.75555801392
          -0.17229199409 -0.45925500989 -0.92756402493 -0.0078739998862 -0.46226969361 -0.70150399208
          -0.31607699394 -0.47428938746 -0.76736098528 -0.26960200071 -0.41726079583 -0.56349998713
          -0.13618600368 -0.29588839412 -0.75555801392 -0.0078739998862 -0.46226969361 -0.70150399208
          -0.26960200071 -0.41726079583 -0.56349998713 -0.13618600368 -0.29588839412 -0.75555801392
          -0.0078739998862 -0.46226969361 -0.70150399208 -0.098785996437 -0.43900081515 -0.51937001944
          -0.26960200071 -0.41726079583 -0.56349998713 -0.1767269969 -0.26826900244 -0.53143000603
          -0.13618600368 -0.29588839412 -0.75555801392 -0.098785996437 -0.43900081515 -0.51937001944
          -0.098785996437 -0.43900081515 -0.51937001944 -0.1767269969 -0.26826900244 -0.53143000603
          -0.13618600368 -0.29588839412 -0.75555801392 -0.011990199797 -0.27998569608 -0.48404100537
          -0.098785996437 -0.43900081515 -0.51937001944 -0.13618600368 -0.29588839412 -0.75555801392
          -0.0078739998862 -0.46226969361 -0.70150399208 -0.011990199797 -0.27998569608 -0.48404100537
          -0.13618600368 -0.29588839412 -0.75555801392 0.018631000072 -0.44565591216 -1.0280195475
          -0.17229199409 -0.45925500989 -0.92756402493 -0.0078739998862 -0.46226969361 -0.70150399208
          0.018631000072 -0.44565591216 -1.0280195475 -0.13618600368 -0.29588839412 -0.75555801392
          0.19156980515 -0.44301488996 -0.90191078186 -0.0078739998862 -0.46226969361 -0.70150399208
          0.018631000072 -0.44565591216 -1.0280195475 0.0018850000342 -0.13561350107 -0.81675201654
          0.19156980515 -0.44301488996 -0.90191078186 -0.13618600368 -0.29588839412 -0.75555801392
          0.059512998909 -0.21327769756 -1.0408661366 0.018631000072 -0.44565591216 -1.0280195475
          -0.13618600368 -0.29588839412 -0.75555801392 0.0018850000342 -0.13561350107 -0.81675201654
          -0.19269900024 -0.26168438792 -1.0995333195 0.059512998909 -0.21327769756 -1.0408661366
          -0.13618600368 -0.29588839412 -0.75555801392 0.0018850000342 -0.13561350107 -0.81675201654
          -0.19269900024 -0.26168438792 -1.0995333195 0.059512998909 -0.21327769756 -1.0408661366
          -0.17229199409 -0.45925500989 -0.92756402493 -0.13618600368 -0.29588839412 -0.75555801392
          0.059512998909 -0.21327769756 -1.0408661366 0.018631000072 -0.44565591216 -1.0280195475
          -0.17229199409 -0.45925500989 -0.92756402493 -0.13618600368 -0.29588839412 -0.75555801392
          4.1660380363 0.37686598301 1.8869049549 4.1495599747 0.35503801703 2.2919700146
          4.1113681793 0.48997598886 2.274960041 4.402616024 0.45689401031 2.1667981148
          4.1660380363 0.37686598301 1.8869049549 4.1495599747 0.35503801703 2.2919700146
          4.3718128204 0.25128540397 2.104501009 4.0440011024 0.18789739907 1.9961689711
          4.1660380363 0.37686598301 1.8869049549 4.1495599747 0.35503801703 2.2919700146
          4.402616024 0.45689401031 2.1667981148 4.3718128204 0.25128540397 2.104501009
          4.1660380363 0.37686598301 1.8869049549 3.9373788834 0.45778700709 1.9478909969
          4.1113681793 0.48997598886 2.274960041 4.1495599747 0.35503801703 2.2919700146
          4.1660380363 0.37686598301 1.8869049549 3.9373788834 0.45778700709 1.9478909969
          4.1495599747 0.35503801703 2.2919700146 3.9451920986 0.36131098866 2.1700799465
          0.47881600261 -0.41453048587 -1.1412249804 0.14116099477 -0.43207919598 -1.1435899734
          0.36515200138 -0.25333359838 -0.93256372213 0.19156980515 -0.44301488996 -0.90191078186
          1.1920820475 0.066462799907 -0.092215999961 1.2312122583 0.39813408256 -0.034452985972
          1.4418599606 0.28709000349 -0.062245994806 1.369579196 0.12671080232 0.095050007105
          3.6239950657 -0.30487498641 0.76384800673 3.7064490318 -0.11200299114 0.86057698727
          3.5389170647 -0.30982100964 1.044885993 3.4617619514 -0.034863006324 0.83526402712
          3.7064490318 -0.11200299114 0.86057698727 3.6239950657 -0.30487498641 0.76384800673
          3.6596939564 -0.24626901746 0.52350002527 3.4617619514 -0.034863006324 0.83526402712
          -3.9805979729 -0.2818211019 0.12366101146 -4.0919470787 -0.29832312465 0.34250101447
          -4.0046038628 -0.48754239082 0.27641901374 -4.2066240311 -0.3275590539 0.070990994573
          -4.2066240311 -0.3275590539 0.070990994573 -4.1473436356 -0.025500500575 0.13780200481
          -4.3315758705 -0.16536140442 0.15697599947 -4.0883383751 -0.19288347661 -0.063150003552
          -1.8314759731 0.27363407612 -0.6662620306 -2.0370030403 0.2986676991 -0.69848400354
          -1.7904880047 0.17986288667 -0.85320198536 -1.9829889536 0.48603790998 -0.84902697802
          2.9222569466 -0.035557992756 -0.016389999539 2.7524430752 -0.1180730015 -0.14809599519
          2.8178238869 -0.16496701539 0.18457700312 3.0622529984 -0.15697599947 0.078552998602
          -1.8200160265 0.49221810699 -0.71408998966 -2.0370030403 0.2986676991 -0.69848400354
          -1.8314759731 0.27363407612 -0.6662620306 -1.9829889536 0.48603790998 -0.84902697802
          4.0760598183 -0.29790601134 1.5380973816 3.9827311039 -0.10510598868 1.5950082541
          4.2373199463 -0.093296997249 1.6291577816 4.1453089714 -0.29227998853 1.7419952154
          4.2373199463 -0.093296997249 1.6291577816 3.9827311039 -0.10510598868 1.5950082541
          4.1488780975 -0.13552299142 1.9172199965 4.1453089714 -0.29227998853 1.7419952154
          4.2373199463 -0.093296997249 1.6291577816 3.9827311039 -0.10510598868 1.5950082541
          4.0705580711 0.054460007697 1.7552939653 4.1488780975 -0.13552299142 1.9172199965
          3.9827311039 -0.10510598868 1.5950082541 3.89149189 -0.08670001477 1.8603260517
          4.0705580711 0.054460007697 1.7552939653 4.1488780975 -0.13552299142 1.9172199965
          3.9827311039 -0.10510598868 1.5950082541 3.89149189 -0.08670001477 1.8603260517
          4.1488780975 -0.13552299142 1.9172199965 3.9363288879 -0.29490798712 1.6831860542
          4.1453089714 -0.29227998853 1.7419952154 3.9827311039 -0.10510598868 1.5950082541
          4.1488780975 -0.13552299142 1.9172199965 3.9363288879 -0.29490798712 1.6831860542
          3.9363288879 -0.29490798712 1.6831860542 3.718173027 -0.032231997699 1.6364309788
          3.9827311039 -0.10510598868 1.5950082541 3.89149189 -0.08670001477 1.8603260517
          5.1484160423 0.71598798037 1.853268981 5.1873960495 0.42186701298 1.8164199591
          5.2246007919 0.71275597811 2.0305790901 5.4411177635 0.54534596205 2.004693985
          3.9827311039 -0.10510598868 1.5950082541 3.718173027 -0.032231997699 1.6364309788
          4.0705580711 0.054460007697 1.7552939653 3.89149189 -0.08670001477 1.8603260517
          3.718173027 -0.032231997699 1.6364309788 3.804610014 0.20091049373 1.4191051722
          3.9827311039 -0.10510598868 1.5950082541 4.0705580711 0.054460007697 1.7552939653
          3.9827311039 -0.10510598868 1.5950082541 3.804610014 0.20091049373 1.4191051722
          4.0141201019 0.24855940044 1.621557951 4.0705580711 0.054460007697 1.7552939653
          3.9827311039 -0.10510598868 1.5950082541 4.0141201019 0.24855940044 1.621557951
          4.1369771957 0.033024005592 1.3592270613 4.0705580711 0.054460007697 1.7552939653
          -1.6338564157 0.02010091953 -1.3360049725 -1.7574769258 -0.32169941068 -1.3376590014
          -1.8840471506 -0.017964780331 -1.309893012 -1.5521390438 -0.22336211801 -1.3013720512
          3.6306459904 0.69331997633 0.9852989912 3.7212340832 0.54067403078 0.62415999174
          3.6095719337 0.49926799536 0.86267101765 3.8292720318 0.70746701956 0.84424501657
          3.6095719337 0.49926799536 0.86267101765 3.7212340832 0.54067403078 0.62415999174
          3.9433920383 0.50324100256 0.79245001078 3.8292720318 0.70746701956 0.84424501657
          -1.6338564157 0.02010091953 -1.3360049725 -1.856298089 -0.15979887545 -1.5231399536
          -1.8840471506 -0.017964780331 -1.309893012 -1.7574769258 -0.32169941068 -1.3376590014
          3.6095719337 0.49926799536 0.86267101765 3.7212340832 0.54067403078 0.62415999174
          3.7977409363 0.30181151628 0.66605001688 3.9433920383 0.50324100256 0.79245001078
          3.6095719337 0.49926799536 0.86267101765 3.4640750885 0.2319137007 0.72248202562
          3.7977409363 0.30181151628 0.66605001688 3.7212340832 0.54067403078 0.62415999174
          3.6095719337 0.49926799536 0.86267101765 3.7977409363 0.30181151628 0.66605001688
          3.4640750885 0.2319137007 0.72248202562 3.6721630096 0.17420139909 0.90603202581
          1.2371704578 0.59994918108 0.042260996997 1.1157983541 0.58637183905 0.20423699915
          1.0784057379 0.39947220683 0.1701080054 1.0282603502 0.59369128942 0.0024159983732
          2.5645010471 -0.34633201361 0.97681301832 2.5302391052 -0.34590399265 0.74713200331
          2.7733221054 -0.33622100949 0.79974299669 2.6176869869 -0.096157990396 0.89440202713
          1.0282603502 0.59369128942 0.0024159983732 0.88630062342 0.58878719807 -0.15539897978
          0.9058868885 0.3652240932 0.037831000984 1.1137839556 0.31430581212 -0.23879601061
          1.0282603502 0.59369128942 0.0024159983732 0.9058868885 0.3652240932 0.037831000984
          0.88630062342 0.58878719807 -0.15539897978 0.73507022858 0.4539988935 -0.073164001107
          3.8552589417 -0.056183006614 1.3705922365 3.718173027 -0.032231997699 1.6364309788
          3.658107996 -0.30566099286 1.332764864 3.5614540577 -0.13416200876 1.2109525204
          3.8552589417 -0.056183006614 1.3705922365 3.718173027 -0.032231997699 1.6364309788
          3.5614540577 -0.13416200876 1.2109525204 3.4360439777 -0.0026910067536 1.3680689335
          -2.6418669224 0.48016449809 -0.30111697316 -2.6534280777 0.29591062665 -0.18428100646
          -2.4711580276 0.34027990699 -0.26157900691 -2.825469017 0.27062919736 -0.34245297313
          -2.6418669224 0.48016449809 -0.30111697316 -2.4711580276 0.34027990699 -0.26157900691
          -2.5764689445 0.47962999344 -0.47001102567 -2.825469017 0.27062919736 -0.34245297313
          -2.6418669224 0.48016449809 -0.30111697316 -2.4711580276 0.34027990699 -0.26157900691
          -2.4234828949 0.48320311308 -0.38506999612 -2.5764689445 0.47962999344 -0.47001102567
          1.2254769802 0.51881307364 -1.0980240107 1.0837780237 0.56879729033 -0.83355396986
          1.1649719477 0.37054440379 -0.89170503616 0.90016597509 0.3842356205 -1.0304160118
          1.2254769802 0.51881307364 -1.0980240107 0.90016597509 0.3842356205 -1.0304160118
          1.1649719477 0.37054440379 -0.89170503616 1.0951930285 0.35682529211 -1.1645820141
          -2.4275128841 0.11600639671 -0.53692299128 -2.707750082 0.14897160232 -0.50897496939
          -2.4711580276 0.34027990699 -0.26157900691 -2.3957979679 0.17064259946 -0.29074698687
          0.90016597509 0.3842356205 -1.0304160118 0.93579101562 0.2607139945 -0.85697698593
          1.1649719477 0.37054440379 -0.89170503616 1.2157520056 0.1916974932 -1.1104990244
          1.0837780237 0.56879729033 -0.83355396986 0.93579101562 0.2607139945 -0.85697698593
          1.1649719477 0.37054440379 -0.89170503616 0.90016597509 0.3842356205 -1.0304160118
          -2.825469017 0.27062919736 -0.34245297313 -2.4711580276 0.34027990699 -0.26157900691
          -2.5764689445 0.47962999344 -0.47001102567 -2.707750082 0.14897160232 -0.50897496939
          -2.825469017 0.27062919736 -0.34245297313 -2.6534280777 0.29591062665 -0.18428100646
          -2.4711580276 0.34027990699 -0.26157900691 -2.707750082 0.14897160232 -0.50897496939
          -2.707750082 0.14897160232 -0.50897496939 -2.6534280777 0.29591062665 -0.18428100646
          -2.4711580276 0.34027990699 -0.26157900691 -2.3957979679 0.17064259946 -0.29074698687
          1.303779006 0.10932320356 -0.39463099837 1.6553009748 -0.058208007365 -0.42940098047
          1.3120340109 -0.15288600326 -0.5459626317 1.2925460339 -0.051271595061 -0.25956600904
          3.3454549313 -0.14016999304 0.62486702204 3.3760828972 -0.31359198689 0.77911198139
          3.6596939564 -0.24626901746 0.52350002527 3.2719910145 -0.31246700883 0.38419899344
          3.6239950657 -0.30487498641 0.76384800673 3.3760828972 -0.31359198689 0.77911198139
          3.6596939564 -0.24626901746 0.52350002527 3.3454549313 -0.14016999304 0.62486702204
          3.6239950657 -0.30487498641 0.76384800673 3.3454549313 -0.14016999304 0.62486702204
          3.6596939564 -0.24626901746 0.52350002527 3.4617619514 -0.034863006324 0.83526402712
          3.6239950657 -0.30487498641 0.76384800673 3.3760828972 -0.31359198689 0.77911198139
          3.3454549313 -0.14016999304 0.62486702204 3.4617619514 -0.034863006324 0.83526402712
          1.0725090504 -0.1251232028 -0.30668699741 1.0656369925 0.1378595978 -0.35818099976
          1.2925460339 -0.051271595061 -0.25956600904 1.1920820475 0.066462799907 -0.092215999961
          3.678497076 -0.014678004198 0.55156999826 3.4617619514 -0.034863006324 0.83526402712
          3.6596939564 -0.24626901746 0.52350002527 3.3454549313 -0.14016999304 0.62486702204
          3.678497076 -0.014678004198 0.55156999826 3.3454549313 -0.14016999304 0.62486702204
          3.6596939564 -0.24626901746 0.52350002527 3.5048649311 -0.11629401147 0.41244900227
          3.3454549313 -0.14016999304 0.62486702204 3.147439003 -0.0024279970676 0.66096997261
          3.4745230675 0.094017997384 0.40399199724 3.241795063 0.17628619075 0.51923000813
          1.8810739517 -0.025785999373 0.24052999914 2.0367250443 -0.15883000195 0.10807870328
          2.0858280659 0.031003998592 0.38727900386 2.2638959885 -0.015994004905 0.14143829048
          -2.9494459629 -0.043818198144 -0.28794598579 -2.7894101143 -0.19218939543 -0.12471599877
          -2.6104540825 0.0081983003765 -0.20189599693 -2.7312269211 -0.032895799726 -0.39067798853
          -2.9494459629 -0.043818198144 -0.28794598579 -2.7894101143 -0.19218939543 -0.12471599877
          -2.7312269211 -0.032895799726 -0.39067798853 -2.7287049294 -0.2789902091 -0.37658300996
          -2.8852050304 -0.13799700141 -0.5307559967 -2.7287049294 -0.2789902091 -0.37658300996
          -2.9494459629 -0.043818198144 -0.28794598579 -2.7312269211 -0.032895799726 -0.39067798853
          -2.7312269211 -0.032895799726 -0.39067798853 -2.7894101143 -0.19218939543 -0.12471599877
          -2.6104540825 0.0081983003765 -0.20189599693 -2.7287049294 -0.2789902091 -0.37658300996
          -2.7312269211 -0.032895799726 -0.39067798853 -2.7287049294 -0.2789902091 -0.37658300996
          -2.6104540825 0.0081983003765 -0.20189599693 -2.4884090424 -0.28845638037 -0.25028300285
          -2.4275128841 0.11600639671 -0.53692299128 -2.6104540825 0.0081983003765 -0.20189599693
          -2.7312269211 -0.032895799726 -0.39067798853 -2.707750082 0.14897160232 -0.50897496939
          -2.4275128841 0.11600639671 -0.53692299128 -2.7312269211 -0.032895799726 -0.39067798853
          -2.526927948 -0.09825039655 -0.49015599489 -2.707750082 0.14897160232 -0.50897496939
          -2.4275128841 0.11600639671 -0.53692299128 -2.6104540825 0.0081983003765 -0.20189599693
          -2.526927948 -0.09825039655 -0.49015599489 -2.7312269211 -0.032895799726 -0.39067798853
          0.24196699262 0.39278018475 -1.4639049768 0.046897001565 0.32769879699 -1.3547029495
          -0.080162003636 0.27255320549 -1.5318399668 -0.12036799639 0.50918620825 -1.5231349468
          0.24196699262 0.39278018475 -1.4639049768 0.2478390038 0.18538750708 -1.4635369778
          -0.080162003636 0.27255320549 -1.5318399668 0.046897001565 0.32769879699 -1.3547029495
          0.30814930797 0.31706541777 -1.2523280382 0.2478390038 0.18538750708 -1.4635369778
          0.24196699262 0.39278018475 -1.4639049768 0.046897001565 0.32769879699 -1.3547029495
          -0.12036799639 0.50918620825 -1.5231349468 0.046897001565 0.32769879699 -1.3547029495
          -0.080162003636 0.27255320549 -1.5318399668 -0.2287349999 0.24483269453 -1.2839930058
          -0.12036799639 0.50918620825 -1.5231349468 0.046897001565 0.32769879699 -1.3547029495
          -0.2287349999 0.24483269453 -1.2839930058 -0.20239399374 0.51886868477 -1.2246849537
          -0.12036799639 0.50918620825 -1.5231349468 0.015014999546 0.52284687757 -1.2964439392
          0.046897001565 0.32769879699 -1.3547029495 -0.20239399374 0.51886868477 -1.2246849537
          -1.6519750357 0.49484336376 -0.84614998102 -1.9829889536 0.48603790998 -0.84902697802
          -1.86886096 0.2922372818 -1.0309972763 -1.9395580292 0.48136660457 -1.0315306187
          -1.6519750357 0.49484336376 -0.84614998102 -1.9829889536 0.48603790998 -0.84902697802
          -1.6665450335 0.31891724467 -0.9786170125 -1.86886096 0.2922372818 -1.0309972763
          -1.6665450335 0.31891724467 -0.9786170125 -1.86886096 0.2922372818 -1.0309972763
          -1.8356319666 0.0078969011083 -1.0082437992 -1.6238960028 0.24829168618 -1.1837819815
          -1.86886096 0.2922372818 -1.0309972763 -1.9829889536 0.48603790998 -0.84902697802
          -2.0596408844 0.23887120187 -0.93493187428 -1.9395580292 0.48136660457 -1.0315306187
          -1.9395580292 0.48136660457 -1.0315306187 -2.0755507946 0.47351419926 -1.1557840109
          -2.0596408844 0.23887120187 -0.93493187428 -1.86886096 0.2922372818 -1.0309972763
          2.6370809078 0.64847302437 0.76524597406 3.0083858967 0.66490697861 0.78671127558
          2.7781450748 0.40818598866 0.68238705397 2.968873024 0.46700000763 0.87133789062
          2.9503769875 0.66597098112 0.50799697638 2.7781450748 0.40818598866 0.68238705397
          3.0083858967 0.66490697861 0.78671127558 2.968873024 0.46700000763 0.87133789062
          2.9503769875 0.66597098112 0.50799697638 2.968873024 0.46700000763 0.87133789062
          3.0083858967 0.66490697861 0.78671127558 3.0115010738 0.44793599844 0.41370400786
          2.9503769875 0.66597098112 0.50799697638 2.7781450748 0.40818598866 0.68238705397
          2.968873024 0.46700000763 0.87133789062 3.0115010738 0.44793599844 0.41370400786
          3.0115010738 0.44793599844 0.41370400786 2.7781450748 0.40818598866 0.68238705397
          2.968873024 0.46700000763 0.87133789062 3.1142799854 0.34143099189 0.65826201439
          3.0115010738 0.44793599844 0.41370400786 2.968873024 0.46700000763 0.87133789062
          3.0083858967 0.66490697861 0.78671127558 3.1142799854 0.34143099189 0.65826201439
          2.7781450748 0.40818598866 0.68238705397 3.1142799854 0.34143099189 0.65826201439
          3.0274419785 0.16455459595 0.84069955349 2.968873024 0.46700000763 0.87133789062
          2.7781450748 0.40818598866 0.68238705397 2.968873024 0.46700000763 0.87133789062
          3.0274419785 0.16455459595 0.84069955349 2.8959798813 0.32024499774 1.0456169844
          -2.8496210575 -0.34875020385 -0.099053002894 -2.9889519215 -0.24136529863 -0.040991000831
          -3.0166881084 -0.40625160933 -0.028389999643 -2.9584069252 -0.33283078671 -0.35879898071
          -2.8496210575 -0.34875020385 -0.099053002894 -2.9584069252 -0.33283078671 -0.35879898071
          -3.0166881084 -0.40625160933 -0.028389999643 -3.07508111 -0.50736320019 -0.289350003
          -2.8496210575 -0.34875020385 -0.099053002894 -3.07508111 -0.50736320019 -0.289350003
          -2.7235929966 -0.46752271056 -0.15234200656 -2.9584069252 -0.33283078671 -0.35879898071
          -2.7287049294 -0.2789902091 -0.37658300996 -2.8496210575 -0.34875020385 -0.099053002894
          -2.7235929966 -0.46752271056 -0.15234200656 -2.9584069252 -0.33283078671 -0.35879898071
          -2.7287049294 -0.2789902091 -0.37658300996 -2.9584069252 -0.33283078671 -0.35879898071
          -2.7235929966 -0.46752271056 -0.15234200656 -2.8012299538 -0.51003861427 -0.44231700897
          -2.9584069252 -0.33283078671 -0.35879898071 -3.07508111 -0.50736320019 -0.289350003
          -2.7235929966 -0.46752271056 -0.15234200656 -2.8012299538 -0.51003861427 -0.44231700897
          -2.9584069252 -0.33283078671 -0.35879898071 -3.1492960453 -0.20950199664 -0.30492499471
          -3.0166881084 -0.40625160933 -0.028389999643 -3.07508111 -0.50736320019 -0.289350003
          -2.9584069252 -0.33283078671 -0.35879898071 -2.9889519215 -0.24136529863 -0.040991000831
          -3.0166881084 -0.40625160933 -0.028389999643 -3.1492960453 -0.20950199664 -0.30492499471
          2.0367250443 -0.15883000195 0.10807870328 1.8071659803 -0.10879799724 -0.12797890604
          2.1427390575 -0.046670995653 -0.085950896144 2.0466160774 0.12520329654 0.090647503734
          5.0016570091 -0.09311401844 1.6771680117 5.1593341827 -0.012515998445 1.8333879709
          5.1637601852 -0.29948699474 1.865844965 4.9833068848 -0.29716300964 1.80032897
          4.8979010582 0.32311931252 1.3858200312 4.7563681602 0.41457000375 1.7243119478
          5.0031938553 0.28169769049 1.6652870178 4.8711438179 0.14351969957 1.5897270441
          1.8810739517 -0.025785999373 0.24052999914 1.8071659803 -0.10879799724 -0.12797890604
          2.0367250443 -0.15883000195 0.10807870328 2.0466160774 0.12520329654 0.090647503734
          2.1764740944 -0.18138699234 0.65020596981 1.8045516014 -0.25807699561 0.68097501993
          1.9639710188 -0.12883301079 0.49361902475 1.9269193411 -0.091003999114 0.78541302681
          1.9639710188 -0.12883301079 0.49361902475 2.1764740944 -0.18138699234 0.65020596981
          1.9269193411 -0.091003999114 0.78541302681 2.0687611103 0.17121970654 0.57191699743
          4.8979010582 0.32311931252 1.3858200312 5.1202697754 0.12177520245 1.4594299793
          4.8711438179 0.14351969957 1.5897270441 5.0031938553 0.28169769049 1.6652870178
          2.1764740944 -0.18138699234 0.65020596981 2.3737831116 -0.031773991883 0.64508098364
          2.0536108017 0.066548496485 0.89124602079 2.0687611103 0.17121970654 0.57191699743
          1.9269193411 -0.091003999114 0.78541302681 2.1764740944 -0.18138699234 0.65020596981
          2.0536108017 0.066548496485 0.89124602079 2.0687611103 0.17121970654 0.57191699743
          2.1764740944 -0.18138699234 0.65020596981 2.2867779732 -0.35515400767 0.54491502047
          2.5706369877 -0.14441801608 0.49783235788 2.2042989731 -0.13768899441 0.32803380489
          -4.5366792679 0.30343410373 -0.3805705905 -4.7094054222 0.49808984995 -0.25924840569
          -4.4399366379 0.49330413342 -0.36716800928 -4.5005278587 0.48635560274 -0.11545810103
          -4.4399366379 0.49330413342 -0.36716800928 -4.5005278587 0.48635560274 -0.11545810103
          -4.3815760612 0.24617770314 -0.19512629509 -4.5366792679 0.30343410373 -0.3805705905
          -4.7088990211 0.50314342976 -0.47985681891 -4.5312843323 0.49934783578 -0.58330410719
          -4.5366792679 0.30343410373 -0.3805705905 -4.4399366379 0.49330413342 -0.36716800928
          -4.5312843323 0.49934783578 -0.58330410719 -4.5366792679 0.30343410373 -0.3805705905
          -4.4399366379 0.49330413342 -0.36716800928 -4.3347187042 0.29005420208 -0.44296199083
          -1.5094130039 -0.50609952211 -0.78413200378 -1.5314699411 -0.26643535495 -0.78901797533
          -1.5901739597 -0.51384592056 -0.59615600109 -1.7413209677 -0.51405978203 -0.64742702246
          -2.6722416878 0.17765410244 -0.99963802099 -2.9489409924 0.21040900052 -1.2003070116
          -2.8605468273 0.030474800617 -1.0333030224 -2.7324504852 0.10715190321 -1.2788300514
          2.4290430546 0.64191198349 0.39004901052 2.7105460167 0.65613901615 0.34329998493
          2.7388780117 0.4845879972 0.20156900585 2.5486719608 0.4433940053 0.48740598559
          1.2987240553 -0.39872199297 -0.33902829885 1.2482960224 -0.40534371138 -0.12569999695
          1.0432590246 -0.41784200072 -0.18719400465 1.2570589781 -0.21799020469 -0.084225989878
          -2.825469017 0.27062919736 -0.34245297313 -2.9054839611 0.47552779317 -0.32576698065
          -3.0915300846 0.47361189127 -0.20009501278 -3.0384581089 0.17068129778 -0.37494298816
          -2.2852199078 -0.19466769695 -0.68211597204 -2.1525170803 -0.34244281054 -0.58914798498
          -2.247385025 -0.11254110187 -0.34903201461 -2.2290380001 -0.01067822054 -0.56298202276
          -2.1525170803 -0.34244281054 -0.58914798498 -2.2290380001 -0.01067822054 -0.56298202276
          -2.2852199078 -0.19466769695 -0.68211597204 -1.9959019423 -0.25378808379 -0.72344702482
          1.8531999588 0.48722600937 -0.73915499449 1.653785944 0.59295141697 -0.72733402252
          1.6138050556 0.3192229867 -0.46323099732 1.6266590357 0.45401710272 -0.88460201025
          -2.2852199078 -0.19466769695 -0.68211597204 -2.354665041 -0.32262691855 -0.86674439907
          -2.2919089794 -0.51172739267 -0.61034798622 -2.1525170803 -0.34244281054 -0.58914798498
          -2.0667660236 -0.090073294938 -0.4165340066 -2.2290380001 -0.01067822054 -0.56298202276
          -2.1525170803 -0.34244281054 -0.58914798498 -1.9959019423 -0.25378808379 -0.72344702482
          -2.1525170803 -0.34244281054 -0.58914798498 -2.0667660236 -0.090073294938 -0.4165340066
          -2.247385025 -0.11254110187 -0.34903201461 -2.2290380001 -0.01067822054 -0.56298202276
          -2.0667660236 -0.090073294938 -0.4165340066 -2.1998250484 -0.3150857985 -0.36672699451
          -2.1525170803 -0.34244281054 -0.58914798498 -2.247385025 -0.11254110187 -0.34903201461
          -2.1525170803 -0.34244281054 -0.58914798498 -2.2511439323 -0.51482909918 -0.38649699092
          -2.0423929691 -0.48994448781 -0.42611399293 -2.2919089794 -0.51172739267 -0.61034798622
          0.52286428213 -0.16449649632 -1.3978669643 0.5846940279 -0.39953100681 -1.38280797
          0.69177097082 -0.40261080861 -1.2026339769 0.77250897884 -0.18823230267 -1.3146259785
          1.1473189592 0.12026190013 -0.89047002792 1.1649719477 0.37054440379 -0.89170503616
          1.3943749666 0.35700458288 -1.0173640251 1.524772048 0.25381958485 -0.94698798656
          1.6116360426 0.12268330157 -0.90459799767 1.4835740328 -0.047832004726 -0.98587197065
          1.4039119482 0.11461269855 -1.0208369493 1.3628020287 0.069748699665 -0.7095310092
          1.4039119482 0.11461269855 -1.0208369493 1.3628020287 0.069748699665 -0.7095310092
          1.524772048 0.25381958485 -0.94698798656 1.6116360426 0.12268330157 -0.90459799767
          2.7543749809 0.16338352859 0.14366000891 2.7389440536 0.18060749769 -0.13687500358
          2.7524430752 -0.1180730015 -0.14809599519 2.9222569466 -0.035557992756 -0.016389999539
          2.9222569466 -0.035557992756 -0.016389999539 2.4627220631 0.06453820318 0.024974999949
          2.7524430752 -0.1180730015 -0.14809599519 2.7543749809 0.16338352859 0.14366000891
          2.7543749809 0.16338352859 0.14366000891 2.7389440536 0.18060749769 -0.13687500358
          2.9222569466 -0.035557992756 -0.016389999539 3.0217940807 0.11983050406 0.068121999502
          1.3943749666 0.35700458288 -1.0173640251 1.5066930056 0.24949200451 -0.69261598587
          1.6266590357 0.45401710272 -0.88460201025 1.524772048 0.25381958485 -0.94698798656
          1.524772048 0.25381958485 -0.94698798656 1.1649719477 0.37054440379 -0.89170503616
          1.3943749666 0.35700458288 -1.0173640251 1.5066930056 0.24949200451 -0.69261598587
          1.1473189592 0.12026190013 -0.89047002792 1.1649719477 0.37054440379 -0.89170503616
          1.524772048 0.25381958485 -0.94698798656 1.5066930056 0.24949200451 -0.69261598587
          1.1473189592 0.12026190013 -0.89047002792 1.5066930056 0.24949200451 -0.69261598587
          1.524772048 0.25381958485 -0.94698798656 1.3628020287 0.069748699665 -0.7095310092
          1.1473189592 0.12026190013 -0.89047002792 1.2616900206 0.31878641248 -0.65477597713
          1.5066930056 0.24949200451 -0.69261598587 1.3628020287 0.069748699665 -0.7095310092
          1.1473189592 0.12026190013 -0.89047002792 1.1649719477 0.37054440379 -0.89170503616
          1.5066930056 0.24949200451 -0.69261598587 1.2616900206 0.31878641248 -0.65477597713
          1.5066930056 0.24949200451 -0.69261598587 1.1649719477 0.37054440379 -0.89170503616
          1.3943749666 0.35700458288 -1.0173640251 1.2616900206 0.31878641248 -0.65477597713
          1.2616900206 0.31878641248 -0.65477597713 1.303779006 0.10932320356 -0.39463099837
          1.5066930056 0.24949200451 -0.69261598587 1.3628020287 0.069748699665 -0.7095310092
          1.6323230267 0.075184799731 -0.62727099657 1.5066930056 0.24949200451 -0.69261598587
          1.303779006 0.10932320356 -0.39463099837 1.3628020287 0.069748699665 -0.7095310092
          1.3628020287 0.069748699665 -0.7095310092 1.6323230267 0.075184799731 -0.62727099657
          1.5066930056 0.24949200451 -0.69261598587 1.6116360426 0.12268330157 -0.90459799767
          1.3628020287 0.069748699665 -0.7095310092 1.5066930056 0.24949200451 -0.69261598587
          1.524772048 0.25381958485 -0.94698798656 1.6116360426 0.12268330157 -0.90459799767
          1.524772048 0.25381958485 -0.94698798656 1.5066930056 0.24949200451 -0.69261598587
          1.7081429958 0.28754499555 -0.84163600206 1.6116360426 0.12268330157 -0.90459799767
          1.524772048 0.25381958485 -0.94698798656 1.5066930056 0.24949200451 -0.69261598587
          1.6266590357 0.45401710272 -0.88460201025 1.7081429958 0.28754499555 -0.84163600206
          1.8531999588 0.48722600937 -0.73915499449 1.5066930056 0.24949200451 -0.69261598587
          1.7081429958 0.28754499555 -0.84163600206 1.6266590357 0.45401710272 -0.88460201025
          1.8531999588 0.48722600937 -0.73915499449 1.6138050556 0.3192229867 -0.46323099732
          1.5066930056 0.24949200451 -0.69261598587 1.6266590357 0.45401710272 -0.88460201025
          1.8531999588 0.48722600937 -0.73915499449 1.6138050556 0.3192229867 -0.46323099732
          1.7081429958 0.28754499555 -0.84163600206 1.5066930056 0.24949200451 -0.69261598587
          1.6138050556 0.3192229867 -0.46323099732 1.8443620205 0.16656500101 -0.47324600816
          1.7081429958 0.28754499555 -0.84163600206 1.5066930056 0.24949200451 -0.69261598587
          1.5066930056 0.24949200451 -0.69261598587 1.8443620205 0.16656500101 -0.47324600816
          1.7081429958 0.28754499555 -0.84163600206 1.8392709494 0.14722080529 -0.76449400187
          1.5066930056 0.24949200451 -0.69261598587 1.8392709494 0.14722080529 -0.76449400187
          1.7081429958 0.28754499555 -0.84163600206 1.6116360426 0.12268330157 -0.90459799767
          1.6323230267 0.075184799731 -0.62727099657 1.8392709494 0.14722080529 -0.76449400187
          1.5066930056 0.24949200451 -0.69261598587 1.6116360426 0.12268330157 -0.90459799767
          1.6323230267 0.075184799731 -0.62727099657 1.8443620205 0.16656500101 -0.47324600816
          1.5066930056 0.24949200451 -0.69261598587 1.8392709494 0.14722080529 -0.76449400187
          -2.2431271076 0.16042180359 -0.71514201164 -2.1832900047 0.29363209009 -0.3768529892
          -2.2290380001 -0.01067822054 -0.56298202276 -2.3634879589 0.31209561229 -0.49861198664
          -2.3374700546 0.48206248879 -0.62753897905 -2.1107180119 0.488994807 -0.53275901079
          -2.0370030403 0.2986676991 -0.69848400354 -2.3634879589 0.31209561229 -0.49861198664
          -2.5196659565 0.24592778087 -0.72205346823 -2.707750082 0.14897160232 -0.50897496939
          -2.3634879589 0.31209561229 -0.49861198664 -2.4275128841 0.11600639671 -0.53692299128
          -2.3374700546 0.48206248879 -0.62753897905 -2.5196659565 0.24592778087 -0.72205346823
          -2.5764689445 0.47962999344 -0.47001102567 -2.3634879589 0.31209561229 -0.49861198664
          -2.3374700546 0.48206248879 -0.62753897905 -2.5764689445 0.47962999344 -0.47001102567
          -2.4234828949 0.48320311308 -0.38506999612 -2.3634879589 0.31209561229 -0.49861198664
          -2.3374700546 0.48206248879 -0.62753897905 -2.3634879589 0.31209561229 -0.49861198664
          -2.2431271076 0.16042180359 -0.71514201164 -2.5196659565 0.24592778087 -0.72205346823
          3.6095719337 0.49926799536 0.86267101765 3.8292720318 0.70746701956 0.84424501657
          3.9433920383 0.50324100256 0.79245001078 3.8493919373 0.50689595938 1.0418950319
          3.6306459904 0.69331997633 0.9852989912 3.8292720318 0.70746701956 0.84424501657
          3.6095719337 0.49926799536 0.86267101765 3.8493919373 0.50689595938 1.0418950319
          3.6544830799 0.36574301124 1.0680350065 3.6306459904 0.69331997633 0.9852989912
          3.6095719337 0.49926799536 0.86267101765 3.8493919373 0.50689595938 1.0418950319
          -2.3634879589 0.31209561229 -0.49861198664 -2.4275128841 0.11600639671 -0.53692299128
          -2.2431271076 0.16042180359 -0.71514201164 -2.5196659565 0.24592778087 -0.72205346823
          3.6058731079 0.68220502138 1.2335082293 3.6306459904 0.69331997633 0.9852989912
          3.6544830799 0.36574301124 1.0680350065 3.8493919373 0.50689595938 1.0418950319
          3.6058731079 0.68220502138 1.2335082293 3.6306459904 0.69331997633 0.9852989912
          3.8493919373 0.50689595938 1.0418950319 3.7856199741 0.69599997997 1.1387779713
          3.6306459904 0.69331997633 0.9852989912 3.8292720318 0.70746701956 0.84424501657
          3.8493919373 0.50689595938 1.0418950319 3.7856199741 0.69599997997 1.1387779713
          3.8493919373 0.50689595938 1.0418950319 3.9791870117 0.71098798513 1.0759580135
          3.9769608974 0.41242301464 1.2358649969 3.9909090996 0.69799000025 1.3503149748
          -1.7574769258 -0.32169941068 -1.3376590014 -1.9633500576 -0.49727156758 -1.0658731461
          -1.7530180216 -0.49406966567 -1.0832090378 -1.6530690193 -0.4847458899 -1.2544569969
          -1.7574769258 -0.32169941068 -1.3376590014 -1.7530180216 -0.49406966567 -1.0832090378
          -1.5769430399 -0.27982699871 -1.0531499386 -1.6530690193 -0.4847458899 -1.2544569969
          -1.8587261438 -0.19973695278 -1.1918489933 -1.7530180216 -0.49406966567 -1.0832090378
          -1.5769430399 -0.27982699871 -1.0531499386 -1.7574769258 -0.32169941068 -1.3376590014
          -1.8587261438 -0.19973695278 -1.1918489933 -2.0235655308 -0.33051469922 -1.2762329578
          -1.7530180216 -0.49406966567 -1.0832090378 -1.7574769258 -0.32169941068 -1.3376590014
          -1.856298089 -0.15979887545 -1.5231399536 -2.0235655308 -0.33051469922 -1.2762329578
          -1.8587261438 -0.19973695278 -1.1918489933 -1.7574769258 -0.32169941068 -1.3376590014
          -2.0235655308 -0.33051469922 -1.2762329578 -1.9633500576 -0.49727156758 -1.0658731461
          -1.7530180216 -0.49406966567 -1.0832090378 -1.7574769258 -0.32169941068 -1.3376590014
          -2.0235655308 -0.33051469922 -1.2762329578 -1.925401926 -0.48173299432 -1.4075479507
          -1.9633500576 -0.49727156758 -1.0658731461 -1.7574769258 -0.32169941068 -1.3376590014
          0.76020401716 -0.4297708869 -0.45740100741 0.51021200418 -0.21610671282 -0.49635899067
          0.76676100492 -0.1134057045 -0.50795000792 0.85404402018 -0.22467930615 -0.32312399149
          0.85404402018 -0.22467930615 -0.32312399149 0.76020401716 -0.4297708869 -0.45740100741
          0.93293100595 -0.41566240788 -0.55624979734 0.76676100492 -0.1134057045 -0.50795000792
          0.85404402018 -0.22467930615 -0.32312399149 1.0542720556 -0.20917788148 -0.54995292425
          0.76676100492 -0.1134057045 -0.50795000792 0.93293100595 -0.41566240788 -0.55624979734
          -3.0947728157 0.28662750125 -0.90678101778 -3.0872220993 0.1026121974 -1.1435060501
          -3.1125445366 -0.042645700276 -0.91890496016 -2.9588835239 0.10583119839 -0.81790500879
          -3.4188709259 -0.052383501083 -0.084667012095 -3.3219630718 -0.30692452192 -0.14970101416
          -3.2750339508 -0.14621569216 0.072559997439 -3.0977869034 -0.10610190034 0.0021150000393
          -0.76281398535 0.3376955986 -0.79411798716 -0.97820800543 0.24167840183 -0.90613996983
          -1.0079799891 0.43430522084 -0.63536000252 -0.80769598484 0.2091087997 -0.62626999617
          -0.76281398535 0.3376955986 -0.79411798716 -0.84249997139 0.26520928741 -1.1529723406
          -0.97820800543 0.24167840183 -0.90613996983 -0.69384098053 0.20343409479 -0.94639998674
          -0.65340101719 0.52587407827 -0.79267400503 -0.78456199169 0.49820140004 -0.62747001648
          -0.61500298977 0.28469419479 -0.60780000687 -0.76281398535 0.3376955986 -0.79411798716
          -0.65340101719 0.52587407827 -0.79267400503 -0.76281398535 0.3376955986 -0.79411798716
          -0.61500298977 0.28469419479 -0.60780000687 -0.5591750145 0.32877069712 -0.824015975
          -0.76281398535 0.3376955986 -0.79411798716 -0.65340101719 0.52587407827 -0.79267400503
          -0.60533702374 0.52063310146 -1.0015729666 -0.5591750145 0.32877069712 -0.824015975
          -4.3393721581 0.42342635989 -0.65198898315 -4.1749300957 0.29747289419 -0.70561802387
          -4.3347187042 0.29005420208 -0.44296199083 -4.1332221031 0.29565098882 -0.49425297976
          -0.84227001667 0.51791298389 -0.87789303064 -0.78456199169 0.49820140004 -0.62747001648
          -0.65340101719 0.52587407827 -0.79267400503 -0.76281398535 0.3376955986 -0.79411798716
          -4.7578816414 0.28667363524 -0.042721800506 -4.7775506973 -0.01067915 -0.02922873944
          -5 0.15884299576 0.21330599487 -4.6535224915 0.13568019867 0.13374620676
          -4.7578816414 0.28667363524 -0.042721800506 -4.7775506973 -0.01067915 -0.02922873944
          -5 0.28975299001 0.088944099844 -5 0.15884299576 0.21330599487
          -0.78097099066 -0.028601998463 -0.62437999249 -1.0281820297 -0.050216499716 -0.63028001785
          -0.96335202456 -0.23516255617 -0.63407999277 -0.9426779747 -0.20086880028 -0.89714598656
          2.5381810665 0.37671899796 0.083356015384 2.551858902 0.38516098261 -0.25988900661
          2.6001980305 0.64967000484 -0.17084601521 2.4292700291 0.64129698277 -0.068533986807
          2.4292700291 0.64129698277 -0.068533986807 2.551858902 0.38516098261 -0.25988900661
          2.6001980305 0.64967000484 -0.17084601521 2.2999079227 0.63358300924 -0.23076201975
          4.6524858475 0.67294102907 2.2563040257 4.420935154 0.65521502495 2.2197909355
          4.486289978 0.48828300834 2.4170000553 4.402616024 0.45689401031 2.1667981148
          3.8874111176 0.63993400335 2.0479431152 3.5524427891 0.59926497936 1.9792000055
          3.9373788834 0.45778700709 1.9478909969 3.6992878914 0.65348899364 1.8166350126
          3.8874111176 0.63993400335 2.0479431152 3.9373788834 0.45778700709 1.9478909969
          3.9967598915 0.6620669961 1.8450440168 3.6992878914 0.65348899364 1.8166350126
          -3.1125445366 -0.042645700276 -0.91890496016 -2.9707868099 -0.088433094323 -0.74900501966
          -3.0438988209 -0.31679549813 -0.92314600945 -3.1669573784 -0.19655050337 -0.74350303411
          -0.97820800543 0.24167840183 -0.90613996983 -1.0616509914 0.19502159953 -0.62691998482
          -1.1171029806 0.13310749829 -0.81390601397 -1.1999200583 0.31322172284 -0.84429401159
          3.6992878914 0.65348899364 1.8166350126 3.5121660233 0.42270597816 1.6780580282
          3.8146090508 0.38017898798 1.7155710459 3.8356730938 0.6680150032 1.6421200037
          3.6992878914 0.65348899364 1.8166350126 3.5121660233 0.42270597816 1.6780580282
          3.5512509346 0.3587679863 1.954660058 3.8146090508 0.38017898798 1.7155710459
          1.0656369925 0.1378595978 -0.35818099976 1.1137839556 0.31430581212 -0.23879601061
          1.303779006 0.10932320356 -0.39463099837 1.1920820475 0.066462799907 -0.092215999961
          0.0018850000342 -0.13561350107 -0.81675201654 0.13939720392 0.18482199311 -0.80818897486
          -0.027907999232 0.12770339847 -0.67658001184 0.060910001397 0.064430199564 -1.0059714317
          0.0018850000342 -0.13561350107 -0.81675201654 -0.027907999232 0.12770339847 -0.67658001184
          -0.19524599612 0.051735099405 -0.78870302439 0.060910001397 0.064430199564 -1.0059714317
          -0.19524599612 0.051735099405 -0.78870302439 -0.027907999232 0.12770339847 -0.67658001184
          -0.098812997341 0.27493330836 -0.95051121712 0.060910001397 0.064430199564 -1.0059714317
          -0.027907999232 0.12770339847 -0.67658001184 -0.19524599612 0.051735099405 -0.78870302439
          -0.098812997341 0.27493330836 -0.95051121712 -0.24963200092 0.28975039721 -0.72652798891
          -0.032131001353 0.33743911982 -0.72442996502 -0.027907999232 0.12770339847 -0.67658001184
          -0.098812997341 0.27493330836 -0.95051121712 -0.24963200092 0.28975039721 -0.72652798891
          -0.098812997341 0.27493330836 -0.95051121712 -0.027907999232 0.12770339847 -0.67658001184
          -0.032131001353 0.33743911982 -0.72442996502 0.13939720392 0.18482199311 -0.80818897486
          -0.027907999232 0.12770339847 -0.67658001184 0.13939720392 0.18482199311 -0.80818897486
          -0.098812997341 0.27493330836 -0.95051121712 0.060910001397 0.064430199564 -1.0059714317
          -0.027907999232 0.12770339847 -0.67658001184 0.18104350567 0.33106470108 -0.62392002344
          -0.032131001353 0.33743911982 -0.72442996502 0.13939720392 0.18482199311 -0.80818897486
          -0.027907999232 0.12770339847 -0.67658001184 0.16142000258 0.02375430055 -0.62841498852
          0.18104350567 0.33106470108 -0.62392002344 0.13939720392 0.18482199311 -0.80818897486
          -0.027907999232 0.12770339847 -0.67658001184 0.16142000258 0.02375430055 -0.62841498852
          0.13325339556 0.2185369879 -0.41051501036 0.18104350567 0.33106470108 -0.62392002344
          -0.027907999232 0.12770339847 -0.67658001184 -0.025832999498 0.026944899932 -0.47304499149
          0.13325339556 0.2185369879 -0.41051501036 0.16142000258 0.02375430055 -0.62841498852
          -4.3315758705 -0.16536140442 0.15697599947 -4.4754362106 -0.32264238596 0.12133580446
          -4.4544172287 -0.23605190217 0.42361399531 -4.323428154 -0.48470199108 0.21382179856
          -4.4754362106 -0.32264238596 0.12133580446 -4.3315758705 -0.16536140442 0.15697599947
          -4.2066240311 -0.3275590539 0.070990994573 -4.323428154 -0.48470199108 0.21382179856
          2.457036972 -0.14717501402 0.22073699534 2.4003479481 -0.15540499985 -0.052411012352
          2.8178238869 -0.16496701539 0.18457700312 2.7524430752 -0.1180730015 -0.14809599519
          2.457036972 -0.14717501402 0.22073699534 2.4003479481 -0.15540499985 -0.052411012352
          2.7300450802 -0.33142000437 0.036656998098 2.8178238869 -0.16496701539 0.18457700312
          2.8178238869 -0.16496701539 0.18457700312 2.4716699123 -0.34356799722 0.095425002277
          2.7300450802 -0.33142000437 0.036656998098 2.457036972 -0.14717501402 0.22073699534
          2.5268170834 -0.3430339992 0.35616520047 2.4716699123 -0.34356799722 0.095425002277
          2.8178238869 -0.16496701539 0.18457700312 2.457036972 -0.14717501402 0.22073699534
          2.8178238869 -0.16496701539 0.18457700312 2.5706369877 -0.14441801608 0.49783235788
          2.5268170834 -0.3430339992 0.35616520047 2.457036972 -0.14717501402 0.22073699534
          2.5268170834 -0.3430339992 0.35616520047 2.8988618851 -0.32689899206 0.32881501317
          2.5706369877 -0.14441801608 0.49783235788 2.8178238869 -0.16496701539 0.18457700312
          2.5268170834 -0.3430339992 0.35616520047 2.8178238869 -0.16496701539 0.18457700312
          2.7300450802 -0.33142000437 0.036656998098 2.8988618851 -0.32689899206 0.32881501317
          2.5268170834 -0.3430339992 0.35616520047 2.4716699123 -0.34356799722 0.095425002277
          2.7300450802 -0.33142000437 0.036656998098 2.8178238869 -0.16496701539 0.18457700312
          2.5706369877 -0.14441801608 0.49783235788 2.846298933 -0.090493999422 0.57238131762
          2.8178238869 -0.16496701539 0.18457700312 2.8988618851 -0.32689899206 0.32881501317
          2.8178238869 -0.16496701539 0.18457700312 2.8988618851 -0.32689899206 0.32881501317
          2.846298933 -0.090493999422 0.57238131762 3.0362560749 -0.12312699854 0.36283898354
          2.8178238869 -0.16496701539 0.18457700312 2.4003479481 -0.15540499985 -0.052411012352
          2.7300450802 -0.33142000437 0.036656998098 2.7524430752 -0.1180730015 -0.14809599519
          2.8178238869 -0.16496701539 0.18457700312 2.7524430752 -0.1180730015 -0.14809599519
          2.7300450802 -0.33142000437 0.036656998098 3.0622529984 -0.15697599947 0.078552998602
          -0.38811999559 -0.14212410152 -1.2827340364 -0.61719799042 -0.039664398879 -1.1887242794
          -0.56551098824 -0.25506937504 -1.2119810581 -0.55726397038 -0.032617900521 -1.40318501
          -0.38811999559 -0.14212410152 -1.2827340364 -0.53049099445 -0.25941371918 -1.4260540009
          -0.56551098824 -0.25506937504 -1.2119810581 -0.36334300041 -0.45349159837 -1.1892901659
          -0.53049099445 -0.25941371918 -1.4260540009 -0.63469898701 -0.45314198732 -1.3848659992
          -0.73458898067 -0.17205369473 -1.327262044 -0.56551098824 -0.25506937504 -1.2119810581
          2.968873024 0.46700000763 0.87133789062 2.7331340313 0.47387900949 1.1153179407
          2.7781450748 0.40818598866 0.68238705397 2.5400059223 0.47935000062 0.92150700092
          2.968873024 0.46700000763 0.87133789062 2.8959798813 0.32024499774 1.0456169844
          2.7781450748 0.40818598866 0.68238705397 2.7331340313 0.47387900949 1.1153179407
          2.7331340313 0.47387900949 1.1153179407 2.8959798813 0.32024499774 1.0456169844
          2.7781450748 0.40818598866 0.68238705397 2.5400059223 0.47935000062 0.92150700092
          2.8959798813 0.32024499774 1.0456169844 2.7331340313 0.47387900949 1.1153179407
          2.5839250088 0.25846800208 0.93122702837 2.5400059223 0.47935000062 0.92150700092
          2.8959798813 0.32024499774 1.0456169844 2.7450699806 0.13935770094 1.1011400223
          2.5839250088 0.25846800208 0.93122702837 2.7331340313 0.47387900949 1.1153179407
          2.8959798813 0.32024499774 1.0456169844 2.7450699806 0.13935770094 1.1011400223
          2.7331340313 0.47387900949 1.1153179407 2.5472946167 0.21848860383 1.2638469934
          2.7331340313 0.47387900949 1.1153179407 2.7450699806 0.13935770094 1.1011400223
          2.5839250088 0.25846800208 0.93122702837 2.5472946167 0.21848860383 1.2638469934
          2.5472946167 0.21848860383 1.2638469934 2.5839250088 0.25846800208 0.93122702837
          2.7331340313 0.47387900949 1.1153179407 2.430131197 0.43304201961 1.193819046
          2.7331340313 0.47387900949 1.1153179407 2.430131197 0.43304201961 1.193819046
          2.5839250088 0.25846800208 0.93122702837 2.5400059223 0.47935000062 0.92150700092
          3.89149189 -0.08670001477 1.8603260517 4.0440011024 0.18789739907 1.9961689711
          4.0169057846 0.0046400059946 2.1881299019 3.8050630093 0.010312004946 2.0734400749
          3.89149189 -0.08670001477 1.8603260517 4.0440011024 0.18789739907 1.9961689711
          4.1488780975 -0.13552299142 1.9172199965 4.0169057846 0.0046400059946 2.1881299019
          4.3348088264 0.0020780034829 2.0050890446 4.0169057846 0.0046400059946 2.1881299019
          4.1488780975 -0.13552299142 1.9172199965 4.0440011024 0.18789739907 1.9961689711
          4.3348088264 0.0020780034829 2.0050890446 4.1594829559 0.12733019888 2.2602200508
          4.0169057846 0.0046400059946 2.1881299019 4.0440011024 0.18789739907 1.9961689711
          -3.7306609154 -0.49806988239 0.0059669911861 -3.7600250244 -0.42104199529 0.24891600013
          -3.7831549644 -0.23498553038 -0.042289998382 -3.564964056 -0.31996080279 -0.046510994434
          -3.7306609154 -0.49806988239 0.0059669911861 -3.7600250244 -0.42104199529 0.24891600013
          -3.564964056 -0.31996080279 -0.046510994434 -3.5015048981 -0.45679572225 0.16008099914
          -3.564964056 -0.31996080279 -0.046510994434 -3.7600250244 -0.42104199529 0.24891600013
          -3.5088529587 -0.28569889069 0.1608529985 -3.5015048981 -0.45679572225 0.16008099914
          -3.564964056 -0.31996080279 -0.046510994434 -3.5015048981 -0.45679572225 0.16008099914
          -3.5088529587 -0.28569889069 0.1608529985 -3.3116250038 -0.30738094449 0.088941000402
          5.2795748711 0.19745920599 1.7484179735 5.1686019897 0.14154189825 2.0466096401
          5.1593341827 -0.012515998445 1.8333879709 4.9797067642 0.10058799386 1.780706048
          5.2795748711 0.19745920599 1.7484179735 4.9797067642 0.10058799386 1.780706048
          5.1593341827 -0.012515998445 1.8333879709 5.1202697754 0.12177520245 1.4594299793
          -3.564964056 -0.31996080279 -0.046510994434 -3.6423470974 -0.017455210909 -0.0356920138
          -3.4230210781 -0.045196000487 0.12691999972 -3.5088529587 -0.28569889069 0.1608529985
          -3.5088529587 -0.28569889069 0.1608529985 -3.564964056 -0.31996080279 -0.046510994434
          -3.6423470974 -0.017455210909 -0.0356920138 -3.6694390774 -0.1800750196 0.2162040025
          -3.564964056 -0.31996080279 -0.046510994434 -3.7600250244 -0.42104199529 0.24891600013
          -3.6694390774 -0.1800750196 0.2162040025 -3.5088529587 -0.28569889069 0.1608529985
          -3.7831549644 -0.23498553038 -0.042289998382 -3.7600250244 -0.42104199529 0.24891600013
          -3.6694390774 -0.1800750196 0.2162040025 -3.564964056 -0.31996080279 -0.046510994434
          -3.564964056 -0.31996080279 -0.046510994434 -3.7831549644 -0.23498553038 -0.042289998382
          -3.6423470974 -0.017455210909 -0.0356920138 -3.6694390774 -0.1800750196 0.2162040025
          4.5205311775 0.023049006239 2.42572999 4.4526658058 0.17872619629 2.428800106
          4.5650310516 0.20493909717 2.2137980461 4.6255760193 0.29108199477 2.428800106
          4.6255760193 0.29108199477 2.428800106 4.7728209496 0.11897029728 2.42572999
          4.5650310516 0.20493909717 2.2137980461 4.5205311775 0.023049006239 2.42572999
          4.6255760193 0.29108199477 2.428800106 4.7728209496 0.11897029728 2.42572999
          4.7842068672 0.23646980524 2.2136070728 4.5650310516 0.20493909717 2.2137980461
          4.5650310516 0.20493909717 2.2137980461 4.7806420326 0.47793102264 2.2329978943
          4.7842068672 0.23646980524 2.2136070728 4.6255760193 0.29108199477 2.428800106
          4.7728209496 0.11897029728 2.42572999 4.7842068672 0.23646980524 2.2136070728
          4.5650310516 0.20493909717 2.2137980461 4.7630262375 -0.078894995153 2.2290580273
          4.7728209496 0.11897029728 2.42572999 4.7630262375 -0.078894995153 2.2290580273
          4.5650310516 0.20493909717 2.2137980461 4.5205311775 0.023049006239 2.42572999
          4.5650310516 0.20493909717 2.2137980461 4.7630262375 -0.078894995153 2.2290580273
          4.659427166 0.057737004012 2.0819699764 4.5205311775 0.023049006239 2.42572999
          4.5650310516 0.20493909717 2.2137980461 4.7842068672 0.23646980524 2.2136070728
          4.659427166 0.057737004012 2.0819699764 4.7630262375 -0.078894995153 2.2290580273
          4.5650310516 0.20493909717 2.2137980461 4.3718128204 0.25128540397 2.104501009
          4.4655342102 0.20313693583 1.8080023527 4.7131490707 0.21425390244 1.868008852
          4.5650310516 0.20493909717 2.2137980461 4.3718128204 0.25128540397 2.104501009
          4.7131490707 0.21425390244 1.868008852 4.6265969276 0.37918898463 2.0835940838
          3.2712409496 -0.069230996072 1.0871679783 2.9346859455 -0.010064994916 1.0378210545
          2.9196689129 -0.13256700337 1.2476739883 3.0215229988 -0.32744300365 0.94604861736
          2.9196689129 -0.13256700337 1.2476739883 2.7898700237 -0.33725899458 1.0498950481
          3.0215229988 -0.32744300365 0.94604861736 2.9346859455 -0.010064994916 1.0378210545
          2.9196689129 -0.13256700337 1.2476739883 2.6176869869 -0.096157990396 0.89440202713
          2.7898700237 -0.33725899458 1.0498950481 2.9346859455 -0.010064994916 1.0378210545
          2.666932106 -0.11324400455 1.3288810253 2.6176869869 -0.096157990396 0.89440202713
          2.7898700237 -0.33725899458 1.0498950481 2.9196689129 -0.13256700337 1.2476739883
          2.9925808907 -0.33054500818 1.2736970186 2.7898700237 -0.33725899458 1.0498950481
          3.0215229988 -0.32744300365 0.94604861736 2.9196689129 -0.13256700337 1.2476739883
          2.9196689129 -0.13256700337 1.2476739883 2.9925808907 -0.33054500818 1.2736970186
          3.2109239101 -0.32089099288 1.1309139729 3.0215229988 -0.32744300365 0.94604861736
          2.9925808907 -0.33054500818 1.2736970186 3.2109239101 -0.32089099288 1.1309139729
          3.1324748993 -0.012670002878 1.333466053 2.9196689129 -0.13256700337 1.2476739883
          2.9925808907 -0.33054500818 1.2736970186 3.1324748993 -0.012670002878 1.333466053
          3.2492110729 -0.32095301151 1.4265520573 2.9196689129 -0.13256700337 1.2476739883
          -0.7906640172 -0.26609754562 -0.63226997852 -1.0522500277 -0.4041929543 -0.63874000311
          -0.81605601311 -0.49181076884 -0.80724596977 -0.96335202456 -0.23516255617 -0.63407999277
          2.1746091843 0.4260700047 1.0060030222 2.3112504482 0.13608121872 0.81553798914
          2.387912035 0.31022301316 0.66756099463 2.0595760345 0.26341798902 0.90939098597
          2.1254868507 0.43120700121 0.6656140089 2.0595760345 0.26341798902 0.90939098597
          2.387912035 0.31022301316 0.66756099463 2.0687611103 0.17121970654 0.57191699743
          2.1685369015 0.31989699602 -0.53797519207 2.2489070892 0.1272508949 -0.49432817101
          1.8443620205 0.16656500101 -0.47324600816 2.1084809303 0.16455329955 -0.24006199837
          2.0917739868 0.6197360158 -0.41446819901 1.9701869488 0.36129301786 -0.32886689901
          2.2756080627 0.47857099771 -0.45266869664 2.0675830841 0.47905999422 -0.59778189659
          1.8443030119 0.60612398386 -0.54030299187 2.0675830841 0.47905999422 -0.59778189659
          1.9701869488 0.36129301786 -0.32886689901 2.0917739868 0.6197360158 -0.41446819901
          1.8443030119 0.60612398386 -0.54030299187 2.0675830841 0.47905999422 -0.59778189659
          1.8531999588 0.48722600937 -0.73915499449 1.9594429731 0.31532198191 -0.67937397957
          1.8443030119 0.60612398386 -0.54030299187 1.9594429731 0.31532198191 -0.67937397957
          1.9701869488 0.36129301786 -0.32886689901 2.0675830841 0.47905999422 -0.59778189659
          2.0675830841 0.47905999422 -0.59778189659 1.9701869488 0.36129301786 -0.32886689901
          2.1685369015 0.31989699602 -0.53797519207 1.9594429731 0.31532198191 -0.67937397957
          2.0675830841 0.47905999422 -0.59778189659 1.9701869488 0.36129301786 -0.32886689901
          2.2756080627 0.47857099771 -0.45266869664 2.1685369015 0.31989699602 -0.53797519207
          -4.8289003372 0.15818049014 0.46990901232 -4.6535224915 0.13568019867 0.13374620676
          -4.5989289284 0.15179400146 0.43534138799 -4.7318658829 0.32032591105 0.23805809021
          -4.4056830406 0.16206969321 0.40360671282 -4.4574508667 0.019598178566 0.2031301856
          -4.5989289284 0.15179400146 0.43534138799 -4.4093670845 -0.040471538901 0.40553438663
          -4.3193311691 0.46817699075 0.36364999413 -4.3490223885 0.21022440493 0.13521999121
          -4.4553132057 0.33380118012 0.41776010394 -4.1121020317 0.25860318542 0.34374800324
          -4.6802415848 -0.16959774494 -0.21772760153 -4.6099963188 -0.51237237453 -0.2558003962
          -4.7666764259 -0.51139259338 -0.25473800302 -4.6228103638 -0.50389355421 -0.10335719585
          -2.4344344139 0.47441139817 -0.8509837985 -2.5196659565 0.24592778087 -0.72205346823
          -2.4830985069 0.14539518952 -0.90576428175 -2.6201217175 0.47078740597 -0.97456198931
          -3.6431386471 0.012811898254 -0.67573601007 -3.6200819016 -0.16615739465 -0.5608189702
          -3.4256296158 -0.04080190137 -0.73200601339 -3.4521927834 -0.28309810162 -0.73375397921
          -3.5243430138 -0.15946990252 -0.9610850215 -3.6431386471 0.012811898254 -0.67573601007
          -3.4256296158 -0.04080190137 -0.73200601339 -3.4521927834 -0.28309810162 -0.73375397921
          -3.5243430138 -0.15946990252 -0.9610850215 -3.6200819016 -0.16615739465 -0.5608189702
          -3.6431386471 0.012811898254 -0.67573601007 -3.4521927834 -0.28309810162 -0.73375397921
          -3.6431386471 0.012811898254 -0.67573601007 -3.8355240822 -0.29797300696 -0.83261597157
          -3.8928060532 -0.036693397909 -0.81056702137 -3.6200819016 -0.16615739465 -0.5608189702
          2.355743885 -0.0222629942 1.108060956 2.1027405262 -0.096268005669 0.91622400284
          2.3880560398 -0.17542900145 0.81797897816 2.3112504482 0.13608121872 0.81553798914
          -1.8840471506 -0.017964780331 -1.309893012 -2.1130719185 -0.047264300287 -1.1963629723
          -2.0357840061 -0.027981799096 -1.4841450453 -2.041049242 0.1184957996 -1.4851289988
          -1.3511379957 -0.033111680299 -1.0856614113 -1.2506010532 -0.14467050135 -1.2530030012
          -1.225301981 -0.29465007782 -1.0979983807 -1.1468379498 -0.10479596257 -1.0598422289
          -1.3511379957 -0.033111680299 -1.0856614113 -1.2506010532 -0.14467050135 -1.2530030012
          -1.1468379498 -0.10479596257 -1.0598422289 -1.1318500042 0.052193719894 -1.1925956011
          -1.1468379498 -0.10479596257 -1.0598422289 -1.2506010532 -0.14467050135 -1.2530030012
          -1.0050040483 -0.23432028294 -1.1520009041 -1.1318500042 0.052193719894 -1.1925956011
          -1.1468379498 -0.10479596257 -1.0598422289 -1.1318500042 0.052193719894 -1.1925956011
          -1.0050040483 -0.23432028294 -1.1520009041 -0.89497202635 0.0030651004054 -1.1271020174
          -1.1468379498 -0.10479596257 -1.0598422289 -1.0050040483 -0.23432028294 -1.1520009041
          -0.9426779747 -0.20086880028 -0.89714598656 -0.89497202635 0.0030651004054 -1.1271020174
          -0.96815401316 0.02664539963 -0.92440497875 -1.1468379498 -0.10479596257 -1.0598422289
          -0.9426779747 -0.20086880028 -0.89714598656 -0.89497202635 0.0030651004054 -1.1271020174
          -0.96815401316 0.02664539963 -0.92440497875 -1.1318500042 0.052193719894 -1.1925956011
          -1.1468379498 -0.10479596257 -1.0598422289 -0.89497202635 0.0030651004054 -1.1271020174
          -1.1468379498 -0.10479596257 -1.0598422289 -1.0050040483 -0.23432028294 -1.1520009041
          -1.1560570002 -0.29963886738 -0.85426801443 -0.9426779747 -0.20086880028 -0.89714598656
          4.2132930756 0.66276198626 1.9194359779 4.1660380363 0.37686598301 1.8869049549
          4.1697688103 0.64373600483 2.1378290653 4.402616024 0.45689401031 2.1667981148
          4.4522380829 0.45779499412 1.8534209728 4.402616024 0.45689401031 2.1667981148
          4.1660380363 0.37686598301 1.8869049549 4.2132930756 0.66276198626 1.9194359779
          4.1757931709 0.68295997381 1.7038977146 4.2633280754 0.48635900021 1.6941789389
          3.9967598915 0.6620669961 1.8450440168 4.2132930756 0.66276198626 1.9194359779
          1.6553009748 -0.058208007365 -0.42940098047 1.9303309917 -0.028858006001 -0.71749800444
          1.8301340342 -0.19138199091 -0.51286798716 1.9952529669 -0.028272999451 -0.39336639643
          1.9303309917 -0.028858006001 -0.71749800444 1.6553009748 -0.058208007365 -0.42940098047
          1.8301340342 -0.19138199091 -0.51286798716 1.6323230267 0.075184799731 -0.62727099657
          1.9303309917 -0.028858006001 -0.71749800444 1.8301340342 -0.19138199091 -0.51286798716
          1.5601429939 -0.16315901279 -0.66583400965 1.6323230267 0.075184799731 -0.62727099657
          1.9303309917 -0.028858006001 -0.71749800444 1.8301340342 -0.19138199091 -0.51286798716
          1.8361599445 -0.19802498817 -0.79088497162 1.5601429939 -0.16315901279 -0.66583400965
          1.8301340342 -0.19138199091 -0.51286798716 1.8361599445 -0.19802498817 -0.79088497162
          2.0414140224 -0.19573998451 -0.65807902813 1.9303309917 -0.028858006001 -0.71749800444
          1.8301340342 -0.19138199091 -0.51286798716 1.9303309917 -0.028858006001 -0.71749800444
          2.0414140224 -0.19573998451 -0.65807902813 1.9952529669 -0.028272999451 -0.39336639643
          3.6373169422 0.67194199562 1.4793165922 3.3933129311 0.66335201263 1.4056479931
          3.5121660233 0.42270597816 1.6780580282 3.7163519859 0.46678900719 1.408038497
          1.8301340342 -0.19138199091 -0.51286798716 1.896214962 -0.35974898934 -0.63775098324
          2.0414140224 -0.19573998451 -0.65807902813 1.8361599445 -0.19802498817 -0.79088497162
          1.896214962 -0.35974898934 -0.63775098324 1.5601429939 -0.16315901279 -0.66583400965
          1.8361599445 -0.19802498817 -0.79088497162 1.8301340342 -0.19138199091 -0.51286798716
          1.5601429939 -0.16315901279 -0.66583400965 1.896214962 -0.35974898934 -0.63775098324
          1.4899770021 -0.38008698821 -0.65395200253 1.8301340342 -0.19138199091 -0.51286798716
          1.5601429939 -0.16315901279 -0.66583400965 1.8301340342 -0.19138199091 -0.51286798716
          1.4899770021 -0.38008698821 -0.65395200253 1.6162129641 -0.37938898802 -0.35376280546
          1.6162129641 -0.37938898802 -0.35376280546 1.5601429939 -0.16315901279 -0.66583400965
          1.8301340342 -0.19138199091 -0.51286798716 1.6553009748 -0.058208007365 -0.42940098047
          1.8301340342 -0.19138199091 -0.51286798716 1.6553009748 -0.058208007365 -0.42940098047
          1.5601429939 -0.16315901279 -0.66583400965 1.6323230267 0.075184799731 -0.62727099657
          1.8301340342 -0.19138199091 -0.51286798716 1.896214962 -0.35974898934 -0.63775098324
          1.4899770021 -0.38008698821 -0.65395200253 1.6162129641 -0.37938898802 -0.35376280546
          1.6162129641 -0.37938898802 -0.35376280546 1.896214962 -0.35974898934 -0.63775098324
          1.872320056 -0.36590901017 -0.38697499037 1.8301340342 -0.19138199091 -0.51286798716
          0.4462980032 0.22514030337 -1.0646909475 0.35893088579 0.54108428955 -1.083673954
          0.30814930797 0.31706541777 -1.2523280382 0.5862929821 0.35003548861 -1.1572810411
          0.5862929821 0.35003548861 -1.1572810411 0.35893088579 0.54108428955 -1.083673954
          0.53923499584 0.55213999748 -0.9251576066 0.43711400032 0.35662287474 -0.86431020498
          0.58952099085 0.54303568602 -1.1641429663 0.67646998167 0.33598598838 -0.95468699932
          0.77168899775 0.55329012871 -0.99214798212 0.5862929821 0.35003548861 -1.1572810411
          0.58952099085 0.54303568602 -1.1641429663 0.5862929821 0.35003548861 -1.1572810411
          0.53923499584 0.55213999748 -0.9251576066 0.67646998167 0.33598598838 -0.95468699932
          4.9797067642 0.10058799386 1.780706048 5.1593341827 -0.012515998445 1.8333879709
          5.0016570091 -0.09311401844 1.6771680117 4.908780098 -0.05460799858 1.9473679066
          0.56680697203 0.35435029864 -0.45947599411 0.36111998558 0.56500959396 -0.54083001614
          0.36366090178 0.26720348001 -0.30314698815 0.40944099426 0.2642891109 -0.64370203018
          -0.9426779747 -0.20086880028 -0.89714598656 -1.0050040483 -0.23432028294 -1.1520009041
          -1.0521889925 -0.48985919356 -0.94649702311 -0.91781198978 -0.47875839472 -1.088809967
          -1.0050040483 -0.23432028294 -1.1520009041 -1.225301981 -0.29465007782 -1.0979983807
          -1.0521889925 -0.48985919356 -0.94649702311 -0.91781198978 -0.47875839472 -1.088809967
          -1.0050040483 -0.23432028294 -1.1520009041 -1.225301981 -0.29465007782 -1.0979983807
          -0.91781198978 -0.47875839472 -1.088809967 -1.0146249533 -0.47085028887 -1.2508219481
          -0.79623502493 -0.46506458521 -1.2561719418 -1.0146249533 -0.47085028887 -1.2508219481
          -1.0050040483 -0.23432028294 -1.1520009041 -0.91781198978 -0.47875839472 -1.088809967
          -0.91781198978 -0.47875839472 -1.088809967 -1.225301981 -0.29465007782 -1.0979983807
          -1.0521889925 -0.48985919356 -0.94649702311 -1.0146249533 -0.47085028887 -1.2508219481
          4.4655342102 0.20313693583 1.8080023527 4.1660380363 0.37686598301 1.8869049549
          4.3718128204 0.25128540397 2.104501009 4.2557749748 0.16182330251 1.8862160444
          4.4655342102 0.20313693583 1.8080023527 4.3718128204 0.25128540397 2.104501009
          4.3348088264 0.0020780034829 2.0050890446 4.2557749748 0.16182330251 1.8862160444
          4.2557749748 0.16182330251 1.8862160444 4.3718128204 0.25128540397 2.104501009
          4.3348088264 0.0020780034829 2.0050890446 4.0440011024 0.18789739907 1.9961689711
          4.2557749748 0.16182330251 1.8862160444 4.1660380363 0.37686598301 1.8869049549
          4.3718128204 0.25128540397 2.104501009 4.0440011024 0.18789739907 1.9961689711
          4.0141201019 0.24855940044 1.621557951 4.1660380363 0.37686598301 1.8869049549
          4.2557749748 0.16182330251 1.8862160444 4.0440011024 0.18789739907 1.9961689711
          4.0141201019 0.24855940044 1.621557951 4.2557749748 0.16182330251 1.8862160444
          4.0705580711 0.054460007697 1.7552939653 4.0440011024 0.18789739907 1.9961689711
          -0.99887502193 -0.062538303435 -1.3665850163 -0.95317101479 -0.27932810783 -1.4066259861
          -0.73458898067 -0.17205369473 -1.327262044 -0.78262102604 -0.069029003382 -1.6080299616
          -0.96911400557 -0.012546800077 -1.6096899509 -0.95317101479 -0.27932810783 -1.4066259861
          -0.99887502193 -0.062538303435 -1.3665850163 -0.78262102604 -0.069029003382 -1.6080299616
          -0.96911400557 -0.012546800077 -1.6096899509 -0.95317101479 -0.27932810783 -1.4066259861
          -0.78262102604 -0.069029003382 -1.6080299616 -0.80039197206 -0.22904071212 -1.6116299629
          -0.78262102604 -0.069029003382 -1.6080299616 -0.95317101479 -0.27932810783 -1.4066259861
          -0.73458898067 -0.17205369473 -1.327262044 -0.80039197206 -0.22904071212 -1.6116299629
          -0.78262102604 -0.069029003382 -1.6080299616 -0.80039197206 -0.22904071212 -1.6116299629
          -0.73458898067 -0.17205369473 -1.327262044 -0.53049099445 -0.25941371918 -1.4260540009
          -0.50069600344 -0.11491009593 -1.5895299911 -0.80039197206 -0.22904071212 -1.6116299629
          -0.78262102604 -0.069029003382 -1.6080299616 -0.53049099445 -0.25941371918 -1.4260540009
          -2.1116633415 0.079452298582 -1.0412242413 -2.1130719185 -0.047264300287 -1.1963629723
          -1.915242672 0.15616099536 -1.1708220243 -2.1506009102 0.25718417764 -1.2337720394
          0.22069999576 -0.38621020317 -1.4934259653 -0.0416380018 -0.36202129722 -1.5427700281
          0.26467600465 -0.18822538853 -1.4712239504 0.045462999493 -0.42505168915 -1.3999569416
          -0.0416380018 -0.36202129722 -1.5427700281 -0.27238899469 -0.43512588739 -1.4818589687
          -0.2076960057 -0.44123241305 -1.3097250462 0.045462999493 -0.42505168915 -1.3999569416
          -0.0416380018 -0.36202129722 -1.5427700281 -0.2076960057 -0.44123241305 -1.3097250462
          -0.19379499555 -0.24117720127 -1.3589559793 0.045462999493 -0.42505168915 -1.3999569416
          -0.0416380018 -0.36202129722 -1.5427700281 -0.19379499555 -0.24117720127 -1.3589559793
          -0.0075119999237 -0.13963499665 -1.2594619989 0.045462999493 -0.42505168915 -1.3999569416
          0.045462999493 -0.42505168915 -1.3999569416 -0.0416380018 -0.36202129722 -1.5427700281
          0.26467600465 -0.18822538853 -1.4712239504 -0.0075119999237 -0.13963499665 -1.2594619989
          2.5381810665 0.37671899796 0.083356015384 2.7388780117 0.4845879972 0.20156900585
          2.7568380833 0.32088699937 0.34903898835 2.4331591129 0.31312698126 0.30493488908
          2.5486719608 0.4433940053 0.48740598559 2.7105460167 0.65613901615 0.34329998493
          2.7388780117 0.4845879972 0.20156900585 2.7568380833 0.32088699937 0.34903898835
          2.4290430546 0.64191198349 0.39004901052 2.7105460167 0.65613901615 0.34329998493
          2.5418469906 0.64766597748 0.10435001552 2.7388780117 0.4845879972 0.20156900585
          -0.97820800543 0.24167840183 -0.90613996983 -1.1171029806 0.13310749829 -0.81390601397
          -0.91159600019 0.073344998062 -0.62898999453 -0.96815401316 0.02664539963 -0.92440497875
          -0.97820800543 0.24167840183 -0.90613996983 -1.0616509914 0.19502159953 -0.62691998482
          -0.91159600019 0.073344998062 -0.62898999453 -1.1171029806 0.13310749829 -0.81390601397
          4.7165417671 0.53939402103 1.5485489368 4.4522380829 0.45779499412 1.8534209728
          4.7563681602 0.41457000375 1.7243119478 4.5152788162 0.44570598006 1.5512629747
          4.7563681602 0.41457000375 1.7243119478 4.6735458374 0.19949239492 1.5503569841
          4.7165417671 0.53939402103 1.5485489368 4.5152788162 0.44570598006 1.5512629747
          4.7563681602 0.41457000375 1.7243119478 4.6735458374 0.19949239492 1.5503569841
          4.8979010582 0.32311931252 1.3858200312 4.7165417671 0.53939402103 1.5485489368
          -4.7829651833 -0.03583727777 0.25068509579 -5 0.15884299576 0.21330599487
          -4.7318658829 0.32032591105 0.23805809021 -4.8289003372 0.15818049014 0.46990901232
          -5 0.15884299576 0.21330599487 -5 0.32793700695 0.27663400769
          -4.7318658829 0.32032591105 0.23805809021 -4.8289003372 0.15818049014 0.46990901232
          -5 0.32793700695 0.27663400769 -4.9468126297 0.30931267142 0.46121698618
          -4.7318658829 0.32032591105 0.23805809021 -4.8289003372 0.15818049014 0.46990901232
          -4.7318658829 0.32032591105 0.23805809021 -4.9468126297 0.30931267142 0.46121698618
          -4.6675491333 0.29210668802 0.45158019662 -4.8289003372 0.15818049014 0.46990901232
          -3.3653941154 0.12199870497 0.10548699647 -3.4597270489 0.28559470177 -0.035445000976
          -3.5363500118 0.303062886 0.16877999902 -3.5638709068 0.10706090182 0.17637899518
          2.4331591129 0.31312698126 0.30493488908 2.7568380833 0.32088699937 0.34903898835
          2.5381810665 0.37671899796 0.083356015384 2.7543749809 0.16338352859 0.14366000891
          2.4331591129 0.31312698126 0.30493488908 2.387912035 0.31022301316 0.66756099463
          2.2750039101 0.14374065399 0.29926979542 2.2181119919 0.41253200173 0.3796235919
          -4.1121020317 0.25860318542 0.34374800324 -3.7869338989 0.27324751019 0.25282999873
          -4.0016899109 0.29823037982 0.14048601687 -3.9893488884 0.10838919878 0.30875301361
          -4.1473436356 -0.025500500575 0.13780200481 -4.1121020317 0.25860318542 0.34374800324
          -3.9893488884 0.10838919878 0.30875301361 -4.1633501053 -0.0074493000284 0.35350400209
          2.3112504482 0.13608121872 0.81553798914 2.0536108017 0.066548496485 0.89124602079
          2.0687611103 0.17121970654 0.57191699743 2.0595760345 0.26341798902 0.90939098597
          2.2606570721 0.63481098413 0.14861099422 2.4290430546 0.64191198349 0.39004901052
          2.5418469906 0.64766597748 0.10435001552 2.3142609596 0.44252300262 0.15573300421
          2.3142609596 0.44252300262 0.15573300421 2.0226778984 0.62434697151 0.18275760114
          2.2606570721 0.63481098413 0.14861099422 2.2181119919 0.41253200173 0.3796235919
          2.2606570721 0.63481098413 0.14861099422 2.3142609596 0.44252300262 0.15573300421
          2.4292700291 0.64129698277 -0.068533986807 2.1847960949 0.4558160007 -0.22780369222
          2.2037799358 0.33316999674 -0.035911995918 2.3142609596 0.44252300262 0.15573300421
          2.5381810665 0.37671899796 0.083356015384 2.4331591129 0.31312698126 0.30493488908
          -4.7829651833 -0.03583727777 0.25068509579 -4.6756920815 -0.17933808267 0.46103820205
          -5 -0.12896800041 0.37591099739 -4.6474046707 -0.00025216012727 0.44196480513
          -4.7829651833 -0.03583727777 0.25068509579 -4.8936700821 -0.25269600749 0.5
          -5 -0.12896800041 0.37591099739 -4.6756920815 -0.17933808267 0.46103820205
          -4.6756920815 -0.17933808267 0.46103820205 -4.8936700821 -0.25269600749 0.5
          -5 -0.12896800041 0.37591099739 -4.6474046707 -0.00025216012727 0.44196480513
          3.8493919373 0.50689595938 1.0418950319 3.6095719337 0.49926799536 0.86267101765
          3.8746159077 0.2987203002 0.98308598995 3.9433920383 0.50324100256 0.79245001078
          3.6544830799 0.36574301124 1.0680350065 3.6095719337 0.49926799536 0.86267101765
          3.8746159077 0.2987203002 0.98308598995 3.8493919373 0.50689595938 1.0418950319
          3.6544830799 0.36574301124 1.0680350065 3.6095719337 0.49926799536 0.86267101765
          3.7977409363 0.30181151628 0.66605001688 3.8746159077 0.2987203002 0.98308598995
          3.8746159077 0.2987203002 0.98308598995 3.6095719337 0.49926799536 0.86267101765
          3.7977409363 0.30181151628 0.66605001688 3.9433920383 0.50324100256 0.79245001078
          -2.3634879589 0.31209561229 -0.49861198664 -2.1832900047 0.29363209009 -0.3768529892
          -2.2290380001 -0.01067822054 -0.56298202276 -2.4275128841 0.11600639671 -0.53692299128
          -2.3634879589 0.31209561229 -0.49861198664 -2.1107180119 0.488994807 -0.53275901079
          -2.0370030403 0.2986676991 -0.69848400354 -2.1832900047 0.29363209009 -0.3768529892
          -2.3634879589 0.31209561229 -0.49861198664 -2.4234828949 0.48320311308 -0.38506999612
          -2.1107180119 0.488994807 -0.53275901079 -2.1832900047 0.29363209009 -0.3768529892
          -2.1832900047 0.29363209009 -0.3768529892 -2.4234828949 0.48320311308 -0.38506999612
          -2.4711580276 0.34027990699 -0.26157900691 -2.3634879589 0.31209561229 -0.49861198664
          -2.1832900047 0.29363209009 -0.3768529892 -2.3634879589 0.31209561229 -0.49861198664
          -2.4711580276 0.34027990699 -0.26157900691 -2.3957979679 0.17064259946 -0.29074698687
          -2.3634879589 0.31209561229 -0.49861198664 -2.5764689445 0.47962999344 -0.47001102567
          -2.4234828949 0.48320311308 -0.38506999612 -2.4711580276 0.34027990699 -0.26157900691
          -2.3634879589 0.31209561229 -0.49861198664 -2.707750082 0.14897160232 -0.50897496939
          -2.5764689445 0.47962999344 -0.47001102567 -2.4711580276 0.34027990699 -0.26157900691
          1.5088090897 -0.39408099651 0.20298700035 1.6178350449 -0.15927900374 0.18571281433
          1.6111949682 -0.21885199845 -0.057695001364 1.8311589956 -0.37597900629 0.21240459383
          0.58952099085 0.54303568602 -1.1641429663 0.77168899775 0.55329012871 -0.99214798212
          0.90715700388 0.53051358461 -1.2455300093 0.90016597509 0.3842356205 -1.0304160118
          0.90715700388 0.53051358461 -1.2455300093 0.77168899775 0.55329012871 -0.99214798212
          1.2254769802 0.51881307364 -1.0980240107 0.90016597509 0.3842356205 -1.0304160118
          0.90016597509 0.3842356205 -1.0304160118 0.77168899775 0.55329012871 -0.99214798212
          1.2254769802 0.51881307364 -1.0980240107 1.0837780237 0.56879729033 -0.83355396986
          1.0837780237 0.56879729033 -0.83355396986 0.83301800489 0.56610417366 -0.74389237165
          0.90016597509 0.3842356205 -1.0304160118 0.77168899775 0.55329012871 -0.99214798212
          1.0837780237 0.56879729033 -0.83355396986 0.83301800489 0.56610417366 -0.74389237165
          0.93579101562 0.2607139945 -0.85697698593 0.90016597509 0.3842356205 -1.0304160118
          0.93579101562 0.2607139945 -0.85697698593 0.90016597509 0.3842356205 -1.0304160118
          0.83301800489 0.56610417366 -0.74389237165 0.67646998167 0.33598598838 -0.95468699932
          0.90016597509 0.3842356205 -1.0304160118 0.77168899775 0.55329012871 -0.99214798212
          0.83301800489 0.56610417366 -0.74389237165 0.67646998167 0.33598598838 -0.95468699932
          5.2658262253 -0.21781501174 2.420085907 5.0791130066 -0.098838992417 2.3361620903
          5.1007847786 -0.14746299386 2.5408000946 5.0993762016 -0.30616301298 2.320991993
          5.2658262253 -0.21781501174 2.420085907 5.2890958786 -0.018920002505 2.382846117
          5.1007847786 -0.14746299386 2.5408000946 5.0791130066 -0.098838992417 2.3361620903
          5.2068247795 0.041992999613 2.5940599442 5.0791130066 -0.098838992417 2.3361620903
          5.1007847786 -0.14746299386 2.5408000946 5.2890958786 -0.018920002505 2.382846117
          5.2068247795 0.041992999613 2.5940599442 5.0148458481 0.15865379572 2.5250399113
          5.0791130066 -0.098838992417 2.3361620903 5.2890958786 -0.018920002505 2.382846117
          5.2068247795 0.041992999613 2.5940599442 5.0148458481 0.15865379572 2.5250399113
          4.960849762 -0.010346002877 2.4790999889 5.0791130066 -0.098838992417 2.3361620903
          5.2068247795 0.041992999613 2.5940599442 4.960849762 -0.010346002877 2.4790999889
          5.1007847786 -0.14746299386 2.5408000946 5.0791130066 -0.098838992417 2.3361620903
          4.960849762 -0.010346002877 2.4790999889 5.0148458481 0.15865379572 2.5250399113
          5.0963821411 0.18064403534 2.290708065 5.0791130066 -0.098838992417 2.3361620903
          4.9883351326 -0.0025349962525 2.1726241112 4.960849762 -0.010346002877 2.4790999889
          5.0963821411 0.18064403534 2.290708065 5.0791130066 -0.098838992417 2.3361620903
          5.0791130066 -0.098838992417 2.3361620903 5.0148458481 0.15865379572 2.5250399113
          5.0963821411 0.18064403534 2.290708065 5.2890958786 -0.018920002505 2.382846117
          -1.6226379871 0.13752751052 -0.73393601179 -1.4917390347 0.24093736708 -0.86661797762
          -1.4412750006 0.12191697955 -0.58430999517 -1.6158000231 0.28506198525 -0.55510002375
          -1.6775929928 0.07707464695 -0.53350001574 -1.6226379871 0.13752751052 -0.73393601179
          -1.4412750006 0.12191697955 -0.58430999517 -1.6158000231 0.28506198525 -0.55510002375
          -1.4412750006 0.12191697955 -0.58430999517 -1.6775929928 0.07707464695 -0.53350001574
          -1.542323947 -0.10029046237 -0.56713998318 -1.6226379871 0.13752751052 -0.73393601179
          -1.6226379871 0.13752751052 -0.73393601179 -1.6519750357 0.49484336376 -0.84614998102
          -1.4917390347 0.24093736708 -0.86661797762 -1.6158000231 0.28506198525 -0.55510002375
          0.15763199329 -0.010675301775 -1.4892460108 0.26467600465 -0.18822538853 -1.4712239504
          -0.0075119999237 -0.13963499665 -1.2594619989 0.22415600717 -0.082622297108 -1.3033210039
          -0.080162003636 0.27255320549 -1.5318399668 -0.2287349999 0.24483269453 -1.2839930058
          -0.38828599453 0.11242230237 -1.4058929682 -0.29748898745 0.35435709357 -1.5664999485
          -0.080162003636 0.27255320549 -1.5318399668 -0.38828599453 0.11242230237 -1.4058929682
          -0.25447899103 0.057270798832 -1.5596300364 -0.29748898745 0.35435709357 -1.5664999485
          -0.080162003636 0.27255320549 -1.5318399668 -0.2287349999 0.24483269453 -1.2839930058
          -0.25447899103 0.057270798832 -1.5596300364 -0.38828599453 0.11242230237 -1.4058929682
          -0.19496299326 0.017406899482 -1.3360270262 -0.38828599453 0.11242230237 -1.4058929682
          -0.25447899103 0.057270798832 -1.5596300364 -0.2287349999 0.24483269453 -1.2839930058
          -0.19496299326 0.017406899482 -1.3360270262 -0.53547698259 0.15860010684 -1.2386740446
          -0.38828599453 0.11242230237 -1.4058929682 -0.2287349999 0.24483269453 -1.2839930058
          -0.38828599453 0.11242230237 -1.4058929682 -0.53547698259 0.15860010684 -1.2386740446
          -0.19496299326 0.017406899482 -1.3360270262 -0.42777499557 0.06476470083 -1.0590546131
          -0.38828599453 0.11242230237 -1.4058929682 -0.53547698259 0.15860010684 -1.2386740446
          -0.44964700937 0.30215507746 -1.3843599558 -0.2287349999 0.24483269453 -1.2839930058
          -0.44964700937 0.30215507746 -1.3843599558 -0.72984099388 0.28546023369 -1.3866969347
          -0.53547698259 0.15860010684 -1.2386740446 -0.38828599453 0.11242230237 -1.4058929682
          -0.29748898745 0.35435709357 -1.5664999485 -0.25447899103 0.057270798832 -1.5596300364
          -0.51359897852 0.26363918185 -1.5916399956 -0.38828599453 0.11242230237 -1.4058929682
          -0.38828599453 0.11242230237 -1.4058929682 -0.25447899103 0.057270798832 -1.5596300364
          -0.51359897852 0.26363918185 -1.5916399956 -0.47055399418 0.047336298972 -1.5825300217
          -0.14396199584 -0.17642790079 -1.5491399765 -0.34433600307 -0.26983401179 -1.5834399462
          -0.304708004 -0.090819396079 -1.572059989 -0.19379499555 -0.24117720127 -1.3589559793
          4.7996368408 0.69749897718 1.943791151 4.7576980591 0.49129199982 1.9305694103
          4.8522830009 0.69435501099 2.1452889442 4.9700350761 0.50200498104 1.9810703993
          4.7576980591 0.49129199982 1.9305694103 4.7806420326 0.47793102264 2.2329978943
          4.8522830009 0.69435501099 2.1452889442 4.9700350761 0.50200498104 1.9810703993
          4.7576980591 0.49129199982 1.9305694103 4.6265969276 0.37918898463 2.0835940838
          4.7806420326 0.47793102264 2.2329978943 4.9700350761 0.50200498104 1.9810703993
          3.1142799854 0.34143099189 0.65826201439 3.4640750885 0.2319137007 0.72248202562
          3.2844669819 0.18207931519 1.0159295797 3.427726984 0.34208199382 0.94024497271
          3.3829259872 0.46805399656 0.71429997683 3.4640750885 0.2319137007 0.72248202562
          3.1142799854 0.34143099189 0.65826201439 3.427726984 0.34208199382 0.94024497271
          2.7568380833 0.32088699937 0.34903898835 2.7388780117 0.4845879972 0.20156900585
          2.5381810665 0.37671899796 0.083356015384 2.7543749809 0.16338352859 0.14366000891
          -1.4523919821 -0.49702548981 -0.96172600985 -1.3335059881 -0.48872581124 -1.1038045883
          -1.3182120323 -0.50291794538 -0.77375298738 -1.1560570002 -0.29963886738 -0.85426801443
          -1.3524429798 -0.2001490891 -0.93651300669 -1.4523919821 -0.49702548981 -0.96172600985
          -1.3182120323 -0.50291794538 -0.77375298738 -1.1560570002 -0.29963886738 -0.85426801443
          -1.3524429798 -0.2001490891 -0.93651300669 -1.4523919821 -0.49702548981 -0.96172600985
          -1.1560570002 -0.29963886738 -0.85426801443 -1.225301981 -0.29465007782 -1.0979983807
          -1.3524429798 -0.2001490891 -0.93651300669 -1.3335059881 -0.48872581124 -1.1038045883
          -1.4523919821 -0.49702548981 -0.96172600985 -1.225301981 -0.29465007782 -1.0979983807
          -1.4523919821 -0.49702548981 -0.96172600985 -1.3335059881 -0.48872581124 -1.1038045883
          -1.1560570002 -0.29963886738 -0.85426801443 -1.225301981 -0.29465007782 -1.0979983807
          1.2312122583 0.39813408256 -0.034452985972 1.1137839556 0.31430581212 -0.23879601061
          1.1920820475 0.066462799907 -0.092215999961 1.4418599606 0.28709000349 -0.062245994806
          1.3428349495 0.40458348393 -0.38063567877 1.4418599606 0.28709000349 -0.062245994806
          1.1137839556 0.31430581212 -0.23879601061 1.2312122583 0.39813408256 -0.034452985972
          1.3428349495 0.40458348393 -0.38063567877 1.2312122583 0.39813408256 -0.034452985972
          1.1137839556 0.31430581212 -0.23879601061 1.1987409592 0.59465539455 -0.16085501015
          1.4418599606 0.28709000349 -0.062245994806 1.2312122583 0.39813408256 -0.034452985972
          1.3238321543 0.31234300137 0.3489010036 1.369579196 0.12671080232 0.095050007105
          1.2312122583 0.39813408256 -0.034452985972 1.3238321543 0.31234300137 0.3489010036
          1.594933033 0.40332198143 0.19972449541 1.4418599606 0.28709000349 -0.062245994806
          1.2316360474 0.45880398154 0.28732401133 1.3238321543 0.31234300137 0.3489010036
          1.594933033 0.40332198143 0.19972449541 1.2312122583 0.39813408256 -0.034452985972
          1.2312122583 0.39813408256 -0.034452985972 1.1257488728 0.21291010082 0.19439199567
          1.2316360474 0.45880398154 0.28732401133 1.3238321543 0.31234300137 0.3489010036
          1.2312122583 0.39813408256 -0.034452985972 1.1257488728 0.21291010082 0.19439199567
          1.3238321543 0.31234300137 0.3489010036 1.369579196 0.12671080232 0.095050007105
          1.2312122583 0.39813408256 -0.034452985972 1.1257488728 0.21291010082 0.19439199567
          1.0784057379 0.39947220683 0.1701080054 1.2316360474 0.45880398154 0.28732401133
          0.14116099477 -0.43207919598 -1.1435899734 0.018631000072 -0.44565591216 -1.0280195475
          0.059512998909 -0.21327769756 -1.0408661366 0.19156980515 -0.44301488996 -0.90191078186
          -4.3815760612 0.24617770314 -0.19512629509 -4.6376662254 0.16694931686 -0.24515900016
          -4.5885467529 0.081544041634 -0.058668099344 -4.436715126 0.026354400441 -0.37169200182
          -4.3815760612 0.24617770314 -0.19512629509 -4.5885467529 0.081544041634 -0.058668099344
          -4.3956904411 -0.0096592828631 -0.099004216492 -4.436715126 0.026354400441 -0.37169200182
          2.4782733917 -0.16793499887 1.1878299713 2.5645010471 -0.34633201361 0.97681301832
          2.7898700237 -0.33725899458 1.0498950481 2.6176869869 -0.096157990396 0.89440202713
          1.0432590246 -0.41784200072 -0.18719400465 0.87843650579 -0.43051719666 -0.09530800581
          0.9384559989 -0.42108929157 -0.3525930047 0.85404402018 -0.22467930615 -0.32312399149
          -3.0915300846 0.47361189127 -0.20009501278 -3.2346680164 0.26355689764 -0.22137200832
          -3.1058139801 0.41758540273 0.0045389998704 -2.9465370178 0.2871569097 -0.061487998813
          -4.5885467529 0.081544041634 -0.058668099344 -4.7775506973 -0.01067915 -0.02922873944
          -4.6802415848 -0.16959774494 -0.21772760153 -4.7995986938 0.015869349241 -0.30273678899
          1.0725090504 -0.1251232028 -0.30668699741 1.0432590246 -0.41784200072 -0.18719400465
          0.9384559989 -0.42108929157 -0.3525930047 0.85404402018 -0.22467930615 -0.32312399149
          -4.3490223885 0.21022440493 0.13521999121 -4.3956904411 -0.0096592828631 -0.099004216492
          -4.5885467529 0.081544041634 -0.058668099344 -4.4574508667 0.019598178566 0.2031301856
          -4.3490223885 0.21022440493 0.13521999121 -4.5885467529 0.081544041634 -0.058668099344
          -4.6535224915 0.13568019867 0.13374620676 -4.4574508667 0.019598178566 0.2031301856
          -4.4574508667 0.019598178566 0.2031301856 -4.6535224915 0.13568019867 0.13374620676
          -4.6497826576 -0.19200108945 0.12126010656 -4.5885467529 0.081544041634 -0.058668099344
          1.220471859 -0.14656609297 0.24174399674 1.2357423306 -0.37867379189 0.23501800001
          1.0781804323 -0.41856110096 0.0092310095206 0.94075733423 -0.2887121141 0.026029000059
          1.220471859 -0.14656609297 0.24174399674 1.0781804323 -0.41856110096 0.0092310095206
          1.2570589781 -0.21799020469 -0.084225989878 0.94075733423 -0.2887121141 0.026029000059
          1.2482960224 -0.40534371138 -0.12569999695 1.0781804323 -0.41856110096 0.0092310095206
          1.0432590246 -0.41784200072 -0.18719400465 1.2570589781 -0.21799020469 -0.084225989878
          -2.7823200226 0.016783099622 -0.68633919954 -2.8852050304 -0.13799700141 -0.5307559967
          -2.9707868099 -0.088433094323 -0.74900501966 -3.0457994938 0.036590598524 -0.58276486397
          -3.517005682 0.27712589502 -0.40882021189 -3.2916152477 0.47306519747 -0.70392102003
          -3.2987422943 0.26889032125 -0.46421080828 -3.4917843342 0.47428500652 -0.40278941393
          -2.9588835239 0.10583119839 -0.81790500879 -2.7823200226 0.016783099622 -0.68633919954
          -2.9707868099 -0.088433094323 -0.74900501966 -3.0457994938 0.036590598524 -0.58276486397
          -2.8640635014 -0.32550418377 -0.67871928215 -2.82984519 -0.19690430164 -0.8898460269
          -2.9707868099 -0.088433094323 -0.74900501966 -3.0438988209 -0.31679549813 -0.92314600945
          4.6524858475 0.67294102907 2.2563040257 4.402616024 0.45689401031 2.1667981148
          4.6265969276 0.37918898463 2.0835940838 4.5798997879 0.67236697674 2.0912940502
          4.6524858475 0.67294102907 2.2563040257 4.7806420326 0.47793102264 2.2329978943
          4.5798997879 0.67236697674 2.0912940502 4.6265969276 0.37918898463 2.0835940838
          4.6524858475 0.67294102907 2.2563040257 4.7806420326 0.47793102264 2.2329978943
          4.8522830009 0.69435501099 2.1452889442 4.5798997879 0.67236697674 2.0912940502
          4.5798997879 0.67236697674 2.0912940502 4.7806420326 0.47793102264 2.2329978943
          4.8522830009 0.69435501099 2.1452889442 4.7576980591 0.49129199982 1.9305694103
          4.7996368408 0.69749897718 1.943791151 4.5798997879 0.67236697674 2.0912940502
          4.8522830009 0.69435501099 2.1452889442 4.7576980591 0.49129199982 1.9305694103
          4.7996368408 0.69749897718 1.943791151 4.5798997879 0.67236697674 2.0912940502
          4.7576980591 0.49129199982 1.9305694103 4.5912899971 0.69010001421 1.8966654539
          4.7576980591 0.49129199982 1.9305694103 4.5912899971 0.69010001421 1.8966654539
          4.5798997879 0.67236697674 2.0912940502 4.4522380829 0.45779499412 1.8534209728
          4.7576980591 0.49129199982 1.9305694103 4.5798997879 0.67236697674 2.0912940502
          4.6265969276 0.37918898463 2.0835940838 4.4522380829 0.45779499412 1.8534209728
          4.5798997879 0.67236697674 2.0912940502 4.7806420326 0.47793102264 2.2329978943
          4.7576980591 0.49129199982 1.9305694103 4.6265969276 0.37918898463 2.0835940838
          4.5798997879 0.67236697674 2.0912940502 4.6265969276 0.37918898463 2.0835940838
          4.4522380829 0.45779499412 1.8534209728 4.402616024 0.45689401031 2.1667981148
          4.5798997879 0.67236697674 2.0912940502 4.402616024 0.45689401031 2.1667981148
          4.4522380829 0.45779499412 1.8534209728 4.4008059502 0.66251301765 2.0240740776
          4.5912899971 0.69010001421 1.8966654539 4.5798997879 0.67236697674 2.0912940502
          4.4522380829 0.45779499412 1.8534209728 4.4008059502 0.66251301765 2.0240740776
          2.1847960949 0.4558160007 -0.22780369222 1.9673910141 0.42298001051 0.05929357931
          2.2606570721 0.63481098413 0.14861099422 2.2037799358 0.33316999674 -0.035911995918
          2.1847960949 0.4558160007 -0.22780369222 1.9673910141 0.42298001051 0.05929357931
          2.2037799358 0.33316999674 -0.035911995918 1.9701869488 0.36129301786 -0.32886689901
          2.0917739868 0.6197360158 -0.41446819901 1.9701869488 0.36129301786 -0.32886689901
          2.1847960949 0.4558160007 -0.22780369222 2.2756080627 0.47857099771 -0.45266869664
          2.1685369015 0.31989699602 -0.53797519207 1.9701869488 0.36129301786 -0.32886689901
          2.1847960949 0.4558160007 -0.22780369222 2.3722069263 0.33220499754 -0.39323601127
          2.1847960949 0.4558160007 -0.22780369222 2.2037799358 0.33316999674 -0.035911995918
          2.1084809303 0.16455329955 -0.24006199837 1.9701869488 0.36129301786 -0.32886689901
          -4.2035307884 0.079204000533 -0.13781389594 -4.1473436356 -0.025500500575 0.13780200481
          -4.0705108643 0.13585180044 0.0080800065771 -4.0883383751 -0.19288347661 -0.063150003552
          -4.2035307884 0.079204000533 -0.13781389594 -4.3956904411 -0.0096592828631 -0.099004216492
          -4.3490223885 0.21022440493 0.13521999121 -4.1473436356 -0.025500500575 0.13780200481
          -4.3956904411 -0.0096592828631 -0.099004216492 -4.1473436356 -0.025500500575 0.13780200481
          -4.2035307884 0.079204000533 -0.13781389594 -4.0883383751 -0.19288347661 -0.063150003552
          -2.8640635014 -0.32550418377 -0.67871928215 -2.9707868099 -0.088433094323 -0.74900501966
          -3.1669573784 -0.19655050337 -0.74350303411 -3.0438988209 -0.31679549813 -0.92314600945
          4.344976902 0.097388997674 1.2805169821 4.4385910034 0.24091610312 1.4270139933
          4.2718300819 0.15794679523 1.6279176474 4.2172560692 0.35686299205 1.4943759441
          4.344976902 0.097388997674 1.2805169821 4.3814492226 0.23643480241 1.0975799561
          4.5587711334 0.13435800374 1.2057100534 4.4385910034 0.24091610312 1.4270139933
          4.4213061333 -0.052222006023 1.1044199467 4.3814492226 0.23643480241 1.0975799561
          4.5587711334 0.13435800374 1.2057100534 4.344976902 0.097388997674 1.2805169821
          4.344976902 0.097388997674 1.2805169821 4.4213061333 -0.052222006023 1.1044199467
          4.5728478432 -0.045872993767 1.2065700293 4.5587711334 0.13435800374 1.2057100534
          -0.84249997139 0.26520928741 -1.1529723406 -1.0256249905 0.49155002832 -1.3329880238
          -0.83093398809 0.49481633306 -1.3887859583 -0.93034297228 0.50282591581 -1.109777689
          -0.84249997139 0.26520928741 -1.1529723406 -0.83093398809 0.49481633306 -1.3887859583
          -0.71466398239 0.50439506769 -1.2475240231 -0.93034297228 0.50282591581 -1.109777689
          -3.0438988209 -0.31679549813 -0.92314600945 -3.0530843735 -0.50840169191 -1.0475519896
          -3.223610878 -0.51225572824 -0.90670001507 -2.92583251 -0.50748687983 -0.81637299061
          -3.0438988209 -0.31679549813 -0.92314600945 -3.223610878 -0.51225572824 -0.90670001507
          -3.1503348351 -0.51121389866 -0.73205798864 -2.92583251 -0.50748687983 -0.81637299061
          -3.0530843735 -0.50840169191 -1.0475519896 -3.3226380348 -0.42967289686 -1.0436520576
          -3.0438988209 -0.31679549813 -0.92314600945 -3.223610878 -0.51225572824 -0.90670001507
          -2.1019701958 -0.27823245525 -1.0662670135 -2.1335361004 -0.33587309718 -0.85573190451
          -1.9235659838 -0.32769143581 -0.93234062195 -1.9633500576 -0.49727156758 -1.0658731461
          -0.77550202608 0.51301789284 -1.032153964 -0.76281398535 0.3376955986 -0.79411798716
          -0.60533702374 0.52063310146 -1.0015729666 -0.69384098053 0.20343409479 -0.94639998674
          -2.1019701958 -0.27823245525 -1.0662670135 -2.214564085 -0.50244742632 -0.93670272827
          -2.1335361004 -0.33587309718 -0.85573190451 -1.9633500576 -0.49727156758 -1.0658731461
          0.95458650589 0.18395619094 0.067213997245 1.1137839556 0.31430581212 -0.23879601061
          1.1920820475 0.066462799907 -0.092215999961 1.2312122583 0.39813408256 -0.034452985972
          1.1257488728 0.21291010082 0.19439199567 0.95458650589 0.18395619094 0.067213997245
          1.1920820475 0.066462799907 -0.092215999961 1.2312122583 0.39813408256 -0.034452985972
          1.2312122583 0.39813408256 -0.034452985972 1.0784057379 0.39947220683 0.1701080054
          1.1257488728 0.21291010082 0.19439199567 0.95458650589 0.18395619094 0.067213997245
          2.3722069263 0.33220499754 -0.39323601127 2.4272270203 0.24140749872 -0.088780999184
          2.551858902 0.38516098261 -0.25988900661 2.4711270332 0.1866299957 -0.33196899295
          -0.7906640172 -0.26609754562 -0.63226997852 -0.96335202456 -0.23516255617 -0.63407999277
          -0.81605601311 -0.49181076884 -0.80724596977 -0.9426779747 -0.20086880028 -0.89714598656
          2.2037799358 0.33316999674 -0.035911995918 2.5381810665 0.37671899796 0.083356015384
          2.551858902 0.38516098261 -0.25988900661 2.4272270203 0.24140749872 -0.088780999184
          2.4331591129 0.31312698126 0.30493488908 2.5381810665 0.37671899796 0.083356015384
          2.2037799358 0.33316999674 -0.035911995918 2.4272270203 0.24140749872 -0.088780999184
          2.4331591129 0.31312698126 0.30493488908 2.5381810665 0.37671899796 0.083356015384
          2.4272270203 0.24140749872 -0.088780999184 2.4627220631 0.06453820318 0.024974999949
          2.4627220631 0.06453820318 0.024974999949 2.7543749809 0.16338352859 0.14366000891
          2.5381810665 0.37671899796 0.083356015384 2.4272270203 0.24140749872 -0.088780999184
          2.4627220631 0.06453820318 0.024974999949 2.7543749809 0.16338352859 0.14366000891
          2.4272270203 0.24140749872 -0.088780999184 2.7389440536 0.18060749769 -0.13687500358
          2.4272270203 0.24140749872 -0.088780999184 2.7543749809 0.16338352859 0.14366000891
          2.5381810665 0.37671899796 0.083356015384 2.7389440536 0.18060749769 -0.13687500358
          2.5381810665 0.37671899796 0.083356015384 2.7389440536 0.18060749769 -0.13687500358
          2.551858902 0.38516098261 -0.25988900661 2.4272270203 0.24140749872 -0.088780999184
          2.4272270203 0.24140749872 -0.088780999184 2.7389440536 0.18060749769 -0.13687500358
          2.551858902 0.38516098261 -0.25988900661 2.4711270332 0.1866299957 -0.33196899295
          5.327480793 -0.087410993874 1.7155309916 5.5037498474 -0.082735002041 1.8406980038
          5.4998879433 -0.18895500898 1.5840200186 5.5221610069 -0.28970301151 1.7819349766
          5.3284611702 -0.29205599427 1.7498970032 5.327480793 -0.087410993874 1.7155309916
          5.4998879433 -0.18895500898 1.5840200186 5.5221610069 -0.28970301151 1.7819349766
          5.3284611702 -0.29205599427 1.7498970032 5.5037498474 -0.082735002041 1.8406980038
          5.327480793 -0.087410993874 1.7155309916 5.5221610069 -0.28970301151 1.7819349766
          5.3284611702 -0.29205599427 1.7498970032 5.5037498474 -0.082735002041 1.8406980038
          5.3534770012 -0.30086100101 1.9398570061 5.327480793 -0.087410993874 1.7155309916
          -4.5803985596 0.47174561024 0.34353449941 -4.5313487053 0.23166209459 0.25894141197
          -4.6675491333 0.29210668802 0.45158019662 -4.4553132057 0.33380118012 0.41776010394
          5.327480793 -0.087410993874 1.7155309916 5.2030038834 -0.095155008137 2.0543687344
          5.3534770012 -0.30086100101 1.9398570061 5.1593341827 -0.012515998445 1.8333879709
          5.5037498474 -0.082735002041 1.8406980038 5.2030038834 -0.095155008137 2.0543687344
          5.327480793 -0.087410993874 1.7155309916 5.1593341827 -0.012515998445 1.8333879709
          5.1593341827 -0.012515998445 1.8333879709 5.4800391197 0.18614250422 1.908427
          5.327480793 -0.087410993874 1.7155309916 5.5037498474 -0.082735002041 1.8406980038
          5.1593341827 -0.012515998445 1.8333879709 5.4800391197 0.18614250422 1.908427
          5.2795748711 0.19745920599 1.7484179735 5.327480793 -0.087410993874 1.7155309916
          5.327480793 -0.087410993874 1.7155309916 5.4800391197 0.18614250422 1.908427
          5.2795748711 0.19745920599 1.7484179735 5.5037498474 -0.082735002041 1.8406980038
          5.5037498474 -0.082735002041 1.8406980038 5.2030038834 -0.095155008137 2.0543687344
          5.3534770012 -0.30086100101 1.9398570061 5.327480793 -0.087410993874 1.7155309916
          3.7013010979 -0.30448499322 1.5550149679 3.718173027 -0.032231997699 1.6364309788
          3.6907598972 -0.3027870059 1.7716159821 3.4407179356 -0.10024298728 1.6149629354
          3.7013010979 -0.30448499322 1.5550149679 3.4407179356 -0.10024298728 1.6149629354
          3.6907598972 -0.3027870059 1.7716159821 3.419023037 -0.31212699413 1.6825289726
          3.419023037 -0.31212699413 1.6825289726 3.4261219501 -0.31478399038 1.2515799999
          3.7013010979 -0.30448499322 1.5550149679 3.4407179356 -0.10024298728 1.6149629354
          5.199947834 0.37635299563 2.0466771126 5.3812499046 0.50339800119 2.1557321548
          5.2246007919 0.71275597811 2.0305790901 5.4411177635 0.54534596205 2.004693985
          5.2246007919 0.71275597811 2.0305790901 5.3812499046 0.50339800119 2.1557321548
          5.4279828072 0.71865099669 2.021269083 5.4411177635 0.54534596205 2.004693985
          0.19523879886 -0.052128598094 -0.8603233695 0.26428851485 -0.064987801015 -1.0606349707
          0.36555799842 0.082396402955 -0.88094812632 0.060910001397 0.064430199564 -1.0059714317
          0.19523879886 -0.052128598094 -0.8603233695 0.060910001397 0.064430199564 -1.0059714317
          0.36555799842 0.082396402955 -0.88094812632 0.13939720392 0.18482199311 -0.80818897486
          0.19523879886 -0.052128598094 -0.8603233695 0.36555799842 0.082396402955 -0.88094812632
          0.16142000258 0.02375430055 -0.62841498852 0.13939720392 0.18482199311 -0.80818897486
          0.19523879886 -0.052128598094 -0.8603233695 0.16142000258 0.02375430055 -0.62841498852
          -0.027907999232 0.12770339847 -0.67658001184 0.13939720392 0.18482199311 -0.80818897486
          0.0018850000342 -0.13561350107 -0.81675201654 0.19523879886 -0.052128598094 -0.8603233695
          -0.027907999232 0.12770339847 -0.67658001184 0.13939720392 0.18482199311 -0.80818897486
          0.0018850000342 -0.13561350107 -0.81675201654 0.060910001397 0.064430199564 -1.0059714317
          0.19523879886 -0.052128598094 -0.8603233695 0.13939720392 0.18482199311 -0.80818897486
          0.0018850000342 -0.13561350107 -0.81675201654 0.16142000258 0.02375430055 -0.62841498852
          -0.027907999232 0.12770339847 -0.67658001184 0.19523879886 -0.052128598094 -0.8603233695
          1.1137839556 0.31430581212 -0.23879601061 1.3428349495 0.40458348393 -0.38063567877
          1.1057879925 0.14166979492 -0.59393042326 1.0656369925 0.1378595978 -0.35818099976
          1.1137839556 0.31430581212 -0.23879601061 1.3428349495 0.40458348393 -0.38063567877
          1.0656369925 0.1378595978 -0.35818099976 1.303779006 0.10932320356 -0.39463099837
          1.0656369925 0.1378595978 -0.35818099976 1.3428349495 0.40458348393 -0.38063567877
          1.1057879925 0.14166979492 -0.59393042326 1.303779006 0.10932320356 -0.39463099837
          -3.4188709259 -0.052383501083 -0.084667012095 -3.6423470974 -0.017455210909 -0.0356920138
          -3.4230210781 -0.045196000487 0.12691999972 -3.564964056 -0.31996080279 -0.046510994434
          -3.5159258842 -0.18312910199 -0.2097529918 -3.6423470974 -0.017455210909 -0.0356920138
          -3.4188709259 -0.052383501083 -0.084667012095 -3.564964056 -0.31996080279 -0.046510994434
          -4.1674909592 0.13877829909 -0.35717999935 -4.1204099655 0.088588900864 -0.72504401207
          -4.0872659683 -0.040365900844 -0.50246196985 -4.1332221031 0.29565098882 -0.49425297976
          -4.1674909592 0.13877829909 -0.35717999935 -4.1332221031 0.29565098882 -0.49425297976
          -4.0872659683 -0.040365900844 -0.50246196985 -3.93171525 0.23039670289 -0.4976850152
          -0.84249997139 0.26520928741 -1.1529723406 -0.69384098053 0.20343409479 -0.94639998674
          -0.77550202608 0.51301789284 -1.032153964 -0.50188398361 0.32205638289 -1.0782203674
          -0.77550202608 0.51301789284 -1.032153964 -0.84249997139 0.26520928741 -1.1529723406
          -0.76281398535 0.3376955986 -0.79411798716 -0.69384098053 0.20343409479 -0.94639998674
          -0.71466398239 0.50439506769 -1.2475240231 -0.84249997139 0.26520928741 -1.1529723406
          -0.77550202608 0.51301789284 -1.032153964 -0.50188398361 0.32205638289 -1.0782203674
          -0.77550202608 0.51301789284 -1.032153964 -0.69384098053 0.20343409479 -0.94639998674
          -0.60533702374 0.52063310146 -1.0015729666 -0.50188398361 0.32205638289 -1.0782203674
          -0.71466398239 0.50439506769 -1.2475240231 -0.77550202608 0.51301789284 -1.032153964
          -0.60533702374 0.52063310146 -1.0015729666 -0.50188398361 0.32205638289 -1.0782203674
          -0.71466398239 0.50439506769 -1.2475240231 -0.93034297228 0.50282591581 -1.109777689
          -0.77550202608 0.51301789284 -1.032153964 -0.84249997139 0.26520928741 -1.1529723406
          -2.0607159138 -0.073489099741 -0.92311251163 -2.1335361004 -0.33587309718 -0.85573190451
          -2.2852199078 -0.19466769695 -0.68211597204 -1.9959019423 -0.25378808379 -0.72344702482
          -1.9959019423 -0.25378808379 -0.72344702482 -2.1335361004 -0.33587309718 -0.85573190451
          -2.2852199078 -0.19466769695 -0.68211597204 -2.1525170803 -0.34244281054 -0.58914798498
          -2.1335361004 -0.33587309718 -0.85573190451 -2.354665041 -0.32262691855 -0.86674439907
          -2.2852199078 -0.19466769695 -0.68211597204 -2.1525170803 -0.34244281054 -0.58914798498
          -2.0607159138 -0.073489099741 -0.92311251163 -2.1019701958 -0.27823245525 -1.0662670135
          -2.3660526276 -0.18054547906 -1.0520470142 -2.1335361004 -0.33587309718 -0.85573190451
          -2.1335361004 -0.33587309718 -0.85573190451 -2.214564085 -0.50244742632 -0.93670272827
          -2.0830700397 -0.51125961542 -0.71200299263 -1.9633500576 -0.49727156758 -1.0658731461
          -1.9235659838 -0.32769143581 -0.93234062195 -2.1335361004 -0.33587309718 -0.85573190451
          -2.0830700397 -0.51125961542 -0.71200299263 -1.9633500576 -0.49727156758 -1.0658731461
          -2.1335361004 -0.33587309718 -0.85573190451 -2.214564085 -0.50244742632 -0.93670272827
          -2.2919089794 -0.51172739267 -0.61034798622 -2.0830700397 -0.51125961542 -0.71200299263
          1.5066930056 0.24949200451 -0.69261598587 1.653785944 0.59295141697 -0.72733402252
          1.6266590357 0.45401710272 -0.88460201025 1.6138050556 0.3192229867 -0.46323099732
          1.5066930056 0.24949200451 -0.69261598587 1.446663022 0.5864855051 -0.62758201361
          1.653785944 0.59295141697 -0.72733402252 1.6138050556 0.3192229867 -0.46323099732
          0.39233699441 -0.44935038686 -0.54869902134 0.3360530138 -0.12368449569 -0.71136599779
          0.14480470121 -0.27436679602 -0.68005996943 0.44525501132 -0.44013750553 -0.72802501917
          0.14480470121 -0.27436679602 -0.68005996943 0.27352508903 -0.21387378871 -0.36756598949
          0.3360530138 -0.12368449569 -0.71136599779 0.39233699441 -0.44935038686 -0.54869902134
          0.39233699441 -0.44935038686 -0.54869902134 0.51021200418 -0.21610671282 -0.49635899067
          0.57541400194 -0.43666920066 -0.55330497026 0.52299612761 -0.44770920277 -0.3446649909
          2.0099020004 0.62074702978 -0.17452520132 1.9673910141 0.42298001051 0.05929357931
          2.1847960949 0.4558160007 -0.22780369222 1.9701869488 0.36129301786 -0.32886689901
          3.6373169422 0.67194199562 1.4793165922 3.7163519859 0.46678900719 1.408038497
          3.5121660233 0.42270597816 1.6780580282 3.8356730938 0.6680150032 1.6421200037
          1.9952529669 -0.028272999451 -0.39336639643 2.2598950863 -0.19575500488 -0.50656956434
          2.2337059975 -0.17428898811 -0.25786739588 2.2489070892 0.1272508949 -0.49432817101
          2.1084809303 0.16455329955 -0.24006199837 1.9952529669 -0.028272999451 -0.39336639643
          2.2337059975 -0.17428898811 -0.25786739588 2.2489070892 0.1272508949 -0.49432817101
          2.1084809303 0.16455329955 -0.24006199837 2.2337059975 -0.17428898811 -0.25786739588
          2.4858739376 -0.02445499599 -0.33545398712 2.2489070892 0.1272508949 -0.49432817101
          2.2337059975 -0.17428898811 -0.25786739588 2.2598950863 -0.19575500488 -0.50656956434
          2.4858739376 -0.02445499599 -0.33545398712 2.2489070892 0.1272508949 -0.49432817101
          2.2337059975 -0.17428898811 -0.25786739588 2.2598950863 -0.19575500488 -0.50656956434
          2.4867670536 -0.33938100934 -0.20310901105 2.4858739376 -0.02445499599 -0.33545398712
          2.4003479481 -0.15540499985 -0.052411012352 2.2337059975 -0.17428898811 -0.25786739588
          2.4867670536 -0.33938100934 -0.20310901105 2.4858739376 -0.02445499599 -0.33545398712
          2.2337059975 -0.17428898811 -0.25786739588 2.1427390575 -0.046670995653 -0.085950896144
          2.4003479481 -0.15540499985 -0.052411012352 2.204267025 -0.35545799136 0.084110699594
          -3.8928060532 -0.036693397909 -0.81056702137 -3.8355240822 -0.29797300696 -0.83261597157
          -3.9709320068 -0.19345550239 -0.77938902378 -3.779299736 -0.33174827695 -0.59858602285
          0.8697130084 0.27566960454 -1.2600489855 0.90016597509 0.3842356205 -1.0304160118
          1.0951930285 0.35682529211 -1.1645820141 1.0180549622 0.17184720933 -1.2025079727
          0.8697130084 0.27566960454 -1.2600489855 0.90016597509 0.3842356205 -1.0304160118
          1.0180549622 0.17184720933 -1.2025079727 0.74059998989 0.11394579709 -1.0505290031
          0.8697130084 0.27566960454 -1.2600489855 0.74059998989 0.11394579709 -1.0505290031
          1.0180549622 0.17184720933 -1.2025079727 0.88432902098 -0.0070595997386 -1.2622259855
          -3.9709320068 -0.19345550239 -0.77938902378 -3.8355240822 -0.29797300696 -0.83261597157
          -4.0158720016 -0.37966567278 -0.75769299269 -3.779299736 -0.33174827695 -0.59858602285
          -3.9709320068 -0.19345550239 -0.77938902378 -3.779299736 -0.33174827695 -0.59858602285
          -4.0158720016 -0.37966567278 -0.75769299269 -3.9470174313 -0.23043839633 -0.45734000206
          -1.7985810041 -0.32161590457 -0.69973397255 -1.715157032 -0.23626880348 -0.5269600153
          -1.5901739597 -0.51384592056 -0.59615600109 -1.7413209677 -0.51405978203 -0.64742702246
          -1.5314699411 -0.26643535495 -0.78901797533 -1.7985810041 -0.32161590457 -0.69973397255
          -1.5901739597 -0.51384592056 -0.59615600109 -1.7413209677 -0.51405978203 -0.64742702246
          -1.7985810041 -0.32161590457 -0.69973397255 -1.5314699411 -0.26643535495 -0.78901797533
          -1.5094130039 -0.50609952211 -0.78413200378 -1.7413209677 -0.51405978203 -0.64742702246
          -1.6408480406 -0.49996328354 -0.93084400892 -1.7985810041 -0.32161590457 -0.69973397255
          -1.5094130039 -0.50609952211 -0.78413200378 -1.7413209677 -0.51405978203 -0.64742702246
          -1.6408480406 -0.49996328354 -0.93084400892 -1.7985810041 -0.32161590457 -0.69973397255
          -1.7413209677 -0.51405978203 -0.64742702246 -1.8400460482 -0.50811260939 -0.77786999941
          -1.6408480406 -0.49996328354 -0.93084400892 -1.7501699924 -0.19925332069 -0.86327397823
          -1.7985810041 -0.32161590457 -0.69973397255 -1.8400460482 -0.50811260939 -0.77786999941
          -1.6408480406 -0.49996328354 -0.93084400892 -1.7501699924 -0.19925332069 -0.86327397823
          -1.5314699411 -0.26643535495 -0.78901797533 -1.7985810041 -0.32161590457 -0.69973397255
          -1.6408480406 -0.49996328354 -0.93084400892 -1.5314699411 -0.26643535495 -0.78901797533
          -1.5094130039 -0.50609952211 -0.78413200378 -1.7985810041 -0.32161590457 -0.69973397255
          -1.7501699924 -0.19925332069 -0.86327397823 -1.715157032 -0.23626880348 -0.5269600153
          -1.5314699411 -0.26643535495 -0.78901797533 -1.7985810041 -0.32161590457 -0.69973397255
          -1.5314699411 -0.26643535495 -0.78901797533 -1.715157032 -0.23626880348 -0.5269600153
          -1.5901739597 -0.51384592056 -0.59615600109 -1.7985810041 -0.32161590457 -0.69973397255
          -1.7413209677 -0.51405978203 -0.64742702246 -1.7985810041 -0.32161590457 -0.69973397255
          -1.8573379517 -0.51496881247 -0.5290030241 -1.8400460482 -0.50811260939 -0.77786999941
          -1.8400460482 -0.50811260939 -0.77786999941 -1.7985810041 -0.32161590457 -0.69973397255
          -1.8573379517 -0.51496881247 -0.5290030241 -2.0830700397 -0.51125961542 -0.71200299263
          -1.8400460482 -0.50811260939 -0.77786999941 -1.9959019423 -0.25378808379 -0.72344702482
          -1.7985810041 -0.32161590457 -0.69973397255 -2.0830700397 -0.51125961542 -0.71200299263
          -1.7985810041 -0.32161590457 -0.69973397255 -1.9959019423 -0.25378808379 -0.72344702482
          -1.8400460482 -0.50811260939 -0.77786999941 -1.9235659838 -0.32769143581 -0.93234062195
          -1.7985810041 -0.32161590457 -0.69973397255 -1.9959019423 -0.25378808379 -0.72344702482
          -1.8573379517 -0.51496881247 -0.5290030241 -2.0830700397 -0.51125961542 -0.71200299263
          -1.7985810041 -0.32161590457 -0.69973397255 -2.0028738976 -0.28446289897 -0.43915998936
          -1.8573379517 -0.51496881247 -0.5290030241 -1.9959019423 -0.25378808379 -0.72344702482
          -1.7985810041 -0.32161590457 -0.69973397255 -2.0028738976 -0.28446289897 -0.43915998936
          -1.9959019423 -0.25378808379 -0.72344702482 -1.8855940104 -0.082297004759 -0.4747030139
          -1.7985810041 -0.32161590457 -0.69973397255 -1.9959019423 -0.25378808379 -0.72344702482
          -1.7705160379 -0.013670380227 -0.72984999418 -1.8855940104 -0.082297004759 -0.4747030139
          -2.7324504852 0.10715190321 -1.2788300514 -2.6269614697 -0.066813401878 -1.0421299934
          -2.7915763855 -0.063147902489 -1.2559100389 -2.8605468273 0.030474800617 -1.0333030224
          -2.8605468273 0.030474800617 -1.0333030224 -2.9489409924 0.21040900052 -1.2003070116
          -2.7915763855 -0.063147902489 -1.2559100389 -2.7324504852 0.10715190321 -1.2788300514
          0.86870998144 0.033326499164 -0.31085899472 0.60305899382 0.11440300196 -0.49014899135
          0.88199001551 0.21808290482 -0.48142701387 0.89858132601 0.2298887074 -0.23391401768
          0.88199001551 0.21808290482 -0.48142701387 1.0656369925 0.1378595978 -0.35818099976
          0.86870998144 0.033326499164 -0.31085899472 0.89858132601 0.2298887074 -0.23391401768
          0.88199001551 0.21808290482 -0.48142701387 1.1137839556 0.31430581212 -0.23879601061
          1.0656369925 0.1378595978 -0.35818099976 0.89858132601 0.2298887074 -0.23391401768
          0.88199001551 0.21808290482 -0.48142701387 1.1137839556 0.31430581212 -0.23879601061
          0.89858132601 0.2298887074 -0.23391401768 0.79733598232 0.39415538311 -0.3318169713
          0.79733598232 0.39415538311 -0.3318169713 0.60305899382 0.11440300196 -0.49014899135
          0.89858132601 0.2298887074 -0.23391401768 0.88199001551 0.21808290482 -0.48142701387
          0.79733598232 0.39415538311 -0.3318169713 0.60305899382 0.11440300196 -0.49014899135
          0.58858072758 0.152926296 -0.17830699682 0.89858132601 0.2298887074 -0.23391401768
          0.71466517448 0.27138009667 -0.094232998788 0.79733598232 0.39415538311 -0.3318169713
          0.58858072758 0.152926296 -0.17830699682 0.89858132601 0.2298887074 -0.23391401768
          0.71466517448 0.27138009667 -0.094232998788 0.79737359285 0.10921870172 -0.047456
          0.89858132601 0.2298887074 -0.23391401768 0.58858072758 0.152926296 -0.17830699682
          0.89858132601 0.2298887074 -0.23391401768 0.71466517448 0.27138009667 -0.094232998788
          0.79733598232 0.39415538311 -0.3318169713 0.73507022858 0.4539988935 -0.073164001107
          1.0656369925 0.1378595978 -0.35818099976 1.1137839556 0.31430581212 -0.23879601061
          1.1920820475 0.066462799907 -0.092215999961 0.89858132601 0.2298887074 -0.23391401768
          0.86870998144 0.033326499164 -0.31085899472 1.0656369925 0.1378595978 -0.35818099976
          1.1920820475 0.066462799907 -0.092215999961 0.89858132601 0.2298887074 -0.23391401768
          -4.1204099655 0.088588900864 -0.72504401207 -4.1332221031 0.29565098882 -0.49425297976
          -4.1674909592 0.13877829909 -0.35717999935 -4.2844419479 0.10605479777 -0.67162799835
          -4.1204099655 0.088588900864 -0.72504401207 -4.1749300957 0.29747289419 -0.70561802387
          -4.1332221031 0.29565098882 -0.49425297976 -4.2844419479 0.10605479777 -0.67162799835
          -4.2844419479 0.10605479777 -0.67162799835 -4.1749300957 0.29747289419 -0.70561802387
          -4.1332221031 0.29565098882 -0.49425297976 -4.3347187042 0.29005420208 -0.44296199083
          -4.2844419479 0.10605479777 -0.67162799835 -4.1332221031 0.29565098882 -0.49425297976
          -4.1674909592 0.13877829909 -0.35717999935 -4.3347187042 0.29005420208 -0.44296199083
          -4.1332221031 0.29565098882 -0.49425297976 -4.3347187042 0.29005420208 -0.44296199083
          -4.1666903496 0.27508330345 -0.13123139739 -4.1674909592 0.13877829909 -0.35717999935
          -4.1332221031 0.29565098882 -0.49425297976 -4.1666903496 0.27508330345 -0.13123139739
          -3.9515781403 0.22483050823 -0.22432824969 -4.1674909592 0.13877829909 -0.35717999935
          -4.1332221031 0.29565098882 -0.49425297976 -4.1204099655 0.088588900864 -0.72504401207
          -4.0872659683 -0.040365900844 -0.50246196985 -3.93171525 0.23039670289 -0.4976850152
          -3.93171525 0.23039670289 -0.4976850152 -4.1460008621 0.48432341218 -0.41542598605
          -3.9811484814 0.47856000066 -0.21228690445 -4.1332221031 0.29565098882 -0.49425297976
          -4.1525735855 0.49060940742 -0.62944197655 -4.1749300957 0.29747289419 -0.70561802387
          -4.1332221031 0.29565098882 -0.49425297976 -4.007420063 0.42113360763 -0.76628297567
          -4.1332221031 0.29565098882 -0.49425297976 -4.1525735855 0.49060940742 -0.62944197655
          -4.007420063 0.42113360763 -0.76628297567 -3.8207867146 0.48162639141 -0.65821701288
          -4.1332221031 0.29565098882 -0.49425297976 -4.1525735855 0.49060940742 -0.62944197655
          -3.8207867146 0.48162639141 -0.65821701288 -3.8304586411 0.47921529412 -0.44864699244
          -3.2438099384 0.03149420023 -0.20086398721 -3.1945888996 0.20945261419 0.039181999862
          -3.3653941154 0.12199870497 0.10548699647 -3.4597270489 0.28559470177 -0.035445000976
          -3.2438099384 0.03149420023 -0.20086398721 -3.3653941154 0.12199870497 0.10548699647
          -3.5090770721 0.16754239798 -0.19926699996 -3.4597270489 0.28559470177 -0.035445000976
          -3.2438099384 0.03149420023 -0.20086398721 -3.4597270489 0.28559470177 -0.035445000976
          -3.5090770721 0.16754239798 -0.19926699996 -3.2346680164 0.26355689764 -0.22137200832
          -3.2438099384 0.03149420023 -0.20086398721 -3.1945888996 0.20945261419 0.039181999862
          -3.4597270489 0.28559470177 -0.035445000976 -3.2346680164 0.26355689764 -0.22137200832
          -3.4597270489 0.28559470177 -0.035445000976 -3.3044788837 0.4724803865 -0.1253259927
          -3.3263669014 0.39029639959 0.092840000987 -3.5249319077 0.4702565074 0.015981996432
          -3.4597270489 0.28559470177 -0.035445000976 -3.3044788837 0.4724803865 -0.1253259927
          -3.5249319077 0.4702565074 0.015981996432 -3.5110230446 0.47337430716 -0.19270299375
          -3.5249319077 0.4702565074 0.015981996432 -3.4597270489 0.28559470177 -0.035445000976
          -3.5110230446 0.47337430716 -0.19270299375 -3.7485210896 0.47213810682 -0.081793002784
          -3.5249319077 0.4702565074 0.015981996432 -3.7695140839 0.20615190268 -0.025571003556
          -3.4597270489 0.28559470177 -0.035445000976 -3.7485210896 0.47213810682 -0.081793002784
          -3.5249319077 0.4702565074 0.015981996432 -3.5363500118 0.303062886 0.16877999902
          -3.4597270489 0.28559470177 -0.035445000976 -3.7695140839 0.20615190268 -0.025571003556
          -3.4597270489 0.28559470177 -0.035445000976 -3.7695140839 0.20615190268 -0.025571003556
          -3.5363500118 0.303062886 0.16877999902 -3.5638709068 0.10706090182 0.17637899518
          -3.4597270489 0.28559470177 -0.035445000976 -3.5638709068 0.10706090182 0.17637899518
          -3.6423470974 -0.017455210909 -0.0356920138 -3.7695140839 0.20615190268 -0.025571003556
          -3.4597270489 0.28559470177 -0.035445000976 -3.7126243114 0.24968840182 -0.29950919747
          -3.7485210896 0.47213810682 -0.081793002784 -3.7695140839 0.20615190268 -0.025571003556
          -3.5110230446 0.47337430716 -0.19270299375 -3.7126243114 0.24968840182 -0.29950919747
          -3.7485210896 0.47213810682 -0.081793002784 -3.4597270489 0.28559470177 -0.035445000976
          -2.5444853306 -0.19624508917 -0.90569740534 -2.6056780815 -0.30553308129 -1.0694279671
          -2.354665041 -0.32262691855 -0.86674439907 -2.3660526276 -0.18054547906 -1.0520470142
          -2.5444853306 -0.19624508917 -0.90569740534 -2.6584146023 -0.50556856394 -0.92454200983
          -2.354665041 -0.32262691855 -0.86674439907 -2.6056780815 -0.30553308129 -1.0694279671
          -4.1674909592 0.13877829909 -0.35717999935 -4.3815760612 0.24617770314 -0.19512629509
          -4.1666903496 0.27508330345 -0.13123139739 -4.2035307884 0.079204000533 -0.13781389594
          -4.2499485016 -0.19019518793 -0.35626098514 -4.2035307884 0.079204000533 -0.13781389594
          -4.3956904411 -0.0096592828631 -0.099004216492 -4.436715126 0.026354400441 -0.37169200182
          4.5372681618 0.68655800819 1.2324299812 4.5152788162 0.44570598006 1.5512629747
          4.7117071152 0.64353197813 1.3227100372 4.6267647743 0.34916397929 1.2565300465
          4.432926178 0.52034902573 1.1526700258 4.5152788162 0.44570598006 1.5512629747
          4.5372681618 0.68655800819 1.2324299812 4.6267647743 0.34916397929 1.2565300465
          4.432926178 0.52034902573 1.1526700258 4.3628559113 0.71818900108 1.3685749769
          4.5372681618 0.68655800819 1.2324299812 4.5152788162 0.44570598006 1.5512629747
          4.2127790451 0.64916598797 1.0111500025 4.3628559113 0.71818900108 1.3685749769
          4.5372681618 0.68655800819 1.2324299812 4.432926178 0.52034902573 1.1526700258
          -4.3815760612 0.24617770314 -0.19512629509 -4.3490223885 0.21022440493 0.13521999121
          -4.1666903496 0.27508330345 -0.13123139739 -4.2035307884 0.079204000533 -0.13781389594
          -4.3815760612 0.24617770314 -0.19512629509 -4.3490223885 0.21022440493 0.13521999121
          -4.2035307884 0.079204000533 -0.13781389594 -4.3956904411 -0.0096592828631 -0.099004216492
          -4.2035307884 0.079204000533 -0.13781389594 -4.3815760612 0.24617770314 -0.19512629509
          -4.3956904411 -0.0096592828631 -0.099004216492 -4.436715126 0.026354400441 -0.37169200182
          -0.72984099388 0.28546023369 -1.3866969347 -0.74778497219 0.49031057954 -1.546538949
          -0.59481602907 0.50138133764 -1.4068089724 -0.83093398809 0.49481633306 -1.3887859583
          -0.72984099388 0.28546023369 -1.3866969347 -0.59481602907 0.50138133764 -1.4068089724
          -0.71466398239 0.50439506769 -1.2475240231 -0.83093398809 0.49481633306 -1.3887859583
          -3.779299736 -0.33174827695 -0.59858602285 -3.8315455914 -0.51438689232 -0.46247899532
          -3.7178936005 -0.30012491345 -0.34045830369 -3.5607392788 -0.34819129109 -0.49605900049
          -3.6200819016 -0.16615739465 -0.5608189702 -3.779299736 -0.33174827695 -0.59858602285
          -3.7178936005 -0.30012491345 -0.34045830369 -3.5607392788 -0.34819129109 -0.49605900049
          -3.7178936005 -0.30012491345 -0.34045830369 -3.5159258842 -0.18312910199 -0.2097529918
          -3.6200819016 -0.16615739465 -0.5608189702 -3.5607392788 -0.34819129109 -0.49605900049
          -3.779299736 -0.33174827695 -0.59858602285 -3.8315455914 -0.51438689232 -0.46247899532
          -3.5607392788 -0.34819129109 -0.49605900049 -3.6353495121 -0.51476502419 -0.58951199055
          -3.5607392788 -0.34819129109 -0.49605900049 -3.8315455914 -0.51438689232 -0.46247899532
          -3.4962136745 -0.50891906023 -0.35148981214 -3.6353495121 -0.51476502419 -0.58951199055
          -3.5607392788 -0.34819129109 -0.49605900049 -3.6353495121 -0.51476502419 -0.58951199055
          -3.4962136745 -0.50891906023 -0.35148981214 -3.2427380085 -0.50958657265 -0.51888477802
          -3.5607392788 -0.34819129109 -0.49605900049 -3.6353495121 -0.51476502419 -0.58951199055
          -3.2427380085 -0.50958657265 -0.51888477802 -3.3740890026 -0.51318377256 -0.76919901371
          1.872320056 -0.36590901017 -0.38697499037 2.0414140224 -0.19573998451 -0.65807902813
          1.9658960104 -0.19827999175 -0.2762555182 1.8301340342 -0.19138199091 -0.51286798716
          -3.6143445969 0.47693321109 -0.66685003042 -3.5222220421 0.2613735199 -0.7316250205
          -3.648727417 0.16803780198 -0.52384102345 -3.6499538422 0.47699010372 -0.48393499851
          2.6742250919 -0.012311006896 0.2936809957 2.547467947 0.16419440508 0.46359831095
          2.5706369877 -0.14441801608 0.49783235788 2.4130580425 -0.0050789942034 0.39745768905
          2.547467947 0.16419440508 0.46359831095 2.3737831116 -0.031773991883 0.64508098364
          2.5706369877 -0.14441801608 0.49783235788 2.4130580425 -0.0050789942034 0.39745768905
          2.5706369877 -0.14441801608 0.49783235788 2.3737831116 -0.031773991883 0.64508098364
          2.2042989731 -0.13768899441 0.32803380489 2.4130580425 -0.0050789942034 0.39745768905
          4.8979010582 0.32311931252 1.3858200312 4.7563681602 0.41457000375 1.7243119478
          4.8711438179 0.14351969957 1.5897270441 4.6735458374 0.19949239492 1.5503569841
          4.8711438179 0.14351969957 1.5897270441 4.7563681602 0.41457000375 1.7243119478
          4.7131490707 0.21425390244 1.868008852 4.6735458374 0.19949239492 1.5503569841
          2.4130580425 -0.0050789942034 0.39745768905 2.2750039101 0.14374065399 0.29926979542
          2.3737831116 -0.031773991883 0.64508098364 2.0687611103 0.17121970654 0.57191699743
          -4.3956904411 -0.0096592828631 -0.099004216492 -4.5573143959 -0.13582371175 -0.061340749264
          -4.4922027588 -0.20494790375 -0.36291068792 -4.436715126 0.026354400441 -0.37169200182
          -4.3956904411 -0.0096592828631 -0.099004216492 -4.626159668 -0.03600018099 -0.37031018734
          -4.5573143959 -0.13582371175 -0.061340749264 -4.436715126 0.026354400441 -0.37169200182
          -4.626159668 -0.03600018099 -0.37031018734 -4.5573143959 -0.13582371175 -0.061340749264
          -4.5885467529 0.081544041634 -0.058668099344 -4.3956904411 -0.0096592828631 -0.099004216492
          -4.626159668 -0.03600018099 -0.37031018734 -4.6802415848 -0.16959774494 -0.21772760153
          -4.5885467529 0.081544041634 -0.058668099344 -4.5573143959 -0.13582371175 -0.061340749264
          -4.5573143959 -0.13582371175 -0.061340749264 -4.6802415848 -0.16959774494 -0.21772760153
          -4.4922027588 -0.20494790375 -0.36291068792 -4.626159668 -0.03600018099 -0.37031018734
          -4.5573143959 -0.13582371175 -0.061340749264 -4.626159668 -0.03600018099 -0.37031018734
          -4.4922027588 -0.20494790375 -0.36291068792 -4.436715126 0.026354400441 -0.37169200182
          -4.6802415848 -0.16959774494 -0.21772760153 -4.5885467529 0.081544041634 -0.058668099344
          -4.5573143959 -0.13582371175 -0.061340749264 -4.7775506973 -0.01067915 -0.02922873944
          -4.7962985039 -0.27623388171 -0.034645497799 -4.7775506973 -0.01067915 -0.02922873944
          -4.6802415848 -0.16959774494 -0.21772760153 -4.5573143959 -0.13582371175 -0.061340749264
          -4.7962985039 -0.27623388171 -0.034645497799 -4.7775506973 -0.01067915 -0.02922873944
          -4.5573143959 -0.13582371175 -0.061340749264 -4.6497826576 -0.19200108945 0.12126010656
          -4.5573143959 -0.13582371175 -0.061340749264 -4.7962985039 -0.27623388171 -0.034645497799
          -4.6497826576 -0.19200108945 0.12126010656 -4.4754362106 -0.32264238596 0.12133580446
          -4.5573143959 -0.13582371175 -0.061340749264 -4.5885467529 0.081544041634 -0.058668099344
          -4.6497826576 -0.19200108945 0.12126010656 -4.7775506973 -0.01067915 -0.02922873944
          -4.4574508667 0.019598178566 0.2031301856 -4.5885467529 0.081544041634 -0.058668099344
          -4.6497826576 -0.19200108945 0.12126010656 -4.5573143959 -0.13582371175 -0.061340749264
          -4.4574508667 0.019598178566 0.2031301856 -4.5885467529 0.081544041634 -0.058668099344
          -4.5573143959 -0.13582371175 -0.061340749264 -4.3956904411 -0.0096592828631 -0.099004216492
          1.2570589781 -0.21799020469 -0.084225989878 1.2357423306 -0.37867379189 0.23501800001
          1.4818120003 -0.39234900475 -0.097535997629 1.2482960224 -0.40534371138 -0.12569999695
          1.2570589781 -0.21799020469 -0.084225989878 1.2357423306 -0.37867379189 0.23501800001
          1.2482960224 -0.40534371138 -0.12569999695 1.0781804323 -0.41856110096 0.0092310095206
          1.2357423306 -0.37867379189 0.23501800001 1.5088090897 -0.39408099651 0.20298700035
          1.4818120003 -0.39234900475 -0.097535997629 1.2482960224 -0.40534371138 -0.12569999695
          1.2482960224 -0.40534371138 -0.12569999695 1.4527050257 -0.19449299574 -0.29091629386
          1.2987240553 -0.39872199297 -0.33902829885 1.4818120003 -0.39234900475 -0.097535997629
          -3.0384581089 0.17068129778 -0.37494298816 -3.1012940407 0.47349649668 -0.42684000731
          -2.9054839611 0.47552779317 -0.32576698065 -3.0915300846 0.47361189127 -0.20009501278
          -3.0384581089 0.17068129778 -0.37494298816 -3.1012940407 0.47349649668 -0.42684000731
          -3.0915300846 0.47361189127 -0.20009501278 -3.2346680164 0.26355689764 -0.22137200832
          -3.1012940407 0.47349649668 -0.42684000731 -3.3044788837 0.4724803865 -0.1253259927
          -3.0915300846 0.47361189127 -0.20009501278 -3.2346680164 0.26355689764 -0.22137200832
          -3.2346680164 0.26355689764 -0.22137200832 -3.3044788837 0.4724803865 -0.1253259927
          -3.0915300846 0.47361189127 -0.20009501278 -3.1058139801 0.41758540273 0.0045389998704
          0.081534996629 0.22075429559 -1.1755410433 -0.061303000897 0.37349951267 -1.1732430458
          -0.2287349999 0.24483269453 -1.2839930058 0.046897001565 0.32769879699 -1.3547029495
          0.081534996629 0.22075429559 -1.1755410433 -0.061303000897 0.37349951267 -1.1732430458
          -0.098812997341 0.27493330836 -0.95051121712 -0.2287349999 0.24483269453 -1.2839930058
          0.081534996629 0.22075429559 -1.1755410433 -0.098812997341 0.27493330836 -0.95051121712
          -0.061303000897 0.37349951267 -1.1732430458 0.21853539348 0.33637189865 -0.98886328936
          -0.061303000897 0.37349951267 -1.1732430458 -0.098812997341 0.27493330836 -0.95051121712
          -0.07988999784 0.53172880411 -1.0493973494 0.21853539348 0.33637189865 -0.98886328936
          -0.061303000897 0.37349951267 -1.1732430458 -0.07988999784 0.53172880411 -1.0493973494
          -0.098812997341 0.27493330836 -0.95051121712 -0.26240199804 0.35430929065 -1.093870163
          -0.061303000897 0.37349951267 -1.1732430458 -0.26240199804 0.35430929065 -1.093870163
          -0.098812997341 0.27493330836 -0.95051121712 -0.2287349999 0.24483269453 -1.2839930058
          0.046897001565 0.32769879699 -1.3547029495 -0.061303000897 0.37349951267 -1.1732430458
          0.015014999546 0.52284687757 -1.2964439392 0.12977400422 0.53239011765 -1.1151189804
          -1.6665450335 0.31891724467 -0.9786170125 -1.9395580292 0.48136660457 -1.0315306187
          -1.86886096 0.2922372818 -1.0309972763 -1.7639460564 0.4825155139 -1.1151630878
          -1.8760517836 0.47185769677 -1.3252899647 -1.9395580292 0.48136660457 -1.0315306187
          -1.7639460564 0.4825155139 -1.1151630878 -1.86886096 0.2922372818 -1.0309972763
          -1.795637846 0.26627320051 -1.3385109901 -1.8760517836 0.47185769677 -1.3252899647
          -1.7639460564 0.4825155139 -1.1151630878 -1.86886096 0.2922372818 -1.0309972763
          -1.6238960028 0.24829168618 -1.1837819815 -1.795637846 0.26627320051 -1.3385109901
          -1.7639460564 0.4825155139 -1.1151630878 -1.86886096 0.2922372818 -1.0309972763
          -1.6238960028 0.24829168618 -1.1837819815 -1.795637846 0.26627320051 -1.3385109901
          -1.86886096 0.2922372818 -1.0309972763 -1.915242672 0.15616099536 -1.1708220243
          -1.86886096 0.2922372818 -1.0309972763 -1.915242672 0.15616099536 -1.1708220243
          -1.8356319666 0.0078969011083 -1.0082437992 -1.6238960028 0.24829168618 -1.1837819815
          -1.915242672 0.15616099536 -1.1708220243 -1.8356319666 0.0078969011083 -1.0082437992
          -2.0596408844 0.23887120187 -0.93493187428 -1.86886096 0.2922372818 -1.0309972763
          -1.86886096 0.2922372818 -1.0309972763 -2.1506009102 0.25718417764 -1.2337720394
          -2.0596408844 0.23887120187 -0.93493187428 -1.915242672 0.15616099536 -1.1708220243
          -2.0755507946 0.47351419926 -1.1557840109 -2.1506009102 0.25718417764 -1.2337720394
          -1.86886096 0.2922372818 -1.0309972763 -1.915242672 0.15616099536 -1.1708220243
          -1.8760517836 0.47185769677 -1.3252899647 -2.0755507946 0.47351419926 -1.1557840109
          -1.86886096 0.2922372818 -1.0309972763 -1.915242672 0.15616099536 -1.1708220243
          -1.795637846 0.26627320051 -1.3385109901 -1.8760517836 0.47185769677 -1.3252899647
          -1.86886096 0.2922372818 -1.0309972763 -1.915242672 0.15616099536 -1.1708220243
          -1.8760517836 0.47185769677 -1.3252899647 -2.0755507946 0.47351419926 -1.1557840109
          -1.9395580292 0.48136660457 -1.0315306187 -1.86886096 0.2922372818 -1.0309972763
          -2.0755507946 0.47351419926 -1.1557840109 -2.1506009102 0.25718417764 -1.2337720394
          -2.0596408844 0.23887120187 -0.93493187428 -1.86886096 0.2922372818 -1.0309972763
          2.6176869869 -0.096157990396 0.89440202713 2.3880560398 -0.17542900145 0.81797897816
          2.3112504482 0.13608121872 0.81553798914 2.355743885 -0.0222629942 1.108060956
          2.6176869869 -0.096157990396 0.89440202713 2.3737831116 -0.031773991883 0.64508098364
          2.3112504482 0.13608121872 0.81553798914 2.3880560398 -0.17542900145 0.81797897816
          2.3880560398 -0.17542900145 0.81797897816 2.6176869869 -0.096157990396 0.89440202713
          2.3737831116 -0.031773991883 0.64508098364 2.5706369877 -0.14441801608 0.49783235788
          2.3880560398 -0.17542900145 0.81797897816 2.2867779732 -0.35515400767 0.54491502047
          2.5706369877 -0.14441801608 0.49783235788 2.3737831116 -0.031773991883 0.64508098364
          2.3880560398 -0.17542900145 0.81797897816 2.1764740944 -0.18138699234 0.65020596981
          2.2867779732 -0.35515400767 0.54491502047 2.3737831116 -0.031773991883 0.64508098364
          2.1027405262 -0.096268005669 0.91622400284 2.1764740944 -0.18138699234 0.65020596981
          2.3880560398 -0.17542900145 0.81797897816 2.3737831116 -0.031773991883 0.64508098364
          2.3880560398 -0.17542900145 0.81797897816 2.1027405262 -0.096268005669 0.91622400284
          2.3737831116 -0.031773991883 0.64508098364 2.3112504482 0.13608121872 0.81553798914
          2.3880560398 -0.17542900145 0.81797897816 2.279137373 -0.3575539887 0.84426099062
          2.2867779732 -0.35515400767 0.54491502047 2.1764740944 -0.18138699234 0.65020596981
          2.5645010471 -0.34633201361 0.97681301832 2.279137373 -0.3575539887 0.84426099062
          2.5302391052 -0.34590399265 0.74713200331 2.3880560398 -0.17542900145 0.81797897816
          4.5152788162 0.44570598006 1.5512629747 4.3628559113 0.71818900108 1.3685749769
          4.559112072 0.72245299816 1.4581370354 4.3675351143 0.70144999027 1.5965069532
          -3.4256296158 -0.04080190137 -0.73200601339 -3.5243430138 -0.15946990252 -0.9610850215
          -3.4094109535 -0.28461059928 -1.0079009533 -3.2653579712 -0.18581090868 -1.0693039894
          -3.4256296158 -0.04080190137 -0.73200601339 -3.5243430138 -0.15946990252 -0.9610850215
          -3.4521927834 -0.28309810162 -0.73375397921 -3.4094109535 -0.28461059928 -1.0079009533
          -3.5243430138 -0.15946990252 -0.9610850215 -3.6418271065 -0.31525328755 -0.91074800491
          -3.4521927834 -0.28309810162 -0.73375397921 -3.4094109535 -0.28461059928 -1.0079009533
          -3.6418271065 -0.31525328755 -0.91074800491 -3.622396946 -0.50692749023 -0.91552698612
          -3.4521927834 -0.28309810162 -0.73375397921 -3.4094109535 -0.28461059928 -1.0079009533
          -3.4521927834 -0.28309810162 -0.73375397921 -3.622396946 -0.50692749023 -0.91552698612
          -3.3740890026 -0.51318377256 -0.76919901371 -3.4094109535 -0.28461059928 -1.0079009533
          -3.0438988209 -0.31679549813 -0.92314600945 -3.4094109535 -0.28461059928 -1.0079009533
          -3.2653579712 -0.18581090868 -1.0693039894 -3.1669573784 -0.19655050337 -0.74350303411
          -3.223610878 -0.51225572824 -0.90670001507 -3.4094109535 -0.28461059928 -1.0079009533
          -3.0438988209 -0.31679549813 -0.92314600945 -3.1669573784 -0.19655050337 -0.74350303411
          -3.223610878 -0.51225572824 -0.90670001507 -3.3226380348 -0.42967289686 -1.0436520576
          -3.0438988209 -0.31679549813 -0.92314600945 -3.4094109535 -0.28461059928 -1.0079009533
          -3.0438988209 -0.31679549813 -0.92314600945 -3.3226380348 -0.42967289686 -1.0436520576
          -3.2653579712 -0.18581090868 -1.0693039894 -3.4094109535 -0.28461059928 -1.0079009533
          0.84206402302 0.052923899144 -0.65382301807 0.88199001551 0.21808290482 -0.48142701387
          1.1057879925 0.14166979492 -0.59393042326 0.99458998442 -0.022154798731 -0.49672108889
          0.84206402302 0.052923899144 -0.65382301807 0.88199001551 0.21808290482 -0.48142701387
          0.99458998442 -0.022154798731 -0.49672108889 0.86870998144 0.033326499164 -0.31085899472
          0.76676100492 -0.1134057045 -0.50795000792 0.86870998144 0.033326499164 -0.31085899472
          0.84206402302 0.052923899144 -0.65382301807 0.99458998442 -0.022154798731 -0.49672108889
          0.76676100492 -0.1134057045 -0.50795000792 0.88520997763 -0.23278620839 -0.74979001284
          0.99458998442 -0.022154798731 -0.49672108889 0.84206402302 0.052923899144 -0.65382301807
          0.99458998442 -0.022154798731 -0.49672108889 0.88199001551 0.21808290482 -0.48142701387
          1.0656369925 0.1378595978 -0.35818099976 0.86870998144 0.033326499164 -0.31085899472
          0.99458998442 -0.022154798731 -0.49672108889 0.88199001551 0.21808290482 -0.48142701387
          1.1057879925 0.14166979492 -0.59393042326 1.0656369925 0.1378595978 -0.35818099976
          0.99458998442 -0.022154798731 -0.49672108889 1.0656369925 0.1378595978 -0.35818099976
          1.1057879925 0.14166979492 -0.59393042326 1.303779006 0.10932320356 -0.39463099837
          -3.2438099384 0.03149420023 -0.20086398721 -3.1492960453 -0.20950199664 -0.30492499471
          -3.5159258842 -0.18312910199 -0.2097529918 -3.4188709259 -0.052383501083 -0.084667012095
          -3.4188709259 -0.052383501083 -0.084667012095 -3.5465004444 -0.0025727003813 -0.37637498975
          -3.5159258842 -0.18312910199 -0.2097529918 -3.2438099384 0.03149420023 -0.20086398721
          -3.4188709259 -0.052383501083 -0.084667012095 -3.6423470974 -0.017455210909 -0.0356920138
          -3.5159258842 -0.18312910199 -0.2097529918 -3.5465004444 -0.0025727003813 -0.37637498975
          0.59374600649 0.45762971044 -1.362267971 0.5862929821 0.35003548861 -1.1572810411
          0.8697130084 0.27566960454 -1.2600489855 0.64630901814 0.29072648287 -1.3438220024
          0.59374600649 0.45762971044 -1.362267971 0.64630901814 0.29072648287 -1.3438220024
          0.30814930797 0.31706541777 -1.2523280382 0.5862929821 0.35003548861 -1.1572810411
          0.59374600649 0.45762971044 -1.362267971 0.30814930797 0.31706541777 -1.2523280382
          0.34664174914 0.52966880798 -1.3116159439 0.5862929821 0.35003548861 -1.1572810411
          0.59374600649 0.45762971044 -1.362267971 0.5862929821 0.35003548861 -1.1572810411
          0.34664174914 0.52966880798 -1.3116159439 0.58952099085 0.54303568602 -1.1641429663
          0.5862929821 0.35003548861 -1.1572810411 0.35893088579 0.54108428955 -1.083673954
          0.34664174914 0.52966880798 -1.3116159439 0.58952099085 0.54303568602 -1.1641429663
          0.58952099085 0.54303568602 -1.1641429663 0.35893088579 0.54108428955 -1.083673954
          0.53923499584 0.55213999748 -0.9251576066 0.5862929821 0.35003548861 -1.1572810411
          0.30814930797 0.31706541777 -1.2523280382 0.35893088579 0.54108428955 -1.083673954
          0.34664174914 0.52966880798 -1.3116159439 0.5862929821 0.35003548861 -1.1572810411
          0.64630901814 0.29072648287 -1.3438220024 0.51523089409 0.14683929086 -1.3929450512
          0.30814930797 0.31706541777 -1.2523280382 0.5862929821 0.35003548861 -1.1572810411
          0.64630901814 0.29072648287 -1.3438220024 0.74059998989 0.11394579709 -1.0505290031
          0.5862929821 0.35003548861 -1.1572810411 0.8697130084 0.27566960454 -1.2600489855
          0.74059998989 0.11394579709 -1.0505290031 0.90016597509 0.3842356205 -1.0304160118
          0.5862929821 0.35003548861 -1.1572810411 0.8697130084 0.27566960454 -1.2600489855
          0.74059998989 0.11394579709 -1.0505290031 0.90016597509 0.3842356205 -1.0304160118
          0.67646998167 0.33598598838 -0.95468699932 0.5862929821 0.35003548861 -1.1572810411
          0.5862929821 0.35003548861 -1.1572810411 0.67646998167 0.33598598838 -0.95468699932
          0.77168899775 0.55329012871 -0.99214798212 0.90016597509 0.3842356205 -1.0304160118
          0.5862929821 0.35003548861 -1.1572810411 0.90016597509 0.3842356205 -1.0304160118
          0.90715700388 0.53051358461 -1.2455300093 0.8697130084 0.27566960454 -1.2600489855
          0.61227500439 -0.20498250425 -0.7539935708 0.47868400812 -0.085507400334 -0.87584412098
          0.82348799706 -0.019467899576 -0.88339298964 0.62536001205 0.067611642182 -0.78804123402
          0.61227500439 -0.20498250425 -0.7539935708 0.61579799652 -0.14052461088 -1.0343459845
          0.82348799706 -0.019467899576 -0.88339298964 0.47868400812 -0.085507400334 -0.87584412098
          0.47868400812 -0.085507400334 -0.87584412098 0.61579799652 -0.14052461088 -1.0343459845
          0.82348799706 -0.019467899576 -0.88339298964 0.62536001205 0.067611642182 -0.78804123402
          1.9639710188 -0.12883301079 0.49361902475 2.0858280659 0.031003998592 0.38727900386
          2.1764740944 -0.18138699234 0.65020596981 2.0687611103 0.17121970654 0.57191699743
          2.0858280659 0.031003998592 0.38727900386 2.0687611103 0.17121970654 0.57191699743
          1.9639710188 -0.12883301079 0.49361902475 1.8012125492 0.13252429664 0.42392399907
          2.0858280659 0.031003998592 0.38727900386 1.8012125492 0.13252429664 0.42392399907
          1.8911110163 0.31002601981 0.28474500775 2.0687611103 0.17121970654 0.57191699743
          -0.19379499555 -0.24117720127 -1.3589559793 -0.53049099445 -0.25941371918 -1.4260540009
          -0.304708004 -0.090819396079 -1.572059989 -0.38811999559 -0.14212410152 -1.2827340364
          -0.19379499555 -0.24117720127 -1.3589559793 -0.38811999559 -0.14212410152 -1.2827340364
          -0.304708004 -0.090819396079 -1.572059989 -0.19496299326 0.017406899482 -1.3360270262
          1.8810739517 -0.025785999373 0.24052999914 2.0367250443 -0.15883000195 0.10807870328
          2.2042989731 -0.13768899441 0.32803380489 2.0858280659 0.031003998592 0.38727900386
          4.6791539192 -0.064878001809 1.5370919704 4.6735458374 0.19949239492 1.5503569841
          4.9265980721 0.083074003458 1.3841999769 4.8711438179 0.14351969957 1.5897270441
          5.0868611336 -0.085908003151 1.4383300543 4.9265980721 0.083074003458 1.3841999769
          4.8711438179 0.14351969957 1.5897270441 5.0016570091 -0.09311401844 1.6771680117
          5.0868611336 -0.085908003151 1.4383300543 4.8711438179 0.14351969957 1.5897270441
          5.1202697754 0.12177520245 1.4594299793 5.0016570091 -0.09311401844 1.6771680117
          5.0868611336 -0.085908003151 1.4383300543 4.9265980721 0.083074003458 1.3841999769
          5.1202697754 0.12177520245 1.4594299793 4.8711438179 0.14351969957 1.5897270441
          4.9797067642 0.10058799386 1.780706048 5.1202697754 0.12177520245 1.4594299793
          4.8711438179 0.14351969957 1.5897270441 5.0016570091 -0.09311401844 1.6771680117
          5.0031938553 0.28169769049 1.6652870178 5.1202697754 0.12177520245 1.4594299793
          4.8711438179 0.14351969957 1.5897270441 4.9797067642 0.10058799386 1.780706048
          2.4003479481 -0.15540499985 -0.052411012352 2.2638959885 -0.015994004905 0.14143829048
          2.4627220631 0.06453820318 0.024974999949 2.457036972 -0.14717501402 0.22073699534
          2.4003479481 -0.15540499985 -0.052411012352 2.1427390575 -0.046670995653 -0.085950896144
          2.4627220631 0.06453820318 0.024974999949 2.2638959885 -0.015994004905 0.14143829048
          2.2638959885 -0.015994004905 0.14143829048 2.0466160774 0.12520329654 0.090647503734
          2.1427390575 -0.046670995653 -0.085950896144 2.4627220631 0.06453820318 0.024974999949
          2.457036972 -0.14717501402 0.22073699534 2.4627220631 0.06453820318 0.024974999949
          2.4130580425 -0.0050789942034 0.39745768905 2.2638959885 -0.015994004905 0.14143829048
          2.457036972 -0.14717501402 0.22073699534 2.4130580425 -0.0050789942034 0.39745768905
          2.2042989731 -0.13768899441 0.32803380489 2.2638959885 -0.015994004905 0.14143829048
          2.0858280659 0.031003998592 0.38727900386 2.0466160774 0.12520329654 0.090647503734
          2.2638959885 -0.015994004905 0.14143829048 2.2750039101 0.14374065399 0.29926979542
          -0.47055399418 0.047336298972 -1.5825300217 -0.38828599453 0.11242230237 -1.4058929682
          -0.25447899103 0.057270798832 -1.5596300364 -0.304708004 -0.090819396079 -1.572059989
          -0.47055399418 0.047336298972 -1.5825300217 -0.38828599453 0.11242230237 -1.4058929682
          -0.304708004 -0.090819396079 -1.572059989 -0.55726397038 -0.032617900521 -1.40318501
          -0.38811999559 -0.14212410152 -1.2827340364 -0.38828599453 0.11242230237 -1.4058929682
          -0.55726397038 -0.032617900521 -1.40318501 -0.304708004 -0.090819396079 -1.572059989
          -0.304708004 -0.090819396079 -1.572059989 -0.53049099445 -0.25941371918 -1.4260540009
          -0.55726397038 -0.032617900521 -1.40318501 -0.38811999559 -0.14212410152 -1.2827340364
          -0.38811999559 -0.14212410152 -1.2827340364 -0.38828599453 0.11242230237 -1.4058929682
          -0.304708004 -0.090819396079 -1.572059989 -0.19496299326 0.017406899482 -1.3360270262
          4.908780098 -0.05460799858 1.9473679066 5.0844421387 -0.30479300022 2.0486927032
          5.2030038834 -0.095155008137 2.0543687344 5.1637601852 -0.29948699474 1.865844965
          4.908780098 -0.05460799858 1.9473679066 5.1637601852 -0.29948699474 1.865844965
          5.2030038834 -0.095155008137 2.0543687344 5.1593341827 -0.012515998445 1.8333879709
          4.908780098 -0.05460799858 1.9473679066 5.1637601852 -0.29948699474 1.865844965
          5.1593341827 -0.012515998445 1.8333879709 4.9833068848 -0.29716300964 1.80032897
          4.908780098 -0.05460799858 1.9473679066 5.0844421387 -0.30479300022 2.0486927032
          5.1637601852 -0.29948699474 1.865844965 4.9833068848 -0.29716300964 1.80032897
          -4.5313487053 0.23166209459 0.25894141197 -4.3490223885 0.21022440493 0.13521999121
          -4.6535224915 0.13568019867 0.13374620676 -4.4574508667 0.019598178566 0.2031301856
          -4.5313487053 0.23166209459 0.25894141197 -4.6535224915 0.13568019867 0.13374620676
          -4.5989289284 0.15179400146 0.43534138799 -4.4574508667 0.019598178566 0.2031301856
          -4.4056830406 0.16206969321 0.40360671282 -4.5313487053 0.23166209459 0.25894141197
          -4.5989289284 0.15179400146 0.43534138799 -4.4574508667 0.019598178566 0.2031301856
          -4.4056830406 0.16206969321 0.40360671282 -4.3490223885 0.21022440493 0.13521999121
          -4.5313487053 0.23166209459 0.25894141197 -4.4574508667 0.019598178566 0.2031301856
          -4.5313487053 0.23166209459 0.25894141197 -4.7318658829 0.32032591105 0.23805809021
          -4.6535224915 0.13568019867 0.13374620676 -4.5223350525 0.28749448061 0.00038830153062
          -4.5313487053 0.23166209459 0.25894141197 -4.5983519554 0.47850579023 0.11985320598
          -4.7318658829 0.32032591105 0.23805809021 -4.5223350525 0.28749448061 0.00038830153062
          -2.5196659565 0.24592778087 -0.72205346823 -2.4830985069 0.14539518952 -0.90576428175
          -2.6722416878 0.17765410244 -0.99963802099 -2.7856142521 0.29197818041 -0.82188498974
          -4.7666764259 -0.51139259338 -0.25473800302 -4.6228103638 -0.50389355421 -0.10335719585
          -4.7719397545 -0.50261425972 -0.082141898572 -4.7962985039 -0.27623388171 -0.034645497799
          -4.2212285995 -0.30168271065 -0.17994959652 -4.4421896935 -0.50854843855 -0.17462399602
          -4.4366278648 -0.28509175777 -0.13918270171 -4.247215271 -0.5039280057 -0.16240300238
          -4.2212285995 -0.30168271065 -0.17994959652 -4.3169722557 -0.515429914 -0.37853601575
          -4.4366278648 -0.28509175777 -0.13918270171 -4.4421896935 -0.50854843855 -0.17462399602
          -4.4366278648 -0.28509175777 -0.13918270171 -4.4922027588 -0.20494790375 -0.36291068792
          -4.4421896935 -0.50854843855 -0.17462399602 -4.3169722557 -0.515429914 -0.37853601575
          -4.4366278648 -0.28509175777 -0.13918270171 -4.4922027588 -0.20494790375 -0.36291068792
          -4.6099963188 -0.51237237453 -0.2558003962 -4.4421896935 -0.50854843855 -0.17462399602
          -4.4421896935 -0.50854843855 -0.17462399602 -4.4922027588 -0.20494790375 -0.36291068792
          -4.6099963188 -0.51237237453 -0.2558003962 -4.3169722557 -0.515429914 -0.37853601575
          -2.3186562061 0.14272490144 -1.0617469549 -2.4830985069 0.14539518952 -0.90576428175
          -2.6722416878 0.17765410244 -0.99963802099 -2.4950749874 0.26449760795 -1.1571450233
          -2.3186562061 0.14272490144 -1.0617469549 -2.6269614697 -0.066813401878 -1.0421299934
          -2.6722416878 0.17765410244 -0.99963802099 -2.4830985069 0.14539518952 -0.90576428175
          -2.3186562061 0.14272490144 -1.0617469549 -2.3013501167 -0.0029451001901 -0.87519747019
          -2.6269614697 -0.066813401878 -1.0421299934 -2.4830985069 0.14539518952 -0.90576428175
          -2.3186562061 0.14272490144 -1.0617469549 -2.3114500046 0.28709989786 -0.8894675374
          -2.3013501167 -0.0029451001901 -0.87519747019 -2.4830985069 0.14539518952 -0.90576428175
          -2.3114500046 0.28709989786 -0.8894675374 -2.2431271076 0.16042180359 -0.71514201164
          -2.3013501167 -0.0029451001901 -0.87519747019 -2.4830985069 0.14539518952 -0.90576428175
          -2.3013501167 -0.0029451001901 -0.87519747019 -2.2431271076 0.16042180359 -0.71514201164
          -2.548101902 -0.012899150141 -0.78901946545 -2.4830985069 0.14539518952 -0.90576428175
          -2.4830985069 0.14539518952 -0.90576428175 -2.3013501167 -0.0029451001901 -0.87519747019
          -2.6269614697 -0.066813401878 -1.0421299934 -2.548101902 -0.012899150141 -0.78901946545
          -2.4830985069 0.14539518952 -0.90576428175 -2.6269614697 -0.066813401878 -1.0421299934
          -2.6722416878 0.17765410244 -0.99963802099 -2.548101902 -0.012899150141 -0.78901946545
          -2.4830985069 0.14539518952 -0.90576428175 -2.548101902 -0.012899150141 -0.78901946545
          -2.6722416878 0.17765410244 -0.99963802099 -2.7823200226 0.016783099622 -0.68633919954
          -2.7856142521 0.29197818041 -0.82188498974 -2.4830985069 0.14539518952 -0.90576428175
          -2.6722416878 0.17765410244 -0.99963802099 -2.7823200226 0.016783099622 -0.68633919954
          -3.1125445366 -0.042645700276 -0.91890496016 -3.2104935646 -0.0044391001575 -0.70767199993
          -3.1669573784 -0.19655050337 -0.74350303411 -3.4256296158 -0.04080190137 -0.73200601339
          -3.2104935646 -0.0044391001575 -0.70767199993 -3.4256296158 -0.04080190137 -0.73200601339
          -3.3584003448 -0.26359349489 -0.49015578628 -3.1669573784 -0.19655050337 -0.74350303411
          -3.1125445366 -0.042645700276 -0.91890496016 -2.9588835239 0.10583119839 -0.81790500879
          -2.9707868099 -0.088433094323 -0.74900501966 -3.2104935646 -0.0044391001575 -0.70767199993
          -3.517005682 0.27712589502 -0.40882021189 -3.2987422943 0.26889032125 -0.46421080828
          -3.5465004444 -0.0025727003813 -0.37637498975 -3.5090770721 0.16754239798 -0.19926699996
          -3.4282062054 0.14235441387 -0.57428902388 -3.2987422943 0.26889032125 -0.46421080828
          -3.5465004444 -0.0025727003813 -0.37637498975 -3.517005682 0.27712589502 -0.40882021189
          -3.648727417 0.16803780198 -0.52384102345 -3.4282062054 0.14235441387 -0.57428902388
          -3.5465004444 -0.0025727003813 -0.37637498975 -3.517005682 0.27712589502 -0.40882021189
          -3.5222220421 0.2613735199 -0.7316250205 -3.4282062054 0.14235441387 -0.57428902388
          -3.648727417 0.16803780198 -0.52384102345 -3.517005682 0.27712589502 -0.40882021189
          -3.5222220421 0.2613735199 -0.7316250205 -3.2987422943 0.26889032125 -0.46421080828
          -3.4282062054 0.14235441387 -0.57428902388 -3.517005682 0.27712589502 -0.40882021189
          -3.5222220421 0.2613735199 -0.7316250205 -3.2916152477 0.47306519747 -0.70392102003
          -3.2987422943 0.26889032125 -0.46421080828 -3.517005682 0.27712589502 -0.40882021189
          -3.517005682 0.27712589502 -0.40882021189 -3.7126243114 0.24968840182 -0.29950919747
          -3.5110230446 0.47337430716 -0.19270299375 -3.5090770721 0.16754239798 -0.19926699996
          -3.517005682 0.27712589502 -0.40882021189 -3.5090770721 0.16754239798 -0.19926699996
          -3.5110230446 0.47337430716 -0.19270299375 -3.2346680164 0.26355689764 -0.22137200832
          -3.517005682 0.27712589502 -0.40882021189 -3.5110230446 0.47337430716 -0.19270299375
          -3.4917843342 0.47428500652 -0.40278941393 -3.2346680164 0.26355689764 -0.22137200832
          -3.4917843342 0.47428500652 -0.40278941393 -3.517005682 0.27712589502 -0.40882021189
          -3.6916606426 0.47540700436 -0.29235720634 -3.5110230446 0.47337430716 -0.19270299375
          -3.4917843342 0.47428500652 -0.40278941393 -3.6499538422 0.47699010372 -0.48393499851
          -3.6916606426 0.47540700436 -0.29235720634 -3.517005682 0.27712589502 -0.40882021189
          -3.517005682 0.27712589502 -0.40882021189 -3.6499538422 0.47699010372 -0.48393499851
          -3.6916606426 0.47540700436 -0.29235720634 -3.7126243114 0.24968840182 -0.29950919747
          -3.517005682 0.27712589502 -0.40882021189 -3.7126243114 0.24968840182 -0.29950919747
          -3.6916606426 0.47540700436 -0.29235720634 -3.5110230446 0.47337430716 -0.19270299375
          1.8301340342 -0.19138199091 -0.51286798716 2.0414140224 -0.19573998451 -0.65807902813
          1.9658960104 -0.19827999175 -0.2762555182 1.9952529669 -0.028272999451 -0.39336639643
          1.8301340342 -0.19138199091 -0.51286798716 1.6553009748 -0.058208007365 -0.42940098047
          1.9952529669 -0.028272999451 -0.39336639643 1.9658960104 -0.19827999175 -0.2762555182
          1.9658960104 -0.19827999175 -0.2762555182 1.6553009748 -0.058208007365 -0.42940098047
          1.9952529669 -0.028272999451 -0.39336639643 1.8071659803 -0.10879799724 -0.12797890604
          1.9658960104 -0.19827999175 -0.2762555182 2.0367250443 -0.15883000195 0.10807870328
          2.1158709526 -0.35618299246 -0.26636224985 1.9846500158 -0.36595401168 0.065145798028
          2.2756080627 0.47857099771 -0.45266869664 2.1847960949 0.4558160007 -0.22780369222
          2.2999079227 0.63358300924 -0.23076201975 2.551858902 0.38516098261 -0.25988900661
          2.2756080627 0.47857099771 -0.45266869664 2.3722069263 0.33220499754 -0.39323601127
          2.1847960949 0.4558160007 -0.22780369222 2.551858902 0.38516098261 -0.25988900661
          2.3722069263 0.33220499754 -0.39323601127 2.1847960949 0.4558160007 -0.22780369222
          2.551858902 0.38516098261 -0.25988900661 2.4272270203 0.24140749872 -0.088780999184
          2.3722069263 0.33220499754 -0.39323601127 2.2037799358 0.33316999674 -0.035911995918
          2.1847960949 0.4558160007 -0.22780369222 2.4272270203 0.24140749872 -0.088780999184
          2.3722069263 0.33220499754 -0.39323601127 2.2037799358 0.33316999674 -0.035911995918
          2.1084809303 0.16455329955 -0.24006199837 2.1847960949 0.4558160007 -0.22780369222
          2.1847960949 0.4558160007 -0.22780369222 2.2037799358 0.33316999674 -0.035911995918
          2.551858902 0.38516098261 -0.25988900661 2.4272270203 0.24140749872 -0.088780999184
          2.2037799358 0.33316999674 -0.035911995918 2.551858902 0.38516098261 -0.25988900661
          2.5381810665 0.37671899796 0.083356015384 2.1847960949 0.4558160007 -0.22780369222
          2.2037799358 0.33316999674 -0.035911995918 2.1847960949 0.4558160007 -0.22780369222
          2.5381810665 0.37671899796 0.083356015384 2.4292700291 0.64129698277 -0.068533986807
          2.1847960949 0.4558160007 -0.22780369222 2.551858902 0.38516098261 -0.25988900661
          2.5381810665 0.37671899796 0.083356015384 2.4292700291 0.64129698277 -0.068533986807
          2.1847960949 0.4558160007 -0.22780369222 2.551858902 0.38516098261 -0.25988900661
          2.4292700291 0.64129698277 -0.068533986807 2.2999079227 0.63358300924 -0.23076201975
          3.147439003 -0.0024279970676 0.66096997261 3.2844669819 0.18207931519 1.0159295797
          3.4617619514 -0.034863006324 0.83526402712 3.232765913 -0.12802201509 0.84651488066
          3.232765913 -0.12802201509 0.84651488066 3.2844669819 0.18207931519 1.0159295797
          3.4617619514 -0.034863006324 0.83526402712 3.2712409496 -0.069230996072 1.0871679783
          3.232765913 -0.12802201509 0.84651488066 3.5389170647 -0.30982100964 1.044885993
          3.2712409496 -0.069230996072 1.0871679783 3.4617619514 -0.034863006324 0.83526402712
          3.232765913 -0.12802201509 0.84651488066 3.5389170647 -0.30982100964 1.044885993
          3.2109239101 -0.32089099288 1.1309139729 3.2712409496 -0.069230996072 1.0871679783
          3.232765913 -0.12802201509 0.84651488066 3.2712409496 -0.069230996072 1.0871679783
          3.2109239101 -0.32089099288 1.1309139729 3.0215229988 -0.32744300365 0.94604861736
          3.1706290245 -0.32041600347 0.80434769392 3.232765913 -0.12802201509 0.84651488066
          3.2109239101 -0.32089099288 1.1309139729 3.0215229988 -0.32744300365 0.94604861736
          3.1706290245 -0.32041600347 0.80434769392 2.9822580814 -0.12804400921 0.81096309423
          3.232765913 -0.12802201509 0.84651488066 3.0215229988 -0.32744300365 0.94604861736
          3.232765913 -0.12802201509 0.84651488066 2.9822580814 -0.12804400921 0.81096309423
          3.1706290245 -0.32041600347 0.80434769392 3.179639101 -0.31765601039 0.58325701952
          3.232765913 -0.12802201509 0.84651488066 2.9822580814 -0.12804400921 0.81096309423
          3.2712409496 -0.069230996072 1.0871679783 3.0215229988 -0.32744300365 0.94604861736
          2.9822580814 -0.12804400921 0.81096309423 3.232765913 -0.12802201509 0.84651488066
          3.2712409496 -0.069230996072 1.0871679783 2.9346859455 -0.010064994916 1.0378210545
          2.9822580814 -0.12804400921 0.81096309423 3.0274419785 0.16455459595 0.84069955349
          3.232765913 -0.12802201509 0.84651488066 2.9346859455 -0.010064994916 1.0378210545
          3.232765913 -0.12802201509 0.84651488066 3.0274419785 0.16455459595 0.84069955349
          3.2712409496 -0.069230996072 1.0871679783 2.9346859455 -0.010064994916 1.0378210545
          3.232765913 -0.12802201509 0.84651488066 3.2844669819 0.18207931519 1.0159295797
          3.2712409496 -0.069230996072 1.0871679783 3.0274419785 0.16455459595 0.84069955349
          1.2925460339 -0.051271595061 -0.25956600904 1.0656369925 0.1378595978 -0.35818099976
          1.303779006 0.10932320356 -0.39463099837 1.1920820475 0.066462799907 -0.092215999961
          4.4385910034 0.24091610312 1.4270139933 4.6735458374 0.19949239492 1.5503569841
          4.6267647743 0.34916397929 1.2565300465 4.7530341148 0.20248390734 1.315179944
          4.4385910034 0.24091610312 1.4270139933 4.7530341148 0.20248390734 1.315179944
          4.6267647743 0.34916397929 1.2565300465 4.5587711334 0.13435800374 1.2057100534
          4.4385910034 0.24091610312 1.4270139933 4.6735458374 0.19949239492 1.5503569841
          4.7530341148 0.20248390734 1.315179944 4.5587711334 0.13435800374 1.2057100534
          -2.0607159138 -0.073489099741 -0.92311251163 -2.1130719185 -0.047264300287 -1.1963629723
          -1.8356319666 0.0078969011083 -1.0082437992 -2.1116633415 0.079452298582 -1.0412242413
          -2.1130719185 -0.047264300287 -1.1963629723 -2.3013501167 -0.0029451001901 -0.87519747019
          -2.1116633415 0.079452298582 -1.0412242413 -2.0607159138 -0.073489099741 -0.92311251163
          -2.1130719185 -0.047264300287 -1.1963629723 -2.3660526276 -0.18054547906 -1.0520470142
          -2.1116633415 0.079452298582 -1.0412242413 -2.3013501167 -0.0029451001901 -0.87519747019
          -2.1130719185 -0.047264300287 -1.1963629723 -2.3660526276 -0.18054547906 -1.0520470142
          -2.3633306026 -0.018299350515 -1.2072839737 -2.1116633415 0.079452298582 -1.0412242413
          -2.1130719185 -0.047264300287 -1.1963629723 -2.3633306026 -0.018299350515 -1.2072839737
          -2.3186562061 0.14272490144 -1.0617469549 -2.1116633415 0.079452298582 -1.0412242413
          -2.1116633415 0.079452298582 -1.0412242413 -2.3633306026 -0.018299350515 -1.2072839737
          -2.3186562061 0.14272490144 -1.0617469549 -2.3013501167 -0.0029451001901 -0.87519747019
          -2.1116633415 0.079452298582 -1.0412242413 -2.3013501167 -0.0029451001901 -0.87519747019
          -2.3186562061 0.14272490144 -1.0617469549 -2.3114500046 0.28709989786 -0.8894675374
          -2.0596408844 0.23887120187 -0.93493187428 -2.1116633415 0.079452298582 -1.0412242413
          -2.3186562061 0.14272490144 -1.0617469549 -2.3114500046 0.28709989786 -0.8894675374
          -2.0596408844 0.23887120187 -0.93493187428 -2.3013501167 -0.0029451001901 -0.87519747019
          -2.1116633415 0.079452298582 -1.0412242413 -2.3114500046 0.28709989786 -0.8894675374
          -2.0596408844 0.23887120187 -0.93493187428 -2.1116633415 0.079452298582 -1.0412242413
          -2.3013501167 -0.0029451001901 -0.87519747019 -2.2431271076 0.16042180359 -0.71514201164
          -2.0596408844 0.23887120187 -0.93493187428 -2.0607159138 -0.073489099741 -0.92311251163
          -2.1116633415 0.079452298582 -1.0412242413 -2.2431271076 0.16042180359 -0.71514201164
          -2.1116633415 0.079452298582 -1.0412242413 -2.0607159138 -0.073489099741 -0.92311251163
          -2.3013501167 -0.0029451001901 -0.87519747019 -2.2431271076 0.16042180359 -0.71514201164
          -2.1116633415 0.079452298582 -1.0412242413 -2.3660526276 -0.18054547906 -1.0520470142
          -2.3633306026 -0.018299350515 -1.2072839737 -2.3013501167 -0.0029451001901 -0.87519747019
          5.1783838272 0.53621798754 2.2175490856 5.3057627678 0.47182801366 2.3657300472
          5.3322758675 0.71096599102 2.2698550224 5.3812499046 0.50339800119 2.1557321548
          5.1783838272 0.53621798754 2.2175490856 5.3322758675 0.71096599102 2.2698550224
          5.2246007919 0.71275597811 2.0305790901 5.3812499046 0.50339800119 2.1557321548
          5.2246007919 0.71275597811 2.0305790901 5.1783838272 0.53621798754 2.2175490856
          5.3812499046 0.50339800119 2.1557321548 5.199947834 0.37635299563 2.0466771126
          5.1783838272 0.53621798754 2.2175490856 5.3057627678 0.47182801366 2.3657300472
          5.3812499046 0.50339800119 2.1557321548 5.3432278633 0.22682979703 2.2597339153
          5.1783838272 0.53621798754 2.2175490856 5.0721921921 0.69339102507 2.3749821186
          5.3057627678 0.47182801366 2.3657300472 5.0230960846 0.41076001525 2.4843699932
          -0.49013099074 -0.27833321691 -0.80703800917 -0.29678198695 -0.19139230251 -0.85894298553
          -0.36743998528 -0.0037765994202 -0.87996399403 -0.55270302296 -0.11456199735 -0.98753702641
          -0.49013099074 -0.27833321691 -0.80703800917 -0.36743998528 -0.0037765994202 -0.87996399403
          -0.54605597258 0.061542298645 -0.81870001554 -0.55270302296 -0.11456199735 -0.98753702641
          -0.57054299116 -0.063641503453 -0.60666000843 -0.49013099074 -0.27833321691 -0.80703800917
          -0.36743998528 -0.0037765994202 -0.87996399403 -0.54605597258 0.061542298645 -0.81870001554
          -0.57054299116 -0.063641503453 -0.60666000843 -0.36743998528 -0.0037765994202 -0.87996399403
          -0.39273399115 0.0064351009205 -0.57656002045 -0.54605597258 0.061542298645 -0.81870001554
          -0.57054299116 -0.063641503453 -0.60666000843 -0.49013099074 -0.27833321691 -0.80703800917
          -0.39273399115 0.0064351009205 -0.57656002045 -0.36743998528 -0.0037765994202 -0.87996399403
          -0.49013099074 -0.27833321691 -0.80703800917 -0.42572999001 -0.2455662936 -0.58765000105
          -0.39273399115 0.0064351009205 -0.57656002045 -0.36743998528 -0.0037765994202 -0.87996399403
          -0.39273399115 0.0064351009205 -0.57656002045 -0.42486399412 0.21323770285 -0.57991999388
          -0.54605597258 0.061542298645 -0.81870001554 -0.36743998528 -0.0037765994202 -0.87996399403
          -0.39273399115 0.0064351009205 -0.57656002045 -0.19524599612 0.051735099405 -0.78870302439
          -0.42486399412 0.21323770285 -0.57991999388 -0.36743998528 -0.0037765994202 -0.87996399403
          -0.36743998528 -0.0037765994202 -0.87996399403 -0.54605597258 0.061542298645 -0.81870001554
          -0.55270302296 -0.11456199735 -0.98753702641 -0.42777499557 0.06476470083 -1.0590546131
          -1.1307909489 -0.13907830417 -1.6104199886 -1.288203001 -0.24603740871 -1.60145998
          -1.2665230036 -0.018151098862 -1.5959500074 -1.4067959785 -0.070061728358 -1.4117490053
          -1.4067959785 -0.070061728358 -1.4117490053 -1.1884590387 0.063980542123 -1.4178910255
          -1.2665230036 -0.018151098862 -1.5959500074 -1.1307909489 -0.13907830417 -1.6104199886
          -3.061948061 0.073819994926 -0.013481999747 -3.0384581089 0.17068129778 -0.37494298816
          -2.9465370178 0.2871569097 -0.061487998813 -3.2346680164 0.26355689764 -0.22137200832
          -3.2438099384 0.03149420023 -0.20086398721 -3.2346680164 0.26355689764 -0.22137200832
          -3.061948061 0.073819994926 -0.013481999747 -3.1945888996 0.20945261419 0.039181999862
          -0.85848498344 0.10293919593 -1.6076999903 -0.96911400557 -0.012546800077 -1.6096899509
          -0.99887502193 -0.062538303435 -1.3665850163 -0.7670930028 0.060932602733 -1.3277369738
          -0.7670930028 0.060932602733 -1.3277369738 -0.96911400557 -0.012546800077 -1.6096899509
          -0.78262102604 -0.069029003382 -1.6080299616 -0.85848498344 0.10293919593 -1.6076999903
          -1.201603055 0.29143372178 -1.4187309742 -1.0434730053 0.12597134709 -1.60631001
          -1.1884590387 0.063980542123 -1.4178910255 -1.0088479519 0.19115871191 -1.3418680429
          -0.99887502193 -0.062538303435 -1.3665850163 -1.0088479519 0.19115871191 -1.3418680429
          -1.1884590387 0.063980542123 -1.4178910255 -1.0434730053 0.12597134709 -1.60631001
          -0.99887502193 -0.062538303435 -1.3665850163 -1.0434730053 0.12597134709 -1.60631001
          -1.1884590387 0.063980542123 -1.4178910255 -0.96911400557 -0.012546800077 -1.6096899509
          -1.0434730053 0.12597134709 -1.60631001 -0.96911400557 -0.012546800077 -1.6096899509
          -0.99887502193 -0.062538303435 -1.3665850163 -0.85848498344 0.10293919593 -1.6076999903
          -1.0088479519 0.19115871191 -1.3418680429 -1.0434730053 0.12597134709 -1.60631001
          -0.99887502193 -0.062538303435 -1.3665850163 -0.85848498344 0.10293919593 -1.6076999903
          -1.1884590387 0.063980542123 -1.4178910255 -1.0434730053 0.12597134709 -1.60631001
          -1.2665230036 -0.018151098862 -1.5959500074 -0.96911400557 -0.012546800077 -1.6096899509
          -1.1884590387 0.063980542123 -1.4178910255 -1.206567049 0.2027631104 -1.6014900208
          -1.2665230036 -0.018151098862 -1.5959500074 -1.0434730053 0.12597134709 -1.60631001
          -3.061948061 0.073819994926 -0.013481999747 -3.2438099384 0.03149420023 -0.20086398721
          -3.4188709259 -0.052383501083 -0.084667012095 -3.0977869034 -0.10610190034 0.0021150000393
          -3.061948061 0.073819994926 -0.013481999747 -3.4188709259 -0.052383501083 -0.084667012095
          -3.2750339508 -0.14621569216 0.072559997439 -3.0977869034 -0.10610190034 0.0021150000393
          -3.3653941154 0.12199870497 0.10548699647 -3.4188709259 -0.052383501083 -0.084667012095
          -3.2750339508 -0.14621569216 0.072559997439 -3.061948061 0.073819994926 -0.013481999747
          -3.3653941154 0.12199870497 0.10548699647 -3.2438099384 0.03149420023 -0.20086398721
          -3.4188709259 -0.052383501083 -0.084667012095 -3.061948061 0.073819994926 -0.013481999747
          -2.8605468273 0.030474800617 -1.0333030224 -3.1125445366 -0.042645700276 -0.91890496016
          -3.0489430428 -0.05935529992 -1.1577789783 -3.0872220993 0.1026121974 -1.1435060501
          -4.4574508667 0.019598178566 0.2031301856 -4.7829651833 -0.03583727777 0.25068509579
          -4.5542583466 -0.14354543388 0.282918185 -4.6497826576 -0.19200108945 0.12126010656
          -4.4574508667 0.019598178566 0.2031301856 -4.5542583466 -0.14354543388 0.282918185
          -4.3315758705 -0.16536140442 0.15697599947 -4.6497826576 -0.19200108945 0.12126010656
          -4.6497826576 -0.19200108945 0.12126010656 -4.4754362106 -0.32264238596 0.12133580446
          -4.5542583466 -0.14354543388 0.282918185 -4.3315758705 -0.16536140442 0.15697599947
          -4.4754362106 -0.32264238596 0.12133580446 -4.6497826576 -0.19200108945 0.12126010656
          -4.5542583466 -0.14354543388 0.282918185 -4.777050972 -0.31894397736 0.2911812067
          -4.4754362106 -0.32264238596 0.12133580446 -4.5542583466 -0.14354543388 0.282918185
          -4.4544172287 -0.23605190217 0.42361399531 -4.777050972 -0.31894397736 0.2911812067
          -4.5542583466 -0.14354543388 0.282918185 -4.4754362106 -0.32264238596 0.12133580446
          -4.4544172287 -0.23605190217 0.42361399531 -4.3315758705 -0.16536140442 0.15697599947
          -4.5542583466 -0.14354543388 0.282918185 -4.6474046707 -0.00025216012727 0.44196480513
          -4.7829651833 -0.03583727777 0.25068509579 -4.4574508667 0.019598178566 0.2031301856
          1.9673910141 0.42298001051 0.05929357931 2.0226778984 0.62434697151 0.18275760114
          2.3142609596 0.44252300262 0.15573300421 2.2181119919 0.41253200173 0.3796235919
          1.9673910141 0.42298001051 0.05929357931 2.0226778984 0.62434697151 0.18275760114
          2.2606570721 0.63481098413 0.14861099422 2.3142609596 0.44252300262 0.15573300421
          2.2181119919 0.41253200173 0.3796235919 2.4290430546 0.64191198349 0.39004901052
          2.3142609596 0.44252300262 0.15573300421 2.5486719608 0.4433940053 0.48740598559
          2.2181119919 0.41253200173 0.3796235919 2.3142609596 0.44252300262 0.15573300421
          2.4331591129 0.31312698126 0.30493488908 2.5486719608 0.4433940053 0.48740598559
          2.3142609596 0.44252300262 0.15573300421 2.2181119919 0.41253200173 0.3796235919
          2.4331591129 0.31312698126 0.30493488908 2.2750039101 0.14374065399 0.29926979542
          2.4331591129 0.31312698126 0.30493488908 2.3142609596 0.44252300262 0.15573300421
          2.5381810665 0.37671899796 0.083356015384 2.5486719608 0.4433940053 0.48740598559
          2.3142609596 0.44252300262 0.15573300421 2.5486719608 0.4433940053 0.48740598559
          2.7388780117 0.4845879972 0.20156900585 2.5381810665 0.37671899796 0.083356015384
          2.3142609596 0.44252300262 0.15573300421 2.7388780117 0.4845879972 0.20156900585
          2.5418469906 0.64766597748 0.10435001552 2.5381810665 0.37671899796 0.083356015384
          2.3142609596 0.44252300262 0.15573300421 2.5381810665 0.37671899796 0.083356015384
          2.5418469906 0.64766597748 0.10435001552 2.4292700291 0.64129698277 -0.068533986807
          2.3142609596 0.44252300262 0.15573300421 2.2037799358 0.33316999674 -0.035911995918
          2.5381810665 0.37671899796 0.083356015384 2.4292700291 0.64129698277 -0.068533986807
          2.3142609596 0.44252300262 0.15573300421 2.2037799358 0.33316999674 -0.035911995918
          2.4292700291 0.64129698277 -0.068533986807 2.1847960949 0.4558160007 -0.22780369222
          2.4290430546 0.64191198349 0.39004901052 2.7388780117 0.4845879972 0.20156900585
          2.5418469906 0.64766597748 0.10435001552 2.3142609596 0.44252300262 0.15573300421
          2.4290430546 0.64191198349 0.39004901052 2.5486719608 0.4433940053 0.48740598559
          2.7388780117 0.4845879972 0.20156900585 2.3142609596 0.44252300262 0.15573300421
          -1.3387739658 0.1015701443 -0.80373698473 -1.1171029806 0.13310749829 -0.81390601397
          -1.1518950462 -0.061164274812 -0.8551800251 -1.2343740463 0.075913608074 -0.61450999975
          -1.1171029806 0.13310749829 -0.81390601397 -1.2614649534 0.29969120026 -0.61504000425
          -1.2343740463 0.075913608074 -0.61450999975 -1.3387739658 0.1015701443 -0.80373698473
          -2.7090830803 0.31708621979 -0.6229904294 -2.825469017 0.27062919736 -0.34245297313
          -2.5764689445 0.47962999344 -0.47001102567 -2.707750082 0.14897160232 -0.50897496939
          -2.7090830803 0.31708621979 -0.6229904294 -2.707750082 0.14897160232 -0.50897496939
          -2.5764689445 0.47962999344 -0.47001102567 -2.3634879589 0.31209561229 -0.49861198664
          -2.7090830803 0.31708621979 -0.6229904294 -2.9227018356 0.26947918534 -0.61335587502
          -2.825469017 0.27062919736 -0.34245297313 -2.707750082 0.14897160232 -0.50897496939
          -2.7090830803 0.31708621979 -0.6229904294 -2.9246742725 0.47127839923 -0.80925703049
          -2.9227018356 0.26947918534 -0.61335587502 -2.7856142521 0.29197818041 -0.82188498974
        </DataArray>
      </Points>
      <Cells>
        <DataArray type="Int64" Name="connectivity" format="ascii" RangeMin="0" RangeMax="21867">
          0 1 2 3 4 5
          6 7 8 9 10 11
          12 13 14 15 16 17
          18 19 20 21 22 23
          24 25 26 27 28 29
          30 31 32 33 34 35
          36 37 38 39 40 41
          42 43 44 45 46 47
          48 49 50 51 52 53
          54 55 56 57 58 59
          60 61 62 63 64 65
          66 67 68 69 70 71
          72 73 74 75 76 77
          78 79 80 81 82 83
          84 85 86 87 88 89
          90 91 92 93 94 95
          96 97 98 99 100 101
          102 103 104 105 106 107
          108 109 110 111 112 113
          114 115 116 117 118 119
          120 121 122 123 124 125
          126 127 128 129 130 131
          132 133 134 135 136 137
          138 139 140 141 142 143
          144 145 146 147 148 149
          150 151 152 153 154 155
          156 157 158 159 160 161
          162 163 164 165 166 167
          168 169 170 171 172 173
          174 175 176 177 178 179
          180 181 182 183 184 185
          186 187 188 189 190 191
          192 193 194 195 196 197
          198 199 200 201 202 203
          204 205 206 207 208 209
          210 211 212 213 214 215
          216 217 218 219 220 221
          222 223 224 225 226 227
          228 229 230 231 232 233
          234 235 236 237 238 239
          240 241 242 243 244 245
          246 247 248 249 250 251
          252 253 254 255 256 257
          258 259 260 261 262 263
          264 265 266 267 268 269
          270 271 272 273 274 275
          276 277 278 279 280 281
          282 283 284 285 286 287
          288 289 290 291 292 293
          294 295 296 297 298 299
          300 301 302 303 304 305
          306 307 308 309 310 311
          312 313 314 315 316 317
          318 319 320 321 322 323
          324 325 326 327 328 329
          330 331 332 333 334 335
          336 337 338 339 340 341
          342 343 344 345 346 347
          348 349 350 351 352 353
          354 355 356 357 358 359
          360 361 362 363 364 365
          366 367 368 369 370 371
          372 373 374 375 376 377
          378 379 380 381 382 383
          384 385 386 387 388 389
          390 391 392 393 394 395
          396 397 398 399 400 401
          402 403 404 405 406 407
          408 409 410 411 412 413
          414 415 416 417 418 419
          420 421 422 423 424 425
          426 427 428 429 430 431
          432 433 434 435 436 437
          438 439 440 441 442 443
          444 445 446 447 448 449
          450 451 452 453 454 455
          456 457 458 459 460 461
          462 463 464 465 466 467
          468 469 470 471 472 473
          474 475 476 477 478 479
          480 481 482 483 484 485
          486 487 488 489 490 491
          492 493 494 495 496 497
          498 499 500 501 502 503
          504 505 506 507 508 509
          510 511 512 513 514 515
          516 517 518 519 520 521
          522 523 524 525 526 527
          528 529 530 531 532 533
          534 535 536 537 538 539
          540 541 542 543 544 545
          546 547 548 549 550 551
          552 553 554 555 556 557
          558 559 560 561 562 563
          564 565 566 567 568 569
          570 571 572 573 574 575
          576 577 578 579 580 581
          582 583 584 585 586 587
          588 589 590 591 592 593
          594 595 596 597 598 599
          600 601 602 603 604 605
          606 607 608 609 610 611
          612 613 614 615 616 617
          618 619 620 621 622 623
          624 625 626 627 628 629
          630 631 632 633 634 635
          636 637 638 639 640 641
          642 643 644 645 646 647
          648 649 650 651 652 653
          654 655 656 657 658 659
          660 661 662 663 664 665
          666 667 668 669 670 671
          672 673 674 675 676 677
          678 679 680 681 682 683
          684 685 686 687 688 689
          690 691 692 693 694 695
          696 697 698 699 700 701
          702 703 704 705 706 707
          708 709 710 711 712 713
          714 715 716 717 718 719
          720 721 722 723 724 725
          726 727 728 729 730 731
          732 733 734 735 736 737
          738 739 740 741 742 743
          744 745 746 747 748 749
          750 751 752 753 754 755
          756 757 758 759 760 761
          762 763 764 765 766 767
          768 769 770 771 772 773
          774 775 776 777 778 779
          780 781 782 783 784 785
          786 787 788 789 790 791
          792 793 794 795 796 797
          798 799 800 801 802 803
          804 805 806 807 808 809
          810 811 812 813 814 815
          816 817 818 819 820 821
          822 823 824 825 826 827
          828 829 830 831 832 833
          834 835 836 837 838 839
          840 841 842 843 844 845
          846 847 848 849 850 851
          852 853 854 855 856 857
          858 859 860 861 862 863
          864 865 866 867 868 869
          870 871 872 873 874 875
          876 877 878 879 880 881
          882 883 884 885 886 887
          888 889 890 891 892 893
          894 895 896 897 898 899
          900 901 902 903 904 905
          906 907 908 909 910 911
          912 913 914 915 916 917
          918 919 920 921 922 923
          924 925 926 927 928 929
          930 931 932 933 934 935
          936 937 938 939 940 941
          942 943 944 945 946 947
          948 949 950 951 952 953
          954 955 956 957 958 959
          960 961 962 963 964 965
          966 967 968 969 970 971
          972 973 974 975 976 977
          978 979 980 981 982 983
          984 985 986 987 988 989
          990 991 992 993 994 995
          996 997 998 999 1000 1001
          1002 1003 1004 1005 1006 1007
          1008 1009 1010 1011 1012 1013
          1014 1015 1016 1017 1018 1019
          1020 1021 1022 1023 1024 1025
          1026 1027 1028 1029 1030 1031
          1032 1033 1034 1035 1036 1037
          1038 1039 1040 1041 1042 1043
          1044 1045 1046 1047 1048 1049
          1050 1051 1052 1053 1054 1055
          1056 1057 1058 1059 1060 1061
          1062 1063 1064 1065 1066 1067
          1068 1069 1070 1071 1072 1073
          1074 1075 1076 1077 1078 1079
          1080 1081 1082 1083 1084 1085
          1086 1087 1088 1089 1090 1091
          1092 1093 1094 1095 1096 1097
          1098 1099 1100 1101 1102 1103
          1104 1105 1106 1107 1108 1109
          1110 1111 1112 1113 1114 1115
          1116 1117 1118 1119 1120 1121
          1122 1123 1124 1125 1126 1127
          1128 1129 1130 1131 1132 1133
          1134 1135 1136 1137 1138 1139
          1140 1141 1142 1143 1144 1145
          1146 1147 1148 1149 1150 1151
          1152 1153 1154 1155 1156 1157
          1158 1159 1160 1161 1162 1163
          1164 1165 1166 1167 1168 1169
          1170 1171 1172 1173 1174 1175
          1176 1177 1178 1179 1180 1181
          1182 1183 1184 1185 1186 1187
          1188 1189 1190 1191 1192 1193
          1194 1195 1196 1197 1198 1199
          1200 1201 1202 1203 1204 1205
          1206 1207 1208 1209 1210 1211
          1212 1213 1214 1215 1216 1217
          1218 1219 1220 1221 1222 1223
          1224 1225 1226 1227 1228 1229
          1230 1231 1232 1233 1234 1235
          1236 1237 1238 1239 1240 1241
          1242 1243 1244 1245 1246 1247
          1248 1249 1250 1251 1252 1253
          1254 1255 1256 1257 1258 1259
          1260 1261 1262 1263 1264 1265
          1266 1267 1268 1269 1270 1271
          1272 1273 1274 1275 1276 1277
          1278 1279 1280 1281 1282 1283
          1284 1285 1286 1287 1288 1289
          1290 1291 1292 1293 1294 1295
          1296 1297 1298 1299 1300 1301
          1302 1303 1304 1305 1306 1307
          1308 1309 1310 1311 1312 1313
          1314 1315 1316 1317 1318 1319
          1320 1321 1322 1323 1324 1325
          1326 1327 1328 1329 1330 1331
          1332 1333 1334 1335 1336 1337
          1338 1339 1340 1341 1342 1343
          1344 1345 1346 1347 1348 1349
          1350 1351 1352 1353 1354 1355
          1356 1357 1358 1359 1360 1361
          1362 1363 1364 1365 1366 1367
          1368 1369 1370 1371 1372 1373
          1374 1375 1376 1377 1378 1379
          1380 1381 1382 1383 1384 1385
          1386 1387 1388 1389 1390 1391
          1392 1393 1394 1395 1396 1397
          1398 1399 1400 1401 1402 1403
          1404 1405 1406 1407 1408 1409
          1410 1411 1412 1413 1414 1415
          1416 1417 1418 1419 1420 1421
          1422 1423 1424 1425 1426 1427
          1428 1429 1430 1431 1432 1433
          1434 1435 1436 1437 1438 1439
          1440 1441 1442 1443 1444 1445
          1446 1447 1448 1449 1450 1451
          1452 1453 1454 1455 1456 1457
          1458 1459 1460 1461 1462 1463
          1464 1465 1466 1467 1468 1469
          1470 1471 1472 1473 1474 1475
          1476 1477 1478 1479 1480 1481
          1482 1483 1484 1485 1486 1487
          1488 1489 1490 1491 1492 1493
          1494 1495 1496 1497 1498 1499
          1500 1501 1502 1503 1504 1505
          1506 1507 1508 1509 1510 1511
          1512 1513 1514 1515 1516 1517
          1518 1519 1520 1521 1522 1523
          1524 1525 1526 1527 1528 1529
          1530 1531 1532 1533 1534 1535
          1536 1537 1538 1539 1540 1541
          1542 1543 1544 1545 1546 1547
          1548 1549 1550 1551 1552 1553
          1554 1555 1556 1557 1558 1559
          1560 1561 1562 1563 1564 1565
          1566 1567 1568 1569 1570 1571
          1572 1573 1574 1575 1576 1577
          1578 1579 1580 1581 1582 1583
          1584 1585 1586 1587 1588 1589
          1590 1591 1592 1593 1594 1595
          1596 1597 1598 1599 1600 1601
          1602 1603 1604 1605 1606 1607
          1608 1609 1610 1611 1612 1613
          1614 1615 1616 1617 1618 1619
          1620 1621 1622 1623 1624 1625
          1626 1627 1628 1629 1630 1631
          1632 1633 1634 1635 1636 1637
          1638 1639 1640 1641 1642 1643
          1644 1645 1646 1647 1648 1649
          1650 1651 1652 1653 1654 1655
          1656 1657 1658 1659 1660 1661
          1662 1663 1664 1665 1666 1667
          1668 1669 1670 1671 1672 1673
          1674 1675 1676 1677 1678 1679
          1680 1681 1682 1683 1684 1685
          1686 1687 1688 1689 1690 1691
          1692 1693 1694 1695 1696 1697
          1698 1699 1700 1701 1702 1703
          1704 1705 1706 1707 1708 1709
          1710 1711 1712 1713 1714 1715
          1716 1717 1718 1719 1720 1721
          1722 1723 1724 1725 1726 1727
          1728 1729 1730 1731 1732 1733
          1734 1735 1736 1737 1738 1739
          1740 1741 1742 1743 1744 1745
          1746 1747 1748 1749 1750 1751
          1752 1753 1754 1755 1756 1757
          1758 1759 1760 1761 1762 1763
          1764 1765 1766 1767 1768 1769
          1770 1771 1772 1773 1774 1775
          1776 1777 1778 1779 1780 1781
          1782 1783 1784 1785 1786 1787
          1788 1789 1790 1791 1792 1793
          1794 1795 1796 1797 1798 1799
          1800 1801 1802 1803 1804 1805
          1806 1807 1808 1809 1810 1811
          1812 1813 1814 1815 1816 1817
          1818 1819 1820 1821 1822 1823
          1824 1825 1826 1827 1828 1829
          1830 1831 1832 1833 1834 1835
          1836 1837 1838 1839 1840 1841
          1842 1843 1844 1845 1846 1847
          1848 1849 1850 1851 1852 1853
          1854 1855 1856 1857 1858 1859
          1860 1861 1862 1863 1864 1865
          1866 1867 1868 1869 1870 1871
          1872 1873 1874 1875 1876 1877
          1878 1879 1880 1881 1882 1883
          1884 1885 1886 1887 1888 1889
          1890 1891 1892 1893 1894 1895
          1896 1897 1898 1899 1900 1901
          1902 1903 1904 1905 1906 1907
          1908 1909 1910 1911 1912 1913
          1914 1915 1916 1917 1918 1919
          1920 1921 1922 1923 1924 1925
          1926 1927 1928 1929 1930 1931
          1932 1933 1934 1935 1936 1937
          1938 1939 1940 1941 1942 1943
          1944 1945 1946 1947 1948 1949
          1950 1951 1952 1953 1954 1955
          1956 1957 1958 1959 1960 1961
          1962 1963 1964 1965 1966 1967
          1968 1969 1970 1971 1972 1973
          1974 1975 1976 1977 1978 1979
          1980 1981 1982 1983 1984 1985
          1986 1987 1988 1989 1990 1991
          1992 1993 1994 1995 1996 1997
          1998 1999 2000 2001 2002 2003
          2004 2005 2006 2007 2008 2009
          2010 2011 2012 2013 2014 2015
          2016 2017 2018 2019 2020 2021
          2022 2023 2024 2025 2026 2027
          2028 2029 2030 2031 2032 2033
          2034 2035 2036 2037 2038 2039
          2040 2041 2042 2043 2044 2045
          2046 2047 2048 2049 2050 2051
          2052 2053 2054 2055 2056 2057
          2058 2059 2060 2061 2062 2063
          2064 2065 2066 2067 2068 2069
          2070 2071 2072 2073 2074 2075
          2076 2077 2078 2079 2080 2081
          2082 2083 2084 2085 2086 2087
          2088 2089 2090 2091 2092 2093
          2094 2095 2096 2097 2098 2099
          2100 2101 2102 2103 2104 2105
          2106 2107 2108 2109 2110 2111
          2112 2113 2114 2115 2116 2117
          2118 2119 2120 2121 2122 2123
          2124 2125 2126 2127 2128 2129
          2130 2131 2132 2133 2134 2135
          2136 2137 2138 2139 2140 2141
          2142 2143 2144 2145 2146 2147
          2148 2149 2150 2151 2152 2153
          2154 2155 2156 2157 2158 2159
          2160 2161 2162 2163 2164 2165
          2166 2167 2168 2169 2170 2171
          2172 2173 2174 2175 2176 2177
          2178 2179 2180 2181 2182 2183
          2184 2185 2186 2187 2188 2189
          2190 2191 2192 2193 2194 2195
          2196 2197 2198 2199 2200 2201
          2202 2203 2204 2205 2206 2207
          2208 2209 2210 2211 2212 2213
          2214 2215 2216 2217 2218 2219
          2220 2221 2222 2223 2224 2225
          2226 2227 2228 2229 2230 2231
          2232 2233 2234 2235 2236 2237
          2238 2239 2240 2241 2242 2243
          2244 2245 2246 2247 2248 2249
          2250 2251 2252 2253 2254 2255
          2256 2257 2258 2259 2260 2261
          2262 2263 2264 2265 2266 2267
          2268 2269 2270 2271 2272 2273
          2274 2275 2276 2277 2278 2279
          2280 2281 2282 2283 2284 2285
          2286 2287 2288 2289 2290 2291
          2292 2293 2294 2295 2296 2297
          2298 2299 2300 2301 2302 2303
          2304 2305 2306 2307 2308 2309
          2310 2311 2312 2313 2314 2315
          2316 2317 2318 2319 2320 2321
          2322 2323 2324 2325 2326 2327
          2328 2329 2330 2331 2332 2333
          2334 2335 2336 2337 2338 2339
          2340 2341 2342 2343 2344 2345
          2346 2347 2348 2349 2350 2351
          2352 2353 2354 2355 2356 2357
          2358 2359 2360 2361 2362 2363
          2364 2365 2366 2367 2368 2369
          2370 2371 2372 2373 2374 2375
          2376 2377 2378 2379 2380 2381
          2382 2383 2384 2385 2386 2387
          2388 2389 2390 2391 2392 2393
          2394 2395 2396 2397 2398 2399
          2400 2401 2402 2403 2404 2405
          2406 2407 2408 2409 2410 2411
          2412 2413 2414 2415 2416 2417
          2418 2419 2420 2421 2422 2423
          2424 2425 2426 2427 2428 2429
          2430 2431 2432 2433 2434 2435
          2436 2437 2438 2439 2440 2441
          2442 2443 2444 2445 2446 2447
          2448 2449 2450 2451 2452 2453
          2454 2455 2456 2457 2458 2459
          2460 2461 2462 2463 2464 2465
          2466 2467 2468 2469 2470 2471
          2472 2473 2474 2475 2476 2477
          2478 2479 2480 2481 2482 2483
          2484 2485 2486 2487 2488 2489
          2490 2491 2492 2493 2494 2495
          2496 2497 2498 2499 2500 2501
          2502 2503 2504 2505 2506 2507
          2508 2509 2510 2511 2512 2513
          2514 2515 2516 2517 2518 2519
          2520 2521 2522 2523 2524 2525
          2526 2527 2528 2529 2530 2531
          2532 2533 2534 2535 2536 2537
          2538 2539 2540 2541 2542 2543
          2544 2545 2546 2547 2548 2549
          2550 2551 2552 2553 2554 2555
          2556 2557 2558 2559 2560 2561
          2562 2563 2564 2565 2566 2567
          2568 2569 2570 2571 2572 2573
          2574 2575 2576 2577 2578 2579
          2580 2581 2582 2583 2584 2585
          2586 2587 2588 2589 2590 2591
          2592 2593 2594 2595 2596 2597
          2598 2599 2600 2601 2602 2603
          2604 2605 2606 2607 2608 2609
          2610 2611 2612 2613 2614 2615
          2616 2617 2618 2619 2620 2621
          2622 2623 2624 2625 2626 2627
          2628 2629 2630 2631 2632 2633
          2634 2635 2636 2637 2638 2639
          2640 2641 2642 2643 2644 2645
          2646 2647 2648 2649 2650 2651
          2652 2653 2654 2655 2656 2657
          2658 2659 2660 2661 2662 2663
          2664 2665 2666 2667 2668 2669
          2670 2671 2672 2673 2674 2675
          2676 2677 2678 2679 2680 2681
          2682 2683 2684 2685 2686 2687
          2688 2689 2690 2691 2692 2693
          2694 2695 2696 2697 2698 2699
          2700 2701 2702 2703 2704 2705
          2706 2707 2708 2709 2710 2711
          2712 2713 2714 2715 2716 2717
          2718 2719 2720 2721 2722 2723
          2724 2725 2726 2727 2728 2729
          2730 2731 2732 2733 2734 2735
          2736 2737 2738 2739 2740 2741
          2742 2743 2744 2745 2746 2747
          2748 2749 2750 2751 2752 2753
          2754 2755 2756 2757 2758 2759
          2760 2761 2762 2763 2764 2765
          2766 2767 2768 2769 2770 2771
          2772 2773 2774 2775 2776 2777
          2778 2779 2780 2781 2782 2783
          2784 2785 2786 2787 2788 2789
          2790 2791 2792 2793 2794 2795
          2796 2797 2798 2799 2800 2801
          2802 2803 2804 2805 2806 2807
          2808 2809 2810 2811 2812 2813
          2814 2815 2816 2817 2818 2819
          2820 2821 2822 2823 2824 2825
          2826 2827 2828 2829 2830 2831
          2832 2833 2834 2835 2836 2837
          2838 2839 2840 2841 2842 2843
          2844 2845 2846 2847 2848 2849
          2850 2851 2852 2853 2854 2855
          2856 2857 2858 2859 2860 2861
          2862 2863 2864 2865 2866 2867
          2868 2869 2870 2871 2872 2873
          2874 2875 2876 2877 2878 2879
          2880 2881 2882 2883 2884 2885
          2886 2887 2888 2889 2890 2891
          2892 2893 2894 2895 2896 2897
          2898 2899 2900 2901 2902 2903
          2904 2905 2906 2907 2908 2909
          2910 2911 2912 2913 2914 2915
          2916 2917 2918 2919 2920 2921
          2922 2923 2924 2925 2926 2927
          2928 2929 2930 2931 2932 2933
          2934 2935 2936 2937 2938 2939
          2940 2941 2942 2943 2944 2945
          2946 2947 2948 2949 2950 2951
          2952 2953 2954 2955 2956 2957
          2958 2959 2960 2961 2962 2963
          2964 2965 2966 2967 2968 2969
          2970 2971 2972 2973 2974 2975
          2976 2977 2978 2979 2980 2981
          2982 2983 2984 2985 2986 2987
          2988 2989 2990 2991 2992 2993
          2994 2995 2996 2997 2998 2999
          3000 3001 3002 3003 3004 3005
          3006 3007 3008 3009 3010 3011
          3012 3013 3014 3015 3016 3017
          3018 3019 3020 3021 3022 3023
          3024 3025 3026 3027 3028 3029
          3030 3031 3032 3033 3034 3035
          3036 3037 3038 3039 3040 3041
          3042 3043 3044 3045 3046 3047
          3048 3049 3050 3051 3052 3053
          3054 3055 3056 3057 3058 3059
          3060 3061 3062 3063 3064 3065
          3066 3067 3068 3069 3070 3071
          3072 3073 3074 3075 3076 3077
          3078 3079 3080 3081 3082 3083
          3084 3085 3086 3087 3088 3089
          3090 3091 3092 3093 3094 3095
          3096 3097 3098 3099 3100 3101
          3102 3103 3104 3105 3106 3107
          3108 3109 3110 3111 3112 3113
          3114 3115 3116 3117 3118 3119
          3120 3121 3122 3123 3124 3125
          3126 3127 3128 3129 3130 3131
          3132 3133 3134 3135 3136 3137
          3138 3139 3140 3141 3142 3143
          3144 3145 3146 3147 3148 3149
          3150 3151 3152 3153 3154 3155
          3156 3157 3158 3159 3160 3161
          3162 3163 3164 3165 3166 3167
          3168 3169 3170 3171 3172 3173
          3174 3175 3176 3177 3178 3179
          3180 3181 3182 3183 3184 3185
          3186 3187 3188 3189 3190 3191
          3192 3193 3194 3195 3196 3197
          3198 3199 3200 3201 3202 3203
          3204 3205 3206 3207 3208 3209
          3210 3211 3212 3213 3214 3215
          3216 3217 3218 3219 3220 3221
          3222 3223 3224 3225 3226 3227
          3228 3229 3230 3231 3232 3233
          3234 3235 3236 3237 3238 3239
          3240 3241 3242 3243 3244 3245
          3246 3247 3248 3249 3250 3251
          3252 3253 3254 3255 3256 3257
          3258 3259 3260 3261 3262 3263
          3264 3265 3266 3267 3268 3269
          3270 3271 3272 3273 3274 3275
          3276 3277 3278 3279 3280 3281
          3282 3283 3284 3285 3286 3287
          3288 3289 3290 3291 3292 3293
          3294 3295 3296 3297 3298 3299
          3300 3301 3302 3303 3304 3305
          3306 3307 3308 3309 3310 3311
          3312 3313 3314 3315 3316 3317
          3318 3319 3320 3321 3322 3323
          3324 3325 3326 3327 3328 3329
          3330 3331 3332 3333 3334 3335
          3336 3337 3338 3339 3340 3341
          3342 3343 3344 3345 3346 3347
          3348 3349 3350 3351 3352 3353
          3354 3355 3356 3357 3358 3359
          3360 3361 3362 3363 3364 3365
          3366 3367 3368 3369 3370 3371
          3372 3373 3374 3375 3376 3377
          3378 3379 3380 3381 3382 3383
          3384 3385 3386 3387 3388 3389
          3390 3391 3392 3393 3394 3395
          3396 3397 3398 3399 3400 3401
          3402 3403 3404 3405 3406 3407
          3408 3409 3410 3411 3412 3413
          3414 3415 3416 3417 3418 3419
          3420 3421 3422 3423 3424 3425
          3426 3427 3428 3429 3430 3431
          3432 3433 3434 3435 3436 3437
          3438 3439 3440 3441 3442 3443
          3444 3445 3446 3447 3448 3449
          3450 3451 3452 3453 3454 3455
          3456 3457 3458 3459 3460 3461
          3462 3463 3464 3465 3466 3467
          3468 3469 3470 3471 3472 3473
          3474 3475 3476 3477 3478 3479
          3480 3481 3482 3483 3484 3485
          3486 3487 3488 3489 3490 3491
          3492 3493 3494 3495 3496 3497
          3498 3499 3500 3501 3502 3503
          3504 3505 3506 3507 3508 3509
          3510 3511 3512 3513 3514 3515
          3516 3517 3518 3519 3520 3521
          3522 3523 3524 3525 3526 3527
          3528 3529 3530 3531 3532 3533
          3534 3535 3536 3537 3538 3539
          3540 3541 3542 3543 3544 3545
          3546 3547 3548 3549 3550 3551
          3552 3553 3554 3555 3556 3557
          3558 3559 3560 3561 3562 3563
          3564 3565 3566 3567 3568 3569
          3570 3571 3572 3573 3574 3575
          3576 3577 3578 3579 3580 3581
          3582 3583 3584 3585 3586 3587
          3588 3589 3590 3591 3592 3593
          3594 3595 3596 3597 3598 3599
          3600 3601 3602 3603 3604 3605
          3606 3607 3608 3609 3610 3611
          3612 3613 3614 3615 3616 3617
          3618 3619 3620 3621 3622 3623
          3624 3625 3626 3627 3628 3629
          3630 3631 3632 3633 3634 3635
          3636 3637 3638 3639 3640 3641
          3642 3643 3644 3645 3646 3647
          3648 3649 3650 3651 3652 3653
          3654 3655 3656 3657 3658 3659
          3660 3661 3662 3663 3664 3665
          3666 3667 3668 3669 3670 3671
          3672 3673 3674 3675 3676 3677
          3678 3679 3680 3681 3682 3683
          3684 3685 3686 3687 3688 3689
          3690 3691 3692 3693 3694 3695
          3696 3697 3698 3699 3700 3701
          3702 3703 3704 3705 3706 3707
          3708 3709 3710 3711 3712 3713
          3714 3715 3716 3717 3718 3719
          3720 3721 3722 3723 3724 3725
          3726 3727 3728 3729 3730 3731
          3732 3733 3734 3735 3736 3737
          3738 3739 3740 3741 3742 3743
          3744 3745 3746 3747 3748 3749
          3750 3751 3752 3753 3754 3755
          3756 3757 3758 3759 3760 3761
          3762 3763 3764 3765 3766 3767
          3768 3769 3770 3771 3772 3773
          3774 3775 3776 3777 3778 3779
          3780 3781 3782 3783 3784 3785
          3786 3787 3788 3789 3790 3791
          3792 3793 3794 3795 3796 3797
          3798 3799 3800 3801 3802 3803
          3804 3805 3806 3807 3808 3809
          3810 3811 3812 3813 3814 3815
          3816 3817 3818 3819 3820 3821
          3822 3823 3824 3825 3826 3827
          3828 3829 3830 3831 3832 3833
          3834 3835 3836 3837 3838 3839
          3840 3841 3842 3843 3844 3845
          3846 3847 3848 3849 3850 3851
          3852 3853 3854 3855 3856 3857
          3858 3859 3860 3861 3862 3863
          3864 3865 3866 3867 3868 3869
          3870 3871 3872 3873 3874 3875
          3876 3877 3878 3879 3880 3881
          3882 3883 3884 3885 3886 3887
          3888 3889 3890 3891 3892 3893
          3894 3895 3896 3897 3898 3899
          3900 3901 3902 3903 3904 3905
          3906 3907 3908 3909 3910 3911
          3912 3913 3914 3915 3916 3917
          3918 3919 3920 3921 3922 3923
          3924 3925 3926 3927 3928 3929
          3930 3931 3932 3933 3934 3935
          3936 3937 3938 3939 3940 3941
          3942 3943 3944 3945 3946 3947
          3948 3949 3950 3951 3952 3953
          3954 3955 3956 3957 3958 3959
          3960 3961 3962 3963 3964 3965
          3966 3967 3968 3969 3970 3971
          3972 3973 3974 3975 3976 3977
          3978 3979 3980 3981 3982 3983
          3984 3985 3986 3987 3988 3989
          3990 3991 3992 3993 3994 3995
          3996 3997 3998 3999 4000 4001
          4002 4003 4004 4005 4006 4007
          4008 4009 4010 4011 4012 4013
          4014 4015 4016 4017 4018 4019
          4020 4021 4022 4023 4024 4025
          4026 4027 4028 4029 4030 4031
          4032 4033 4034 4035 4036 4037
          4038 4039 4040 4041 4042 4043
          4044 4045 4046 4047 4048 4049
          4050 4051 4052 4053 4054 4055
          4056 4057 4058 4059 4060 4061
          4062 4063 4064 4065 4066 4067
          4068 4069 4070 4071 4072 4073
          4074 4075 4076 4077 4078 4079
          4080 4081 4082 4083 4084 4085
          4086 4087 4088 4089 4090 4091
          4092 4093 4094 4095 4096 4097
          4098 4099 4100 4101 4102 4103
          4104 4105 4106 4107 4108 4109
          4110 4111 4112 4113 4114 4115
          4116 4117 4118 4119 4120 4121
          4122 4123 4124 4125 4126 4127
          4128 4129 4130 4131 4132 4133
          4134 4135 4136 4137 4138 4139
          4140 4141 4142 4143 4144 4145
          4146 4147 4148 4149 4150 4151
          4152 4153 4154 4155 4156 4157
          4158 4159 4160 4161 4162 4163
          4164 4165 4166 4167 4168 4169
          4170 4171 4172 4173 4174 4175
          4176 4177 4178 4179 4180 4181
          4182 4183 4184 4185 4186 4187
          4188 4189 4190 4191 4192 4193
          4194 4195 4196 4197 4198 4199
          4200 4201 4202 4203 4204 4205
          4206 4207 4208 4209 4210 4211
          4212 4213 4214 4215 4216 4217
          4218 4219 4220 4221 4222 4223
          4224 4225 4226 4227 4228 4229
          4230 4231 4232 4233 4234 4235
          4236 4237 4238 4239 4240 4241
          4242 4243 4244 4245 4246 4247
          4248 4249 4250 4251 4252 4253
          4254 4255 4256 4257 4258 4259
          4260 4261 4262 4263 4264 4265
          4266 4267 4268 4269 4270 4271
          4272 4273 4274 4275 4276 4277
          4278 4279 4280 4281 4282 4283
          4284 4285 4286 4287 4288 4289
          4290 4291 4292 4293 4294 4295
          4296 4297 4298 4299 4300 4301
          4302 4303 4304 4305 4306 4307
          4308 4309 4310 4311 4312 4313
          4314 4315 4316 4317 4318 4319
          4320 4321 4322 4323 4324 4325
          4326 4327 4328 4329 4330 4331
          4332 4333 4334 4335 4336 4337
          4338 4339 4340 4341 4342 4343
          4344 4345 4346 4347 4348 4349
          4350 4351 4352 4353 4354 4355
          4356 4357 4358 4359 4360 4361
          4362 4363 4364 4365 4366 4367
          4368 4369 4370 4371 4372 4373
          4374 4375 4376 4377 4378 4379
          4380 4381 4382 4383 4384 4385
          4386 4387 4388 4389 4390 4391
          4392 4393 4394 4395 4396 4397
          4398 4399 4400 4401 4402 4403
          4404 4405 4406 4407 4408 4409
          4410 4411 4412 4413 4414 4415
          4416 4417 4418 4419 4420 4421
          4422 4423 4424 4425 4426 4427
          4428 4429 4430 4431 4432 4433
          4434 4435 4436 4437 4438 4439
          4440 4441 4442 4443 4444 4445
          4446 4447 4448 4449 4450 4451
          4452 4453 4454 4455 4456 4457
          4458 4459 4460 4461 4462 4463
          4464 4465 4466 4467 4468 4469
          4470 4471 4472 4473 4474 4475
          4476 4477 4478 4479 4480 4481
          4482 4483 4484 4485 4486 4487
          4488 4489 4490 4491 4492 4493
          4494 4495 4496 4497 4498 4499
          4500 4501 4502 4503 4504 4505
          4506 4507 4508 4509 4510 4511
          4512 4513 4514 4515 4516 4517
          4518 4519 4520 4521 4522 4523
          4524 4525 4526 4527 4528 4529
          4530 4531 4532 4533 4534 4535
          4536 4537 4538 4539 4540 4541
          4542 4543 4544 4545 4546 4547
          4548 4549 4550 4551 4552 4553
          4554 4555 4556 4557 4558 4559
          4560 4561 4562 4563 4564 4565
          4566 4567 4568 4569 4570 4571
          4572 4573 4574 4575 4576 4577
          4578 4579 4580 4581 4582 4583
          4584 4585 4586 4587 4588 4589
          4590 4591 4592 4593 4594 4595
          4596 4597 4598 4599 4600 4601
          4602 4603 4604 4605 4606 4607
          4608 4609 4610 4611 4612 4613
          4614 4615 4616 4617 4618 4619
          4620 4621 4622 4623 4624 4625
          4626 4627 4628 4629 4630 4631
          4632 4633 4634 4635 4636 4637
          4638 4639 4640 4641 4642 4643
          4644 4645 4646 4647 4648 4649
          4650 4651 4652 4653 4654 4655
          4656 4657 4658 4659 4660 4661
          4662 4663 4664 4665 4666 4667
          4668 4669 4670 4671 4672 4673
          4674 4675 4676 4677 4678 4679
          4680 4681 4682 4683 4684 4685
          4686 4687 4688 4689 4690 4691
          4692 4693 4694 4695 4696 4697
          4698 4699 4700 4701 4702 4703
          4704 4705 4706 4707 4708 4709
          4710 4711 4712 4713 4714 4715
          4716 4717 4718 4719 4720 4721
          4722 4723 4724 4725 4726 4727
          4728 4729 4730 4731 4732 4733
          4734 4735 4736 4737 4738 4739
          4740 4741 4742 4743 4744 4745
          4746 4747 4748 4749 4750 4751
          4752 4753 4754 4755 4756 4757
          4758 4759 4760 4761 4762 4763
          4764 4765 4766 4767 4768 4769
          4770 4771 4772 4773 4774 4775
          4776 4777 4778 4779 4780 4781
          4782 4783 4784 4785 4786 4787
          4788 4789 4790 4791 4792 4793
          4794 4795 4796 4797 4798 4799
          4800 4801 4802 4803 4804 4805
          4806 4807 4808 4809 4810 4811
          4812 4813 4814 4815 4816 4817
          4818 4819 4820 4821 4822 4823
          4824 4825 4826 4827 4828 4829
          4830 4831 4832 4833 4834 4835
          4836 4837 4838 4839 4840 4841
          4842 4843 4844 4845 4846 4847
          4848 4849 4850 4851 4852 4853
          4854 4855 4856 4857 4858 4859
          4860 4861 4862 4863 4864 4865
          4866 4867 4868 4869 4870 4871
          4872 4873 4874 4875 4876 4877
          4878 4879 4880 4881 4882 4883
          4884 4885 4886 4887 4888 4889
          4890 4891 4892 4893 4894 4895
          4896 4897 4898 4899 4900 4901
          4902 4903 4904 4905 4906 4907
          4908 4909 4910 4911 4912 4913
          4914 4915 4916 4917 4918 4919
          4920 4921 4922 4923 4924 4925
          4926 4927 4928 4929 4930 4931
          4932 4933 4934 4935 4936 4937
          4938 4939 4940 4941 4942 4943
          4944 4945 4946 4947 4948 4949
          4950 4951 4952 4953 4954 4955
          4956 4957 4958 4959 4960 4961
          4962 4963 4964 4965 4966 4967
          4968 4969 4970 4971 4972 4973
          4974 4975 4976 4977 4978 4979
          4980 4981 4982 4983 4984 4985
          4986 4987 4988 4989 4990 4991
          4992 4993 4994 4995 4996 4997
          4998 4999 5000 5001 5002 5003
          5004 5005 5006 5007 5008 5009
          5010 5011 5012 5013 5014 5015
          5016 5017 5018 5019 5020 5021
          5022 5023 5024 5025 5026 5027
          5028 5029 5030 5031 5032 5033
          5034 5035 5036 5037 5038 5039
          5040 5041 5042 5043 5044 5045
          5046 5047 5048 5049 5050 5051
          5052 5053 5054 5055 5056 5057
          5058 5059 5060 5061 5062 5063
          5064 5065 5066 5067 5068 5069
          5070 5071 5072 5073 5074 5075
          5076 5077 5078 5079 5080 5081
          5082 5083 5084 5085 5086 5087
          5088 5089 5090 5091 5092 5093
          5094 5095 5096 5097 5098 5099
          5100 5101 5102 5103 5104 5105
          5106 5107 5108 5109 5110 5111
          5112 5113 5114 5115 5116 5117
          5118 5119 5120 5121 5122 5123
          5124 5125 5126 5127 5128 5129
          5130 5131 5132 5133 5134 5135
          5136 5137 5138 5139 5140 5141
          5142 5143 5144 5145 5146 5147
          5148 5149 5150 5151 5152 5153
          5154 5155 5156 5157 5158 5159
          5160 5161 5162 5163 5164 5165
          5166 5167 5168 5169 5170 5171
          5172 5173 5174 5175 5176 5177
          5178 5179 5180 5181 5182 5183
          5184 5185 5186 5187 5188 5189
          5190 5191 5192 5193 5194 5195
          5196 5197 5198 5199 5200 5201
          5202 5203 5204 5205 5206 5207
          5208 5209 5210 5211 5212 5213
          5214 5215 5216 5217 5218 5219
          5220 5221 5222 5223 5224 5225
          5226 5227 5228 5229 5230 5231
          5232 5233 5234 5235 5236 5237
          5238 5239 5240 5241 5242 5243
          5244 5245 5246 5247 5248 5249
          5250 5251 5252 5253 5254 5255
          5256 5257 5258 5259 5260 5261
          5262 5263 5264 5265 5266 5267
          5268 5269 5270 5271 5272 5273
          5274 5275 5276 5277 5278 5279
          5280 5281 5282 5283 5284 5285
          5286 5287 5288 5289 5290 5291
          5292 5293 5294 5295 5296 5297
          5298 5299 5300 5301 5302 5303
          5304 5305 5306 5307 5308 5309
          5310 5311 5312 5313 5314 5315
          5316 5317 5318 5319 5320 5321
          5322 5323 5324 5325 5326 5327
          5328 5329 5330 5331 5332 5333
          5334 5335 5336 5337 5338 5339
          5340 5341 5342 5343 5344 5345
          5346 5347 5348 5349 5350 5351
          5352 5353 5354 5355 5356 5357
          5358 5359 5360 5361 5362 5363
          5364 5365 5366 5367 5368 5369
          5370 5371 5372 5373 5374 5375
          5376 5377 5378 5379 5380 5381
          5382 5383 5384 5385 5386 5387
          5388 5389 5390 5391 5392 5393
          5394 5395 5396 5397 5398 5399
          5400 5401 5402 5403 5404 5405
          5406 5407 5408 5409 5410 5411
          5412 5413 5414 5415 5416 5417
          5418 5419 5420 5421 5422 5423
          5424 5425 5426 5427 5428 5429
          5430 5431 5432 5433 5434 5435
          5436 5437 5438 5439 5440 5441
          5442 5443 5444 5445 5446 5447
          5448 5449 5450 5451 5452 5453
          5454 5455 5456 5457 5458 5459
          5460 5461 5462 5463 5464 5465
          5466 5467 5468 5469 5470 5471
          5472 5473 5474 5475 5476 5477
          5478 5479 5480 5481 5482 5483
          5484 5485 5486 5487 5488 5489
          5490 5491 5492 5493 5494 5495
          5496 5497 5498 5499 5500 5501
          5502 5503 5504 5505 5506 5507
          5508 5509 5510 5511 5512 5513
          5514 5515 5516 5517 5518 5519
          5520 5521 5522 5523 5524 5525
          5526 5527 5528 5529 5530 5531
          5532 5533 5534 5535 5536 5537
          5538 5539 5540 5541 5542 5543
          5544 5545 5546 5547 5548 5549
          5550 5551 5552 5553 5554 5555
          5556 5557 5558 5559 5560 5561
          5562 5563 5564 5565 5566 5567
          5568 5569 5570 5571 5572 5573
          5574 5575 5576 5577 5578 5579
          5580 5581 5582 5583 5584 5585
          5586 5587 5588 5589 5590 5591
          5592 5593 5594 5595 5596 5597
          5598 5599 5600 5601 5602 5603
          5604 5605 5606 5607 5608 5609
          5610 5611 5612 5613 5614 5615
          5616 5617 5618 5619 5620 5621
          5622 5623 5624 5625 5626 5627
          5628 5629 5630 5631 5632 5633
          5634 5635 5636 5637 5638 5639
          5640 5641 5642 5643 5644 5645
          5646 5647 5648 5649 5650 5651
          5652 5653 5654 5655 5656 5657
          5658 5659 5660 5661 5662 5663
          5664 5665 5666 5667 5668 5669
          5670 5671 5672 5673 5674 5675
          5676 5677 5678 5679 5680 5681
          5682 5683 5684 5685 5686 5687
          5688 5689 5690 5691 5692 5693
          5694 5695 5696 5697 5698 5699
          5700 5701 5702 5703 5704 5705
          5706 5707 5708 5709 5710 5711
          5712 5713 5714 5715 5716 5717
          5718 5719 5720 5721 5722 5723
          5724 5725 5726 5727 5728 5729
          5730 5731 5732 5733 5734 5735
          5736 5737 5738 5739 5740 5741
          5742 5743 5744 5745 5746 5747
          5748 5749 5750 5751 5752 5753
          5754 5755 5756 5757 5758 5759
          5760 5761 5762 5763 5764 5765
          5766 5767 5768 5769 5770 5771
          5772 5773 5774 5775 5776 5777
          5778 5779 5780 5781 5782 5783
          5784 5785 5786 5787 5788 5789
          5790 5791 5792 5793 5794 5795
          5796 5797 5798 5799 5800 5801
          5802 5803 5804 5805 5806 5807
          5808 5809 5810 5811 5812 5813
          5814 5815 5816 5817 5818 5819
          5820 5821 5822 5823 5824 5825
          5826 5827 5828 5829 5830 5831
          5832 5833 5834 5835 5836 5837
          5838 5839 5840 5841 5842 5843
          5844 5845 5846 5847 5848 5849
          5850 5851 5852 5853 5854 5855
          5856 5857 5858 5859 5860 5861
          5862 5863 5864 5865 5866 5867
          5868 5869 5870 5871 5872 5873
          5874 5875 5876 5877 5878 5879
          5880 5881 5882 5883 5884 5885
          5886 5887 5888 5889 5890 5891
          5892 5893 5894 5895 5896 5897
          5898 5899 5900 5901 5902 5903
          5904 5905 5906 5907 5908 5909
          5910 5911 5912 5913 5914 5915
          5916 5917 5918 5919 5920 5921
          5922 5923 5924 5925 5926 5927
          5928 5929 5930 5931 5932 5933
          5934 5935 5936 5937 5938 5939
          5940 5941 5942 5943 5944 5945
          5946 5947 5948 5949 5950 5951
          5952 5953 5954 5955 5956 5957
          5958 5959 5960 5961 5962 5963
          5964 5965 5966 5967 5968 5969
          5970 5971 5972 5973 5974 5975
          5976 5977 5978 5979 5980 5981
          5982 5983 5984 5985 5986 5987
          5988 5989 5990 5991 5992 5993
          5994 5995 5996 5997 5998 5999
          6000 6001 6002 6003 6004 6005
          6006 6007 6008 6009 6010 6011
          6012 6013 6014 6015 6016 6017
          6018 6019 6020 6021 6022 6023
          6024 6025 6026 6027 6028 6029
          6030 6031 6032 6033 6034 6035
          6036 6037 6038 6039 6040 6041
          6042 6043 6044 6045 6046 6047
          6048 6049 6050 6051 6052 6053
          6054 6055 6056 6057 6058 6059
          6060 6061 6062 6063 6064 6065
          6066 6067 6068 6069 6070 6071
          6072 6073 6074 6075 6076 6077
          6078 6079 6080 6081 6082 6083
          6084 6085 6086 6087 6088 6089
          6090 6091 6092 6093 6094 6095
          6096 6097 6098 6099 6100 6101
          6102 6103 6104 6105 6106 6107
          6108 6109 6110 6111 6112 6113
          6114 6115 6116 6117 6118 6119
          6120 6121 6122 6123 6124 6125
          6126 6127 6128 6129 6130 6131
          6132 6133 6134 6135 6136 6137
          6138 6139 6140 6141 6142 6143
          6144 6145 6146 6147 6148 6149
          6150 6151 6152 6153 6154 6155
          6156 6157 6158 6159 6160 6161
          6162 6163 6164 6165 6166 6167
          6168 6169 6170 6171 6172 6173
          6174 6175 6176 6177 6178 6179
          6180 6181 6182 6183 6184 6185
          6186 6187 6188 6189 6190 6191
          6192 6193 6194 6195 6196 6197
          6198 6199 6200 6201 6202 6203
          6204 6205 6206 6207 6208 6209
          6210 6211 6212 6213 6214 6215
          6216 6217 6218 6219 6220 6221
          6222 6223 6224 6225 6226 6227
          6228 6229 6230 6231 6232 6233
          6234 6235 6236 6237 6238 6239
          6240 6241 6242 6243 6244 6245
          6246 6247 6248 6249 6250 6251
          6252 6253 6254 6255 6256 6257
          6258 6259 6260 6261 6262 6263
          6264 6265 6266 6267 6268 6269
          6270 6271 6272 6273 6274 6275
          6276 6277 6278 6279 6280 6281
          6282 6283 6284 6285 6286 6287
          6288 6289 6290 6291 6292 6293
          6294 6295 6296 6297 6298 6299
          6300 6301 6302 6303 6304 6305
          6306 6307 6308 6309 6310 6311
          6312 6313 6314 6315 6316 6317
          6318 6319 6320 6321 6322 6323
          6324 6325 6326 6327 6328 6329
          6330 6331 6332 6333 6334 6335
          6336 6337 6338 6339 6340 6341
          6342 6343 6344 6345 6346 6347
          6348 6349 6350 6351 6352 6353
          6354 6355 6356 6357 6358 6359
          6360 6361 6362 6363 6364 6365
          6366 6367 6368 6369 6370 6371
          6372 6373 6374 6375 6376 6377
          6378 6379 6380 6381 6382 6383
          6384 6385 6386 6387 6388 6389
          6390 6391 6392 6393 6394 6395
          6396 6397 6398 6399 6400 6401
          6402 6403 6404 6405 6406 6407
          6408 6409 6410 6411 6412 6413
          6414 6415 6416 6417 6418 6419
          6420 6421 6422 6423 6424 6425
          6426 6427 6428 6429 6430 6431
          6432 6433 6434 6435 6436 6437
          6438 6439 6440 6441 6442 6443
          6444 6445 6446 6447 6448 6449
          6450 6451 6452 6453 6454 6455
          6456 6457 6458 6459 6460 6461
          6462 6463 6464 6465 6466 6467
          6468 6469 6470 6471 6472 6473
          6474 6475 6476 6477 6478 6479
          6480 6481 6482 6483 6484 6485
          6486 6487 6488 6489 6490 6491
          6492 6493 6494 6495 6496 6497
          6498 6499 6500 6501 6502 6503
          6504 6505 6506 6507 6508 6509
          6510 6511 6512 6513 6514 6515
          6516 6517 6518 6519 6520 6521
          6522 6523 6524 6525 6526 6527
          6528 6529 6530 6531 6532 6533
          6534 6535 6536 6537 6538 6539
          6540 6541 6542 6543 6544 6545
          6546 6547 6548 6549 6550 6551
          6552 6553 6554 6555 6556 6557
          6558 6559 6560 6561 6562 6563
          6564 6565 6566 6567 6568 6569
          6570 6571 6572 6573 6574 6575
          6576 6577 6578 6579 6580 6581
          6582 6583 6584 6585 6586 6587
          6588 6589 6590 6591 6592 6593
          6594 6595 6596 6597 6598 6599
          6600 6601 6602 6603 6604 6605
          6606 6607 6608 6609 6610 6611
          6612 6613 6614 6615 6616 6617
          6618 6619 6620 6621 6622 6623
          6624 6625 6626 6627 6628 6629
          6630 6631 6632 6633 6634 6635
          6636 6637 6638 6639 6640 6641
          6642 6643 6644 6645 6646 6647
          6648 6649 6650 6651 6652 6653
          6654 6655 6656 6657 6658 6659
          6660 6661 6662 6663 6664 6665
          6666 6667 6668 6669 6670 6671
          6672 6673 6674 6675 6676 6677
          6678 6679 6680 6681 6682 6683
          6684 6685 6686 6687 6688 6689
          6690 6691 6692 6693 6694 6695
          6696 6697 6698 6699 6700 6701
          6702 6703 6704 6705 6706 6707
          6708 6709 6710 6711 6712 6713
          6714 6715 6716 6717 6718 6719
          6720 6721 6722 6723 6724 6725
          6726 6727 6728 6729 6730 6731
          6732 6733 6734 6735 6736 6737
          6738 6739 6740 6741 6742 6743
          6744 6745 6746 6747 6748 6749
          6750 6751 6752 6753 6754 6755
          6756 6757 6758 6759 6760 6761
          6762 6763 6764 6765 6766 6767
          6768 6769 6770 6771 6772 6773
          6774 6775 6776 6777 6778 6779
          6780 6781 6782 6783 6784 6785
          6786 6787 6788 6789 6790 6791
          6792 6793 6794 6795 6796 6797
          6798 6799 6800 6801 6802 6803
          6804 6805 6806 6807 6808 6809
          6810 6811 6812 6813 6814 6815
          6816 6817 6818 6819 6820 6821
          6822 6823 6824 6825 6826 6827
          6828 6829 6830 6831 6832 6833
          6834 6835 6836 6837 6838 6839
          6840 6841 6842 6843 6844 6845
          6846 6847 6848 6849 6850 6851
          6852 6853 6854 6855 6856 6857
          6858 6859 6860 6861 6862 6863
          6864 6865 6866 6867 6868 6869
          6870 6871 6872 6873 6874 6875
          6876 6877 6878 6879 6880 6881
          6882 6883 6884 6885 6886 6887
          6888 6889 6890 6891 6892 6893
          6894 6895 6896 6897 6898 6899
          6900 6901 6902 6903 6904 6905
          6906 6907 6908 6909 6910 6911
          6912 6913 6914 6915 6916 6917
          6918 6919 6920 6921 6922 6923
          6924 6925 6926 6927 6928 6929
          6930 6931 6932 6933 6934 6935
          6936 6937 6938 6939 6940 6941
          6942 6943 6944 6945 6946 6947
          6948 6949 6950 6951 6952 6953
          6954 6955 6956 6957 6958 6959
          6960 6961 6962 6963 6964 6965
          6966 6967 6968 6969 6970 6971
          6972 6973 6974 6975 6976 6977
          6978 6979 6980 6981 6982 6983
          6984 6985 6986 6987 6988 6989
          6990 6991 6992 6993 6994 6995
          6996 6997 6998 6999 7000 7001
          7002 7003 7004 7005 7006 7007
          7008 7009 7010 7011 7012 7013
          7014 7015 7016 7017 7018 7019
          7020 7021 7022 7023 7024 7025
          7026 7027 7028 7029 7030 7031
          7032 7033 7034 7035 7036 7037
          7038 7039 7040 7041 7042 7043
          7044 7045 7046 7047 7048 7049
          7050 7051 7052 7053 7054 7055
          7056 7057 7058 7059 7060 7061
          7062 7063 7064 7065 7066 7067
          7068 7069 7070 7071 7072 7073
          7074 7075 7076 7077 7078 7079
          7080 7081 7082 7083 7084 7085
          7086 7087 7088 7089 7090 7091
          7092 7093 7094 7095 7096 7097
          7098 7099 7100 7101 7102 7103
          7104 7105 7106 7107 7108 7109
          7110 7111 7112 7113 7114 7115
          7116 7117 7118 7119 7120 7121
          7122 7123 7124 7125 7126 7127
          7128 7129 7130 7131 7132 7133
          7134 7135 7136 7137 7138 7139
          7140 7141 7142 7143 7144 7145
          7146 7147 7148 7149 7150 7151
          7152 7153 7154 7155 7156 7157
          7158 7159 7160 7161 7162 7163
          7164 7165 7166 7167 7168 7169
          7170 7171 7172 7173 7174 7175
          7176 7177 7178 7179 7180 7181
          7182 7183 7184 7185 7186 7187
          7188 7189 7190 7191 7192 7193
          7194 7195 7196 7197 7198 7199
          7200 7201 7202 7203 7204 7205
          7206 7207 7208 7209 7210 7211
          7212 7213 7214 7215 7216 7217
          7218 7219 7220 7221 7222 7223
          7224 7225 7226 7227 7228 7229
          7230 7231 7232 7233 7234 7235
          7236 7237 7238 7239 7240 7241
          7242 7243 7244 7245 7246 7247
          7248 7249 7250 7251 7252 7253
          7254 7255 7256 7257 7258 7259
          7260 7261 7262 7263 7264 7265
          7266 7267 7268 7269 7270 7271
          7272 7273 7274 7275 7276 7277
          7278 7279 7280 7281 7282 7283
          7284 7285 7286 7287 7288 7289
          7290 7291 7292 7293 7294 7295
          7296 7297 7298 7299 7300 7301
          7302 7303 7304 7305 7306 7307
          7308 7309 7310 7311 7312 7313
          7314 7315 7316 7317 7318 7319
          7320 7321 7322 7323 7324 7325
          7326 7327 7328 7329 7330 7331
          7332 7333 7334 7335 7336 7337
          7338 7339 7340 7341 7342 7343
          7344 7345 7346 7347 7348 7349
          7350 7351 7352 7353 7354 7355
          7356 7357 7358 7359 7360 7361
          7362 7363 7364 7365 7366 7367
          7368 7369 7370 7371 7372 7373
          7374 7375 7376 7377 7378 7379
          7380 7381 7382 7383 7384 7385
          7386 7387 7388 7389 7390 7391
          7392 7393 7394 7395 7396 7397
          7398 7399 7400 7401 7402 7403
          7404 7405 7406 7407 7408 7409
          7410 7411 7412 7413 7414 7415
          7416 7417 7418 7419 7420 7421
          7422 7423 7424 7425 7426 7427
          7428 7429 7430 7431 7432 7433
          7434 7435 7436 7437 7438 7439
          7440 7441 7442 7443 7444 7445
          7446 7447 7448 7449 7450 7451
          7452 7453 7454 7455 7456 7457
          7458 7459 7460 7461 7462 7463
          7464 7465 7466 7467 7468 7469
          7470 7471 7472 7473 7474 7475
          7476 7477 7478 7479 7480 7481
          7482 7483 7484 7485 7486 7487
          7488 7489 7490 7491 7492 7493
          7494 7495 7496 7497 7498 7499
          7500 7501 7502 7503 7504 7505
          7506 7507 7508 7509 7510 7511
          7512 7513 7514 7515 7516 7517
          7518 7519 7520 7521 7522 7523
          7524 7525 7526 7527 7528 7529
          7530 7531 7532 7533 7534 7535
          7536 7537 7538 7539 7540 7541
          7542 7543 7544 7545 7546 7547
          7548 7549 7550 7551 7552 7553
          7554 7555 7556 7557 7558 7559
          7560 7561 7562 7563 7564 7565
          7566 7567 7568 7569 7570 7571
          7572 7573 7574 7575 7576 7577
          7578 7579 7580 7581 7582 7583
          7584 7585 7586 7587 7588 7589
          7590 7591 7592 7593 7594 7595
          7596 7597 7598 7599 7600 7601
          7602 7603 7604 7605 7606 7607
          7608 7609 7610 7611 7612 7613
          7614 7615 7616 7617 7618 7619
          7620 7621 7622 7623 7624 7625
          7626 7627 7628 7629 7630 7631
          7632 7633 7634 7635 7636 7637
          7638 7639 7640 7641 7642 7643
          7644 7645 7646 7647 7648 7649
          7650 7651 7652 7653 7654 7655
          7656 7657 7658 7659 7660 7661
          7662 7663 7664 7665 7666 7667
          7668 7669 7670 7671 7672 7673
          7674 7675 7676 7677 7678 7679
          7680 7681 7682 7683 7684 7685
          7686 7687 7688 7689 7690 7691
          7692 7693 7694 7695 7696 7697
          7698 7699 7700 7701 7702 7703
          7704 7705 7706 7707 7708 7709
          7710 7711 7712 7713 7714 7715
          7716 7717 7718 7719 7720 7721
          7722 7723 7724 7725 7726 7727
          7728 7729 7730 7731 7732 7733
          7734 7735 7736 7737 7738 7739
          7740 7741 7742 7743 7744 7745
          7746 7747 7748 7749 7750 7751
          7752 7753 7754 7755 7756 7757
          7758 7759 7760 7761 7762 7763
          7764 7765 7766 7767 7768 7769
          7770 7771 7772 7773 7774 7775
          7776 7777 7778 7779 7780 7781
          7782 7783 7784 7785 7786 7787
          7788 7789 7790 7791 7792 7793
          7794 7795 7796 7797 7798 7799
          7800 7801 7802 7803 7804 7805
          7806 7807 7808 7809 7810 7811
          7812 7813 7814 7815 7816 7817
          7818 7819 7820 7821 7822 7823
          7824 7825 7826 7827 7828 7829
          7830 7831 7832 7833 7834 7835
          7836 7837 7838 7839 7840 7841
          7842 7843 7844 7845 7846 7847
          7848 7849 7850 7851 7852 7853
          7854 7855 7856 7857 7858 7859
          7860 7861 7862 7863 7864 7865
          7866 7867 7868 7869 7870 7871
          7872 7873 7874 7875 7876 7877
          7878 7879 7880 7881 7882 7883
          7884 7885 7886 7887 7888 7889
          7890 7891 7892 7893 7894 7895
          7896 7897 7898 7899 7900 7901
          7902 7903 7904 7905 7906 7907
          7908 7909 7910 7911 7912 7913
          7914 7915 7916 7917 7918 7919
          7920 7921 7922 7923 7924 7925
          7926 7927 7928 7929 7930 7931
          7932 7933 7934 7935 7936 7937
          7938 7939 7940 7941 7942 7943
          7944 7945 7946 7947 7948 7949
          7950 7951 7952 7953 7954 7955
          7956 7957 7958 7959 7960 7961
          7962 7963 7964 7965 7966 7967
          7968 7969 7970 7971 7972 7973
          7974 7975 7976 7977 7978 7979
          7980 7981 7982 7983 7984 7985
          7986 7987 7988 7989 7990 7991
          7992 7993 7994 7995 7996 7997
          7998 7999 8000 8001 8002 8003
          8004 8005 8006 8007 8008 8009
          8010 8011 8012 8013 8014 8015
          8016 8017 8018 8019 8020 8021
          8022 8023 8024 8025 8026 8027
          8028 8029 8030 8031 8032 8033
          8034 8035 8036 8037 8038 8039
          8040 8041 8042 8043 8044 8045
          8046 8047 8048 8049 8050 8051
          8052 8053 8054 8055 8056 8057
          8058 8059 8060 8061 8062 8063
          8064 8065 8066 8067 8068 8069
          8070 8071 8072 8073 8074 8075
          8076 8077 8078 8079 8080 8081
          8082 8083 8084 8085 8086 8087
          8088 8089 8090 8091 8092 8093
          8094 8095 8096 8097 8098 8099
          8100 8101 8102 8103 8104 8105
          8106 8107 8108 8109 8110 8111
          8112 8113 8114 8115 8116 8117
          8118 8119 8120 8121 8122 8123
          8124 8125 8126 8127 8128 8129
          8130 8131 8132 8133 8134 8135
          8136 8137 8138 8139 8140 8141
          8142 8143 8144 8145 8146 8147
          8148 8149 8150 8151 8152 8153
          8154 8155 8156 8157 8158 8159
          8160 8161 8162 8163 8164 8165
          8166 8167 8168 8169 8170 8171
          8172 8173 8174 8175 8176 8177
          8178 8179 8180 8181 8182 8183
          8184 8185 8186 8187 8188 8189
          8190 8191 8192 8193 8194 8195
          8196 8197 8198 8199 8200 8201
          8202 8203 8204 8205 8206 8207
          8208 8209 8210 8211 8212 8213
          8214 8215 8216 8217 8218 8219
          8220 8221 8222 8223 8224 8225
          8226 8227 8228 8229 8230 8231
          8232 8233 8234 8235 8236 8237
          8238 8239 8240 8241 8242 8243
          8244 8245 8246 8247 8248 8249
          8250 8251 8252 8253 8254 8255
          8256 8257 8258 8259 8260 8261
          8262 8263 8264 8265 8266 8267
          8268 8269 8270 8271 8272 8273
          8274 8275 8276 8277 8278 8279
          8280 8281 8282 8283 8284 8285
          8286 8287 8288 8289 8290 8291
          8292 8293 8294 8295 8296 8297
          8298 8299 8300 8301 8302 8303
          8304 8305 8306 8307 8308 8309
          8310 8311 8312 8313 8314 8315
          8316 8317 8318 8319 8320 8321
          8322 8323 8324 8325 8326 8327
          8328 8329 8330 8331 8332 8333
          8334 8335 8336 8337 8338 8339
          8340 8341 8342 8343 8344 8345
          8346 8347 8348 8349 8350 8351
          8352 8353 8354 8355 8356 8357
          8358 8359 8360 8361 8362 8363
          8364 8365 8366 8367 8368 8369
          8370 8371 8372 8373 8374 8375
          8376 8377 8378 8379 8380 8381
          8382 8383 8384 8385 8386 8387
          8388 8389 8390 8391 8392 8393
          8394 8395 8396 8397 8398 8399
          8400 8401 8402 8403 8404 8405
          8406 8407 8408 8409 8410 8411
          8412 8413 8414 8415 8416 8417
          8418 8419 8420 8421 8422 8423
          8424 8425 8426 8427 8428 8429
          8430 8431 8432 8433 8434 8435
          8436 8437 8438 8439 8440 8441
          8442 8443 8444 8445 8446 8447
          8448 8449 8450 8451 8452 8453
          8454 8455 8456 8457 8458 8459
          8460 8461 8462 8463 8464 8465
          8466 8467 8468 8469 8470 8471
          8472 8473 8474 8475 8476 8477
          8478 8479 8480 8481 8482 8483
          8484 8485 8486 8487 8488 8489
          8490 8491 8492 8493 8494 8495
          8496 8497 8498 8499 8500 8501
          8502 8503 8504 8505 8506 8507
          8508 8509 8510 8511 8512 8513
          8514 8515 8516 8517 8518 8519
          8520 8521 8522 8523 8524 8525
          8526 8527 8528 8529 8530 8531
          8532 8533 8534 8535 8536 8537
          8538 8539 8540 8541 8542 8543
          8544 8545 8546 8547 8548 8549
          8550 8551 8552 8553 8554 8555
          8556 8557 8558 8559 8560 8561
          8562 8563 8564 8565 8566 8567
          8568 8569 8570 8571 8572 8573
          8574 8575 8576 8577 8578 8579
          8580 8581 8582 8583 8584 8585
          8586 8587 8588 8589 8590 8591
          8592 8593 8594 8595 8596 8597
          8598 8599 8600 8601 8602 8603
          8604 8605 8606 8607 8608 8609
          8610 8611 8612 8613 8614 8615
          8616 8617 8618 8619 8620 8621
          8622 8623 8624 8625 8626 8627
          8628 8629 8630 8631 8632 8633
          8634 8635 8636 8637 8638 8639
          8640 8641 8642 8643 8644 8645
          8646 8647 8648 8649 8650 8651
          8652 8653 8654 8655 8656 8657
          8658 8659 8660 8661 8662 8663
          8664 8665 8666 8667 8668 8669
          8670 8671 8672 8673 8674 8675
          8676 8677 8678 8679 8680 8681
          8682 8683 8684 8685 8686 8687
          8688 8689 8690 8691 8692 8693
          8694 8695 8696 8697 8698 8699
          8700 8701 8702 8703 8704 8705
          8706 8707 8708 8709 8710 8711
          8712 8713 8714 8715 8716 8717
          8718 8719 8720 8721 8722 8723
          8724 8725 8726 8727 8728 8729
          8730 8731 8732 8733 8734 8735
          8736 8737 8738 8739 8740 8741
          8742 8743 8744 8745 8746 8747
          8748 8749 8750 8751 8752 8753
          8754 8755 8756 8757 8758 8759
          8760 8761 8762 8763 8764 8765
          8766 8767 8768 8769 8770 8771
          8772 8773 8774 8775 8776 8777
          8778 8779 8780 8781 8782 8783
          8784 8785 8786 8787 8788 8789
          8790 8791 8792 8793 8794 8795
          8796 8797 8798 8799 8800 8801
          8802 8803 8804 8805 8806 8807
          8808 8809 8810 8811 8812 8813
          8814 8815 8816 8817 8818 8819
          8820 8821 8822 8823 8824 8825
          8826 8827 8828 8829 8830 8831
          8832 8833 8834 8835 8836 8837
          8838 8839 8840 8841 8842 8843
          8844 8845 8846 8847 8848 8849
          8850 8851 8852 8853 8854 8855
          8856 8857 8858 8859 8860 8861
          8862 8863 8864 8865 8866 8867
          8868 8869 8870 8871 8872 8873
          8874 8875 8876 8877 8878 8879
          8880 8881 8882 8883 8884 8885
          8886 8887 8888 8889 8890 8891
          8892 8893 8894 8895 8896 8897
          8898 8899 8900 8901 8902 8903
          8904 8905 8906 8907 8908 8909
          8910 8911 8912 8913 8914 8915
          8916 8917 8918 8919 8920 8921
          8922 8923 8924 8925 8926 8927
          8928 8929 8930 8931 8932 8933
          8934 8935 8936 8937 8938 8939
          8940 8941 8942 8943 8944 8945
          8946 8947 8948 8949 8950 8951
          8952 8953 8954 8955 8956 8957
          8958 8959 8960 8961 8962 8963
          8964 8965 8966 8967 8968 8969
          8970 8971 8972 8973 8974 8975
          8976 8977 8978 8979 8980 8981
          8982 8983 8984 8985 8986 8987
          8988 8989 8990 8991 8992 8993
          8994 8995 8996 8997 8998 8999
          9000 9001 9002 9003 9004 9005
          9006 9007 9008 9009 9010 9011
          9012 9013 9014 9015 9016 9017
          9018 9019 9020 9021 9022 9023
          9024 9025 9026 9027 9028 9029
          9030 9031 9032 9033 9034 9035
          9036 9037 9038 9039 9040 9041
          9042 9043 9044 9045 9046 9047
          9048 9049 9050 9051 9052 9053
          9054 9055 9056 9057 9058 9059
          9060 9061 9062 9063 9064 9065
          9066 9067 9068 9069 9070 9071
          9072 9073 9074 9075 9076 9077
          9078 9079 9080 9081 9082 9083
          9084 9085 9086 9087 9088 9089
          9090 9091 9092 9093 9094 9095
          9096 9097 9098 9099 9100 9101
          9102 9103 9104 9105 9106 9107
          9108 9109 9110 9111 9112 9113
          9114 9115 9116 9117 9118 9119
          9120 9121 9122 9123 9124 9125
          9126 9127 9128 9129 9130 9131
          9132 9133 9134 9135 9136 9137
          9138 9139 9140 9141 9142 9143
          9144 9145 9146 9147 9148 9149
          9150 9151 9152 9153 9154 9155
          9156 9157 9158 9159 9160 9161
          9162 9163 9164 9165 9166 9167
          9168 9169 9170 9171 9172 9173
          9174 9175 9176 9177 9178 9179
          9180 9181 9182 9183 9184 9185
          9186 9187 9188 9189 9190 9191
          9192 9193 9194 9195 9196 9197
          9198 9199 9200 9201 9202 9203
          9204 9205 9206 9207 9208 9209
          9210 9211 9212 9213 9214 9215
          9216 9217 9218 9219 9220 9221
          9222 9223 9224 9225 9226 9227
          9228 9229 9230 9231 9232 9233
          9234 9235 9236 9237 9238 9239
          9240 9241 9242 9243 9244 9245
          9246 9247 9248 9249 9250 9251
          9252 9253 9254 9255 9256 9257
          9258 9259 9260 9261 9262 9263
          9264 9265 9266 9267 9268 9269
          9270 9271 9272 9273 9274 9275
          9276 9277 9278 9279 9280 9281
          9282 9283 9284 9285 9286 9287
          9288 9289 9290 9291 9292 9293
          9294 9295 9296 9297 9298 9299
          9300 9301 9302 9303 9304 9305
          9306 9307 9308 9309 9310 9311
          9312 9313 9314 9315 9316 9317
          9318 9319 9320 9321 9322 9323
          9324 9325 9326 9327 9328 9329
          9330 9331 9332 9333 9334 9335
          9336 9337 9338 9339 9340 9341
          9342 9343 9344 9345 9346 9347
          9348 9349 9350 9351 9352 9353
          9354 9355 9356 9357 9358 9359
          9360 9361 9362 9363 9364 9365
          9366 9367 9368 9369 9370 9371
          9372 9373 9374 9375 9376 9377
          9378 9379 9380 9381 9382 9383
          9384 9385 9386 9387 9388 9389
          9390 9391 9392 9393 9394 9395
          9396 9397 9398 9399 9400 9401
          9402 9403 9404 9405 9406 9407
          9408 9409 9410 9411 9412 9413
          9414 9415 9416 9417 9418 9419
          9420 9421 9422 9423 9424 9425
          9426 9427 9428 9429 9430 9431
          9432 9433 9434 9435 9436 9437
          9438 9439 9440 9441 9442 9443
          9444 9445 9446 9447 9448 9449
          9450 9451 9452 9453 9454 9455
          9456 9457 9458 9459 9460 9461
          9462 9463 9464 9465 9466 9467
          9468 9469 9470 9471 9472 9473
          9474 9475 9476 9477 9478 9479
          9480 9481 9482 9483 9484 9485
          9486 9487 9488 9489 9490 9491
          9492 9493 9494 9495 9496 9497
          9498 9499 9500 9501 9502 9503
          9504 9505 9506 9507 9508 9509
          9510 9511 9512 9513 9514 9515
          9516 9517 9518 9519 9520 9521
          9522 9523 9524 9525 9526 9527
          9528 9529 9530 9531 9532 9533
          9534 9535 9536 9537 9538 9539
          9540 9541 9542 9543 9544 9545
          9546 9547 9548 9549 9550 9551
          9552 9553 9554 9555 9556 9557
          9558 9559 9560 9561 9562 9563
          9564 9565 9566 9567 9568 9569
          9570 9571 9572 9573 9574 9575
          9576 9577 9578 9579 9580 9581
          9582 9583 9584 9585 9586 9587
          9588 9589 9590 9591 9592 9593
          9594 9595 9596 9597 9598 9599
          9600 9601 9602 9603 9604 9605
          9606 9607 9608 9609 9610 9611
          9612 9613 9614 9615 9616 9617
          9618 9619 9620 9621 9622 9623
          9624 9625 9626 9627 9628 9629
          9630 9631 9632 9633 9634 9635
          9636 9637 9638 9639 9640 9641
          9642 9643 9644 9645 9646 9647
          9648 9649 9650 9651 9652 9653
          9654 9655 9656 9657 9658 9659
          9660 9661 9662 9663 9664 9665
          9666 9667 9668 9669 9670 9671
          9672 9673 9674 9675 9676 9677
          9678 9679 9680 9681 9682 9683
          9684 9685 9686 9687 9688 9689
          9690 9691 9692 9693 9694 9695
          9696 9697 9698 9699 9700 9701
          9702 9703 9704 9705 9706 9707
          9708 9709 9710 9711 9712 9713
          9714 9715 9716 9717 9718 9719
          9720 9721 9722 9723 9724 9725
          9726 9727 9728 9729 9730 9731
          9732 9733 9734 9735 9736 9737
          9738 9739 9740 9741 9742 9743
          9744 9745 9746 9747 9748 9749
          9750 9751 9752 9753 9754 9755
          9756 9757 9758 9759 9760 9761
          9762 9763 9764 9765 9766 9767
          9768 9769 9770 9771 9772 9773
          9774 9775 9776 9777 9778 9779
          9780 9781 9782 9783 9784 9785
          9786 9787 9788 9789 9790 9791
          9792 9793 9794 9795 9796 9797
          9798 9799 9800 9801 9802 9803
          9804 9805 9806 9807 9808 9809
          9810 9811 9812 9813 9814 9815
          9816 9817 9818 9819 9820 9821
          9822 9823 9824 9825 9826 9827
          9828 9829 9830 9831 9832 9833
          9834 9835 9836 9837 9838 9839
          9840 9841 9842 9843 9844 9845
          9846 9847 9848 9849 9850 9851
          9852 9853 9854 9855 9856 9857
          9858 9859 9860 9861 9862 9863
          9864 9865 9866 9867 9868 9869
          9870 9871 9872 9873 9874 9875
          9876 9877 9878 9879 9880 9881
          9882 9883 9884 9885 9886 9887
          9888 9889 9890 9891 9892 9893
          9894 9895 9896 9897 9898 9899
          9900 9901 9902 9903 9904 9905
          9906 9907 9908 9909 9910 9911
          9912 9913 9914 9915 9916 9917
          9918 9919 9920 9921 9922 9923
          9924 9925 9926 9927 9928 9929
          9930 9931 9932 9933 9934 9935
          9936 9937 9938 9939 9940 9941
          9942 9943 9944 9945 9946 9947
          9948 9949 9950 9951 9952 9953
          9954 9955 9956 9957 9958 9959
          9960 9961 9962 9963 9964 9965
          9966 9967 9968 9969 9970 9971
          9972 9973 9974 9975 9976 9977
          9978 9979 9980 9981 9982 9983
          9984 9985 9986 9987 9988 9989
          9990 9991 9992 9993 9994 9995
          9996 9997 9998 9999 10000 10001
          10002 10003 10004 10005 10006 10007
          10008 10009 10010 10011 10012 10013
          10014 10015 10016 10017 10018 10019
          10020 10021 10022 10023 10024 10025
          10026 10027 10028 10029 10030 10031
          10032 10033 10034 10035 10036 10037
          10038 10039 10040 10041 10042 10043
          10044 10045 10046 10047 10048 10049
          10050 10051 10052 10053 10054 10055
          10056 10057 10058 10059 10060 10061
          10062 10063 10064 10065 10066 10067
          10068 10069 10070 10071 10072 10073
          10074 10075 10076 10077 10078 10079
          10080 10081 10082 10083 10084 10085
          10086 10087 10088 10089 10090 10091
          10092 10093 10094 10095 10096 10097
          10098 10099 10100 10101 10102 10103
          10104 10105 10106 10107 10108 10109
          10110 10111 10112 10113 10114 10115
          10116 10117 10118 10119 10120 10121
          10122 10123 10124 10125 10126 10127
          10128 10129 10130 10131 10132 10133
          10134 10135 10136 10137 10138 10139
          10140 10141 10142 10143 10144 10145
          10146 10147 10148 10149 10150 10151
          10152 10153 10154 10155 10156 10157
          10158 10159 10160 10161 10162 10163
          10164 10165 10166 10167 10168 10169
          10170 10171 10172 10173 10174 10175
          10176 10177 10178 10179 10180 10181
          10182 10183 10184 10185 10186 10187
          10188 10189 10190 10191 10192 10193
          10194 10195 10196 10197 10198 10199
          10200 10201 10202 10203 10204 10205
          10206 10207 10208 10209 10210 10211
          10212 10213 10214 10215 10216 10217
          10218 10219 10220 10221 10222 10223
          10224 10225 10226 10227 10228 10229
          10230 10231 10232 10233 10234 10235
          10236 10237 10238 10239 10240 10241
          10242 10243 10244 10245 10246 10247
          10248 10249 10250 10251 10252 10253
          10254 10255 10256 10257 10258 10259
          10260 10261 10262 10263 10264 10265
          10266 10267 10268 10269 10270 10271
          10272 10273 10274 10275 10276 10277
          10278 10279 10280 10281 10282 10283
          10284 10285 10286 10287 10288 10289
          10290 10291 10292 10293 10294 10295
          10296 10297 10298 10299 10300 10301
          10302 10303 10304 10305 10306 10307
          10308 10309 10310 10311 10312 10313
          10314 10315 10316 10317 10318 10319
          10320 10321 10322 10323 10324 10325
          10326 10327 10328 10329 10330 10331
          10332 10333 10334 10335 10336 10337
          10338 10339 10340 10341 10342 10343
          10344 10345 10346 10347 10348 10349
          10350 10351 10352 10353 10354 10355
          10356 10357 10358 10359 10360 10361
          10362 10363 10364 10365 10366 10367
          10368 10369 10370 10371 10372 10373
          10374 10375 10376 10377 10378 10379
          10380 10381 10382 10383 10384 10385
          10386 10387 10388 10389 10390 10391
          10392 10393 10394 10395 10396 10397
          10398 10399 10400 10401 10402 10403
          10404 10405 10406 10407 10408 10409
          10410 10411 10412 10413 10414 10415
          10416 10417 10418 10419 10420 10421
          10422 10423 10424 10425 10426 10427
          10428 10429 10430 10431 10432 10433
          10434 10435 10436 10437 10438 10439
          10440 10441 10442 10443 10444 10445
          10446 10447 10448 10449 10450 10451
          10452 10453 10454 10455 10456 10457
          10458 10459 10460 10461 10462 10463
          10464 10465 10466 10467 10468 10469
          10470 10471 10472 10473 10474 10475
          10476 10477 10478 10479 10480 10481
          10482 10483 10484 10485 10486 10487
          10488 10489 10490 10491 10492 10493
          10494 10495 10496 10497 10498 10499
          10500 10501 10502 10503 10504 10505
          10506 10507 10508 10509 10510 10511
          10512 10513 10514 10515 10516 10517
          10518 10519 10520 10521 10522 10523
          10524 10525 10526 10527 10528 10529
          10530 10531 10532 10533 10534 10535
          10536 10537 10538 10539 10540 10541
          10542 10543 10544 10545 10546 10547
          10548 10549 10550 10551 10552 10553
          10554 10555 10556 10557 10558 10559
          10560 10561 10562 10563 10564 10565
          10566 10567 10568 10569 10570 10571
          10572 10573 10574 10575 10576 10577
          10578 10579 10580 10581 10582 10583
          10584 10585 10586 10587 10588 10589
          10590 10591 10592 10593 10594 10595
          10596 10597 10598 10599 10600 10601
          10602 10603 10604 10605 10606 10607
          10608 10609 10610 10611 10612 10613
          10614 10615 10616 10617 10618 10619
          10620 10621 10622 10623 10624 10625
          10626 10627 10628 10629 10630 10631
          10632 10633 10634 10635 10636 10637
          10638 10639 10640 10641 10642 10643
          10644 10645 10646 10647 10648 10649
          10650 10651 10652 10653 10654 10655
          10656 10657 10658 10659 10660 10661
          10662 10663 10664 10665 10666 10667
          10668 10669 10670 10671 10672 10673
          10674 10675 10676 10677 10678 10679
          10680 10681 10682 10683 10684 10685
          10686 10687 10688 10689 10690 10691
          10692 10693 10694 10695 10696 10697
          10698 10699 10700 10701 10702 10703
          10704 10705 10706 10707 10708 10709
          10710 10711 10712 10713 10714 10715
          10716 10717 10718 10719 10720 10721
          10722 10723 10724 10725 10726 10727
          10728 10729 10730 10731 10732 10733
          10734 10735 10736 10737 10738 10739
          10740 10741 10742 10743 10744 10745
          10746 10747 10748 10749 10750 10751
          10752 10753 10754 10755 10756 10757
          10758 10759 10760 10761 10762 10763
          10764 10765 10766 10767 10768 10769
          10770 10771 10772 10773 10774 10775
          10776 10777 10778 10779 10780 10781
          10782 10783 10784 10785 10786 10787
          10788 10789 10790 10791 10792 10793
          10794 10795 10796 10797 10798 10799
          10800 10801 10802 10803 10804 10805
          10806 10807 10808 10809 10810 10811
          10812 10813 10814 10815 10816 10817
          10818 10819 10820 10821 10822 10823
          10824 10825 10826 10827 10828 10829
          10830 10831 10832 10833 10834 10835
          10836 10837 10838 10839 10840 10841
          10842 10843 10844 10845 10846 10847
          10848 10849 10850 10851 10852 10853
          10854 10855 10856 10857 10858 10859
          10860 10861 10862 10863 10864 10865
          10866 10867 10868 10869 10870 10871
          10872 10873 10874 10875 10876 10877
          10878 10879 10880 10881 10882 10883
          10884 10885 10886 10887 10888 10889
          10890 10891 10892 10893 10894 10895
          10896 10897 10898 10899 10900 10901
          10902 10903 10904 10905 10906 10907
          10908 10909 10910 10911 10912 10913
          10914 10915 10916 10917 10918 10919
          10920 10921 10922 10923 10924 10925
          10926 10927 10928 10929 10930 10931
          10932 10933 10934 10935 10936 10937
          10938 10939 10940 10941 10942 10943
          10944 10945 10946 10947 10948 10949
          10950 10951 10952 10953 10954 10955
          10956 10957 10958 10959 10960 10961
          10962 10963 10964 10965 10966 10967
          10968 10969 10970 10971 10972 10973
          10974 10975 10976 10977 10978 10979
          10980 10981 10982 10983 10984 10985
          10986 10987 10988 10989 10990 10991
          10992 10993 10994 10995 10996 10997
          10998 10999 11000 11001 11002 11003
          11004 11005 11006 11007 11008 11009
          11010 11011 11012 11013 11014 11015
          11016 11017 11018 11019 11020 11021
          11022 11023 11024 11025 11026 11027
          11028 11029 11030 11031 11032 11033
          11034 11035 11036 11037 11038 11039
          11040 11041 11042 11043 11044 11045
          11046 11047 11048 11049 11050 11051
          11052 11053 11054 11055 11056 11057
          11058 11059 11060 11061 11062 11063
          11064 11065 11066 11067 11068 11069
          11070 11071 11072 11073 11074 11075
          11076 11077 11078 11079 11080 11081
          11082 11083 11084 11085 11086 11087
          11088 11089 11090 11091 11092 11093
          11094 11095 11096 11097 11098 11099
          11100 11101 11102 11103 11104 11105
          11106 11107 11108 11109 11110 11111
          11112 11113 11114 11115 11116 11117
          11118 11119 11120 11121 11122 11123
          11124 11125 11126 11127 11128 11129
          11130 11131 11132 11133 11134 11135
          11136 11137 11138 11139 11140 11141
          11142 11143 11144 11145 11146 11147
          11148 11149 11150 11151 11152 11153
          11154 11155 11156 11157 11158 11159
          11160 11161 11162 11163 11164 11165
          11166 11167 11168 11169 11170 11171
          11172 11173 11174 11175 11176 11177
          11178 11179 11180 11181 11182 11183
          11184 11185 11186 11187 11188 11189
          11190 11191 11192 11193 11194 11195
          11196 11197 11198 11199 11200 11201
          11202 11203 11204 11205 11206 11207
          11208 11209 11210 11211 11212 11213
          11214 11215 11216 11217 11218 11219
          11220 11221 11222 11223 11224 11225
          11226 11227 11228 11229 11230 11231
          11232 11233 11234 11235 11236 11237
          11238 11239 11240 11241 11242 11243
          11244 11245 11246 11247 11248 11249
          11250 11251 11252 11253 11254 11255
          11256 11257 11258 11259 11260 11261
          11262 11263 11264 11265 11266 11267
          11268 11269 11270 11271 11272 11273
          11274 11275 11276 11277 11278 11279
          11280 11281 11282 11283 11284 11285
          11286 11287 11288 11289 11290 11291
          11292 11293 11294 11295 11296 11297
          11298 11299 11300 11301 11302 11303
          11304 11305 11306 11307 11308 11309
          11310 11311 11312 11313 11314 11315
          11316 11317 11318 11319 11320 11321
          11322 11323 11324 11325 11326 11327
          11328 11329 11330 11331 11332 11333
          11334 11335 11336 11337 11338 11339
          11340 11341 11342 11343 11344 11345
          11346 11347 11348 11349 11350 11351
          11352 11353 11354 11355 11356 11357
          11358 11359 11360 11361 11362 11363
          11364 11365 11366 11367 11368 11369
          11370 11371 11372 11373 11374 11375
          11376 11377 11378 11379 11380 11381
          11382 11383 11384 11385 11386 11387
          11388 11389 11390 11391 11392 11393
          11394 11395 11396 11397 11398 11399
          11400 11401 11402 11403 11404 11405
          11406 11407 11408 11409 11410 11411
          11412 11413 11414 11415 11416 11417
          11418 11419 11420 11421 11422 11423
          11424 11425 11426 11427 11428 11429
          11430 11431 11432 11433 11434 11435
          11436 11437 11438 11439 11440 11441
          11442 11443 11444 11445 11446 11447
          11448 11449 11450 11451 11452 11453
          11454 11455 11456 11457 11458 11459
          11460 11461 11462 11463 11464 11465
          11466 11467 11468 11469 11470 11471
          11472 11473 11474 11475 11476 11477
          11478 11479 11480 11481 11482 11483
          11484 11485 11486 11487 11488 11489
          11490 11491 11492 11493 11494 11495
          11496 11497 11498 11499 11500 11501
          11502 11503 11504 11505 11506 11507
          11508 11509 11510 11511 11512 11513
          11514 11515 11516 11517 11518 11519
          11520 11521 11522 11523 11524 11525
          11526 11527 11528 11529 11530 11531
          11532 11533 11534 11535 11536 11537
          11538 11539 11540 11541 11542 11543
          11544 11545 11546 11547 11548 11549
          11550 11551 11552 11553 11554 11555
          11556 11557 11558 11559 11560 11561
          11562 11563 11564 11565 11566 11567
          11568 11569 11570 11571 11572 11573
          11574 11575 11576 11577 11578 11579
          11580 11581 11582 11583 11584 11585
          11586 11587 11588 11589 11590 11591
          11592 11593 11594 11595 11596 11597
          11598 11599 11600 11601 11602 11603
          11604 11605 11606 11607 11608 11609
          11610 11611 11612 11613 11614 11615
          11616 11617 11618 11619 11620 11621
          11622 11623 11624 11625 11626 11627
          11628 11629 11630 11631 11632 11633
          11634 11635 11636 11637 11638 11639
          11640 11641 11642 11643 11644 11645
          11646 11647 11648 11649 11650 11651
          11652 11653 11654 11655 11656 11657
          11658 11659 11660 11661 11662 11663
          11664 11665 11666 11667 11668 11669
          11670 11671 11672 11673 11674 11675
          11676 11677 11678 11679 11680 11681
          11682 11683 11684 11685 11686 11687
          11688 11689 11690 11691 11692 11693
          11694 11695 11696 11697 11698 11699
          11700 11701 11702 11703 11704 11705
          11706 11707 11708 11709 11710 11711
          11712 11713 11714 11715 11716 11717
          11718 11719 11720 11721 11722 11723
          11724 11725 11726 11727 11728 11729
          11730 11731 11732 11733 11734 11735
          11736 11737 11738 11739 11740 11741
          11742 11743 11744 11745 11746 11747
          11748 11749 11750 11751 11752 11753
          11754 11755 11756 11757 11758 11759
          11760 11761 11762 11763 11764 11765
          11766 11767 11768 11769 11770 11771
          11772 11773 11774 11775 11776 11777
          11778 11779 11780 11781 11782 11783
          11784 11785 11786 11787 11788 11789
          11790 11791 11792 11793 11794 11795
          11796 11797 11798 11799 11800 11801
          11802 11803 11804 11805 11806 11807
          11808 11809 11810 11811 11812 11813
          11814 11815 11816 11817 11818 11819
          11820 11821 11822 11823 11824 11825
          11826 11827 11828 11829 11830 11831
          11832 11833 11834 11835 11836 11837
          11838 11839 11840 11841 11842 11843
          11844 11845 11846 11847 11848 11849
          11850 11851 11852 11853 11854 11855
          11856 11857 11858 11859 11860 11861
          11862 11863 11864 11865 11866 11867
          11868 11869 11870 11871 11872 11873
          11874 11875 11876 11877 11878 11879
          11880 11881 11882 11883 11884 11885
          11886 11887 11888 11889 11890 11891
          11892 11893 11894 11895 11896 11897
          11898 11899 11900 11901 11902 11903
          11904 11905 11906 11907 11908 11909
          11910 11911 11912 11913 11914 11915
          11916 11917 11918 11919 11920 11921
          11922 11923 11924 11925 11926 11927
          11928 11929 11930 11931 11932 11933
          11934 11935 11936 11937 11938 11939
          11940 11941 11942 11943 11944 11945
          11946 11947 11948 11949 11950 11951
          11952 11953 11954 11955 11956 11957
          11958 11959 11960 11961 11962 11963
          11964 11965 11966 11967 11968 11969
          11970 11971 11972 11973 11974 11975
          11976 11977 11978 11979 11980 11981
          11982 11983 11984 11985 11986 11987
          11988 11989 11990 11991 11992 11993
          11994 11995 11996 11997 11998 11999
          12000 12001 12002 12003 12004 12005
          12006 12007 12008 12009 12010 12011
          12012 12013 12014 12015 12016 12017
          12018 12019 12020 12021 12022 12023
          12024 12025 12026 12027 12028 12029
          12030 12031 12032 12033 12034 12035
          12036 12037 12038 12039 12040 12041
          12042 12043 12044 12045 12046 12047
          12048 12049 12050 12051 12052 12053
          12054 12055 12056 12057 12058 12059
          12060 12061 12062 12063 12064 12065
          12066 12067 12068 12069 12070 12071
          12072 12073 12074 12075 12076 12077
          12078 12079 12080 12081 12082 12083
          12084 12085 12086 12087 12088 12089
          12090 12091 12092 12093 12094 12095
          12096 12097 12098 12099 12100 12101
          12102 12103 12104 12105 12106 12107
          12108 12109 12110 12111 12112 12113
          12114 12115 12116 12117 12118 12119
          12120 12121 12122 12123 12124 12125
          12126 12127 12128 12129 12130 12131
          12132 12133 12134 12135 12136 12137
          12138 12139 12140 12141 12142 12143
          12144 12145 12146 12147 12148 12149
          12150 12151 12152 12153 12154 12155
          12156 12157 12158 12159 12160 12161
          12162 12163 12164 12165 12166 12167
          12168 12169 12170 12171 12172 12173
          12174 12175 12176 12177 12178 12179
          12180 12181 12182 12183 12184 12185
          12186 12187 12188 12189 12190 12191
          12192 12193 12194 12195 12196 12197
          12198 12199 12200 12201 12202 12203
          12204 12205 12206 12207 12208 12209
          12210 12211 12212 12213 12214 12215
          12216 12217 12218 12219 12220 12221
          12222 12223 12224 12225 12226 12227
          12228 12229 12230 12231 12232 12233
          12234 12235 12236 12237 12238 12239
          12240 12241 12242 12243 12244 12245
          12246 12247 12248 12249 12250 12251
          12252 12253 12254 12255 12256 12257
          12258 12259 12260 12261 12262 12263
          12264 12265 12266 12267 12268 12269
          12270 12271 12272 12273 12274 12275
          12276 12277 12278 12279 12280 12281
          12282 12283 12284 12285 12286 12287
          12288 12289 12290 12291 12292 12293
          12294 12295 12296 12297 12298 12299
          12300 12301 12302 12303 12304 12305
          12306 12307 12308 12309 12310 12311
          12312 12313 12314 12315 12316 12317
          12318 12319 12320 12321 12322 12323
          12324 12325 12326 12327 12328 12329
          12330 12331 12332 12333 12334 12335
          12336 12337 12338 12339 12340 12341
          12342 12343 12344 12345 12346 12347
          12348 12349 12350 12351 12352 12353
          12354 12355 12356 12357 12358 12359
          12360 12361 12362 12363 12364 12365
          12366 12367 12368 12369 12370 12371
          12372 12373 12374 12375 12376 12377
          12378 12379 12380 12381 12382 12383
          12384 12385 12386 12387 12388 12389
          12390 12391 12392 12393 12394 12395
          12396 12397 12398 12399 12400 12401
          12402 12403 12404 12405 12406 12407
          12408 12409 12410 12411 12412 12413
          12414 12415 12416 12417 12418 12419
          12420 12421 12422 12423 12424 12425
          12426 12427 12428 12429 12430 12431
          12432 12433 12434 12435 12436 12437
          12438 12439 12440 12441 12442 12443
          12444 12445 12446 12447 12448 12449
          12450 12451 12452 12453 12454 12455
          12456 12457 12458 12459 12460 12461
          12462 12463 12464 12465 12466 12467
          12468 12469 12470 12471 12472 12473
          12474 12475 12476 12477 12478 12479
          12480 12481 12482 12483 12484 12485
          12486 12487 12488 12489 12490 12491
          12492 12493 12494 12495 12496 12497
          12498 12499 12500 12501 12502 12503
          12504 12505 12506 12507 12508 12509
          12510 12511 12512 12513 12514 12515
          12516 12517 12518 12519 12520 12521
          12522 12523 12524 12525 12526 12527
          12528 12529 12530 12531 12532 12533
          12534 12535 12536 12537 12538 12539
          12540 12541 12542 12543 12544 12545
          12546 12547 12548 12549 12550 12551
          12552 12553 12554 12555 12556 12557
          12558 12559 12560 12561 12562 12563
          12564 12565 12566 12567 12568 12569
          12570 12571 12572 12573 12574 12575
          12576 12577 12578 12579 12580 12581
          12582 12583 12584 12585 12586 12587
          12588 12589 12590 12591 12592 12593
          12594 12595 12596 12597 12598 12599
          12600 12601 12602 12603 12604 12605
          12606 12607 12608 12609 12610 12611
          12612 12613 12614 12615 12616 12617
          12618 12619 12620 12621 12622 12623
          12624 12625 12626 12627 12628 12629
          12630 12631 12632 12633 12634 12635
          12636 12637 12638 12639 12640 12641
          12642 12643 12644 12645 12646 12647
          12648 12649 12650 12651 12652 12653
          12654 12655 12656 12657 12658 12659
          12660 12661 12662 12663 12664 12665
          12666 12667 12668 12669 12670 12671
          12672 12673 12674 12675 12676 12677
          12678 12679 12680 12681 12682 12683
          12684 12685 12686 12687 12688 12689
          12690 12691 12692 12693 12694 12695
          12696 12697 12698 12699 12700 12701
          12702 12703 12704 12705 12706 12707
          12708 12709 12710 12711 12712 12713
          12714 12715 12716 12717 12718 12719
          12720 12721 12722 12723 12724 12725
          12726 12727 12728 12729 12730 12731
          12732 12733 12734 12735 12736 12737
          12738 12739 12740 12741 12742 12743
          12744 12745 12746 12747 12748 12749
          12750 12751 12752 12753 12754 12755
          12756 12757 12758 12759 12760 12761
          12762 12763 12764 12765 12766 12767
          12768 12769 12770 12771 12772 12773
          12774 12775 12776 12777 12778 12779
          12780 12781 12782 12783 12784 12785
          12786 12787 12788 12789 12790 12791
          12792 12793 12794 12795 12796 12797
          12798 12799 12800 12801 12802 12803
          12804 12805 12806 12807 12808 12809
          12810 12811 12812 12813 12814 12815
          12816 12817 12818 12819 12820 12821
          12822 12823 12824 12825 12826 12827
          12828 12829 12830 12831 12832 12833
          12834 12835 12836 12837 12838 12839
          12840 12841 12842 12843 12844 12845
          12846 12847 12848 12849 12850 12851
          12852 12853 12854 12855 12856 12857
          12858 12859 12860 12861 12862 12863
          12864 12865 12866 12867 12868 12869
          12870 12871 12872 12873 12874 12875
          12876 12877 12878 12879 12880 12881
          12882 12883 12884 12885 12886 12887
          12888 12889 12890 12891 12892 12893
          12894 12895 12896 12897 12898 12899
          12900 12901 12902 12903 12904 12905
          12906 12907 12908 12909 12910 12911
          12912 12913 12914 12915 12916 12917
          12918 12919 12920 12921 12922 12923
          12924 12925 12926 12927 12928 12929
          12930 12931 12932 12933 12934 12935
          12936 12937 12938 12939 12940 12941
          12942 12943 12944 12945 12946 12947
          12948 12949 12950 12951 12952 12953
          12954 12955 12956 12957 12958 12959
          12960 12961 12962 12963 12964 12965
          12966 12967 12968 12969 12970 12971
          12972 12973 12974 12975 12976 12977
          12978 12979 12980 12981 12982 12983
          12984 12985 12986 12987 12988 12989
          12990 12991 12992 12993 12994 12995
          12996 12997 12998 12999 13000 13001
          13002 13003 13004 13005 13006 13007
          13008 13009 13010 13011 13012 13013
          13014 13015 13016 13017 13018 13019
          13020 13021 13022 13023 13024 13025
          13026 13027 13028 13029 13030 13031
          13032 13033 13034 13035 13036 13037
          13038 13039 13040 13041 13042 13043
          13044 13045 13046 13047 13048 13049
          13050 13051 13052 13053 13054 13055
          13056 13057 13058 13059 13060 13061
          13062 13063 13064 13065 13066 13067
          13068 13069 13070 13071 13072 13073
          13074 13075 13076 13077 13078 13079
          13080 13081 13082 13083 13084 13085
          13086 13087 13088 13089 13090 13091
          13092 13093 13094 13095 13096 13097
          13098 13099 13100 13101 13102 13103
          13104 13105 13106 13107 13108 13109
          13110 13111 13112 13113 13114 13115
          13116 13117 13118 13119 13120 13121
          13122 13123 13124 13125 13126 13127
          13128 13129 13130 13131 13132 13133
          13134 13135 13136 13137 13138 13139
          13140 13141 13142 13143 13144 13145
          13146 13147 13148 13149 13150 13151
          13152 13153 13154 13155 13156 13157
          13158 13159 13160 13161 13162 13163
          13164 13165 13166 13167 13168 13169
          13170 13171 13172 13173 13174 13175
          13176 13177 13178 13179 13180 13181
          13182 13183 13184 13185 13186 13187
          13188 13189 13190 13191 13192 13193
          13194 13195 13196 13197 13198 13199
          13200 13201 13202 13203 13204 13205
          13206 13207 13208 13209 13210 13211
          13212 13213 13214 13215 13216 13217
          13218 13219 13220 13221 13222 13223
          13224 13225 13226 13227 13228 13229
          13230 13231 13232 13233 13234 13235
          13236 13237 13238 13239 13240 13241
          13242 13243 13244 13245 13246 13247
          13248 13249 13250 13251 13252 13253
          13254 13255 13256 13257 13258 13259
          13260 13261 13262 13263 13264 13265
          13266 13267 13268 13269 13270 13271
          13272 13273 13274 13275 13276 13277
          13278 13279 13280 13281 13282 13283
          13284 13285 13286 13287 13288 13289
          13290 13291 13292 13293 13294 13295
          13296 13297 13298 13299 13300 13301
          13302 13303 13304 13305 13306 13307
          13308 13309 13310 13311 13312 13313
          13314 13315 13316 13317 13318 13319
          13320 13321 13322 13323 13324 13325
          13326 13327 13328 13329 13330 13331
          13332 13333 13334 13335 13336 13337
          13338 13339 13340 13341 13342 13343
          13344 13345 13346 13347 13348 13349
          13350 13351 13352 13353 13354 13355
          13356 13357 13358 13359 13360 13361
          13362 13363 13364 13365 13366 13367
          13368 13369 13370 13371 13372 13373
          13374 13375 13376 13377 13378 13379
          13380 13381 13382 13383 13384 13385
          13386 13387 13388 13389 13390 13391
          13392 13393 13394 13395 13396 13397
          13398 13399 13400 13401 13402 13403
          13404 13405 13406 13407 13408 13409
          13410 13411 13412 13413 13414 13415
          13416 13417 13418 13419 13420 13421
          13422 13423 13424 13425 13426 13427
          13428 13429 13430 13431 13432 13433
          13434 13435 13436 13437 13438 13439
          13440 13441 13442 13443 13444 13445
          13446 13447 13448 13449 13450 13451
          13452 13453 13454 13455 13456 13457
          13458 13459 13460 13461 13462 13463
          13464 13465 13466 13467 13468 13469
          13470 13471 13472 13473 13474 13475
          13476 13477 13478 13479 13480 13481
          13482 13483 13484 13485 13486 13487
          13488 13489 13490 13491 13492 13493
          13494 13495 13496 13497 13498 13499
          13500 13501 13502 13503 13504 13505
          13506 13507 13508 13509 13510 13511
          13512 13513 13514 13515 13516 13517
          13518 13519 13520 13521 13522 13523
          13524 13525 13526 13527 13528 13529
          13530 13531 13532 13533 13534 13535
          13536 13537 13538 13539 13540 13541
          13542 13543 13544 13545 13546 13547
          13548 13549 13550 13551 13552 13553
          13554 13555 13556 13557 13558 13559
          13560 13561 13562 13563 13564 13565
          13566 13567 13568 13569 13570 13571
          13572 13573 13574 13575 13576 13577
          13578 13579 13580 13581 13582 13583
          13584 13585 13586 13587 13588 13589
          13590 13591 13592 13593 13594 13595
          13596 13597 13598 13599 13600 13601
          13602 13603 13604 13605 13606 13607
          13608 13609 13610 13611 13612 13613
          13614 13615 13616 13617 13618 13619
          13620 13621 13622 13623 13624 13625
          13626 13627 13628 13629 13630 13631
          13632 13633 13634 13635 13636 13637
          13638 13639 13640 13641 13642 13643
          13644 13645 13646 13647 13648 13649
          13650 13651 13652 13653 13654 13655
          13656 13657 13658 13659 13660 13661
          13662 13663 13664 13665 13666 13667
          13668 13669 13670 13671 13672 13673
          13674 13675 13676 13677 13678 13679
          13680 13681 13682 13683 13684 13685
          13686 13687 13688 13689 13690 13691
          13692 13693 13694 13695 13696 13697
          13698 13699 13700 13701 13702 13703
          13704 13705 13706 13707 13708 13709
          13710 13711 13712 13713 13714 13715
          13716 13717 13718 13719 13720 13721
          13722 13723 13724 13725 13726 13727
          13728 13729 13730 13731 13732 13733
          13734 13735 13736 13737 13738 13739
          13740 13741 13742 13743 13744 13745
          13746 13747 13748 13749 13750 13751
          13752 13753 13754 13755 13756 13757
          13758 13759 13760 13761 13762 13763
          13764 13765 13766 13767 13768 13769
          13770 13771 13772 13773 13774 13775
          13776 13777 13778 13779 13780 13781
          13782 13783 13784 13785 13786 13787
          13788 13789 13790 13791 13792 13793
          13794 13795 13796 13797 13798 13799
          13800 13801 13802 13803 13804 13805
          13806 13807 13808 13809 13810 13811
          13812 13813 13814 13815 13816 13817
          13818 13819 13820 13821 13822 13823
          13824 13825 13826 13827 13828 13829
          13830 13831 13832 13833 13834 13835
          13836 13837 13838 13839 13840 13841
          13842 13843 13844 13845 13846 13847
          13848 13849 13850 13851 13852 13853
          13854 13855 13856 13857 13858 13859
          13860 13861 13862 13863 13864 13865
          13866 13867 13868 13869 13870 13871
          13872 13873 13874 13875 13876 13877
          13878 13879 13880 13881 13882 13883
          13884 13885 13886 13887 13888 13889
          13890 13891 13892 13893 13894 13895
          13896 13897 13898 13899 13900 13901
          13902 13903 13904 13905 13906 13907
          13908 13909 13910 13911 13912 13913
          13914 13915 13916 13917 13918 13919
          13920 13921 13922 13923 13924 13925
          13926 13927 13928 13929 13930 13931
          13932 13933 13934 13935 13936 13937
          13938 13939 13940 13941 13942 13943
          13944 13945 13946 13947 13948 13949
          13950 13951 13952 13953 13954 13955
          13956 13957 13958 13959 13960 13961
          13962 13963 13964 13965 13966 13967
          13968 13969 13970 13971 13972 13973
          13974 13975 13976 13977 13978 13979
          13980 13981 13982 13983 13984 13985
          13986 13987 13988 13989 13990 13991
          13992 13993 13994 13995 13996 13997
          13998 13999 14000 14001 14002 14003
          14004 14005 14006 14007 14008 14009
          14010 14011 14012 14013 14014 14015
          14016 14017 14018 14019 14020 14021
          14022 14023 14024 14025 14026 14027
          14028 14029 14030 14031 14032 14033
          14034 14035 14036 14037 14038 14039
          14040 14041 14042 14043 14044 14045
          14046 14047 14048 14049 14050 14051
          14052 14053 14054 14055 14056 14057
          14058 14059 14060 14061 14062 14063
          14064 14065 14066 14067 14068 14069
          14070 14071 14072 14073 14074 14075
          14076 14077 14078 14079 14080 14081
          14082 14083 14084 14085 14086 14087
          14088 14089 14090 14091 14092 14093
          14094 14095 14096 14097 14098 14099
          14100 14101 14102 14103 14104 14105
          14106 14107 14108 14109 14110 14111
          14112 14113 14114 14115 14116 14117
          14118 14119 14120 14121 14122 14123
          14124 14125 14126 14127 14128 14129
          14130 14131 14132 14133 14134 14135
          14136 14137 14138 14139 14140 14141
          14142 14143 14144 14145 14146 14147
          14148 14149 14150 14151 14152 14153
          14154 14155 14156 14157 14158 14159
          14160 14161 14162 14163 14164 14165
          14166 14167 14168 14169 14170 14171
          14172 14173 14174 14175 14176 14177
          14178 14179 14180 14181 14182 14183
          14184 14185 14186 14187 14188 14189
          14190 14191 14192 14193 14194 14195
          14196 14197 14198 14199 14200 14201
          14202 14203 14204 14205 14206 14207
          14208 14209 14210 14211 14212 14213
          14214 14215 14216 14217 14218 14219
          14220 14221 14222 14223 14224 14225
          14226 14227 14228 14229 14230 14231
          14232 14233 14234 14235 14236 14237
          14238 14239 14240 14241 14242 14243
          14244 14245 14246 14247 14248 14249
          14250 14251 14252 14253 14254 14255
          14256 14257 14258 14259 14260 14261
          14262 14263 14264 14265 14266 14267
          14268 14269 14270 14271 14272 14273
          14274 14275 14276 14277 14278 14279
          14280 14281 14282 14283 14284 14285
          14286 14287 14288 14289 14290 14291
          14292 14293 14294 14295 14296 14297
          14298 14299 14300 14301 14302 14303
          14304 14305 14306 14307 14308 14309
          14310 14311 14312 14313 14314 14315
          14316 14317 14318 14319 14320 14321
          14322 14323 14324 14325 14326 14327
          14328 14329 14330 14331 14332 14333
          14334 14335 14336 14337 14338 14339
          14340 14341 14342 14343 14344 14345
          14346 14347 14348 14349 14350 14351
          14352 14353 14354 14355 14356 14357
          14358 14359 14360 14361 14362 14363
          14364 14365 14366 14367 14368 14369
          14370 14371 14372 14373 14374 14375
          14376 14377 14378 14379 14380 14381
          14382 14383 14384 14385 14386 14387
          14388 14389 14390 14391 14392 14393
          14394 14395 14396 14397 14398 14399
          14400 14401 14402 14403 14404 14405
          14406 14407 14408 14409 14410 14411
          14412 14413 14414 14415 14416 14417
          14418 14419 14420 14421 14422 14423
          14424 14425 14426 14427 14428 14429
          14430 14431 14432 14433 14434 14435
          14436 14437 14438 14439 14440 14441
          14442 14443 14444 14445 14446 14447
          14448 14449 14450 14451 14452 14453
          14454 14455 14456 14457 14458 14459
          14460 14461 14462 14463 14464 14465
          14466 14467 14468 14469 14470 14471
          14472 14473 14474 14475 14476 14477
          14478 14479 14480 14481 14482 14483
          14484 14485 14486 14487 14488 14489
          14490 14491 14492 14493 14494 14495
          14496 14497 14498 14499 14500 14501
          14502 14503 14504 14505 14506 14507
          14508 14509 14510 14511 14512 14513
          14514 14515 14516 14517 14518 14519
          14520 14521 14522 14523 14524 14525
          14526 14527 14528 14529 14530 14531
          14532 14533 14534 14535 14536 14537
          14538 14539 14540 14541 14542 14543
          14544 14545 14546 14547 14548 14549
          14550 14551 14552 14553 14554 14555
          14556 14557 14558 14559 14560 14561
          14562 14563 14564 14565 14566 14567
          14568 14569 14570 14571 14572 14573
          14574 14575 14576 14577 14578 14579
          14580 14581 14582 14583 14584 14585
          14586 14587 14588 14589 14590 14591
          14592 14593 14594 14595 14596 14597
          14598 14599 14600 14601 14602 14603
          14604 14605 14606 14607 14608 14609
          14610 14611 14612 14613 14614 14615
          14616 14617 14618 14619 14620 14621
          14622 14623 14624 14625 14626 14627
          14628 14629 14630 14631 14632 14633
          14634 14635 14636 14637 14638 14639
          14640 14641 14642 14643 14644 14645
          14646 14647 14648 14649 14650 14651
          14652 14653 14654 14655 14656 14657
          14658 14659 14660 14661 14662 14663
          14664 14665 14666 14667 14668 14669
          14670 14671 14672 14673 14674 14675
          14676 14677 14678 14679 14680 14681
          14682 14683 14684 14685 14686 14687
          14688 14689 14690 14691 14692 14693
          14694 14695 14696 14697 14698 14699
          14700 14701 14702 14703 14704 14705
          14706 14707 14708 14709 14710 14711
          14712 14713 14714 14715 14716 14717
          14718 14719 14720 14721 14722 14723
          14724 14725 14726 14727 14728 14729
          14730 14731 14732 14733 14734 14735
          14736 14737 14738 14739 14740 14741
          14742 14743 14744 14745 14746 14747
          14748 14749 14750 14751 14752 14753
          14754 14755 14756 14757 14758 14759
          14760 14761 14762 14763 14764 14765
          14766 14767 14768 14769 14770 14771
          14772 14773 14774 14775 14776 14777
          14778 14779 14780 14781 14782 14783
          14784 14785 14786 14787 14788 14789
          14790 14791 14792 14793 14794 14795
          14796 14797 14798 14799 14800 14801
          14802 14803 14804 14805 14806 14807
          14808 14809 14810 14811 14812 14813
          14814 14815 14816 14817 14818 14819
          14820 14821 14822 14823 14824 14825
          14826 14827 14828 14829 14830 14831
          14832 14833 14834 14835 14836 14837
          14838 14839 14840 14841 14842 14843
          14844 14845 14846 14847 14848 14849
          14850 14851 14852 14853 14854 14855
          14856 14857 14858 14859 14860 14861
          14862 14863 14864 14865 14866 14867
          14868 14869 14870 14871 14872 14873
          14874 14875 14876 14877 14878 14879
          14880 14881 14882 14883 14884 14885
          14886 14887 14888 14889 14890 14891
          14892 14893 14894 14895 14896 14897
          14898 14899 14900 14901 14902 14903
          14904 14905 14906 14907 14908 14909
          14910 14911 14912 14913 14914 14915
          14916 14917 14918 14919 14920 14921
          14922 14923 14924 14925 14926 14927
          14928 14929 14930 14931 14932 14933
          14934 14935 14936 14937 14938 14939
          14940 14941 14942 14943 14944 14945
          14946 14947 14948 14949 14950 14951
          14952 14953 14954 14955 14956 14957
          14958 14959 14960 14961 14962 14963
          14964 14965 14966 14967 14968 14969
          14970 14971 14972 14973 14974 14975
          14976 14977 14978 14979 14980 14981
          14982 14983 14984 14985 14986 14987
          14988 14989 14990 14991 14992 14993
          14994 14995 14996 14997 14998 14999
          15000 15001 15002 15003 15004 15005
          15006 15007 15008 15009 15010 15011
          15012 15013 15014 15015 15016 15017
          15018 15019 15020 15021 15022 15023
          15024 15025 15026 15027 15028 15029
          15030 15031 15032 15033 15034 15035
          15036 15037 15038 15039 15040 15041
          15042 15043 15044 15045 15046 15047
          15048 15049 15050 15051 15052 15053
          15054 15055 15056 15057 15058 15059
          15060 15061 15062 15063 15064 15065
          15066 15067 15068 15069 15070 15071
          15072 15073 15074 15075 15076 15077
          15078 15079 15080 15081 15082 15083
          15084 15085 15086 15087 15088 15089
          15090 15091 15092 15093 15094 15095
          15096 15097 15098 15099 15100 15101
          15102 15103 15104 15105 15106 15107
          15108 15109 15110 15111 15112 15113
          15114 15115 15116 15117 15118 15119
          15120 15121 15122 15123 15124 15125
          15126 15127 15128 15129 15130 15131
          15132 15133 15134 15135 15136 15137
          15138 15139 15140 15141 15142 15143
          15144 15145 15146 15147 15148 15149
          15150 15151 15152 15153 15154 15155
          15156 15157 15158 15159 15160 15161
          15162 15163 15164 15165 15166 15167
          15168 15169 15170 15171 15172 15173
          15174 15175 15176 15177 15178 15179
          15180 15181 15182 15183 15184 15185
          15186 15187 15188 15189 15190 15191
          15192 15193 15194 15195 15196 15197
          15198 15199 15200 15201 15202 15203
          15204 15205 15206 15207 15208 15209
          15210 15211 15212 15213 15214 15215
          15216 15217 15218 15219 15220 15221
          15222 15223 15224 15225 15226 15227
          15228 15229 15230 15231 15232 15233
          15234 15235 15236 15237 15238 15239
          15240 15241 15242 15243 15244 15245
          15246 15247 15248 15249 15250 15251
          15252 15253 15254 15255 15256 15257
          15258 15259 15260 15261 15262 15263
          15264 15265 15266 15267 15268 15269
          15270 15271 15272 15273 15274 15275
          15276 15277 15278 15279 15280 15281
          15282 15283 15284 15285 15286 15287
          15288 15289 15290 15291 15292 15293
          15294 15295 15296 15297 15298 15299
          15300 15301 15302 15303 15304 15305
          15306 15307 15308 15309 15310 15311
          15312 15313 15314 15315 15316 15317
          15318 15319 15320 15321 15322 15323
          15324 15325 15326 15327 15328 15329
          15330 15331 15332 15333 15334 15335
          15336 15337 15338 15339 15340 15341
          15342 15343 15344 15345 15346 15347
          15348 15349 15350 15351 15352 15353
          15354 15355 15356 15357 15358 15359
          15360 15361 15362 15363 15364 15365
          15366 15367 15368 15369 15370 15371
          15372 15373 15374 15375 15376 15377
          15378 15379 15380 15381 15382 15383
          15384 15385 15386 15387 15388 15389
          15390 15391 15392 15393 15394 15395
          15396 15397 15398 15399 15400 15401
          15402 15403 15404 15405 15406 15407
          15408 15409 15410 15411 15412 15413
          15414 15415 15416 15417 15418 15419
          15420 15421 15422 15423 15424 15425
          15426 15427 15428 15429 15430 15431
          15432 15433 15434 15435 15436 15437
          15438 15439 15440 15441 15442 15443
          15444 15445 15446 15447 15448 15449
          15450 15451 15452 15453 15454 15455
          15456 15457 15458 15459 15460 15461
          15462 15463 15464 15465 15466 15467
          15468 15469 15470 15471 15472 15473
          15474 15475 15476 15477 15478 15479
          15480 15481 15482 15483 15484 15485
          15486 15487 15488 15489 15490 15491
          15492 15493 15494 15495 15496 15497
          15498 15499 15500 15501 15502 15503
          15504 15505 15506 15507 15508 15509
          15510 15511 15512 15513 15514 15515
          15516 15517 15518 15519 15520 15521
          15522 15523 15524 15525 15526 15527
          15528 15529 15530 15531 15532 15533
          15534 15535 15536 15537 15538 15539
          15540 15541 15542 15543 15544 15545
          15546 15547 15548 15549 15550 15551
          15552 15553 15554 15555 15556 15557
          15558 15559 15560 15561 15562 15563
          15564 15565 15566 15567 15568 15569
          15570 15571 15572 15573 15574 15575
          15576 15577 15578 15579 15580 15581
          15582 15583 15584 15585 15586 15587
          15588 15589 15590 15591 15592 15593
          15594 15595 15596 15597 15598 15599
          15600 15601 15602 15603 15604 15605
          15606 15607 15608 15609 15610 15611
          15612 15613 15614 15615 15616 15617
          15618 15619 15620 15621 15622 15623
          15624 15625 15626 15627 15628 15629
          15630 15631 15632 15633 15634 15635
          15636 15637 15638 15639 15640 15641
          15642 15643 15644 15645 15646 15647
          15648 15649 15650 15651 15652 15653
          15654 15655 15656 15657 15658 15659
          15660 15661 15662 15663 15664 15665
          15666 15667 15668 15669 15670 15671
          15672 15673 15674 15675 15676 15677
          15678 15679 15680 15681 15682 15683
          15684 15685 15686 15687 15688 15689
          15690 15691 15692 15693 15694 15695
          15696 15697 15698 15699 15700 15701
          15702 15703 15704 15705 15706 15707
          15708 15709 15710 15711 15712 15713
          15714 15715 15716 15717 15718 15719
          15720 15721 15722 15723 15724 15725
          15726 15727 15728 15729 15730 15731
          15732 15733 15734 15735 15736 15737
          15738 15739 15740 15741 15742 15743
          15744 15745 15746 15747 15748 15749
          15750 15751 15752 15753 15754 15755
          15756 15757 15758 15759 15760 15761
          15762 15763 15764 15765 15766 15767
          15768 15769 15770 15771 15772 15773
          15774 15775 15776 15777 15778 15779
          15780 15781 15782 15783 15784 15785
          15786 15787 15788 15789 15790 15791
          15792 15793 15794 15795 15796 15797
          15798 15799 15800 15801 15802 15803
          15804 15805 15806 15807 15808 15809
          15810 15811 15812 15813 15814 15815
          15816 15817 15818 15819 15820 15821
          15822 15823 15824 15825 15826 15827
          15828 15829 15830 15831 15832 15833
          15834 15835 15836 15837 15838 15839
          15840 15841 15842 15843 15844 15845
          15846 15847 15848 15849 15850 15851
          15852 15853 15854 15855 15856 15857
          15858 15859 15860 15861 15862 15863
          15864 15865 15866 15867 15868 15869
          15870 15871 15872 15873 15874 15875
          15876 15877 15878 15879 15880 15881
          15882 15883 15884 15885 15886 15887
          15888 15889 15890 15891 15892 15893
          15894 15895 15896 15897 15898 15899
          15900 15901 15902 15903 15904 15905
          15906 15907 15908 15909 15910 15911
          15912 15913 15914 15915 15916 15917
          15918 15919 15920 15921 15922 15923
          15924 15925 15926 15927 15928 15929
          15930 15931 15932 15933 15934 15935
          15936 15937 15938 15939 15940 15941
          15942 15943 15944 15945 15946 15947
          15948 15949 15950 15951 15952 15953
          15954 15955 15956 15957 15958 15959
          15960 15961 15962 15963 15964 15965
          15966 15967 15968 15969 15970 15971
          15972 15973 15974 15975 15976 15977
          15978 15979 15980 15981 15982 15983
          15984 15985 15986 15987 15988 15989
          15990 15991 15992 15993 15994 15995
          15996 15997 15998 15999 16000 16001
          16002 16003 16004 16005 16006 16007
          16008 16009 16010 16011 16012 16013
          16014 16015 16016 16017 16018 16019
          16020 16021 16022 16023 16024 16025
          16026 16027 16028 16029 16030 16031
          16032 16033 16034 16035 16036 16037
          16038 16039 16040 16041 16042 16043
          16044 16045 16046 16047 16048 16049
          16050 16051 16052 16053 16054 16055
          16056 16057 16058 16059 16060 16061
          16062 16063 16064 16065 16066 16067
          16068 16069 16070 16071 16072 16073
          16074 16075 16076 16077 16078 16079
          16080 16081 16082 16083 16084 16085
          16086 16087 16088 16089 16090 16091
          16092 16093 16094 16095 16096 16097
          16098 16099 16100 16101 16102 16103
          16104 16105 16106 16107 16108 16109
          16110 16111 16112 16113 16114 16115
          16116 16117 16118 16119 16120 16121
          16122 16123 16124 16125 16126 16127
          16128 16129 16130 16131 16132 16133
          16134 16135 16136 16137 16138 16139
          16140 16141 16142 16143 16144 16145
          16146 16147 16148 16149 16150 16151
          16152 16153 16154 16155 16156 16157
          16158 16159 16160 16161 16162 16163
          16164 16165 16166 16167 16168 16169
          16170 16171 16172 16173 16174 16175
          16176 16177 16178 16179 16180 16181
          16182 16183 16184 16185 16186 16187
          16188 16189 16190 16191 16192 16193
          16194 16195 16196 16197 16198 16199
          16200 16201 16202 16203 16204 16205
          16206 16207 16208 16209 16210 16211
          16212 16213 16214 16215 16216 16217
          16218 16219 16220 16221 16222 16223
          16224 16225 16226 16227 16228 16229
          16230 16231 16232 16233 16234 16235
          16236 16237 16238 16239 16240 16241
          16242 16243 16244 16245 16246 16247
          16248 16249 16250 16251 16252 16253
          16254 16255 16256 16257 16258 16259
          16260 16261 16262 16263 16264 16265
          16266 16267 16268 16269 16270 16271
          16272 16273 16274 16275 16276 16277
          16278 16279 16280 16281 16282 16283
          16284 16285 16286 16287 16288 16289
          16290 16291 16292 16293 16294 16295
          16296 16297 16298 16299 16300 16301
          16302 16303 16304 16305 16306 16307
          16308 16309 16310 16311 16312 16313
          16314 16315 16316 16317 16318 16319
          16320 16321 16322 16323 16324 16325
          16326 16327 16328 16329 16330 16331
          16332 16333 16334 16335 16336 16337
          16338 16339 16340 16341 16342 16343
          16344 16345 16346 16347 16348 16349
          16350 16351 16352 16353 16354 16355
          16356 16357 16358 16359 16360 16361
          16362 16363 16364 16365 16366 16367
          16368 16369 16370 16371 16372 16373
          16374 16375 16376 16377 16378 16379
          16380 16381 16382 16383 16384 16385
          16386 16387 16388 16389 16390 16391
          16392 16393 16394 16395 16396 16397
          16398 16399 16400 16401 16402 16403
          16404 16405 16406 16407 16408 16409
          16410 16411 16412 16413 16414 16415
          16416 16417 16418 16419 16420 16421
          16422 16423 16424 16425 16426 16427
          16428 16429 16430 16431 16432 16433
          16434 16435 16436 16437 16438 16439
          16440 16441 16442 16443 16444 16445
          16446 16447 16448 16449 16450 16451
          16452 16453 16454 16455 16456 16457
          16458 16459 16460 16461 16462 16463
          16464 16465 16466 16467 16468 16469
          16470 16471 16472 16473 16474 16475
          16476 16477 16478 16479 16480 16481
          16482 16483 16484 16485 16486 16487
          16488 16489 16490 16491 16492 16493
          16494 16495 16496 16497 16498 16499
          16500 16501 16502 16503 16504 16505
          16506 16507 16508 16509 16510 16511
          16512 16513 16514 16515 16516 16517
          16518 16519 16520 16521 16522 16523
          16524 16525 16526 16527 16528 16529
          16530 16531 16532 16533 16534 16535
          16536 16537 16538 16539 16540 16541
          16542 16543 16544 16545 16546 16547
          16548 16549 16550 16551 16552 16553
          16554 16555 16556 16557 16558 16559
          16560 16561 16562 16563 16564 16565
          16566 16567 16568 16569 16570 16571
          16572 16573 16574 16575 16576 16577
          16578 16579 16580 16581 16582 16583
          16584 16585 16586 16587 16588 16589
          16590 16591 16592 16593 16594 16595
          16596 16597 16598 16599 16600 16601
          16602 16603 16604 16605 16606 16607
          16608 16609 16610 16611 16612 16613
          16614 16615 16616 16617 16618 16619
          16620 16621 16622 16623 16624 16625
          16626 16627 16628 16629 16630 16631
          16632 16633 16634 16635 16636 16637
          16638 16639 16640 16641 16642 16643
          16644 16645 16646 16647 16648 16649
          16650 16651 16652 16653 16654 16655
          16656 16657 16658 16659 16660 16661
          16662 16663 16664 16665 16666 16667
          16668 16669 16670 16671 16672 16673
          16674 16675 16676 16677 16678 16679
          16680 16681 16682 16683 16684 16685
          16686 16687 16688 16689 16690 16691
          16692 16693 16694 16695 16696 16697
          16698 16699 16700 16701 16702 16703
          16704 16705 16706 16707 16708 16709
          16710 16711 16712 16713 16714 16715
          16716 16717 16718 16719 16720 16721
          16722 16723 16724 16725 16726 16727
          16728 16729 16730 16731 16732 16733
          16734 16735 16736 16737 16738 16739
          16740 16741 16742 16743 16744 16745
          16746 16747 16748 16749 16750 16751
          16752 16753 16754 16755 16756 16757
          16758 16759 16760 16761 16762 16763
          16764 16765 16766 16767 16768 16769
          16770 16771 16772 16773 16774 16775
          16776 16777 16778 16779 16780 16781
          16782 16783 16784 16785 16786 16787
          16788 16789 16790 16791 16792 16793
          16794 16795 16796 16797 16798 16799
          16800 16801 16802 16803 16804 16805
          16806 16807 16808 16809 16810 16811
          16812 16813 16814 16815 16816 16817
          16818 16819 16820 16821 16822 16823
          16824 16825 16826 16827 16828 16829
          16830 16831 16832 16833 16834 16835
          16836 16837 16838 16839 16840 16841
          16842 16843 16844 16845 16846 16847
          16848 16849 16850 16851 16852 16853
          16854 16855 16856 16857 16858 16859
          16860 16861 16862 16863 16864 16865
          16866 16867 16868 16869 16870 16871
          16872 16873 16874 16875 16876 16877
          16878 16879 16880 16881 16882 16883
          16884 16885 16886 16887 16888 16889
          16890 16891 16892 16893 16894 16895
          16896 16897 16898 16899 16900 16901
          16902 16903 16904 16905 16906 16907
          16908 16909 16910 16911 16912 16913
          16914 16915 16916 16917 16918 16919
          16920 16921 16922 16923 16924 16925
          16926 16927 16928 16929 16930 16931
          16932 16933 16934 16935 16936 16937
          16938 16939 16940 16941 16942 16943
          16944 16945 16946 16947 16948 16949
          16950 16951 16952 16953 16954 16955
          16956 16957 16958 16959 16960 16961
          16962 16963 16964 16965 16966 16967
          16968 16969 16970 16971 16972 16973
          16974 16975 16976 16977 16978 16979
          16980 16981 16982 16983 16984 16985
          16986 16987 16988 16989 16990 16991
          16992 16993 16994 16995 16996 16997
          16998 16999 17000 17001 17002 17003
          17004 17005 17006 17007 17008 17009
          17010 17011 17012 17013 17014 17015
          17016 17017 17018 17019 17020 17021
          17022 17023 17024 17025 17026 17027
          17028 17029 17030 17031 17032 17033
          17034 17035 17036 17037 17038 17039
          17040 17041 17042 17043 17044 17045
          17046 17047 17048 17049 17050 17051
          17052 17053 17054 17055 17056 17057
          17058 17059 17060 17061 17062 17063
          17064 17065 17066 17067 17068 17069
          17070 17071 17072 17073 17074 17075
          17076 17077 17078 17079 17080 17081
          17082 17083 17084 17085 17086 17087
          17088 17089 17090 17091 17092 17093
          17094 17095 17096 17097 17098 17099
          17100 17101 17102 17103 17104 17105
          17106 17107 17108 17109 17110 17111
          17112 17113 17114 17115 17116 17117
          17118 17119 17120 17121 17122 17123
          17124 17125 17126 17127 17128 17129
          17130 17131 17132 17133 17134 17135
          17136 17137 17138 17139 17140 17141
          17142 17143 17144 17145 17146 17147
          17148 17149 17150 17151 17152 17153
          17154 17155 17156 17157 17158 17159
          17160 17161 17162 17163 17164 17165
          17166 17167 17168 17169 17170 17171
          17172 17173 17174 17175 17176 17177
          17178 17179 17180 17181 17182 17183
          17184 17185 17186 17187 17188 17189
          17190 17191 17192 17193 17194 17195
          17196 17197 17198 17199 17200 17201
          17202 17203 17204 17205 17206 17207
          17208 17209 17210 17211 17212 17213
          17214 17215 17216 17217 17218 17219
          17220 17221 17222 17223 17224 17225
          17226 17227 17228 17229 17230 17231
          17232 17233 17234 17235 17236 17237
          17238 17239 17240 17241 17242 17243
          17244 17245 17246 17247 17248 17249
          17250 17251 17252 17253 17254 17255
          17256 17257 17258 17259 17260 17261
          17262 17263 17264 17265 17266 17267
          17268 17269 17270 17271 17272 17273
          17274 17275 17276 17277 17278 17279
          17280 17281 17282 17283 17284 17285
          17286 17287 17288 17289 17290 17291
          17292 17293 17294 17295 17296 17297
          17298 17299 17300 17301 17302 17303
          17304 17305 17306 17307 17308 17309
          17310 17311 17312 17313 17314 17315
          17316 17317 17318 17319 17320 17321
          17322 17323 17324 17325 17326 17327
          17328 17329 17330 17331 17332 17333
          17334 17335 17336 17337 17338 17339
          17340 17341 17342 17343 17344 17345
          17346 17347 17348 17349 17350 17351
          17352 17353 17354 17355 17356 17357
          17358 17359 17360 17361 17362 17363
          17364 17365 17366 17367 17368 17369
          17370 17371 17372 17373 17374 17375
          17376 17377 17378 17379 17380 17381
          17382 17383 17384 17385 17386 17387
          17388 17389 17390 17391 17392 17393
          17394 17395 17396 17397 17398 17399
          17400 17401 17402 17403 17404 17405
          17406 17407 17408 17409 17410 17411
          17412 17413 17414 17415 17416 17417
          17418 17419 17420 17421 17422 17423
          17424 17425 17426 17427 17428 17429
          17430 17431 17432 17433 17434 17435
          17436 17437 17438 17439 17440 17441
          17442 17443 17444 17445 17446 17447
          17448 17449 17450 17451 17452 17453
          17454 17455 17456 17457 17458 17459
          17460 17461 17462 17463 17464 17465
          17466 17467 17468 17469 17470 17471
          17472 17473 17474 17475 17476 17477
          17478 17479 17480 17481 17482 17483
          17484 17485 17486 17487 17488 17489
          17490 17491 17492 17493 17494 17495
          17496 17497 17498 17499 17500 17501
          17502 17503 17504 17505 17506 17507
          17508 17509 17510 17511 17512 17513
          17514 17515 17516 17517 17518 17519
          17520 17521 17522 17523 17524 17525
          17526 17527 17528 17529 17530 17531
          17532 17533 17534 17535 17536 17537
          17538 17539 17540 17541 17542 17543
          17544 17545 17546 17547 17548 17549
          17550 17551 17552 17553 17554 17555
          17556 17557 17558 17559 17560 17561
          17562 17563 17564 17565 17566 17567
          17568 17569 17570 17571 17572 17573
          17574 17575 17576 17577 17578 17579
          17580 17581 17582 17583 17584 17585
          17586 17587 17588 17589 17590 17591
          17592 17593 17594 17595 17596 17597
          17598 17599 17600 17601 17602 17603
          17604 17605 17606 17607 17608 17609
          17610 17611 17612 17613 17614 17615
          17616 17617 17618 17619 17620 17621
          17622 17623 17624 17625 17626 17627
          17628 17629 17630 17631 17632 17633
          17634 17635 17636 17637 17638 17639
          17640 17641 17642 17643 17644 17645
          17646 17647 17648 17649 17650 17651
          17652 17653 17654 17655 17656 17657
          17658 17659 17660 17661 17662 17663
          17664 17665 17666 17667 17668 17669
          17670 17671 17672 17673 17674 17675
          17676 17677 17678 17679 17680 17681
          17682 17683 17684 17685 17686 17687
          17688 17689 17690 17691 17692 17693
          17694 17695 17696 17697 17698 17699
          17700 17701 17702 17703 17704 17705
          17706 17707 17708 17709 17710 17711
          17712 17713 17714 17715 17716 17717
          17718 17719 17720 17721 17722 17723
          17724 17725 17726 17727 17728 17729
          17730 17731 17732 17733 17734 17735
          17736 17737 17738 17739 17740 17741
          17742 17743 17744 17745 17746 17747
          17748 17749 17750 17751 17752 17753
          17754 17755 17756 17757 17758 17759
          17760 17761 17762 17763 17764 17765
          17766 17767 17768 17769 17770 17771
          17772 17773 17774 17775 17776 17777
          17778 17779 17780 17781 17782 17783
          17784 17785 17786 17787 17788 17789
          17790 17791 17792 17793 17794 17795
          17796 17797 17798 17799 17800 17801
          17802 17803 17804 17805 17806 17807
          17808 17809 17810 17811 17812 17813
          17814 17815 17816 17817 17818 17819
          17820 17821 17822 17823 17824 17825
          17826 17827 17828 17829 17830 17831
          17832 17833 17834 17835 17836 17837
          17838 17839 17840 17841 17842 17843
          17844 17845 17846 17847 17848 17849
          17850 17851 17852 17853 17854 17855
          17856 17857 17858 17859 17860 17861
          17862 17863 17864 17865 17866 17867
          17868 17869 17870 17871 17872 17873
          17874 17875 17876 17877 17878 17879
          17880 17881 17882 17883 17884 17885
          17886 17887 17888 17889 17890 17891
          17892 17893 17894 17895 17896 17897
          17898 17899 17900 17901 17902 17903
          17904 17905 17906 17907 17908 17909
          17910 17911 17912 17913 17914 17915
          17916 17917 17918 17919 17920 17921
          17922 17923 17924 17925 17926 17927
          17928 17929 17930 17931 17932 17933
          17934 17935 17936 17937 17938 17939
          17940 17941 17942 17943 17944 17945
          17946 17947 17948 17949 17950 17951
          17952 17953 17954 17955 17956 17957
          17958 17959 17960 17961 17962 17963
          17964 17965 17966 17967 17968 17969
          17970 17971 17972 17973 17974 17975
          17976 17977 17978 17979 17980 17981
          17982 17983 17984 17985 17986 17987
          17988 17989 17990 17991 17992 17993
          17994 17995 17996 17997 17998 17999
          18000 18001 18002 18003 18004 18005
          18006 18007 18008 18009 18010 18011
          18012 18013 18014 18015 18016 18017
          18018 18019 18020 18021 18022 18023
          18024 18025 18026 18027 18028 18029
          18030 18031 18032 18033 18034 18035
          18036 18037 18038 18039 18040 18041
          18042 18043 18044 18045 18046 18047
          18048 18049 18050 18051 18052 18053
          18054 18055 18056 18057 18058 18059
          18060 18061 18062 18063 18064 18065
          18066 18067 18068 18069 18070 18071
          18072 18073 18074 18075 18076 18077
          18078 18079 18080 18081 18082 18083
          18084 18085 18086 18087 18088 18089
          18090 18091 18092 18093 18094 18095
          18096 18097 18098 18099 18100 18101
          18102 18103 18104 18105 18106 18107
          18108 18109 18110 18111 18112 18113
          18114 18115 18116 18117 18118 18119
          18120 18121 18122 18123 18124 18125
          18126 18127 18128 18129 18130 18131
          18132 18133 18134 18135 18136 18137
          18138 18139 18140 18141 18142 18143
          18144 18145 18146 18147 18148 18149
          18150 18151 18152 18153 18154 18155
          18156 18157 18158 18159 18160 18161
          18162 18163 18164 18165 18166 18167
          18168 18169 18170 18171 18172 18173
          18174 18175 18176 18177 18178 18179
          18180 18181 18182 18183 18184 18185
          18186 18187 18188 18189 18190 18191
          18192 18193 18194 18195 18196 18197
          18198 18199 18200 18201 18202 18203
          18204 18205 18206 18207 18208 18209
          18210 18211 18212 18213 18214 18215
          18216 18217 18218 18219 18220 18221
          18222 18223 18224 18225 18226 18227
          18228 18229 18230 18231 18232 18233
          18234 18235 18236 18237 18238 18239
          18240 18241 18242 18243 18244 18245
          18246 18247 18248 18249 18250 18251
          18252 18253 18254 18255 18256 18257
          18258 18259 18260 18261 18262 18263
          18264 18265 18266 18267 18268 18269
          18270 18271 18272 18273 18274 18275
          18276 18277 18278 18279 18280 18281
          18282 18283 18284 18285 18286 18287
          18288 18289 18290 18291 18292 18293
          18294 18295 18296 18297 18298 18299
          18300 18301 18302 18303 18304 18305
          18306 18307 18308 18309 18310 18311
          18312 18313 18314 18315 18316 18317
          18318 18319 18320 18321 18322 18323
          18324 18325 18326 18327 18328 18329
          18330 18331 18332 18333 18334 18335
          18336 18337 18338 18339 18340 18341
          18342 18343 18344 18345 18346 18347
          18348 18349 18350 18351 18352 18353
          18354 18355 18356 18357 18358 18359
          18360 18361 18362 18363 18364 18365
          18366 18367 18368 18369 18370 18371
          18372 18373 18374 18375 18376 18377
          18378 18379 18380 18381 18382 18383
          18384 18385 18386 18387 18388 18389
          18390 18391 18392 18393 18394 18395
          18396 18397 18398 18399 18400 18401
          18402 18403 18404 18405 18406 18407
          18408 18409 18410 18411 18412 18413
          18414 18415 18416 18417 18418 18419
          18420 18421 18422 18423 18424 18425
          18426 18427 18428 18429 18430 18431
          18432 18433 18434 18435 18436 18437
          18438 18439 18440 18441 18442 18443
          18444 18445 18446 18447 18448 18449
          18450 18451 18452 18453 18454 18455
          18456 18457 18458 18459 18460 18461
          18462 18463 18464 18465 18466 18467
          18468 18469 18470 18471 18472 18473
          18474 18475 18476 18477 18478 18479
          18480 18481 18482 18483 18484 18485
          18486 18487 18488 18489 18490 18491
          18492 18493 18494 18495 18496 18497
          18498 18499 18500 18501 18502 18503
          18504 18505 18506 18507 18508 18509
          18510 18511 18512 18513 18514 18515
          18516 18517 18518 18519 18520 18521
          18522 18523 18524 18525 18526 18527
          18528 18529 18530 18531 18532 18533
          18534 18535 18536 18537 18538 18539
          18540 18541 18542 18543 18544 18545
          18546 18547 18548 18549 18550 18551
          18552 18553 18554 18555 18556 18557
          18558 18559 18560 18561 18562 18563
          18564 18565 18566 18567 18568 18569
          18570 18571 18572 18573 18574 18575
          18576 18577 18578 18579 18580 18581
          18582 18583 18584 18585 18586 18587
          18588 18589 18590 18591 18592 18593
          18594 18595 18596 18597 18598 18599
          18600 18601 18602 18603 18604 18605
          18606 18607 18608 18609 18610 18611
          18612 18613 18614 18615 18616 18617
          18618 18619 18620 18621 18622 18623
          18624 18625 18626 18627 18628 18629
          18630 18631 18632 18633 18634 18635
          18636 18637 18638 18639 18640 18641
          18642 18643 18644 18645 18646 18647
          18648 18649 18650 18651 18652 18653
          18654 18655 18656 18657 18658 18659
          18660 18661 18662 18663 18664 18665
          18666 18667 18668 18669 18670 18671
          18672 18673 18674 18675 18676 18677
          18678 18679 18680 18681 18682 18683
          18684 18685 18686 18687 18688 18689
          18690 18691 18692 18693 18694 18695
          18696 18697 18698 18699 18700 18701
          18702 18703 18704 18705 18706 18707
          18708 18709 18710 18711 18712 18713
          18714 18715 18716 18717 18718 18719
          18720 18721 18722 18723 18724 18725
          18726 18727 18728 18729 18730 18731
          18732 18733 18734 18735 18736 18737
          18738 18739 18740 18741 18742 18743
          18744 18745 18746 18747 18748 18749
          18750 18751 18752 18753 18754 18755
          18756 18757 18758 18759 18760 18761
          18762 18763 18764 18765 18766 18767
          18768 18769 18770 18771 18772 18773
          18774 18775 18776 18777 18778 18779
          18780 18781 18782 18783 18784 18785
          18786 18787 18788 18789 18790 18791
          18792 18793 18794 18795 18796 18797
          18798 18799 18800 18801 18802 18803
          18804 18805 18806 18807 18808 18809
          18810 18811 18812 18813 18814 18815
          18816 18817 18818 18819 18820 18821
          18822 18823 18824 18825 18826 18827
          18828 18829 18830 18831 18832 18833
          18834 18835 18836 18837 18838 18839
          18840 18841 18842 18843 18844 18845
          18846 18847 18848 18849 18850 18851
          18852 18853 18854 18855 18856 18857
          18858 18859 18860 18861 18862 18863
          18864 18865 18866 18867 18868 18869
          18870 18871 18872 18873 18874 18875
          18876 18877 18878 18879 18880 18881
          18882 18883 18884 18885 18886 18887
          18888 18889 18890 18891 18892 18893
          18894 18895 18896 18897 18898 18899
          18900 18901 18902 18903 18904 18905
          18906 18907 18908 18909 18910 18911
          18912 18913 18914 18915 18916 18917
          18918 18919 18920 18921 18922 18923
          18924 18925 18926 18927 18928 18929
          18930 18931 18932 18933 18934 18935
          18936 18937 18938 18939 18940 18941
          18942 18943 18944 18945 18946 18947
          18948 18949 18950 18951 18952 18953
          18954 18955 18956 18957 18958 18959
          18960 18961 18962 18963 18964 18965
          18966 18967 18968 18969 18970 18971
          18972 18973 18974 18975 18976 18977
          18978 18979 18980 18981 18982 18983
          18984 18985 18986 18987 18988 18989
          18990 18991 18992 18993 18994 18995
          18996 18997 18998 18999 19000 19001
          19002 19003 19004 19005 19006 19007
          19008 19009 19010 19011 19012 19013
          19014 19015 19016 19017 19018 19019
          19020 19021 19022 19023 19024 19025
          19026 19027 19028 19029 19030 19031
          19032 19033 19034 19035 19036 19037
          19038 19039 19040 19041 19042 19043
          19044 19045 19046 19047 19048 19049
          19050 19051 19052 19053 19054 19055
          19056 19057 19058 19059 19060 19061
          19062 19063 19064 19065 19066 19067
          19068 19069 19070 19071 19072 19073
          19074 19075 19076 19077 19078 19079
          19080 19081 19082 19083 19084 19085
          19086 19087 19088 19089 19090 19091
          19092 19093 19094 19095 19096 19097
          19098 19099 19100 19101 19102 19103
          19104 19105 19106 19107 19108 19109
          19110 19111 19112 19113 19114 19115
          19116 19117 19118 19119 19120 19121
          19122 19123 19124 19125 19126 19127
          19128 19129 19130 19131 19132 19133
          19134 19135 19136 19137 19138 19139
          19140 19141 19142 19143 19144 19145
          19146 19147 19148 19149 19150 19151
          19152 19153 19154 19155 19156 19157
          19158 19159 19160 19161 19162 19163
          19164 19165 19166 19167 19168 19169
          19170 19171 19172 19173 19174 19175
          19176 19177 19178 19179 19180 19181
          19182 19183 19184 19185 19186 19187
          19188 19189 19190 19191 19192 19193
          19194 19195 19196 19197 19198 19199
          19200 19201 19202 19203 19204 19205
          19206 19207 19208 19209 19210 19211
          19212 19213 19214 19215 19216 19217
          19218 19219 19220 19221 19222 19223
          19224 19225 19226 19227 19228 19229
          19230 19231 19232 19233 19234 19235
          19236 19237 19238 19239 19240 19241
          19242 19243 19244 19245 19246 19247
          19248 19249 19250 19251 19252 19253
          19254 19255 19256 19257 19258 19259
          19260 19261 19262 19263 19264 19265
          19266 19267 19268 19269 19270 19271
          19272 19273 19274 19275 19276 19277
          19278 19279 19280 19281 19282 19283
          19284 19285 19286 19287 19288 19289
          19290 19291 19292 19293 19294 19295
          19296 19297 19298 19299 19300 19301
          19302 19303 19304 19305 19306 19307
          19308 19309 19310 19311 19312 19313
          19314 19315 19316 19317 19318 19319
          19320 19321 19322 19323 19324 19325
          19326 19327 19328 19329 19330 19331
          19332 19333 19334 19335 19336 19337
          19338 19339 19340 19341 19342 19343
          19344 19345 19346 19347 19348 19349
          19350 19351 19352 19353 19354 19355
          19356 19357 19358 19359 19360 19361
          19362 19363 19364 19365 19366 19367
          19368 19369 19370 19371 19372 19373
          19374 19375 19376 19377 19378 19379
          19380 19381 19382 19383 19384 19385
          19386 19387 19388 19389 19390 19391
          19392 19393 19394 19395 19396 19397
          19398 19399 19400 19401 19402 19403
          19404 19405 19406 19407 19408 19409
          19410 19411 19412 19413 19414 19415
          19416 19417 19418 19419 19420 19421
          19422 19423 19424 19425 19426 19427
          19428 19429 19430 19431 19432 19433
          19434 19435 19436 19437 19438 19439
          19440 19441 19442 19443 19444 19445
          19446 19447 19448 19449 19450 19451
          19452 19453 19454 19455 19456 19457
          19458 19459 19460 19461 19462 19463
          19464 19465 19466 19467 19468 19469
          19470 19471 19472 19473 19474 19475
          19476 19477 19478 19479 19480 19481
          19482 19483 19484 19485 19486 19487
          19488 19489 19490 19491 19492 19493
          19494 19495 19496 19497 19498 19499
          19500 19501 19502 19503 19504 19505
          19506 19507 19508 19509 19510 19511
          19512 19513 19514 19515 19516 19517
          19518 19519 19520 19521 19522 19523
          19524 19525 19526 19527 19528 19529
          19530 19531 19532 19533 19534 19535
          19536 19537 19538 19539 19540 19541
          19542 19543 19544 19545 19546 19547
          19548 19549 19550 19551 19552 19553
          19554 19555 19556 19557 19558 19559
          19560 19561 19562 19563 19564 19565
          19566 19567 19568 19569 19570 19571
          19572 19573 19574 19575 19576 19577
          19578 19579 19580 19581 19582 19583
          19584 19585 19586 19587 19588 19589
          19590 19591 19592 19593 19594 19595
          19596 19597 19598 19599 19600 19601
          19602 19603 19604 19605 19606 19607
          19608 19609 19610 19611 19612 19613
          19614 19615 19616 19617 19618 19619
          19620 19621 19622 19623 19624 19625
          19626 19627 19628 19629 19630 19631
          19632 19633 19634 19635 19636 19637
          19638 19639 19640 19641 19642 19643
          19644 19645 19646 19647 19648 19649
          19650 19651 19652 19653 19654 19655
          19656 19657 19658 19659 19660 19661
          19662 19663 19664 19665 19666 19667
          19668 19669 19670 19671 19672 19673
          19674 19675 19676 19677 19678 19679
          19680 19681 19682 19683 19684 19685
          19686 19687 19688 19689 19690 19691
          19692 19693 19694 19695 19696 19697
          19698 19699 19700 19701 19702 19703
          19704 19705 19706 19707 19708 19709
          19710 19711 19712 19713 19714 19715
          19716 19717 19718 19719 19720 19721
          19722 19723 19724 19725 19726 19727
          19728 19729 19730 19731 19732 19733
          19734 19735 19736 19737 19738 19739
          19740 19741 19742 19743 19744 19745
          19746 19747 19748 19749 19750 19751
          19752 19753 19754 19755 19756 19757
          19758 19759 19760 19761 19762 19763
          19764 19765 19766 19767 19768 19769
          19770 19771 19772 19773 19774 19775
          19776 19777 19778 19779 19780 19781
          19782 19783 19784 19785 19786 19787
          19788 19789 19790 19791 19792 19793
          19794 19795 19796 19797 19798 19799
          19800 19801 19802 19803 19804 19805
          19806 19807 19808 19809 19810 19811
          19812 19813 19814 19815 19816 19817
          19818 19819 19820 19821 19822 19823
          19824 19825 19826 19827 19828 19829
          19830 19831 19832 19833 19834 19835
          19836 19837 19838 19839 19840 19841
          19842 19843 19844 19845 19846 19847
          19848 19849 19850 19851 19852 19853
          19854 19855 19856 19857 19858 19859
          19860 19861 19862 19863 19864 19865
          19866 19867 19868 19869 19870 19871
          19872 19873 19874 19875 19876 19877
          19878 19879 19880 19881 19882 19883
          19884 19885 19886 19887 19888 19889
          19890 19891 19892 19893 19894 19895
          19896 19897 19898 19899 19900 19901
          19902 19903 19904 19905 19906 19907
          19908 19909 19910 19911 19912 19913
          19914 19915 19916 19917 19918 19919
          19920 19921 19922 19923 19924 19925
          19926 19927 19928 19929 19930 19931
          19932 19933 19934 19935 19936 19937
          19938 19939 19940 19941 19942 19943
          19944 19945 19946 19947 19948 19949
          19950 19951 19952 19953 19954 19955
          19956 19957 19958 19959 19960 19961
          19962 19963 19964 19965 19966 19967
          19968 19969 19970 19971 19972 19973
          19974 19975 19976 19977 19978 19979
          19980 19981 19982 19983 19984 19985
          19986 19987 19988 19989 19990 19991
          19992 19993 19994 19995 19996 19997
          19998 19999 20000 20001 20002 20003
          20004 20005 20006 20007 20008 20009
          20010 20011 20012 20013 20014 20015
          20016 20017 20018 20019 20020 20021
          20022 20023 20024 20025 20026 20027
          20028 20029 20030 20031 20032 20033
          20034 20035 20036 20037 20038 20039
          20040 20041 20042 20043 20044 20045
          20046 20047 20048 20049 20050 20051
          20052 20053 20054 20055 20056 20057
          20058 20059 20060 20061 20062 20063
          20064 20065 20066 20067 20068 20069
          20070 20071 20072 20073 20074 20075
          20076 20077 20078 20079 20080 20081
          20082 20083 20084 20085 20086 20087
          20088 20089 20090 20091 20092 20093
          20094 20095 20096 20097 20098 20099
          20100 20101 20102 20103 20104 20105
          20106 20107 20108 20109 20110 20111
          20112 20113 20114 20115 20116 20117
          20118 20119 20120 20121 20122 20123
          20124 20125 20126 20127 20128 20129
          20130 20131 20132 20133 20134 20135
          20136 20137 20138 20139 20140 20141
          20142 20143 20144 20145 20146 20147
          20148 20149 20150 20151 20152 20153
          20154 20155 20156 20157 20158 20159
          20160 20161 20162 20163 20164 20165
          20166 20167 20168 20169 20170 20171
          20172 20173 20174 20175 20176 20177
          20178 20179 20180 20181 20182 20183
          20184 20185 20186 20187 20188 20189
          20190 20191 20192 20193 20194 20195
          20196 20197 20198 20199 20200 20201
          20202 20203 20204 20205 20206 20207
          20208 20209 20210 20211 20212 20213
          20214 20215 20216 20217 20218 20219
          20220 20221 20222 20223 20224 20225
          20226 20227 20228 20229 20230 20231
          20232 20233 20234 20235 20236 20237
          20238 20239 20240 20241 20242 20243
          20244 20245 20246 20247 20248 20249
          20250 20251 20252 20253 20254 20255
          20256 20257 20258 20259 20260 20261
          20262 20263 20264 20265 20266 20267
          20268 20269 20270 20271 20272 20273
          20274 20275 20276 20277 20278 20279
          20280 20281 20282 20283 20284 20285
          20286 20287 20288 20289 20290 20291
          20292 20293 20294 20295 20296 20297
          20298 20299 20300 20301 20302 20303
          20304 20305 20306 20307 20308 20309
          20310 20311 20312 20313 20314 20315
          20316 20317 20318 20319 20320 20321
          20322 20323 20324 20325 20326 20327
          20328 20329 20330 20331 20332 20333
          20334 20335 20336 20337 20338 20339
          20340 20341 20342 20343 20344 20345
          20346 20347 20348 20349 20350 20351
          20352 20353 20354 20355 20356 20357
          20358 20359 20360 20361 20362 20363
          20364 20365 20366 20367 20368 20369
          20370 20371 20372 20373 20374 20375
          20376 20377 20378 20379 20380 20381
          20382 20383 20384 20385 20386 20387
          20388 20389 20390 20391 20392 20393
          20394 20395 20396 20397 20398 20399
          20400 20401 20402 20403 20404 20405
          20406 20407 20408 20409 20410 20411
          20412 20413 20414 20415 20416 20417
          20418 20419 20420 20421 20422 20423
          20424 20425 20426 20427 20428 20429
          20430 20431 20432 20433 20434 20435
          20436 20437 20438 20439 20440 20441
          20442 20443 20444 20445 20446 20447
          20448 20449 20450 20451 20452 20453
          20454 20455 20456 20457 20458 20459
          20460 20461 20462 20463 20464 20465
          20466 20467 20468 20469 20470 20471
          20472 20473 20474 20475 20476 20477
          20478 20479 20480 20481 20482 20483
          20484 20485 20486 20487 20488 20489
          20490 20491 20492 20493 20494 20495
          20496 20497 20498 20499 20500 20501
          20502 20503 20504 20505 20506 20507
          20508 20509 20510 20511 20512 20513
          20514 20515 20516 20517 20518 20519
          20520 20521 20522 20523 20524 20525
          20526 20527 20528 20529 20530 20531
          20532 20533 20534 20535 20536 20537
          20538 20539 20540 20541 20542 20543
          20544 20545 20546 20547 20548 20549
          20550 20551 20552 20553 20554 20555
          20556 20557 20558 20559 20560 20561
          20562 20563 20564 20565 20566 20567
          20568 20569 20570 20571 20572 20573
          20574 20575 20576 20577 20578 20579
          20580 20581 20582 20583 20584 20585
          20586 20587 20588 20589 20590 20591
          20592 20593 20594 20595 20596 20597
          20598 20599 20600 20601 20602 20603
          20604 20605 20606 20607 20608 20609
          20610 20611 20612 20613 20614 20615
          20616 20617 20618 20619 20620 20621
          20622 20623 20624 20625 20626 20627
          20628 20629 20630 20631 20632 20633
          20634 20635 20636 20637 20638 20639
          20640 20641 20642 20643 20644 20645
          20646 20647 20648 20649 20650 20651
          20652 20653 20654 20655 20656 20657
          20658 20659 20660 20661 20662 20663
          20664 20665 20666 20667 20668 20669
          20670 20671 20672 20673 20674 20675
          20676 20677 20678 20679 20680 20681
          20682 20683 20684 20685 20686 20687
          20688 20689 20690 20691 20692 20693
          20694 20695 20696 20697 20698 20699
          20700 20701 20702 20703 20704 20705
          20706 20707 20708 20709 20710 20711
          20712 20713 20714 20715 20716 20717
          20718 20719 20720 20721 20722 20723
          20724 20725 20726 20727 20728 20729
          20730 20731 20732 20733 20734 20735
          20736 20737 20738 20739 20740 20741
          20742 20743 20744 20745 20746 20747
          20748 20749 20750 20751 20752 20753
          20754 20755 20756 20757 20758 20759
          20760 20761 20762 20763 20764 20765
          20766 20767 20768 20769 20770 20771
          20772 20773 20774 20775 20776 20777
          20778 20779 20780 20781 20782 20783
          20784 20785 20786 20787 20788 20789
          20790 20791 20792 20793 20794 20795
          20796 20797 20798 20799 20800 20801
          20802 20803 20804 20805 20806 20807
          20808 20809 20810 20811 20812 20813
          20814 20815 20816 20817 20818 20819
          20820 20821 20822 20823 20824 20825
          20826 20827 20828 20829 20830 20831
          20832 20833 20834 20835 20836 20837
          20838 20839 20840 20841 20842 20843
          20844 20845 20846 20847 20848 20849
          20850 20851 20852 20853 20854 20855
          20856 20857 20858 20859 20860 20861
          20862 20863 20864 20865 20866 20867
          20868 20869 20870 20871 20872 20873
          20874 20875 20876 20877 20878 20879
          20880 20881 20882 20883 20884 20885
          20886 20887 20888 20889 20890 20891
          20892 20893 20894 20895 20896 20897
          20898 20899 20900 20901 20902 20903
          20904 20905 20906 20907 20908 20909
          20910 20911 20912 20913 20914 20915
          20916 20917 20918 20919 20920 20921
          20922 20923 20924 20925 20926 20927
          20928 20929 20930 20931 20932 20933
          20934 20935 20936 20937 20938 20939
          20940 20941 20942 20943 20944 20945
          20946 20947 20948 20949 20950 20951
          20952 20953 20954 20955 20956 20957
          20958 20959 20960 20961 20962 20963
          20964 20965 20966 20967 20968 20969
          20970 20971 20972 20973 20974 20975
          20976 20977 20978 20979 20980 20981
          20982 20983 20984 20985 20986 20987
          20988 20989 20990 20991 20992 20993
          20994 20995 20996 20997 20998 20999
          21000 21001 21002 21003 21004 21005
          21006 21007 21008 21009 21010 21011
          21012 21013 21014 21015 21016 21017
          21018 21019 21020 21021 21022 21023
          21024 21025 21026 21027 21028 21029
          21030 21031 21032 21033 21034 21035
          21036 21037 21038 21039 21040 21041
          21042 21043 21044 21045 21046 21047
          21048 21049 21050 21051 21052 21053
          21054 21055 21056 21057 21058 21059
          21060 21061 21062 21063 21064 21065
          21066 21067 21068 21069 21070 21071
          21072 21073 21074 21075 21076 21077
          21078 21079 21080 21081 21082 21083
          21084 21085 21086 21087 21088 21089
          21090 21091 21092 21093 21094 21095
          21096 21097 21098 21099 21100 21101
          21102 21103 21104 21105 21106 21107
          21108 21109 21110 21111 21112 21113
          21114 21115 21116 21117 21118 21119
          21120 21121 21122 21123 21124 21125
          21126 21127 21128 21129 21130 21131
          21132 21133 21134 21135 21136 21137
          21138 21139 21140 21141 21142 21143
          21144 21145 21146 21147 21148 21149
          21150 21151 21152 21153 21154 21155
          21156 21157 21158 21159 21160 21161
          21162 21163 21164 21165 21166 21167
          21168 21169 21170 21171 21172 21173
          21174 21175 21176 21177 21178 21179
          21180 21181 21182 21183 21184 21185
          21186 21187 21188 21189 21190 21191
          21192 21193 21194 21195 21196 21197
          21198 21199 21200 21201 21202 21203
          21204 21205 21206 21207 21208 21209
          21210 21211 21212 21213 21214 21215
          21216 21217 21218 21219 21220 21221
          21222 21223 21224 21225 21226 21227
          21228 21229 21230 21231 21232 21233
          21234 21235 21236 21237 21238 21239
          21240 21241 21242 21243 21244 21245
          21246 21247 21248 21249 21250 21251
          21252 21253 21254 21255 21256 21257
          21258 21259 21260 21261 21262 21263
          21264 21265 21266 21267 21268 21269
          21270 21271 21272 21273 21274 21275
          21276 21277 21278 21279 21280 21281
          21282 21283 21284 21285 21286 21287
          21288 21289 21290 21291 21292 21293
          21294 21295 21296 21297 21298 21299
          21300 21301 21302 21303 21304 21305
          21306 21307 21308 21309 21310 21311
          21312 21313 21314 21315 21316 21317
          21318 21319 21320 21321 21322 21323
          21324 21325 21326 21327 21328 21329
          21330 21331 21332 21333 21334 21335
          21336 21337 21338 21339 21340 21341
          21342 21343 21344 21345 21346 21347
          21348 21349 21350 21351 21352 21353
          21354 21355 21356 21357 21358 21359
          21360 21361 21362 21363 21364 21365
          21366 21367 21368 21369 21370 21371
          21372 21373 21374 21375 21376 21377
          21378 21379 21380 21381 21382 21383
          21384 21385 21386 21387 21388 21389
          21390 21391 21392 21393 21394 21395
          21396 21397 21398 21399 21400 21401
          21402 21403 21404 21405 21406 21407
          21408 21409 21410 21411 21412 21413
          21414 21415 21416 21417 21418 21419
          21420 21421 21422 21423 21424 21425
          21426 21427 21428 21429 21430 21431
          21432 21433 21434 21435 21436 21437
          21438 21439 21440 21441 21442 21443
          21444 21445 21446 21447 21448 21449
          21450 21451 21452 21453 21454 21455
          21456 21457 21458 21459 21460 21461
          21462 21463 21464 21465 21466 21467
          21468 21469 21470 21471 21472 21473
          21474 21475 21476 21477 21478 21479
          21480 21481 21482 21483 21484 21485
          21486 21487 21488 21489 21490 21491
          21492 21493 21494 21495 21496 21497
          21498 21499 21500 21501 21502 21503
          21504 21505 21506 21507 21508 21509
          21510 21511 21512 21513 21514 21515
          21516 21517 21518 21519 21520 21521
          21522 21523 21524 21525 21526 21527
          21528 21529 21530 21531 21532 21533
          21534 21535 21536 21537 21538 21539
          21540 21541 21542 21543 21544 21545
          21546 21547 21548 21549 21550 21551
          21552 21553 21554 21555 21556 21557
          21558 21559 21560 21561 21562 21563
          21564 21565 21566 21567 21568 21569
          21570 21571 21572 21573 21574 21575
          21576 21577 21578 21579 21580 21581
          21582 21583 21584 21585 21586 21587
          21588 21589 21590 21591 21592 21593
          21594 21595 21596 21597 21598 21599
          21600 21601 21602 21603 21604 21605
          21606 21607 21608 21609 21610 21611
          21612 21613 21614 21615 21616 21617
          21618 21619 21620 21621 21622 21623
          21624 21625 21626 21627 21628 21629
          21630 21631 21632 21633 21634 21635
          21636 21637 21638 21639 21640 21641
          21642 21643 21644 21645 21646 21647
          21648 21649 21650 21651 21652 21653
          21654 21655 21656 21657 21658 21659
          21660 21661 21662 21663 21664 21665
          21666 21667 21668 21669 21670 21671
          21672 21673 21674 21675 21676 21677
          21678 21679 21680 21681 21682 21683
          21684 21685 21686 21687 21688 21689
          21690 21691 21692 21693 21694 21695
          21696 21697 21698 21699 21700 21701
          21702 21703 21704 21705 21706 21707
          21708 21709 21710 21711 21712 21713
          21714 21715 21716 21717 21718 21719
          21720 21721 21722 21723 21724 21725
          21726 21727 21728 21729 21730 21731
          21732 21733 21734 21735 21736 21737
          21738 21739 21740 21741 21742 21743
          21744 21745 21746 21747 21748 21749
          21750 21751 21752 21753 21754 21755
          21756 21757 21758 21759 21760 21761
          21762 21763 21764 21765 21766 21767
          21768 21769 21770 21771 21772 21773
          21774 21775 21776 21777 21778 21779
          21780 21781 21782 21783 21784 21785
          21786 21787 21788 21789 21790 21791
          21792 21793 21794 21795 21796 21797
          21798 21799 21800 21801 21802 21803
          21804 21805 21806 21807 21808 21809
          21810 21811 21812 21813 21814 21815
          21816 21817 21818 21819 21820 21821
          21822 21823 21824 21825 21826 21827
          21828 21829 21830 21831 21832 21833
          21834 21835 21836 21837 21838 21839
          21840 21841 21842 21843 21844 21845
          21846 21847 21848 21849 21850 21851
          21852 21853 21854 21855 21856 21857
          21858 21859 21860 21861 21862 21863
          21864 21865 21866 21867
        </DataArray>
        <DataArray type="Int64" Name="offsets" format="ascii" RangeMin="4" RangeMax="21868">
          4 8 12 16 20 24
          28 32 36 40 44 48
          52 56 60 64 68 72
          76 80 84 88 92 96
          100 104 108 112 116 120
          124 128 132 136 140 144
          148 152 156 160 164 168
          172 176 180 184 188 192
          196 200 204 208 212 216
          220 224 228 232 236 240
          244 248 252 256 260 264
          268 272 276 280 284 288
          292 296 300 304 308 312
          316 320 324 328 332 336
          340 344 348 352 356 360
          364 368 372 376 380 384
          388 392 396 400 404 408
          412 416 420 424 428 432
          436 440 444 448 452 456
          460 464 468 472 476 480
          484 488 492 496 500 504
          508 512 516 520 524 528
          532 536 540 544 548 552
          556 560 564 568 572 576
          580 584 588 592 596 600
          604 608 612 616 620 624
          628 632 636 640 644 648
          652 656 660 664 668 672
          676 680 684 688 692 696
          700 704 708 712 716 720
          724 728 732 736 740 744
          748 752 756 760 764 768
          772 776 780 784 788 792
          796 800 804 808 812 816
          820 824 828 832 836 840
          844 848 852 856 860 864
          868 872 876 880 884 888
          892 896 900 904 908 912
          916 920 924 928 932 936
          940 944 948 952 956 960
          964 968 972 976 980 984
          988 992 996 1000 1004 1008
          1012 1016 1020 1024 1028 1032
          1036 1040 1044 1048 1052 1056
          1060 1064 1068 1072 1076 1080
          1084 1088 1092 1096 1100 1104
          1108 1112 1116 1120 1124 1128
          1132 1136 1140 1144 1148 1152
          1156 1160 1164 1168 1172 1176
          1180 1184 1188 1192 1196 1200
          1204 1208 1212 1216 1220 1224
          1228 1232 1236 1240 1244 1248
          1252 1256 1260 1264 1268 1272
          1276 1280 1284 1288 1292 1296
          1300 1304 1308 1312 1316 1320
          1324 1328 1332 1336 1340 1344
          1348 1352 1356 1360 1364 1368
          1372 1376 1380 1384 1388 1392
          1396 1400 1404 1408 1412 1416
          1420 1424 1428 1432 1436 1440
          1444 1448 1452 1456 1460 1464
          1468 1472 1476 1480 1484 1488
          1492 1496 1500 1504 1508 1512
          1516 1520 1524 1528 1532 1536
          1540 1544 1548 1552 1556 1560
          1564 1568 1572 1576 1580 1584
          1588 1592 1596 1600 1604 1608
          1612 1616 1620 1624 1628 1632
          1636 1640 1644 1648 1652 1656
          1660 1664 1668 1672 1676 1680
          1684 1688 1692 1696 1700 1704
          1708 1712 1716 1720 1724 1728
          1732 1736 1740 1744 1748 1752
          1756 1760 1764 1768 1772 1776
          1780 1784 1788 1792 1796 1800
          1804 1808 1812 1816 1820 1824
          1828 1832 1836 1840 1844 1848
          1852 1856 1860 1864 1868 1872
          1876 1880 1884 1888 1892 1896
          1900 1904 1908 1912 1916 1920
          1924 1928 1932 1936 1940 1944
          1948 1952 1956 1960 1964 1968
          1972 1976 1980 1984 1988 1992
          1996 2000 2004 2008 2012 2016
          2020 2024 2028 2032 2036 2040
          2044 2048 2052 2056 2060 2064
          2068 2072 2076 2080 2084 2088
          2092 2096 2100 2104 2108 2112
          2116 2120 2124 2128 2132 2136
          2140 2144 2148 2152 2156 2160
          2164 2168 2172 2176 2180 2184
          2188 2192 2196 2200 2204 2208
          2212 2216 2220 2224 2228 2232
          2236 2240 2244 2248 2252 2256
          2260 2264 2268 2272 2276 2280
          2284 2288 2292 2296 2300 2304
          2308 2312 2316 2320 2324 2328
          2332 2336 2340 2344 2348 2352
          2356 2360 2364 2368 2372 2376
          2380 2384 2388 2392 2396 2400
          2404 2408 2412 2416 2420 2424
          2428 2432 2436 2440 2444 2448
          2452 2456 2460 2464 2468 2472
          2476 2480 2484 2488 2492 2496
          2500 2504 2508 2512 2516 2520
          2524 2528 2532 2536 2540 2544
          2548 2552 2556 2560 2564 2568
          2572 2576 2580 2584 2588 2592
          2596 2600 2604 2608 2612 2616
          2620 2624 2628 2632 2636 2640
          2644 2648 2652 2656 2660 2664
          2668 2672 2676 2680 2684 2688
          2692 2696 2700 2704 2708 2712
          2716 2720 2724 2728 2732 2736
          2740 2744 2748 2752 2756 2760
          2764 2768 2772 2776 2780 2784
          2788 2792 2796 2800 2804 2808
          2812 2816 2820 2824 2828 2832
          2836 2840 2844 2848 2852 2856
          2860 2864 2868 2872 2876 2880
          2884 2888 2892 2896 2900 2904
          2908 2912 2916 2920 2924 2928
          2932 2936 2940 2944 2948 2952
          2956 2960 2964 2968 2972 2976
          2980 2984 2988 2992 2996 3000
          3004 3008 3012 3016 3020 3024
          3028 3032 3036 3040 3044 3048
          3052 3056 3060 3064 3068 3072
          3076 3080 3084 3088 3092 3096
          3100 3104 3108 3112 3116 3120
          3124 3128 3132 3136 3140 3144
          3148 3152 3156 3160 3164 3168
          3172 3176 3180 3184 3188 3192
          3196 3200 3204 3208 3212 3216
          3220 3224 3228 3232 3236 3240
          3244 3248 3252 3256 3260 3264
          3268 3272 3276 3280 3284 3288
          3292 3296 3300 3304 3308 3312
          3316 3320 3324 3328 3332 3336
          3340 3344 3348 3352 3356 3360
          3364 3368 3372 3376 3380 3384
          3388 3392 3396 3400 3404 3408
          3412 3416 3420 3424 3428 3432
          3436 3440 3444 3448 3452 3456
          3460 3464 3468 3472 3476 3480
          3484 3488 3492 3496 3500 3504
          3508 3512 3516 3520 3524 3528
          3532 3536 3540 3544 3548 3552
          3556 3560 3564 3568 3572 3576
          3580 3584 3588 3592 3596 3600
          3604 3608 3612 3616 3620 3624
          3628 3632 3636 3640 3644 3648
          3652 3656 3660 3664 3668 3672
          3676 3680 3684 3688 3692 3696
          3700 3704 3708 3712 3716 3720
          3724 3728 3732 3736 3740 3744
          3748 3752 3756 3760 3764 3768
          3772 3776 3780 3784 3788 3792
          3796 3800 3804 3808 3812 3816
          3820 3824 3828 3832 3836 3840
          3844 3848 3852 3856 3860 3864
          3868 3872 3876 3880 3884 3888
          3892 3896 3900 3904 3908 3912
          3916 3920 3924 3928 3932 3936
          3940 3944 3948 3952 3956 3960
          3964 3968 3972 3976 3980 3984
          3988 3992 3996 4000 4004 4008
          4012 4016 4020 4024 4028 4032
          4036 4040 4044 4048 4052 4056
          4060 4064 4068 4072 4076 4080
          4084 4088 4092 4096 4100 4104
          4108 4112 4116 4120 4124 4128
          4132 4136 4140 4144 4148 4152
          4156 4160 4164 4168 4172 4176
          4180 4184 4188 4192 4196 4200
          4204 4208 4212 4216 4220 4224
          4228 4232 4236 4240 4244 4248
          4252 4256 4260 4264 4268 4272
          4276 4280 4284 4288 4292 4296
          4300 4304 4308 4312 4316 4320
          4324 4328 4332 4336 4340 4344
          4348 4352 4356 4360 4364 4368
          4372 4376 4380 4384 4388 4392
          4396 4400 4404 4408 4412 4416
          4420 4424 4428 4432 4436 4440
          4444 4448 4452 4456 4460 4464
          4468 4472 4476 4480 4484 4488
          4492 4496 4500 4504 4508 4512
          4516 4520 4524 4528 4532 4536
          4540 4544 4548 4552 4556 4560
          4564 4568 4572 4576 4580 4584
          4588 4592 4596 4600 4604 4608
          4612 4616 4620 4624 4628 4632
          4636 4640 4644 4648 4652 4656
          4660 4664 4668 4672 4676 4680
          4684 4688 4692 4696 4700 4704
          4708 4712 4716 4720 4724 4728
          4732 4736 4740 4744 4748 4752
          4756 4760 4764 4768 4772 4776
          4780 4784 4788 4792 4796 4800
          4804 4808 4812 4816 4820 4824
          4828 4832 4836 4840 4844 4848
          4852 4856 4860 4864 4868 4872
          4876 4880 4884 4888 4892 4896
          4900 4904 4908 4912 4916 4920
          4924 4928 4932 4936 4940 4944
          4948 4952 4956 4960 4964 4968
          4972 4976 4980 4984 4988 4992
          4996 5000 5004 5008 5012 5016
          5020 5024 5028 5032 5036 5040
          5044 5048 5052 5056 5060 5064
          5068 5072 5076 5080 5084 5088
          5092 5096 5100 5104 5108 5112
          5116 5120 5124 5128 5132 5136
          5140 5144 5148 5152 5156 5160
          5164 5168 5172 5176 5180 5184
          5188 5192 5196 5200 5204 5208
          5212 5216 5220 5224 5228 5232
          5236 5240 5244 5248 5252 5256
          5260 5264 5268 5272 5276 5280
          5284 5288 5292 5296 5300 5304
          5308 5312 5316 5320 5324 5328
          5332 5336 5340 5344 5348 5352
          5356 5360 5364 5368 5372 5376
          5380 5384 5388 5392 5396 5400
          5404 5408 5412 5416 5420 5424
          5428 5432 5436 5440 5444 5448
          5452 5456 5460 5464 5468 5472
          5476 5480 5484 5488 5492 5496
          5500 5504 5508 5512 5516 5520
          5524 5528 5532 5536 5540 5544
          5548 5552 5556 5560 5564 5568
          5572 5576 5580 5584 5588 5592
          5596 5600 5604 5608 5612 5616
          5620 5624 5628 5632 5636 5640
          5644 5648 5652 5656 5660 5664
          5668 5672 5676 5680 5684 5688
          5692 5696 5700 5704 5708 5712
          5716 5720 5724 5728 5732 5736
          5740 5744 5748 5752 5756 5760
          5764 5768 5772 5776 5780 5784
          5788 5792 5796 5800 5804 5808
          5812 5816 5820 5824 5828 5832
          5836 5840 5844 5848 5852 5856
          5860 5864 5868 5872 5876 5880
          5884 5888 5892 5896 5900 5904
          5908 5912 5916 5920 5924 5928
          5932 5936 5940 5944 5948 5952
          5956 5960 5964 5968 5972 5976
          5980 5984 5988 5992 5996 6000
          6004 6008 6012 6016 6020 6024
          6028 6032 6036 6040 6044 6048
          6052 6056 6060 6064 6068 6072
          6076 6080 6084 6088 6092 6096
          6100 6104 6108 6112 6116 6120
          6124 6128 6132 6136 6140 6144
          6148 6152 6156 6160 6164 6168
          6172 6176 6180 6184 6188 6192
          6196 6200 6204 6208 6212 6216
          6220 6224 6228 6232 6236 6240
          6244 6248 6252 6256 6260 6264
          6268 6272 6276 6280 6284 6288
          6292 6296 6300 6304 6308 6312
          6316 6320 6324 6328 6332 6336
          6340 6344 6348 6352 6356 6360
          6364 6368 6372 6376 6380 6384
          6388 6392 6396 6400 6404 6408
          6412 6416 6420 6424 6428 6432
          6436 6440 6444 6448 6452 6456
          6460 6464 6468 6472 6476 6480
          6484 6488 6492 6496 6500 6504
          6508 6512 6516 6520 6524 6528
          6532 6536 6540 6544 6548 6552
          6556 6560 6564 6568 6572 6576
          6580 6584 6588 6592 6596 6600
          6604 6608 6612 6616 6620 6624
          6628 6632 6636 6640 6644 6648
          6652 6656 6660 6664 6668 6672
          6676 6680 6684 6688 6692 6696
          6700 6704 6708 6712 6716 6720
          6724 6728 6732 6736 6740 6744
          6748 6752 6756 6760 6764 6768
          6772 6776 6780 6784 6788 6792
          6796 6800 6804 6808 6812 6816
          6820 6824 6828 6832 6836 6840
          6844 6848 6852 6856 6860 6864
          6868 6872 6876 6880 6884 6888
          6892 6896 6900 6904 6908 6912
          6916 6920 6924 6928 6932 6936
          6940 6944 6948 6952 6956 6960
          6964 6968 6972 6976 6980 6984
          6988 6992 6996 7000 7004 7008
          7012 7016 7020 7024 7028 7032
          7036 7040 7044 7048 7052 7056
          7060 7064 7068 7072 7076 7080
          7084 7088 7092 7096 7100 7104
          7108 7112 7116 7120 7124 7128
          7132 7136 7140 7144 7148 7152
          7156 7160 7164 7168 7172 7176
          7180 7184 7188 7192 7196 7200
          7204 7208 7212 7216 7220 7224
          7228 7232 7236 7240 7244 7248
          7252 7256 7260 7264 7268 7272
          7276 7280 7284 7288 7292 7296
          7300 7304 7308 7312 7316 7320
          7324 7328 7332 7336 7340 7344
          7348 7352 7356 7360 7364 7368
          7372 7376 7380 7384 7388 7392
          7396 7400 7404 7408 7412 7416
          7420 7424 7428 7432 7436 7440
          7444 7448 7452 7456 7460 7464
          7468 7472 7476 7480 7484 7488
          7492 7496 7500 7504 7508 7512
          7516 7520 7524 7528 7532 7536
          7540 7544 7548 7552 7556 7560
          7564 7568 7572 7576 7580 7584
          7588 7592 7596 7600 7604 7608
          7612 7616 7620 7624 7628 7632
          7636 7640 7644 7648 7652 7656
          7660 7664 7668 7672 7676 7680
          7684 7688 7692 7696 7700 7704
          7708 7712 7716 7720 7724 7728
          7732 7736 7740 7744 7748 7752
          7756 7760 7764 7768 7772 7776
          7780 7784 7788 7792 7796 7800
          7804 7808 7812 7816 7820 7824
          7828 7832 7836 7840 7844 7848
          7852 7856 7860 7864 7868 7872
          7876 7880 7884 7888 7892 7896
          7900 7904 7908 7912 7916 7920
          7924 7928 7932 7936 7940 7944
          7948 7952 7956 7960 7964 7968
          7972 7976 7980 7984 7988 7992
          7996 8000 8004 8008 8012 8016
          8020 8024 8028 8032 8036 8040
          8044 8048 8052 8056 8060 8064
          8068 8072 8076 8080 8084 8088
          8092 8096 8100 8104 8108 8112
          8116 8120 8124 8128 8132 8136
          8140 8144 8148 8152 8156 8160
          8164 8168 8172 8176 8180 8184
          8188 8192 8196 8200 8204 8208
          8212 8216 8220 8224 8228 8232
          8236 8240 8244 8248 8252 8256
          8260 8264 8268 8272 8276 8280
          8284 8288 8292 8296 8300 8304
          8308 8312 8316 8320 8324 8328
          8332 8336 8340 8344 8348 8352
          8356 8360 8364 8368 8372 8376
          8380 8384 8388 8392 8396 8400
          8404 8408 8412 8416 8420 8424
          8428 8432 8436 8440 8444 8448
          8452 8456 8460 8464 8468 8472
          8476 8480 8484 8488 8492 8496
          8500 8504 8508 8512 8516 8520
          8524 8528 8532 8536 8540 8544
          8548 8552 8556 8560 8564 8568
          8572 8576 8580 8584 8588 8592
          8596 8600 8604 8608 8612 8616
          8620 8624 8628 8632 8636 8640
          8644 8648 8652 8656 8660 8664
          8668 8672 8676 8680 8684 8688
          8692 8696 8700 8704 8708 8712
          8716 8720 8724 8728 8732 8736
          8740 8744 8748 8752 8756 8760
          8764 8768 8772 8776 8780 8784
          8788 8792 8796 8800 8804 8808
          8812 8816 8820 8824 8828 8832
          8836 8840 8844 8848 8852 8856
          8860 8864 8868 8872 8876 8880
          8884 8888 8892 8896 8900 8904
          8908 8912 8916 8920 8924 8928
          8932 8936 8940 8944 8948 8952
          8956 8960 8964 8968 8972 8976
          8980 8984 8988 8992 8996 9000
          9004 9008 9012 9016 9020 9024
          9028 9032 9036 9040 9044 9048
          9052 9056 9060 9064 9068 9072
          9076 9080 9084 9088 9092 9096
          9100 9104 9108 9112 9116 9120
          9124 9128 9132 9136 9140 9144
          9148 9152 9156 9160 9164 9168
          9172 9176 9180 9184 9188 9192
          9196 9200 9204 9208 9212 9216
          9220 9224 9228 9232 9236 9240
          9244 9248 9252 9256 9260 9264
          9268 9272 9276 9280 9284 9288
          9292 9296 9300 9304 9308 9312
          9316 9320 9324 9328 9332 9336
          9340 9344 9348 9352 9356 9360
          9364 9368 9372 9376 9380 9384
          9388 9392 9396 9400 9404 9408
          9412 9416 9420 9424 9428 9432
          9436 9440 9444 9448 9452 9456
          9460 9464 9468 9472 9476 9480
          9484 9488 9492 9496 9500 9504
          9508 9512 9516 9520 9524 9528
          9532 9536 9540 9544 9548 9552
          9556 9560 9564 9568 9572 9576
          9580 9584 9588 9592 9596 9600
          9604 9608 9612 9616 9620 9624
          9628 9632 9636 9640 9644 9648
          9652 9656 9660 9664 9668 9672
          9676 9680 9684 9688 9692 9696
          9700 9704 9708 9712 9716 9720
          9724 9728 9732 9736 9740 9744
          9748 9752 9756 9760 9764 9768
          9772 9776 9780 9784 9788 9792
          9796 9800 9804 9808 9812 9816
          9820 9824 9828 9832 9836 9840
          9844 9848 9852 9856 9860 9864
          9868 9872 9876 9880 9884 9888
          9892 9896 9900 9904 9908 9912
          9916 9920 9924 9928 9932 9936
          9940 9944 9948 9952 9956 9960
          9964 9968 9972 9976 9980 9984
          9988 9992 9996 10000 10004 10008
          10012 10016 10020 10024 10028 10032
          10036 10040 10044 10048 10052 10056
          10060 10064 10068 10072 10076 10080
          10084 10088 10092 10096 10100 10104
          10108 10112 10116 10120 10124 10128
          10132 10136 10140 10144 10148 10152
          10156 10160 10164 10168 10172 10176
          10180 10184 10188 10192 10196 10200
          10204 10208 10212 10216 10220 10224
          10228 10232 10236 10240 10244 10248
          10252 10256 10260 10264 10268 10272
          10276 10280 10284 10288 10292 10296
          10300 10304 10308 10312 10316 10320
          10324 10328 10332 10336 10340 10344
          10348 10352 10356 10360 10364 10368
          10372 10376 10380 10384 10388 10392
          10396 10400 10404 10408 10412 10416
          10420 10424 10428 10432 10436 10440
          10444 10448 10452 10456 10460 10464
          10468 10472 10476 10480 10484 10488
          10492 10496 10500 10504 10508 10512
          10516 10520 10524 10528 10532 10536
          10540 10544 10548 10552 10556 10560
          10564 10568 10572 10576 10580 10584
          10588 10592 10596 10600 10604 10608
          10612 10616 10620 10624 10628 10632
          10636 10640 10644 10648 10652 10656
          10660 10664 10668 10672 10676 10680
          10684 10688 10692 10696 10700 10704
          10708 10712 10716 10720 10724 10728
          10732 10736 10740 10744 10748 10752
          10756 10760 10764 10768 10772 10776
          10780 10784 10788 10792 10796 10800
          10804 10808 10812 10816 10820 10824
          10828 10832 10836 10840 10844 10848
          10852 10856 10860 10864 10868 10872
          10876 10880 10884 10888 10892 10896
          10900 10904 10908 10912 10916 10920
          10924 10928 10932 10936 10940 10944
          10948 10952 10956 10960 10964 10968
          10972 10976 10980 10984 10988 10992
          10996 11000 11004 11008 11012 11016
          11020 11024 11028 11032 11036 11040
          11044 11048 11052 11056 11060 11064
          11068 11072 11076 11080 11084 11088
          11092 11096 11100 11104 11108 11112
          11116 11120 11124 11128 11132 11136
          11140 11144 11148 11152 11156 11160
          11164 11168 11172 11176 11180 11184
          11188 11192 11196 11200 11204 11208
          11212 11216 11220 11224 11228 11232
          11236 11240 11244 11248 11252 11256
          11260 11264 11268 11272 11276 11280
          11284 11288 11292 11296 11300 11304
          11308 11312 11316 11320 11324 11328
          11332 11336 11340 11344 11348 11352
          11356 11360 11364 11368 11372 11376
          11380 11384 11388 11392 11396 11400
          11404 11408 11412 11416 11420 11424
          11428 11432 11436 11440 11444 11448
          11452 11456 11460 11464 11468 11472
          11476 11480 11484 11488 11492 11496
          11500 11504 11508 11512 11516 11520
          11524 11528 11532 11536 11540 11544
          11548 11552 11556 11560 11564 11568
          11572 11576 11580 11584 11588 11592
          11596 11600 11604 11608 11612 11616
          11620 11624 11628 11632 11636 11640
          11644 11648 11652 11656 11660 11664
          11668 11672 11676 11680 11684 11688
          11692 11696 11700 11704 11708 11712
          11716 11720 11724 11728 11732 11736
          11740 11744 11748 11752 11756 11760
          11764 11768 11772 11776 11780 11784
          11788 11792 11796 11800 11804 11808
          11812 11816 11820 11824 11828 11832
          11836 11840 11844 11848 11852 11856
          11860 11864 11868 11872 11876 11880
          11884 11888 11892 11896 11900 11904
          11908 11912 11916 11920 11924 11928
          11932 11936 11940 11944 11948 11952
          11956 11960 11964 11968 11972 11976
          11980 11984 11988 11992 11996 12000
          12004 12008 12012 12016 12020 12024
          12028 12032 12036 12040 12044 12048
          12052 12056 12060 12064 12068 12072
          12076 12080 12084 12088 12092 12096
          12100 12104 12108 12112 12116 12120
          12124 12128 12132 12136 12140 12144
          12148 12152 12156 12160 12164 12168
          12172 12176 12180 12184 12188 12192
          12196 12200 12204 12208 12212 12216
          12220 12224 12228 12232 12236 12240
          12244 12248 12252 12256 12260 12264
          12268 12272 12276 12280 12284 12288
          12292 12296 12300 12304 12308 12312
          12316 12320 12324 12328 12332 12336
          12340 12344 12348 12352 12356 12360
          12364 12368 12372 12376 12380 12384
          12388 12392 12396 12400 12404 12408
          12412 12416 12420 12424 12428 12432
          12436 12440 12444 12448 12452 12456
          12460 12464 12468 12472 12476 12480
          12484 12488 12492 12496 12500 12504
          12508 12512 12516 12520 12524 12528
          12532 12536 12540 12544 12548 12552
          12556 12560 12564 12568 12572 12576
          12580 12584 12588 12592 12596 12600
          12604 12608 12612 12616 12620 12624
          12628 12632 12636 12640 12644 12648
          12652 12656 12660 12664 12668 12672
          12676 12680 12684 12688 12692 12696
          12700 12704 12708 12712 12716 12720
          12724 12728 12732 12736 12740 12744
          12748 12752 12756 12760 12764 12768
          12772 12776 12780 12784 12788 12792
          12796 12800 12804 12808 12812 12816
          12820 12824 12828 12832 12836 12840
          12844 12848 12852 12856 12860 12864
          12868 12872 12876 12880 12884 12888
          12892 12896 12900 12904 12908 12912
          12916 12920 12924 12928 12932 12936
          12940 12944 12948 12952 12956 12960
          12964 12968 12972 12976 12980 12984
          12988 12992 12996 13000 13004 13008
          13012 13016 13020 13024 13028 13032
          13036 13040 13044 13048 13052 13056
          13060 13064 13068 13072 13076 13080
          13084 13088 13092 13096 13100 13104
          13108 13112 13116 13120 13124 13128
          13132 13136 13140 13144 13148 13152
          13156 13160 13164 13168 13172 13176
          13180 13184 13188 13192 13196 13200
          13204 13208 13212 13216 13220 13224
          13228 13232 13236 13240 13244 13248
          13252 13256 13260 13264 13268 13272
          13276 13280 13284 13288 13292 13296
          13300 13304 13308 13312 13316 13320
          13324 13328 13332 13336 13340 13344
          13348 13352 13356 13360 13364 13368
          13372 13376 13380 13384 13388 13392
          13396 13400 13404 13408 13412 13416
          13420 13424 13428 13432 13436 13440
          13444 13448 13452 13456 13460 13464
          13468 13472 13476 13480 13484 13488
          13492 13496 13500 13504 13508 13512
          13516 13520 13524 13528 13532 13536
          13540 13544 13548 13552 13556 13560
          13564 13568 13572 13576 13580 13584
          13588 13592 13596 13600 13604 13608
          13612 13616 13620 13624 13628 13632
          13636 13640 13644 13648 13652 13656
          13660 13664 13668 13672 13676 13680
          13684 13688 13692 13696 13700 13704
          13708 13712 13716 13720 13724 13728
          13732 13736 13740 13744 13748 13752
          13756 13760 13764 13768 13772 13776
          13780 13784 13788 13792 13796 13800
          13804 13808 13812 13816 13820 13824
          13828 13832 13836 13840 13844 13848
          13852 13856 13860 13864 13868 13872
          13876 13880 13884 13888 13892 13896
          13900 13904 13908 13912 13916 13920
          13924 13928 13932 13936 13940 13944
          13948 13952 13956 13960 13964 13968
          13972 13976 13980 13984 13988 13992
          13996 14000 14004 14008 14012 14016
          14020 14024 14028 14032 14036 14040
          14044 14048 14052 14056 14060 14064
          14068 14072 14076 14080 14084 14088
          14092 14096 14100 14104 14108 14112
          14116 14120 14124 14128 14132 14136
          14140 14144 14148 14152 14156 14160
          14164 14168 14172 14176 14180 14184
          14188 14192 14196 14200 14204 14208
          14212 14216 14220 14224 14228 14232
          14236 14240 14244 14248 14252 14256
          14260 14264 14268 14272 14276 14280
          14284 14288 14292 14296 14300 14304
          14308 14312 14316 14320 14324 14328
          14332 14336 14340 14344 14348 14352
          14356 14360 14364 14368 14372 14376
          14380 14384 14388 14392 14396 14400
          14404 14408 14412 14416 14420 14424
          14428 14432 14436 14440 14444 14448
          14452 14456 14460 14464 14468 14472
          14476 14480 14484 14488 14492 14496
          14500 14504 14508 14512 14516 14520
          14524 14528 14532 14536 14540 14544
          14548 14552 14556 14560 14564 14568
          14572 14576 14580 14584 14588 14592
          14596 14600 14604 14608 14612 14616
          14620 14624 14628 14632 14636 14640
          14644 14648 14652 14656 14660 14664
          14668 14672 14676 14680 14684 14688
          14692 14696 14700 14704 14708 14712
          14716 14720 14724 14728 14732 14736
          14740 14744 14748 14752 14756 14760
          14764 14768 14772 14776 14780 14784
          14788 14792 14796 14800 14804 14808
          14812 14816 14820 14824 14828 14832
          14836 14840 14844 14848 14852 14856
          14860 14864 14868 14872 14876 14880
          14884 14888 14892 14896 14900 14904
          14908 14912 14916 14920 14924 14928
          14932 14936 14940 14944 14948 14952
          14956 14960 14964 14968 14972 14976
          14980 14984 14988 14992 14996 15000
          15004 15008 15012 15016 15020 15024
          15028 15032 15036 15040 15044 15048
          15052 15056 15060 15064 15068 15072
          15076 15080 15084 15088 15092 15096
          15100 15104 15108 15112 15116 15120
          15124 15128 15132 15136 15140 15144
          15148 15152 15156 15160 15164 15168
          15172 15176 15180 15184 15188 15192
          15196 15200 15204 15208 15212 15216
          15220 15224 15228 15232 15236 15240
          15244 15248 15252 15256 15260 15264
          15268 15272 15276 15280 15284 15288
          15292 15296 15300 15304 15308 15312
          15316 15320 15324 15328 15332 15336
          15340 15344 15348 15352 15356 15360
          15364 15368 15372 15376 15380 15384
          15388 15392 15396 15400 15404 15408
          15412 15416 15420 15424 15428 15432
          15436 15440 15444 15448 15452 15456
          15460 15464 15468 15472 15476 15480
          15484 15488 15492 15496 15500 15504
          15508 15512 15516 15520 15524 15528
          15532 15536 15540 15544 15548 15552
          15556 15560 15564 15568 15572 15576
          15580 15584 15588 15592 15596 15600
          15604 15608 15612 15616 15620 15624
          15628 15632 15636 15640 15644 15648
          15652 15656 15660 15664 15668 15672
          15676 15680 15684 15688 15692 15696
          15700 15704 15708 15712 15716 15720
          15724 15728 15732 15736 15740 15744
          15748 15752 15756 15760 15764 15768
          15772 15776 15780 15784 15788 15792
          15796 15800 15804 15808 15812 15816
          15820 15824 15828 15832 15836 15840
          15844 15848 15852 15856 15860 15864
          15868 15872 15876 15880 15884 15888
          15892 15896 15900 15904 15908 15912
          15916 15920 15924 15928 15932 15936
          15940 15944 15948 15952 15956 15960
          15964 15968 15972 15976 15980 15984
          15988 15992 15996 16000 16004 16008
          16012 16016 16020 16024 16028 16032
          16036 16040 16044 16048 16052 16056
          16060 16064 16068 16072 16076 16080
          16084 16088 16092 16096 16100 16104
          16108 16112 16116 16120 16124 16128
          16132 16136 16140 16144 16148 16152
          16156 16160 16164 16168 16172 16176
          16180 16184 16188 16192 16196 16200
          16204 16208 16212 16216 16220 16224
          16228 16232 16236 16240 16244 16248
          16252 16256 16260 16264 16268 16272
          16276 16280 16284 16288 16292 16296
          16300 16304 16308 16312 16316 16320
          16324 16328 16332 16336 16340 16344
          16348 16352 16356 16360 16364 16368
          16372 16376 16380 16384 16388 16392
          16396 16400 16404 16408 16412 16416
          16420 16424 16428 16432 16436 16440
          16444 16448 16452 16456 16460 16464
          16468 16472 16476 16480 16484 16488
          16492 16496 16500 16504 16508 16512
          16516 16520 16524 16528 16532 16536
          16540 16544 16548 16552 16556 16560
          16564 16568 16572 16576 16580 16584
          16588 16592 16596 16600 16604 16608
          16612 16616 16620 16624 16628 16632
          16636 16640 16644 16648 16652 16656
          16660 16664 16668 16672 16676 16680
          16684 16688 16692 16696 16700 16704
          16708 16712 16716 16720 16724 16728
          16732 16736 16740 16744 16748 16752
          16756 16760 16764 16768 16772 16776
          16780 16784 16788 16792 16796 16800
          16804 16808 16812 16816 16820 16824
          16828 16832 16836 16840 16844 16848
          16852 16856 16860 16864 16868 16872
          16876 16880 16884 16888 16892 16896
          16900 16904 16908 16912 16916 16920
          16924 16928 16932 16936 16940 16944
          16948 16952 16956 16960 16964 16968
          16972 16976 16980 16984 16988 16992
          16996 17000 17004 17008 17012 17016
          17020 17024 17028 17032 17036 17040
          17044 17048 17052 17056 17060 17064
          17068 17072 17076 17080 17084 17088
          17092 17096 17100 17104 17108 17112
          17116 17120 17124 17128 17132 17136
          17140 17144 17148 17152 17156 17160
          17164 17168 17172 17176 17180 17184
          17188 17192 17196 17200 17204 17208
          17212 17216 17220 17224 17228 17232
          17236 17240 17244 17248 17252 17256
          17260 17264 17268 17272 17276 17280
          17284 17288 17292 17296 17300 17304
          17308 17312 17316 17320 17324 17328
          17332 17336 17340 17344 17348 17352
          17356 17360 17364 17368 17372 17376
          17380 17384 17388 17392 17396 17400
          17404 17408 17412 17416 17420 17424
          17428 17432 17436 17440 17444 17448
          17452 17456 17460 17464 17468 17472
          17476 17480 17484 17488 17492 17496
          17500 17504 17508 17512 17516 17520
          17524 17528 17532 17536 17540 17544
          17548 17552 17556 17560 17564 17568
          17572 17576 17580 17584 17588 17592
          17596 17600 17604 17608 17612 17616
          17620 17624 17628 17632 17636 17640
          17644 17648 17652 17656 17660 17664
          17668 17672 17676 17680 17684 17688
          17692 17696 17700 17704 17708 17712
          17716 17720 17724 17728 17732 17736
          17740 17744 17748 17752 17756 17760
          17764 17768 17772 17776 17780 17784
          17788 17792 17796 17800 17804 17808
          17812 17816 17820 17824 17828 17832
          17836 17840 17844 17848 17852 17856
          17860 17864 17868 17872 17876 17880
          17884 17888 17892 17896 17900 17904
          17908 17912 17916 17920 17924 17928
          17932 17936 17940 17944 17948 17952
          17956 17960 17964 17968 17972 17976
          17980 17984 17988 17992 17996 18000
          18004 18008 18012 18016 18020 18024
          18028 18032 18036 18040 18044 18048
          18052 18056 18060 18064 18068 18072
          18076 18080 18084 18088 18092 18096
          18100 18104 18108 18112 18116 18120
          18124 18128 18132 18136 18140 18144
          18148 18152 18156 18160 18164 18168
          18172 18176 18180 18184 18188 18192
          18196 18200 18204 18208 18212 18216
          18220 18224 18228 18232 18236 18240
          18244 18248 18252 18256 18260 18264
          18268 18272 18276 18280 18284 18288
          18292 18296 18300 18304 18308 18312
          18316 18320 18324 18328 18332 18336
          18340 18344 18348 18352 18356 18360
          18364 18368 18372 18376 18380 18384
          18388 18392 18396 18400 18404 18408
          18412 18416 18420 18424 18428 18432
          18436 18440 18444 18448 18452 18456
          18460 18464 18468 18472 18476 18480
          18484 18488 18492 18496 18500 18504
          18508 18512 18516 18520 18524 18528
          18532 18536 18540 18544 18548 18552
          18556 18560 18564 18568 18572 18576
          18580 18584 18588 18592 18596 18600
          18604 18608 18612 18616 18620 18624
          18628 18632 18636 18640 18644 18648
          18652 18656 18660 18664 18668 18672
          18676 18680 18684 18688 18692 18696
          18700 18704 18708 18712 18716 18720
          18724 18728 18732 18736 18740 18744
          18748 18752 18756 18760 18764 18768
          18772 18776 18780 18784 18788 18792
          18796 18800 18804 18808 18812 18816
          18820 18824 18828 18832 18836 18840
          18844 18848 18852 18856 18860 18864
          18868 18872 18876 18880 18884 18888
          18892 18896 18900 18904 18908 18912
          18916 18920 18924 18928 18932 18936
          18940 18944 18948 18952 18956 18960
          18964 18968 18972 18976 18980 18984
          18988 18992 18996 19000 19004 19008
          19012 19016 19020 19024 19028 19032
          19036 19040 19044 19048 19052 19056
          19060 19064 19068 19072 19076 19080
          19084 19088 19092 19096 19100 19104
          19108 19112 19116 19120 19124 19128
          19132 19136 19140 19144 19148 19152
          19156 19160 19164 19168 19172 19176
          19180 19184 19188 19192 19196 19200
          19204 19208 19212 19216 19220 19224
          19228 19232 19236 19240 19244 19248
          19252 19256 19260 19264 19268 19272
          19276 19280 19284 19288 19292 19296
          19300 19304 19308 19312 19316 19320
          19324 19328 19332 19336 19340 19344
          19348 19352 19356 19360 19364 19368
          19372 19376 19380 19384 19388 19392
          19396 19400 19404 19408 19412 19416
          19420 19424 19428 19432 19436 19440
          19444 19448 19452 19456 19460 19464
          19468 19472 19476 19480 19484 19488
          19492 19496 19500 19504 19508 19512
          19516 19520 19524 19528 19532 19536
          19540 19544 19548 19552 19556 19560
          19564 19568 19572 19576 19580 19584
          19588 19592 19596 19600 19604 19608
          19612 19616 19620 19624 19628 19632
          19636 19640 19644 19648 19652 19656
          19660 19664 19668 19672 19676 19680
          19684 19688 19692 19696 19700 19704
          19708 19712 19716 19720 19724 19728
          19732 19736 19740 19744 19748 19752
          19756 19760 19764 19768 19772 19776
          19780 19784 19788 19792 19796 19800
          19804 19808 19812 19816 19820 19824
          19828 19832 19836 19840 19844 19848
          19852 19856 19860 19864 19868 19872
          19876 19880 19884 19888 19892 19896
          19900 19904 19908 19912 19916 19920
          19924 19928 19932 19936 19940 19944
          19948 19952 19956 19960 19964 19968
          19972 19976 19980 19984 19988 19992
          19996 20000 20004 20008 20012 20016
          20020 20024 20028 20032 20036 20040
          20044 20048 20052 20056 20060 20064
          20068 20072 20076 20080 20084 20088
          20092 20096 20100 20104 20108 20112
          20116 20120 20124 20128 20132 20136
          20140 20144 20148 20152 20156 20160
          20164 20168 20172 20176 20180 20184
          20188 20192 20196 20200 20204 20208
          20212 20216 20220 20224 20228 20232
          20236 20240 20244 20248 20252 20256
          20260 20264 20268 20272 20276 20280
          20284 20288 20292 20296 20300 20304
          20308 20312 20316 20320 20324 20328
          20332 20336 20340 20344 20348 20352
          20356 20360 20364 20368 20372 20376
          20380 20384 20388 20392 20396 20400
          20404 20408 20412 20416 20420 20424
          20428 20432 20436 20440 20444 20448
          20452 20456 20460 20464 20468 20472
          20476 20480 20484 20488 20492 20496
          20500 20504 20508 20512 20516 20520
          20524 20528 20532 20536 20540 20544
          20548 20552 20556 20560 20564 20568
          20572 20576 20580 20584 20588 20592
          20596 20600 20604 20608 20612 20616
          20620 20624 20628 20632 20636 20640
          20644 20648 20652 20656 20660 20664
          20668 20672 20676 20680 20684 20688
          20692 20696 20700 20704 20708 20712
          20716 20720 20724 20728 20732 20736
          20740 20744 20748 20752 20756 20760
          20764 20768 20772 20776 20780 20784
          20788 20792 20796 20800 20804 20808
          20812 20816 20820 20824 20828 20832
          20836 20840 20844 20848 20852 20856
          20860 20864 20868 20872 20876 20880
          20884 20888 20892 20896 20900 20904
          20908 20912 20916 20920 20924 20928
          20932 20936 20940 20944 20948 20952
          20956 20960 20964 20968 20972 20976
          20980 20984 20988 20992 20996 21000
          21004 21008 21012 21016 21020 21024
          21028 21032 21036 21040 21044 21048
          21052 21056 21060 21064 21068 21072
          21076 21080 21084 21088 21092 21096
          21100 21104 21108 21112 21116 21120
          21124 21128 21132 21136 21140 21144
          21148 21152 21156 21160 21164 21168
          21172 21176 21180 21184 21188 21192
          21196 21200 21204 21208 21212 21216
          21220 21224 21228 21232 21236 21240
          21244 21248 21252 21256 21260 21264
          21268 21272 21276 21280 21284 21288
          21292 21296 21300 21304 21308 21312
          21316 21320 21324 21328 21332 21336
          21340 21344 21348 21352 21356 21360
          21364 21368 21372 21376 21380 21384
          21388 21392 21396 21400 21404 21408
          21412 21416 21420 21424 21428 21432
          21436 21440 21444 21448 21452 21456
          21460 21464 21468 21472 21476 21480
          21484 21488 21492 21496 21500 21504
          21508 21512 21516 21520 21524 21528
          21532 21536 21540 21544 21548 21552
          21556 21560 21564 21568 21572 21576
          21580 21584 21588 21592 21596 21600
          21604 21608 21612 21616 21620 21624
          21628 21632 21636 21640 21644 21648
          21652 21656 21660 21664 21668 21672
          21676 21680 21684 21688 21692 21696
          21700 21704 21708 21712 21716 21720
          21724 21728 21732 21736 21740 21744
          21748 21752 21756 21760 21764 21768
          21772 21776 21780 21784 21788 21792
          21796 21800 21804 21808 21812 21816
          21820 21824 21828 21832 21836 21840
          21844 21848 21852 21856 21860 21864
          21868
        </DataArray>
        <DataArray type="UInt8" Name="types" format="ascii" RangeMin="10" RangeMax="10">
          10 10 10 10 10 10
          10 10 10 10 10 10
          10 10 10 10 10 10
          10 10 10 10 10 10
          10 10 10 10 10 10
          10 10 10 10 10 10
          10 10 10 10 10 10
          10 10 10 10 10 10
          10 10 10 10 10 10
          10 10 10 10 10 10
          10 10 10 10 10 10
          10 10 10 10 10 10
          10 10 10 10 10 10
          10 10 10 10 10 10
          10 10 10 10 10 10
          10 10 10 10 10 10
          10 10 10 10 10 10
          10 10 10 10 10 10
          10 10 10 10 10 10
          10 10 10 10 10 10
          10 10 10 10 10 10
          10 10 10 10 10 10
          10 10 10 10 10 10
          10 10 10 10 10 10
          10 10 10 10 10 10
          10 10 10 10 10 10
          10 10 10 10 10 10
          10 10 10 10 10 10
          10 10 10 10 10 10
          10 10 10 10 10 10
          10 10 10 10 10 10
          10 10 10 10 10 10
          10 10 10 10 10 10
          10 10 10 10 10 10
          10 10 10 10 10 10
          10 10 10 10 10 10
          10 10 10 10 10 10
          10 10 10 10 10 10
          10 10 10 10 10 10
          10 10 10 10 10 10
          10 10 10 10 10 10
          10 10 10 10 10 10
          10 10 10 10 10 10
          10 10 10 10 10 10
          10 10 10 10 10 10
          10 10 10 10 10 10
          10 10 10 10 10 10
          10 10 10 10 10 10
          10 10 10 10 10 10
          10 10 10 10 10 10
          10 10 10 10 10 10
          10 10 10 10 10 10
          10 10 10 10 10 10
          10 10 10 10 10 10
          10 10 10 10 10 10
          10 10 10 10 10 10
          10 10 10 10 10 10
          10 10 10 10 10 10
          10 10 10 10 10 10
          10 10 10 10 10 10
          10 10 10 10 10 10
          10 10 10 10 10 10
          10 10 10 10 10 10
          10 10 10 10 10 10
          10 10 10 10 10 10
          10 10 10 10 10 10
          10 10 10 10 10 10
          10 10 10 10 10 10
          10 10 10 10 10 10
          10 10 10 10 10 10
          10 10 10 10 10 10
          10 10 10 10 10 10
          10 10 10 10 10 10
          10 10 10 10 10 10
          10 10 10 10 10 10
          10 10 10 10 10 10
          10 10 10 10 10 10
          10 10 10 10 10 10
          10 10 10 10 10 10
          10 10 10 10 10 10
          10 10 10 10 10 10
          10 10 10 10 10 10
          10 10 10 10 10 10
          10 10 10 10 10 10
          10 10 10 10 10 10
          10 10 10 10 10 10
          10 10 10 10 10 10
          10 10 10 10 10 10
          10 10 10 10 10 10
          10 10 10 10 10 10
          10 10 10 10 10 10
          10 10 10 10 10 10
          10 10 10 10 10 10
          10 10 10 10 10 10
          10 10 10 10 10 10
          10 10 10 10 10 10
          10 10 10 10 10 10
          10 10 10 10 10 10
          10 10 10 10 10 10
          10 10 10 10 10 10
          10 10 10 10 10 10
          10 10 10 10 10 10
          10 10 10 10 10 10
          10 10 10 10 10 10
          10 10 10 10 10 10
          10 10 10 10 10 10
          10 10 10 10 10 10
          10 10 10 10 10 10
          10 10 10 10 10 10
          10 10 10 10 10 10
          10 10 10 10 10 10
          10 10 10 10 10 10
          10 10 10 10 10 10
          10 10 10 10 10 10
          10 10 10 10 10 10
          10 10 10 10 10 10
          10 10 10 10 10 10
          10 10 10 10 10 10
          10 10 10 10 10 10
          10 10 10 10 10 10
          10 10 10 10 10 10
          10 10 10 10 10 10
          10 10 10 10 10 10
          10 10 10 10 10 10
          10 10 10 10 10 10
          10 10 10 10 10 10
          10 10 10 10 10 10
          10 10 10 10 10 10
          10 10 10 10 10 10
          10 10 10 10 10 10
          10 10 10 10 10 10
          10 10 10 10 10 10
          10 10 10 10 10 10
          10 10 10 10 10 10
          10 10 10 10 10 10
          10 10 10 10 10 10
          10 10 10 10 10 10
          10 10 10 10 10 10
          10 10 10 10 10 10
          10 10 10 10 10 10
          10 10 10 10 10 10
          10 10 10 10 10 10
          10 10 10 10 10 10
          10 10 10 10 10 10
          10 10 10 10 10 10
          10 10 10 10 10 10
          10 10 10 10 10 10
          10 10 10 10 10 10
          10 10 10 10 10 10
          10 10 10 10 10 10
          10 10 10 10 10 10
          10 10 10 10 10 10
          10 10 10 10 10 10
          10 10 10 10 10 10
          10 10 10 10 10 10
          10 10 10 10 10 10
          10 10 10 10 10 10
          10 10 10 10 10 10
          10 10 10 10 10 10
          10 10 10 10 10 10
          10 10 10 10 10 10
          10 10 10 10 10 10
          10 10 10 10 10 10
          10 10 10 10 10 10
          10 10 10 10 10 10
          10 10 10 10 10 10
          10 10 10 10 10 10
          10 10 10 10 10 10
          10 10 10 10 10 10
          10 10 10 10 10 10
          10 10 10 10 10 10
          10 10 10 10 10 10
          10 10 10 10 10 10
          10 10 10 10 10 10
          10 10 10 10 10 10
          10 10 10 10 10 10
          10 10 10 10 10 10
          10 10 10 10 10 10
          10 10 10 10 10 10
          10 10 10 10 10 10
          10 10 10 10 10 10
          10 10 10 10 10 10
          10 10 10 10 10 10
          10 10 10 10 10 10
          10 10 10 10 10 10
          10 10 10 10 10 10
          10 10 10 10 10 10
          10 10 10 10 10 10
          10 10 10 10 10 10
          10 10 10 10 10 10
          10 10 10 10 10 10
          10 10 10 10 10 10
          10 10 10 10 10 10
          10 10 10 10 10 10
          10 10 10 10 10 10
          10 10 10 10 10 10
          10 10 10 10 10 10
          10 10 10 10 10 10
          10 10 10 10 10 10
          10 10 10 10 10 10
          10 10 10 10 10 10
          10 10 10 10 10 10
          10 10 10 10 10 10
          10 10 10 10 10 10
          10 10 10 10 10 10
          10 10 10 10 10 10
          10 10 10 10 10 10
          10 10 10 10 10 10
          10 10 10 10 10 10
          10 10 10 10 10 10
          10 10 10 10 10 10
          10 10 10 10 10 10
          10 10 10 10 10 10
          10 10 10 10 10 10
          10 10 10 10 10 10
          10 10 10 10 10 10
          10 10 10 10 10 10
          10 10 10 10 10 10
          10 10 10 10 10 10
          10 10 10 10 10 10
          10 10 10 10 10 10
          10 10 10 10 10 10
          10 10 10 10 10 10
          10 10 10 10 10 10
          10 10 10 10 10 10
          10 10 10 10 10 10
          10 10 10 10 10 10
          10 10 10 10 10 10
          10 10 10 10 10 10
          10 10 10 10 10 10
          10 10 10 10 10 10
          10 10 10 10 10 10
          10 10 10 10 10 10
          10 10 10 10 10 10
          10 10 10 10 10 10
          10 10 10 10 10 10
          10 10 10 10 10 10
          10 10 10 10 10 10
          10 10 10 10 10 10
          10 10 10 10 10 10
          10 10 10 10 10 10
          10 10 10 10 10 10
          10 10 10 10 10 10
          10 10 10 10 10 10
          10 10 10 10 10 10
          10 10 10 10 10 10
          10 10 10 10 10 10
          10 10 10 10 10 10
          10 10 10 10 10 10
          10 10 10 10 10 10
          10 10 10 10 10 10
          10 10 10 10 10 10
          10 10 10 10 10 10
          10 10 10 10 10 10
          10 10 10 10 10 10
          10 10 10 10 10 10
          10 10 10 10 10 10
          10 10 10 10 10 10
          10 10 10 10 10 10
          10 10 10 10 10 10
          10 10 10 10 10 10
          10 10 10 10 10 10
          10 10 10 10 10 10
          10 10 10 10 10 10
          10 10 10 10 10 10
          10 10 10 10 10 10
          10 10 10 10 10 10
          10 10 10 10 10 10
          10 10 10 10 10 10
          10 10 10 10 10 10
          10 10 10 10 10 10
          10 10 10 10 10 10
          10 10 10 10 10 10
          10 10 10 10 10 10
          10 10 10 10 10 10
          10 10 10 10 10 10
          10 10 10 10 10 10
          10 10 10 10 10 10
          10 10 10 10 10 10
          10 10 10 10 10 10
          10 10 10 10 10 10
          10 10 10 10 10 10
          10 10 10 10 10 10
          10 10 10 10 10 10
          10 10 10 10 10 10
          10 10 10 10 10 10
          10 10 10 10 10 10
          10 10 10 10 10 10
          10 10 10 10 10 10
          10 10 10 10 10 10
          10 10 10 10 10 10
          10 10 10 10 10 10
          10 10 10 10 10 10
          10 10 10 10 10 10
          10 10 10 10 10 10
          10 10 10 10 10 10
          10 10 10 10 10 10
          10 10 10 10 10 10
          10 10 10 10 10 10
          10 10 10 10 10 10
          10 10 10 10 10 10
          10 10 10 10 10 10
          10 10 10 10 10 10
          10 10 10 10 10 10
          10 10 10 10 10 10
          10 10 10 10 10 10
          10 10 10 10 10 10
          10 10 10 10 10 10
          10 10 10 10 10 10
          10 10 10 10 10 10
          10 10 10 10 10 10
          10 10 10 10 10 10
          10 10 10 10 10 10
          10 10 10 10 10 10
          10 10 10 10 10 10
          10 10 10 10 10 10
          10 10 10 10 10 10
          10 10 10 10 10 10
          10 10 10 10 10 10
          10 10 10 10 10 10
          10 10 10 10 10 10
          10 10 10 10 10 10
          10 10 10 10 10 10
          10 10 10 10 10 10
          10 10 10 10 10 10
          10 10 10 10 10 10
          10 10 10 10 10 10
          10 10 10 10 10 10
          10 10 10 10 10 10
          10 10 10 10 10 10
          10 10 10 10 10 10
          10 10 10 10 10 10
          10 10 10 10 10 10
          10 10 10 10 10 10
          10 10 10 10 10 10
          10 10 10 10 10 10
          10 10 10 10 10 10
          10 10 10 10 10 10
          10 10 10 10 10 10
          10 10 10 10 10 10
          10 10 10 10 10 10
          10 10 10 10 10 10
          10 10 10 10 10 10
          10 10 10 10 10 10
          10 10 10 10 10 10
          10 10 10 10 10 10
          10 10 10 10 10 10
          10 10 10 10 10 10
          10 10 10 10 10 10
          10 10 10 10 10 10
          10 10 10 10 10 10
          10 10 10 10 10 10
          10 10 10 10 10 10
          10 10 10 10 10 10
          10 10 10 10 10 10
          10 10 10 10 10 10
          10 10 10 10 10 10
          10 10 10 10 10 10
          10 10 10 10 10 10
          10 10 10 10 10 10
          10 10 10 10 10 10
          10 10 10 10 10 10
          10 10 10 10 10 10
          10 10 10 10 10 10
          10 10 10 10 10 10
          10 10 10 10 10 10
          10 10 10 10 10 10
          10 10 10 10 10 10
          10 10 10 10 10 10
          10 10 10 10 10 10
          10 10 10 10 10 10
          10 10 10 10 10 10
          10 10 10 10 10 10
          10 10 10 10 10 10
          10 10 10 10 10 10
          10 10 10 10 10 10
          10 10 10 10 10 10
          10 10 10 10 10 10
          10 10 10 10 10 10
          10 10 10 10 10 10
          10 10 10 10 10 10
          10 10 10 10 10 10
          10 10 10 10 10 10
          10 10 10 10 10 10
          10 10 10 10 10 10
          10 10 10 10 10 10
          10 10 10 10 10 10
          10 10 10 10 10 10
          10 10 10 10 10 10
          10 10 10 10 10 10
          10 10 10 10 10 10
          10 10 10 10 10 10
          10 10 10 10 10 10
          10 10 10 10 10 10
          10 10 10 10 10 10
          10 10 10 10 10 10
          10 10 10 10 10 10
          10 10 10 10 10 10
          10 10 10 10 10 10
          10 10 10 10 10 10
          10 10 10 10 10 10
          10 10 10 10 10 10
          10 10 10 10 10 10
          10 10 10 10 10 10
          10 10 10 10 10 10
          10 10 10 10 10 10
          10 10 10 10 10 10
          10 10 10 10 10 10
          10 10 10 10 10 10
          10 10 10 10 10 10
          10 10 10 10 10 10
          10 10 10 10 10 10
          10 10 10 10 10 10
          10 10 10 10 10 10
          10 10 10 10 10 10
          10 10 10 10 10 10
          10 10 10 10 10 10
          10 10 10 10 10 10
          10 10 10 10 10 10
          10 10 10 10 10 10
          10 10 10 10 10 10
          10 10 10 10 10 10
          10 10 10 10 10 10
          10 10 10 10 10 10
          10 10 10 10 10 10
          10 10 10 10 10 10
          10 10 10 10 10 10
          10 10 10 10 10 10
          10 10 10 10 10 10
          10 10 10 10 10 10
          10 10 10 10 10 10
          10 10 10 10 10 10
          10 10 10 10 10 10
          10 10 10 10 10 10
          10 10 10 10 10 10
          10 10 10 10 10 10
          10 10 10 10 10 10
          10 10 10 10 10 10
          10 10 10 10 10 10
          10 10 10 10 10 10
          10 10 10 10 10 10
          10 10 10 10 10 10
          10 10 10 10 10 10
          10 10 10 10 10 10
          10 10 10 10 10 10
          10 10 10 10 10 10
          10 10 10 10 10 10
          10 10 10 10 10 10
          10 10 10 10 10 10
          10 10 10 10 10 10
          10 10 10 10 10 10
          10 10 10 10 10 10
          10 10 10 10 10 10
          10 10 10 10 10 10
          10 10 10 10 10 10
          10 10 10 10 10 10
          10 10 10 10 10 10
          10 10 10 10 10 10
          10 10 10 10 10 10
          10 10 10 10 10 10
          10 10 10 10 10 10
          10 10 10 10 10 10
          10 10 10 10 10 10
          10 10 10 10 10 10
          10 10 10 10 10 10
          10 10 10 10 10 10
          10 10 10 10 10 10
          10 10 10 10 10 10
          10 10 10 10 10 10
          10 10 10 10 10 10
          10 10 10 10 10 10
          10 10 10 10 10 10
          10 10 10 10 10 10
          10 10 10 10 10 10
          10 10 10 10 10 10
          10 10 10 10 10 10
          10 10 10 10 10 10
          10 10 10 10 10 10
          10 10 10 10 10 10
          10 10 10 10 10 10
          10 10 10 10 10 10
          10 10 10 10 10 10
          10 10 10 10 10 10
          10 10 10 10 10 10
          10 10 10 10 10 10
          10 10 10 10 10 10
          10 10 10 10 10 10
          10 10 10 10 10 10
          10 10 10 10 10 10
          10 10 10 10 10 10
          10 10 10 10 10 10
          10 10 10 10 10 10
          10 10 10 10 10 10
          10 10 10 10 10 10
          10 10 10 10 10 10
          10 10 10 10 10 10
          10 10 10 10 10 10
          10 10 10 10 10 10
          10 10 10 10 10 10
          10 10 10 10 10 10
          10 10 10 10 10 10
          10 10 10 10 10 10
          10 10 10 10 10 10
          10 10 10 10 10 10
          10 10 10 10 10 10
          10 10 10 10 10 10
          10 10 10 10 10 10
          10 10 10 10 10 10
          10 10 10 10 10 10
          10 10 10 10 10 10
          10 10 10 10 10 10
          10 10 10 10 10 10
          10 10 10 10 10 10
          10 10 10 10 10 10
          10 10 10 10 10 10
          10 10 10 10 10 10
          10 10 10 10 10 10
          10 10 10 10 10 10
          10 10 10 10 10 10
          10 10 10 10 10 10
          10 10 10 10 10 10
          10 10 10 10 10 10
          10 10 10 10 10 10
          10 10 10 10 10 10
          10 10 10 10 10 10
          10 10 10 10 10 10
          10 10 10 10 10 10
          10 10 10 10 10 10
          10 10 10 10 10 10
          10 10 10 10 10 10
          10 10 10 10 10 10
          10 10 10 10 10 10
          10 10 10 10 10 10
          10 10 10 10 10 10
          10 10 10 10 10 10
          10 10 10 10 10 10
          10 10 10 10 10 10
          10 10 10 10 10 10
          10 10 10 10 10 10
          10 10 10 10 10 10
          10 10 10 10 10 10
          10 10 10 10 10 10
          10 10 10 10 10 10
          10 10 10 10 10 10
          10 10 10 10 10 10
          10 10 10 10 10 10
          10 10 10 10 10 10
          10 10 10 10 10 10
          10 10 10 10 10 10
          10 10 10 10 10 10
          10 10 10 10 10 10
          10 10 10 10 10 10
          10 10 10 10 10 10
          10 10 10 10 10 10
          10 10 10 10 10 10
          10 10 10 10 10 10
          10 10 10 10 10 10
          10 10 10 10 10 10
          10 10 10 10 10 10
          10 10 10 10 10 10
          10 10 10 10 10 10
          10 10 10 10 10 10
          10 10 10 10 10 10
          10 10 10 10 10 10
          10 10 10 10 10 10
          10 10 10 10 10 10
          10 10 10 10 10 10
          10 10 10 10 10 10
          10 10 10 10 10 10
          10 10 10 10 10 10
          10 10 10 10 10 10
          10 10 10 10 10 10
          10 10 10 10 10 10
          10 10 10 10 10 10
          10 10 10 10 10 10
          10 10 10 10 10 10
          10 10 10 10 10 10
          10 10 10 10 10 10
          10 10 10 10 10 10
          10 10 10 10 10 10
          10 10 10 10 10 10
          10 10 10 10 10 10
          10 10 10 10 10 10
          10 10 10 10 10 10
          10 10 10 10 10 10
          10 10 10 10 10 10
          10 10 10 10 10 10
          10 10 10 10 10 10
          10 10 10 10 10 10
          10 10 10 10 10 10
          10 10 10 10 10 10
          10 10 10 10 10 10
          10 10 10 10 10 10
          10 10 10 10 10 10
          10 10 10 10 10 10
          10 10 10 10 10 10
          10 10 10 10 10 10
          10 10 10 10 10 10
          10 10 10 10 10 10
          10 10 10 10 10 10
          10 10 10 10 10 10
          10 10 10 10 10 10
          10 10 10 10 10 10
          10 10 10 10 10 10
          10 10 10 10 10 10
          10 10 10 10 10 10
          10 10 10 10 10 10
          10 10 10 10 10 10
          10 10 10 10 10 10
          10 10 10 10 10 10
          10 10 10 10 10 10
          10 10 10 10 10 10
          10 10 10 10 10 10
          10 10 10 10 10 10
          10 10 10 10 10 10
          10 10 10 10 10 10
          10 10 10 10 10 10
          10 10 10 10 10 10
          10 10 10 10 10 10
          10 10 10 10 10 10
          10 10 10 10 10 10
          10 10 10 10 10 10
          10 10 10 10 10 10
          10 10 10 10 10 10
          10 10 10 10 10 10
          10 10 10 10 10 10
          10 10 10 10 10 10
          10 10 10 10 10 10
          10 10 10 10 10 10
          10 10 10 10 10 10
          10 10 10 10 10 10
          10 10 10 10 10 10
          10 10 10 10 10 10
          10 10 10 10 10 10
          10 10 10 10 10 10
          10 10 10 10 10 10
          10 10 10 10 10 10
          10 10 10 10 10 10
          10 10 10 10 10 10
          10 10 10 10 10 10
          10 10 10 10 10 10
          10 10 10 10 10 10
          10 10 10 10 10 10
          10 10 10 10 10 10
          10 10 10 10 10 10
          10 10 10 10 10 10
          10 10 10 10 10 10
          10 10 10 10 10 10
          10 10 10 10 10 10
          10 10 10 10 10 10
          10 10 10 10 10 10
          10 10 10 10 10 10
          10 10 10 10 10 10
          10 10 10 10 10 10
          10 10 10 10 10 10
          10 10 10 10 10 10
          10 10 10 10 10 10
          10 10 10 10 10 10
          10 10 10 10 10 10
          10 10 10 10 10 10
          10 10 10 10 10 10
          10 10 10 10 10 10
          10 10 10 10 10 10
          10 10 10 10 10 10
          10 10 10 10 10 10
          10 10 10 10 10 10
          10 10 10 10 10 10
          10 10 10 10 10 10
          10 10 10 10 10 10
          10 10 10 10 10 10
          10 10 10 10 10 10
          10 10 10 10 10 10
          10 10 10 10 10 10
          10 10 10 10 10 10
          10 10 10 10 10 10
          10 10 10 10 10 10
          10 10 10 10 10 10
          10 10 10 10 10 10
          10 10 10 10 10 10
          10 10 10 10 10 10
          10 10 10 10 10 10
          10 10 10 10 10 10
          10 10 10 10 10 10
          10 10 10 10 10 10
          10 10 10 10 10 10
          10 10 10 10 10 10
          10 10 10 10 10 10
          10 10 10 10 10 10
          10 10 10 10 10 10
          10 10 10 10 10 10
          10 10 10 10 10 10
          10 10 10 10 10 10
          10 10 10 10 10 10
          10 10 10 10 10 10
          10 10 10 10 10 10
          10 10 10 10 10 10
          10 10 10 10 10 10
          10 10 10 10 10 10
          10 10 10 10 10 10
          10 10 10 10 10 10
          10 10 10 10 10 10
          10 10 10 10 10 10
          10 10 10 10 10 10
          10 10 10 10 10 10
          10 10 10 10 10 10
          10 10 10 10 10 10
          10 10 10 10 10 10
          10 10 10 10 10 10
          10 10 10 10 10 10
          10 10 10 10 10 10
          10 10 10 10 10 10
          10 10 10 10 10 10
          10 10 10 10 10 10
          10 10 10 10 10 10
          10 10 10 10 10 10
          10 10 10 10 10 10
          10 10 10 10 10 10
          10 10 10 10 10 10
          10 10 10 10 10 10
          10 10 10 10 10 10
          10 10 10 10 10 10
          10 10 10 10 10 10
          10 10 10 10 10 10
          10 10 10 10 10 10
          10 10 10 10 10 10
          10 10 10 10 10 10
          10 10 10 10 10 10
          10 10 10 10 10 10
          10 10 10 10 10 10
          10 10 10 10 10 10
          10 10 10 10 10 10
          10 10 10 10 10 10
          10 10 10 10 10 10
          10 10 10 10 10 10
          10 10 10 10 10 10
          10 10 10 10 10 10
          10 10 10 10 10 10
          10 10 10 10 10 10
          10 10 10 10 10 10
          10 10 10 10 10 10
          10 10 10 10 10 10
          10 10 10 10 10 10
          10 10 10 10 10 10
          10 10 10 10 10 10
          10 10 10 10 10 10
          10 10 10 10 10 10
          10 10 10 10 10 10
          10 10 10 10 10 10
          10 10 10 10 10 10
          10 10 10 10 10 10
          10 10 10 10 10 10
          10 10 10 10 10 10
          10 10 10 10 10 10
          10 10 10 10 10 10
          10 10 10 10 10 10
          10 10 10 10 10 10
          10 10 10 10 10 10
          10 10 10 10 10 10
          10 10 10 10 10 10
          10 10 10 10 10 10
          10 10 10 10 10 10
          10 10 10 10 10 10
          10 10 10 10 10 10
          10 10 10 10 10 10
          10 10 10 10 10 10
          10 10 10 10 10 10
          10 10 10 10 10 10
          10 10 10 10 10 10
          10 10 10 10 10 10
          10 10 10 10 10 10
          10 10 10 10 10 10
          10 10 10 10 10 10
          10 10 10 10 10 10
          10 10 10 10 10 10
          10 10 10 10 10 10
          10 10 10 10 10 10
          10 10 10 10 10 10
          10 10 10 10 10 10
          10 10 10 10 10 10
          10 10 10 10 10 10
          10 10 10 10 10 10
          10 10 10 10 10 10
          10 10 10 10 10 10
          10 10 10 10 10 10
          10 10 10 10 10 10
          10 10 10 10 10 10
          10 10 10 10 10 10
          10 10 10 10 10 10
          10 10 10 10 10 10
          10 10 10 10 10 10
          10 10 10 10 10 10
          10 10 10 10 10 10
          10 10 10 10 10 10
          10 10 10 10 10 10
          10 10 10 10 10 10
          10 10 10 10 10 10
          10 10 10 10 10 10
          10 10 10 10 10 10
          10 10 10 10 10 10
          10 10 10 10 10 10
          10 10 10 10 10 10
          10 10 10 10 10 10
          10 10 10 10 10 10
          10 10 10 10 10 10
          10 10 10 10 10 10
          10 10 10 10 10 10
          10 10 10 10 10 10
          10 10 10 10 10 10
          10 10 10 10 10 10
          10 10 10 10 10 10
          10 10 10 10 10 10
          10 10 10 10 10 10
          10 10 10 10 10 10
          10 10 10 10 10 10
          10 10 10 10 10 10
          10 10 10 10 10 10
          10 10 10 10 10 10
          10 10 10 10 10 10
          10 10 10 10 10 10
          10 10 10 10 10 10
          10 10 10 10 10 10
          10 10 10 10 10 10
          10 10 10 10 10 10
          10 10 10 10 10 10
          10 10 10 10 10 10
          10 10 10 10 10 10
          10 10 10 10 10 10
          10 10 10 10 10 10
          10 10 10 10 10 10
          10 10 10 10 10 10
          10 10 10 10 10 10
          10 10 10 10 10 10
          10 10 10 10 10 10
          10 10 10 10 10 10
          10 10 10 10 10 10
          10 10 10 10 10 10
          10 10 10 10 10 10
          10 10 10 10 10 10
          10 10 10 10 10 10
          10 10 10 10 10 10
          10 10 10 10 10 10
          10 10 10 10 10 10
          10 10 10 10 10 10
          10 10 10 10 10 10
          10 10 10 10 10 10
          10 10 10 10 10 10
          10 10 10 10 10 10
          10 10 10 10 10 10
          10 10 10 10 10 10
          10 10 10 10 10 10
          10 10 10 10 10 10
          10 10 10 10 10 10
          10 10 10 10 10 10
          10 10 10 10 10 10
          10 10 10 10 10 10
          10 10 10 10 10 10
          10 10 10 10 10 10
          10 10 10 10 10 10
          10 10 10 10 10 10
          10 10 10 10 10 10
          10 10 10 10 10 10
          10 10 10 10 10 10
          10 10 10 10 10 10
          10 10 10 10 10 10
          10 10 10 10 10 10
          10 10 10 10 10 10
          10 10 10 10 10 10
          10 10 10 10 10 10
          10 10 10 10 10 10
          10 10 10 10 10 10
          10 10 10 10 10 10
          10 10 10 10 10 10
          10 10 10 10 10 10
          10 10 10 10 10 10
          10 10 10 10 10 10
          10 10 10 10 10 10
          10 10 10 10 10 10
          10 10 10 10 10 10
          10 10 10 10 10 10
          10 10 10 10 10 10
          10 10 10 10 10 10
          10 10 10 10 10 10
          10 10 10 10 10 10
          10 10 10 10 10 10
          10 10 10 10 10 10
          10 10 10 10 10 10
          10 10 10 10 10 10
          10 10 10 10 10 10
          10 10 10 10 10 10
          10 10 10 10 10 10
          10 10 10 10 10 10
          10 10 10 10 10 10
          10 10 10 10 10 10
          10 10 10 10 10 10
          10 10 10 10 10 10
          10 10 10 10 10 10
          10 10 10 10 10 10
          10 10 10 10 10 10
          10 10 10 10 10 10
          10 10 10 10 10 10
          10 10 10 10 10 10
          10 10 10 10 10 10
          10 10 10 10 10 10
          10 10 10 10 10 10
          10 10 10 10 10 10
          10 10 10 10 10 10
          10 10 10 10 10 10
          10 10 10 10 10 10
          10 10 10 10 10 10
          10 10 10 10 10 10
          10 10 10 10 10 10
          10
        </DataArray>
      </Cells>
    </Piece>
  </UnstructuredGrid>
</VTKFile>
