<?xml version="1.0"?>
<VTKFile type="UnstructuredGrid" version="0.1" byte_order="LittleEndian" compressor="vtkZLibDataCompressor">
  <UnstructuredGrid>
    <Piece NumberOfPoints="21868" NumberOfCells="5467">
      <PointData Scalars="u2" Vectors="DisplacementSolutionVector">
        <DataArray type="Float64" Name="u2" format="ascii" RangeMin="-0.617884" RangeMax="1.09618">
          0.362052 0.346431 0.273847 0.26482 -0.462474 -0.424531
          -0.483101 -0.451585 -0.607479 -0.610537 -0.598996 -0.604306
          -0.557066 -0.577714 -0.573364 -0.577397 -0.14341 -0.0124784
          -0.0873447 -0.0831016 -0.47284 -0.466267 -0.449559 -0.497359
          0.288966 0.222628 0.266939 0.315495 1.03556 0.999356
          1.03394 1.00424 0.919067 0.892396 0.939445 0.964402
          -0.269019 -0.300825 -0.267441 -0.269956 -0.326806 -0.357328
          -0.34214 -0.396044 -0.0148698 -0.0373548 -0.0359205 -0.0274994
          -0.539299 -0.510375 -0.539178 -0.501965 0.929042 0.918357
          0.959385 0.941827 -0.0831016 -0.14341 -0.0124784 -0.0736489
          -0.104985 -0.0931318 -0.0748949 -0.0727868 0.818175 0.834652
          0.771063 0.871623 -0.349927 -0.369417 -0.401283 -0.375313
          -0.191288 -0.123642 -0.171147 -0.164205 -0.546836 -0.5242
          -0.503281 -0.503908 0.37568 0.293154 0.422228 0.29799
          -0.410755 -0.372513 -0.382811 -0.34114 -0.458207 -0.501778
          -0.46894 -0.487696 -0.314557 -0.375313 -0.332993 -0.36495
          0.835634 0.823583 0.781563 0.753101 -0.205679 -0.191288
          -0.220655 -0.164205 -0.602749 -0.601565 -0.600207 -0.589823
          -0.43155 -0.382811 -0.410755 -0.411734 -0.606765 -0.605534
          -0.615798 -0.611269 -0.0826292 -0.0448786 -0.0918569 -0.051966
          0.620429 0.545908 0.580698 0.576606 -0.364512 -0.322149
          -0.349927 -0.375313 -0.421164 -0.424531 -0.394107 -0.451713
          -0.592202 -0.605091 -0.591306 -0.595495 -0.326509 -0.319052
          -0.317028 -0.348043 1.03044 1.04279 1.0076 0.994249
          -0.551364 -0.56841 -0.556536 -0.57823 -0.421164 -0.3605
          -0.421372 -0.38119 1.0378 1.08158 1.063 1.07521
          0.938067 0.952366 0.962865 0.918228 -0.0946214 -0.132948
          -0.0994993 -0.104985 -0.509551 -0.528465 -0.514186 -0.550484
          -0.0124784 0.0577277 0.0429092 0.00411554 0.615495 0.48689
          0.555971 0.490251 -0.404675 -0.446413 -0.425111 -0.396044
          -0.4245 -0.391712 -0.3705 -0.382787 -0.335303 -0.372513
          -0.343334 -0.311202 -0.539299 -0.516593 -0.536958 -0.539178
          0.375425 0.34242 0.270179 0.274001 -0.191319 -0.171585
          -0.154251 -0.175025 -0.455538 -0.456825 -0.4751 -0.492054
          -0.503135 -0.521842 -0.551974 -0.548618 -0.483115 -0.477368
          -0.449159 -0.477031 -0.0716904 -0.0299528 0.00556753 0.0269334
          -0.128993 -0.172689 -0.160316 -0.152133 -0.477031 -0.4616
          -0.492321 -0.442996 -0.589823 -0.572757 -0.587157 -0.593287
          -0.596049 -0.606174 -0.595416 -0.591783 -0.371754 -0.326509
          -0.317028 -0.348043 1.03604 1.04279 1.03044 0.994249
          -0.219229 -0.254014 -0.245591 -0.187651 -0.522822 -0.513139
          -0.474792 -0.498097 -0.471625 -0.465409 -0.492048 -0.502773
          -0.605701 -0.613989 -0.614347 -0.605756 -0.330755 -0.369417
          -0.317222 -0.336744 -0.361795 -0.358657 -0.391734 -0.371754
          -0.300863 -0.261287 -0.28843 -0.284289 -0.184676 -0.144184
          -0.131573 -0.180202 0.0692919 0.116801 0.140613 0.0266296
          0.992186 0.992186 1.0076 0.992186 -0.514976 -0.509884
          -0.522822 -0.513988 -0.0693774 -0.0931318 -0.0861512 -0.0620695
          -0.00798877 0.000284983 0 -0.00693662 -0.561118 -0.561124
          -0.581108 -0.578393 0.00411554 -0.0334379 -0.0124784 -0.0446928
          -0.452771 -0.421164 -0.406363 -0.458207 0.441455 0.477071
          0.524128 0.514154 1.06259 1.02841 1.02849 1.03528
          -0.0158737 0 -0.0179501 0 -0.589217 -0.582806
          -0.598996 -0.589306 0.270179 0.181751 0.281712 0.274001
          -0.0124784 0.0692919 0.0429092 0.0577277 0.949524 0.968415
          0.982176 0.945894 -0.421164 -0.476443 -0.424531 -0.483101
          -0.184187 -0.16821 -0.201109 -0.215126 -0.571365 -0.583032
          -0.573364 -0.562779 -0.573116 -0.59224 -0.584442 -0.605756
          0.0692919 0.0266296 0.140613 0.0225208 -0.264202 -0.230152
          -0.231736 -0.212972 -0.233291 -0.180202 -0.221329 -0.223718
          -0.302569 -0.315558 -0.326806 -0.3614 0.694364 0.736088
          0.696053 0.652694 0.485717 0.461281 0.528453 0.475443
          0.871623 0.814724 0.859128 0.862298 -0.163731 -0.0716904
          -0.0853689 -0.0669595 0.988705 1.04991 1.02618 1.02395
          -0.00798877 0 -0.00317775 -0.00693662 0.48689 0.43286
          0.453532 0.366123 -0.178468 -0.149963 -0.183844 -0.19048
          -0.18142 -0.132948 -0.155184 -0.166307 0.118445 0.0354087
          0.116801 0.114738 0.778368 0.781563 0.826217 0.756258
          -0.606765 -0.597055 -0.607479 -0.601903 0.938067 0.953422
          0.949524 0.968415 -0.592202 -0.605091 -0.594765 -0.591306
          -0.36495 -0.296868 -0.332993 -0.314557 -0.0516314 -0.0423778
          -0.0773241 -0.0545277 -0.507128 -0.504352 -0.490656 -0.533339
          -0.184187 -0.166307 -0.21049 -0.201109 -0.604306 -0.606174
          -0.608411 -0.591783 0.681261 0.696053 0.59525 0.585769
          -0.470143 -0.456047 -0.490656 -0.471353 -0.428833 -0.424615
          -0.369417 -0.396985 0.209665 0.182148 0.140613 0.226339
          -0.131573 -0.0918145 -0.112705 -0.0945442 -0.420885 -0.385427
          -0.381452 -0.426503 -0.607226 -0.59472 -0.602749 -0.606635
          -0.59431 -0.579963 -0.582806 -0.593911 -0.563005 -0.573116
          -0.550484 -0.584442 -0.582338 -0.565105 -0.586673 -0.589541
          0.660272 0.586952 0.661841 0.66868 -0.307637 -0.282402
          -0.27071 -0.304688 1.0631 1.01445 1.06038 1.01785
          -0.562779 -0.583032 -0.573364 -0.577714 -0.166307 -0.167938
          -0.183665 -0.192492 0.964402 0.964402 0.964402 0.952366
          0.554729 0.60553 0.652694 0.580698 -0.560632 -0.587347
          -0.589306 -0.581108 -0.182875 -0.154251 -0.181463 -0.183591
          0.441455 0.325313 0.34242 0.375425 0.490251 0.45118
          0.525818 0.603744 -0.576022 -0.554683 -0.586375 -0.580329
          -0.596435 -0.56772 -0.572757 -0.58394 -0.172689 -0.20773
          -0.178468 -0.160316 -0.600231 -0.593521 -0.602749 -0.601787
          -0.0872548 -0.0807488 -0.114873 -0.0769447 0.715046 0.79386
          0.818343 0.77037 -0.273168 -0.259877 -0.289606 -0.223718
          -0.184676 -0.18142 -0.233291 -0.221329 0.359552 0.266939
          0.266951 0.315495 0.179964 0.215118 0.131345 0.175661
          -0.335303 -0.343334 -0.306575 -0.311202 -0.579963 -0.59431
          -0.571445 -0.587347 1.03604 1.09087 1.09618 1.08958
          -0.455538 -0.477707 -0.445396 -0.456825 0.994249 1.00424
          1.0076 0.967832 -0.106801 -0.135303 -0.125053 -0.122071
          -0.145402 -0.0853689 -0.209163 -0.163731 -0.594197 -0.588037
          -0.598679 -0.59422 0.97766 1.01616 0.999356 1.03743
          0.92421 0.9563 0.961097 0.949524 -0.4944 -0.528633
          -0.511432 -0.493723 -0.026493 -0.0184177 -0.0335524 -0.0349902
          -0.0589362 -0.0432173 -0.029839 -0.0507497 -0.511432 -0.493723
          -0.530527 -0.490188 -0.477031 -0.459335 -0.442996 -0.4627
          -0.257511 -0.264953 -0.212564 -0.278857 -0.251108 -0.311202
          -0.259877 -0.282402 -0.00337952 -0.0778743 -0.0163549 -0.00572604
          -0.144184 -0.135303 -0.104158 -0.122071 -0.0616949 -0.0335524
          -0.0507497 -0.0589362 -0.556536 -0.59029 -0.570157 -0.57823
          -0.183591 -0.170381 -0.199185 -0.164258 -0.382787 -0.337261
          -0.389167 -0.381452 0.222664 0.293154 0.312661 0.265476
          0.266951 0.192337 0.281712 0.213013 -0.571117 -0.542343
          -0.55443 -0.555601 -0.205679 -0.191288 -0.239709 -0.220655
          -0.59224 -0.594759 -0.605701 -0.605756 -0.116421 -0.163731
          -0.119836 -0.144824 -0.576103 -0.574159 -0.571117 -0.55443
          0.681261 0.585769 0.59525 0.563365 -0.0206394 -0.0251656
          -0.0225702 -0.0436944 -0.0873447 -0.0880543 -0.171147 -0.123642
          1.04334 1.03604 0.998789 1.05426 -0.188891 -0.18142
          -0.186335 -0.221329 0.191131 0.213013 0.222664 0.293154
          0.266951 0.366047 0.366123 0.359552 -0.452771 -0.482107
          -0.521842 -0.508049 -0.601484 -0.606824 -0.614932 -0.610537
          0.48689 0.359552 0.43286 0.366123 0.404996 0.346431
          0.333469 0.273847 -0.614932 -0.610537 -0.601281 -0.601484
          0.949524 0.982276 0.990392 0.982176 -0.58693 -0.571251
          -0.593334 -0.59029 -0.269019 -0.267441 -0.232947 -0.269956
          -0.482959 -0.428346 -0.45509 -0.471625 -0.3605 -0.424531
          -0.36495 -0.394107 0.0852052 0.127083 0.0653578 0.0357389
          -0.336744 -0.317222 -0.248147 -0.294327 0.0590978 0.0456061
          0.0463107 -0.0166612 -0.574662 -0.562779 -0.596049 -0.584442
          -0.0407497 -0.0335524 -0.026493 -0.029839 0.938067 0.962865
          0.968415 0.951491 -0.589541 -0.565105 -0.56754 -0.5595
          0.917689 0.938067 0.93937 0.893233 -0.604088 -0.586673
          -0.584649 -0.59445 1.00014 1.03604 0.998789 1.04334
          -0.0807488 -0.0918145 -0.114873 -0.0769447 -0.3191 -0.259364
          -0.300825 -0.306156 -0.421372 -0.424531 -0.476443 -0.462474
          0.0852052 0.0653578 -0.00572604 -0.0299528 -0.116421 -0.0669595
          -0.1008 -0.0453142 -0.591306 -0.605091 -0.601902 -0.600585
          0.215118 0.179964 0.272312 0.176386 0.859342 0.857766
          0.88027 0.918357 -0.391712 -0.401768 -0.427097 -0.382405
          -0.270885 -0.253853 -0.284748 -0.239967 1.07521 1.06649
          1.06259 1.01979 -0.0122332 -0.0148698 0 -0.0142378
          -0.154251 -0.175025 -0.128416 -0.131573 -0.1008 -0.151924
          -0.163731 -0.214665 -0.55277 -0.571445 -0.525882 -0.53841
          -0.4245 -0.382787 -0.3705 -0.372283 -0.596435 -0.601565
          -0.589823 -0.580307 0.896305 0.938067 0.953422 0.949524
          -0.0545277 -0.0826292 -0.0994993 -0.0697344 -0.25746 -0.296868
          -0.322874 -0.264953 -0.0891458 -0.112705 -0.132948 -0.0994993
          -0.0516314 -0.0220747 -0.0423778 -0.0321671 0.176386 0.182148
          0.187424 0.10934 -0.254014 -0.321454 -0.292999 -0.317802
          -0.0206394 -0.0225702 -0.0122518 -0.00798877 -0.104158 -0.122071
          -0.0931318 -0.0748949 0.59525 0.554729 0.580698 0.538209
          -0.0748949 -0.0945442 -0.0509829 -0.0769447 0.175661 0.127083
          0.22333 0.18953 -0.476443 -0.511452 -0.508049 -0.540931
          -0.0872548 -0.104158 -0.0748949 -0.0945442 0.835634 0.892396
          0.919067 0.875404 -0.555601 -0.536958 -0.542343 -0.55443
          -0.0689169 -0.0506569 -0.0359205 -0.0373548 -0.522255 -0.509131
          -0.53041 -0.547039 -0.431223 -0.389167 -0.381452 -0.382787
          0.456629 0.408272 0.485717 0.4158 -0.559433 -0.552519
          -0.579112 -0.555601 0.576957 0.591048 0.555971 0.50115
          0.359552 0.350848 0.266939 0.315495 -0.254984 -0.314557
          -0.296868 -0.228365 -0.0206394 -0.0120442 -0.0251656 -0.0432173
          0.929042 0.918357 0.941827 0.900105 -0.218544 -0.267441
          -0.232947 -0.269019 -0.0748949 -0.0945442 -0.0769447 -0.0507497
          -0.340524 -0.337261 -0.304688 -0.335303 -0.408703 -0.359571
          -0.415128 -0.385583 0.0653578 0.0269334 0.00556753 -0.0299528
          0.37568 0.447798 0.422228 0.361752 -0.574662 -0.584442
          -0.586673 -0.546836 1.08172 1.07089 1.08158 1.03044
          0.554507 0.485717 0.524128 0.456629 -0.116728 -0.184803
          -0.166782 -0.132669 -0.389167 -0.431223 -0.421409 -0.4245
          -0.00317775 -0.00736282 -0.0279686 -0.021768 -0.0557286 -0.00310106
          -0.0156401 0.00931725 -0.540931 -0.560632 -0.574662 -0.578733
          0.920067 0.941827 0.96798 0.961753 -0.51427 -0.47284
          -0.498097 -0.497359 -0.535277 -0.526146 -0.55754 -0.545036
          -0.0433125 -0.0527576 -0.0773241 -0.0516314 -0.307478 -0.289606
          -0.314827 -0.273168 0.862298 0.871623 0.926939 0.859128
          -0.0727868 -0.0945442 -0.0748949 -0.104985 0.70697 0.818175
          0.759262 0.696053 -0.559286 -0.531799 -0.55754 -0.535277
          -0.404675 -0.396044 -0.357328 -0.445271 -0.451713 -0.46894
          -0.464844 -0.514186 0.679028 0.545908 0.6277 0.620429
          0.408272 0.461281 0.485717 0.475443 0.805121 0.71224
          0.778368 0.756258 0.0429092 -0.0334379 0.00411554 0.0389614
          1.0076 1.04546 1.06673 0.992186 -0.161825 -0.188792
          -0.228365 -0.25746 -0.601592 -0.596519 -0.601183 -0.606765
          0 0 -0.0158737 0 1.03556 1.00424
          1.05647 1.03604 0.953422 0.949524 0.955905 0.913168
          0.576606 0.471849 0.477071 0.485717 -0.228365 -0.161825
          -0.217591 -0.151939 -0.0746054 -0.0676795 -0.0909205 -0.0974204
          -0.288495 -0.321454 -0.292999 -0.254014 -0.186335 -0.18142
          -0.180202 -0.221329 -0.522822 -0.474792 -0.477031 -0.498097
          1.03556 1.03604 1.09087 1.09618 -0.424615 -0.453424
          -0.397242 -0.396985 0.961097 0.949524 0.990392 0.982176
          -0.106234 -0.024701 -0.106826 -0.0736489 -0.104158 -0.122071
          -0.106801 -0.0931318 -0.231736 -0.182875 -0.191319 -0.230152
          -0.451713 -0.464844 -0.431484 -0.49578 -0.58789 -0.55754
          -0.583 -0.576022 -0.339323 -0.329643 -0.337823 -0.308486
          -0.465925 -0.396985 -0.428833 -0.385172 0.814724 0.7975
          0.862298 0.769835 -0.205846 -0.29873 -0.243691 -0.274253
          0.176386 0.10934 0.187424 0.118803 -0.221329 -0.217356
          -0.248485 -0.241803 -0.56841 -0.587151 -0.581501 -0.59029
          -0.41947 -0.442996 -0.413742 -0.391734 -0.144184 -0.149963
          -0.180202 -0.183844 -0.248147 -0.294327 -0.317222 -0.211871
          0.992186 1.03743 1.07455 1.01616 -0.607479 -0.604121
          -0.606765 -0.606635 -0.159693 -0.166307 -0.188891 -0.21049
          -0.0448786 -0.0423778 -0.021768 -0.0279686 -0.00792568 -0.0853689
          0.00698102 -0.0716904 0.439675 0.41735 0.461281 0.38677
          0.422228 0.361752 0.365474 0.29799 0.554507 0.620429
          0.485717 0.528453 -0.551364 -0.517394 -0.53041 -0.522255
          -0.25746 -0.297914 -0.332993 -0.254984 -0.385172 -0.460937
          -0.428833 -0.465925 -0.00792568 0.00698102 0.0287109 0.0973606
          -0.606543 -0.595416 -0.589306 -0.600512 0.771063 0.736088
          0.694364 0.764036 -0.0873447 -0.171147 -0.140693 -0.161825
          -0.0456833 -0.0388337 -0.0366013 -0.0527576 0.649864 0.693554
          0.64528 0.746051 1.04493 0.994064 0.992022 1.00044
          -0.183591 -0.160773 -0.19356 -0.155184 -0.509551 -0.528465
          -0.562779 -0.536532 0.994064 0.959385 0.955905 0.964551
          -0.172689 -0.219229 -0.20773 -0.187651 -0.128416 -0.0974204
          -0.10816 -0.114873 -0.106306 -0.0762623 -0.0566621 -0.0821753
          -0.36495 -0.397242 -0.424531 -0.393886 -0.0918145 -0.0979749
          -0.126556 -0.0987839 -0.606824 -0.606765 -0.610537 -0.607479
          0.769835 0.771063 0.814724 0.71259 -0.3605 -0.424531
          -0.394107 -0.421164 -0.254014 -0.317802 -0.292999 -0.245591
          -0.596519 -0.591591 -0.60849 -0.605534 -0.187651 -0.20773
          -0.191319 -0.194693 -0.137564 -0.0946214 -0.132948 -0.0994993
          0.998789 0.973437 0.96754 1.00082 -0.182875 -0.135977
          -0.155184 -0.131573 0.315495 0.420383 0.359552 0.350848
          -0.515213 -0.49578 -0.520643 -0.481413 -0.606765 -0.601183
          -0.615295 -0.60849 -0.0163549 -0.0778743 -0.0477761 -0.0826948
          1.08923 1.08958 1.07607 1.09375 0.191131 0.18953
          0.122055 0.175661 -0.584442 -0.573116 -0.605756 -0.584649
          -0.224153 -0.230152 -0.199185 -0.183591 -0.55277 -0.525882
          -0.520877 -0.53841 -0.339323 -0.329643 -0.382405 -0.337823
          0.50115 0.540835 0.466509 0.559671 0 0
          0 -0.0158737 1.00014 0.96798 1.01396 0.998789
          0.961097 0.982276 0.990392 0.949524 -0.125053 -0.160393
          -0.133725 -0.155231 -0.0126354 -0.0287179 -0.0210781 -0.0242749
          -0.593287 -0.58789 -0.58394 -0.576022 0.871623 0.818175
          0.814724 0.771063 -0.182875 -0.154251 -0.183591 -0.135977
          0.929731 0.94404 0.961097 0.922122 -0.571445 -0.582806
          -0.589306 -0.600482 -0.029839 -0.0206394 -0.0122332 -0.026493
          0.559671 0.481467 0.576957 0.60553 0.215118 0.213013
          0.191131 0.293154 0.215118 0.22333 0.191131 0.175661
          -0.145402 -0.209163 -0.243691 -0.228365 0.48689 0.453532
          0.495567 0.555971 0.362052 0.368224 0.41735 0.342808
          -0.224153 -0.212972 -0.199185 -0.230152 -0.0853689 -0.1008
          -0.151924 -0.163731 0.0692919 0.132925 0.164525 0.0577277
          -0.0179501 -0.0366013 -0.0281452 -0.0199872 -0.559286 -0.58789
          -0.580329 -0.55754 -0.104158 -0.144184 -0.122071 -0.131573
          0.953422 0.994249 0.982276 0.994842 1.02618 1.02395
          1.063 1.0378 -0.145402 -0.163731 -0.209163 -0.151939
          -0.381652 -0.317802 -0.34114 -0.321454 0.215118 0.22333
          0.272312 0.29799 -0.0509829 -0.0727868 -0.0748949 -0.0436944
          0.490251 0.453532 0.540835 0.447798 -0.58394 -0.547193
          -0.572757 -0.55754 -0.0693774 -0.0861512 -0.045854 -0.0620695
          -0.300863 -0.284289 -0.326509 -0.282981 0.620429 0.576606
          0.701116 0.671573 -0.248147 -0.238023 -0.211871 -0.178291
          0.0973606 0.124246 0.181751 0.088712 -0.593287 -0.572757
          -0.576022 -0.58394 -0.332993 -0.384992 -0.297914 -0.322874
          -0.282402 -0.327695 -0.307637 -0.282981 -0.556536 -0.581501
          -0.59029 -0.56841 0.805121 0.778368 0.826217 0.756258
          -0.254984 -0.217591 -0.314557 -0.228365 -0.542343 -0.514976
          -0.564006 -0.553089 -0.0831016 -0.0124784 -0.0397778 0.0429092
          1.04334 1.09618 1.03604 1.05426 -0.552479 -0.55443
          -0.576103 -0.553089 0.408272 0.485717 0.528453 0.456629
          -0.59472 -0.586375 -0.59992 -0.598679 -0.411734 -0.381452
          -0.375762 -0.372513 -0.4245 -0.431223 -0.428618 -0.382787
          -0.446413 -0.487995 -0.451585 -0.445271 -0.228437 -0.267026
          -0.273168 -0.251108 -0.0122332 -0.029839 -0.014675 -0.0120442
          -0.311202 -0.34114 -0.340524 -0.372513 -0.508049 -0.511432
          -0.530527 -0.490188 -0.467995 -0.428833 -0.472928 -0.429248
          -0.0831016 -0.106234 -0.0736489 -0.0446928 0.918357 0.919067
          0.9111 0.857766 -0.508049 -0.548618 -0.551974 -0.530527
          -0.278857 -0.264953 -0.212564 -0.219076 -0.606765 -0.60849
          -0.615295 -0.615798 -0.514976 -0.509884 -0.492321 -0.518352
          -0.393886 -0.421372 -0.444654 -0.462474 -0.282402 -0.251108
          -0.233291 -0.259877 -0.319052 -0.307637 -0.304688 -0.337261
          -0.436534 -0.431469 -0.401189 -0.410755 -0.477368 -0.475633
          -0.516593 -0.471353 -0.346023 -0.343334 -0.306575 -0.335303
          0.982176 1.02033 0.982276 0.990392 0.745728 0.746051
          0.847262 0.79386 -0.410755 -0.375762 -0.372513 -0.411734
          -0.565105 -0.586673 -0.567941 -0.582338 -0.556536 -0.552479
          -0.571251 -0.54589 -0.183844 -0.180202 -0.184676 -0.223718
          -0.228365 -0.211871 -0.151939 -0.217591 0.835634 0.892396
          0.875404 0.823583 -0.566595 -0.578393 -0.578733 -0.590032
          -0.482959 -0.475595 -0.471625 -0.516821 -0.026493 -0.0126354
          -0.0287179 -0.0122332 -0.1029 -0.112389 -0.161331 -0.167424
          -0.604306 -0.608411 -0.604088 -0.591783 -0.3705 -0.335303
          -0.307637 -0.372283 0.70697 0.585769 0.681261 0.563365
          -0.43445 -0.420885 -0.381452 -0.426503 0.0590978 0.0973606
          0.15972 0.153568 -0.525882 -0.4944 -0.53841 -0.538075
          -0.0557286 -0.0383277 -0.119836 -0.120107 -0.0669595 -0.0557286
          -0.119836 -0.120107 -0.381652 -0.321454 -0.34114 -0.365311
          -0.330755 -0.314557 -0.369417 -0.314393 0.615495 0.555971
          0.575552 0.490251 -0.415128 -0.384611 -0.451025 -0.401768
          -0.27258 -0.327695 -0.282402 -0.282981 -0.0194943 -0.0148698
          -0.026493 -0.0142378 -0.598679 -0.59472 -0.607226 -0.606635
          0.892847 0.883765 0.922832 0.939445 -0.319623 -0.274253
          -0.214665 -0.264953 -0.529951 -0.566982 -0.562779 -0.536532
          -0.382787 -0.339323 -0.391712 -0.3705 -0.353888 -0.31289
          -0.278857 -0.327936 -0.183844 -0.144184 -0.184676 -0.180202
          -0.574159 -0.555601 -0.536958 -0.559433 0.317271 0.243135
          0.274001 0.229358 0.913168 0.92421 0.88158 0.870041
          0.652694 0.580698 0.6277 0.538209 1.03604 1.04279
          1.05647 1.09087 -0.0362098 -0.0545277 -0.0436944 -0.0697344
          -0.428618 -0.477368 -0.4245 -0.477031 -0.535277 -0.52226
          -0.545036 -0.554683 -0.00337952 -0.0163549 0.0225208 -0.00572604
          -0.489206 -0.451025 -0.471353 -0.415128 -0.596435 -0.572757
          -0.56772 -0.580307 -0.471625 -0.43155 -0.465409 -0.475595
          -0.0436944 -0.0251656 -0.0225702 -0.0414316 -0.471625 -0.428346
          -0.431469 -0.436534 1.00424 1.04546 1.04279 1.0076
          -0.606613 -0.601484 -0.601281 -0.589541 -0.576022 -0.570157
          -0.576693 -0.58693 -0.191288 -0.171147 -0.239709 -0.164205
          -0.382405 -0.428618 -0.412527 -0.456047 -0.251108 -0.292999
          -0.273168 -0.289606 -0.151939 -0.0853689 -0.145402 -0.163731
          -0.104985 -0.0931318 -0.0727868 -0.0966911 -0.106801 -0.125053
          -0.0931318 -0.122071 0.982276 1.03044 1.0378 0.994842
          -0.451713 -0.440537 -0.384992 -0.410354 -0.248543 -0.230152
          -0.270885 -0.224153 -0.0310522 -0.0414897 -0.0199872 -0.0388337
          -0.49578 -0.472928 -0.431484 -0.465698 0.447798 0.365474
          0.361752 0.466509 0.283342 0.243135 0.26528 0.317271
          -0.393886 -0.451585 -0.462474 -0.445271 -0.18142 -0.166307
          -0.192492 -0.21049 -0.602749 -0.587157 -0.594283 -0.604121
          -0.267026 -0.335138 -0.307478 -0.292999 -0.617884 -0.610222
          -0.604088 -0.614347 -0.581327 -0.596519 -0.587951 -0.564006
          -0.472928 -0.53106 -0.465698 -0.49578 -0.592 -0.605701
          -0.59666 -0.600585 -0.426503 -0.409138 -0.385427 -0.386426
          -0.0122332 -0.029839 -0.0335524 -0.0297218 -0.205679 -0.263183
          -0.275434 -0.248147 0.576606 0.545908 0.580698 0.475443
          0.778517 0.736088 0.764036 0.710946 0.375903 0.420383
          0.43286 0.441455 0 0 0 -0.0126354
          0.953422 0.968415 0.938067 0.962865 0.362052 0.41735
          0.404996 0.346431 1.05647 1.08595 1.09294 1.08311
          -0.38119 -0.3605 -0.376382 -0.421164 0.136241 0.0517336
          0.0409103 0.118803 -0.596049 -0.591783 -0.574662 -0.584442
          0.281712 0.181751 0.270179 0.179964 -0.542389 -0.522822
          -0.506753 -0.498097 -0.160316 -0.20773 -0.178468 -0.183844
          -0.41947 -0.391734 -0.413742 -0.371754 -0.436534 -0.4751
          -0.470342 -0.471625 0.673158 0.715046 0.649864 0.64528
          -0.161331 -0.167424 -0.205679 -0.238931 -0.182875 -0.155184
          -0.184676 -0.131573 0.447798 0.50115 0.361752 0.453532
          -0.503135 -0.521842 -0.548618 -0.508049 -0.357328 -0.321953
          -0.365193 -0.393886 -0.0545277 -0.0826292 -0.0697344 -0.051966
          -0.601903 -0.598996 -0.607479 -0.597244 0.366123 0.281712
          0.266951 0.266939 -0.0697344 -0.0826292 -0.0918569 -0.051966
          -0.550484 -0.541258 -0.514186 -0.515213 -0.555061 -0.538075
          -0.53841 -0.571445 0.555971 0.673158 0.615495 0.591048
          -0.410755 -0.382811 -0.372513 -0.375762 -0.411734 -0.381452
          -0.364239 -0.375762 -0.184803 -0.187186 -0.238023 -0.249103
          -0.386426 -0.337261 -0.369547 -0.341033 -0.0994993 -0.0800162
          -0.0697344 -0.0891458 0.243135 0.147286 0.183895 0.19353
          1.01785 1.07089 1.03044 1.06649 -0.0826948 -0.141522
          -0.116229 -0.0383277 -0.503135 -0.508049 -0.551974 -0.530527
          -0.0507497 -0.029839 -0.0287179 -0.0509829 -0.0663928 -0.0515769
          -0.0436944 -0.0727868 -0.510261 -0.539178 -0.516593 -0.539299
          -0.029839 -0.0122332 -0.0335524 -0.026493 0.490251 0.45118
          0.447798 0.525818 0.37568 0.447798 0.45118 0.422228
          -0.382405 -0.391712 -0.412527 -0.428618 -0.138966 -0.141493
          -0.135977 -0.0979749 0.961097 0.988705 0.97371 0.990392
          -0.317222 -0.397242 -0.294244 -0.360076 -0.100418 -0.139971
          -0.128416 -0.128993 -0.425111 -0.472728 -0.442072 -0.453424
          -0.382405 -0.337823 -0.3705 -0.391712 -0.539182 -0.529951
          -0.528465 -0.501778 0.778517 0.834652 0.771063 0.818175
          0.00411554 -0.0334379 -0.0446928 0.0389614 0.555971 0.453532
          0.50115 0.540835 -0.605701 -0.604568 -0.607233 -0.613989
          0.350848 0.420383 0.359552 0.43286 0.918228 0.952366
          0.962865 0.964402 -0.520643 -0.546836 -0.515213 -0.503281
          -0.382405 -0.337823 -0.412527 -0.3705 -0.587157 -0.59472
          -0.595506 -0.604121 -0.498097 -0.474792 -0.477031 -0.459335
          -0.0994993 -0.0800162 -0.0545277 -0.0697344 0.66868 0.615495
          0.555971 0.673158 0.953422 0.967832 0.994249 0.994842
          -0.581327 -0.570554 -0.553089 -0.55811 -0.27258 -0.339323
          -0.282402 -0.327695 -0.523147 -0.561995 -0.548618 -0.557066
          -0.552479 -0.570554 -0.571251 -0.54589 0.266951 0.15972
          0.266939 0.192337 -0.542343 -0.519906 -0.513988 -0.536958
          -0.59029 -0.581501 -0.593334 -0.600877 -0.598996 -0.610537
          -0.601281 -0.604306 -0.472928 -0.431484 -0.429248 -0.428833
          -0.359323 -0.416931 -0.376847 -0.385172 -0.323018 -0.359323
          -0.376847 -0.330755 -0.611269 -0.617295 -0.617884 -0.614347
          -0.594197 -0.598679 -0.605091 -0.59422 -0.166307 -0.167938
          -0.192492 -0.20878 -0.365193 -0.393886 -0.444654 -0.445271
          -0.578733 -0.594954 -0.581108 -0.594765 -0.559286 -0.55754
          -0.583 -0.58789 -0.563005 -0.573116 -0.584442 -0.584649
          -0.34214 -0.396044 -0.404675 -0.3614 -0.19048 -0.160393
          -0.149963 -0.183844 0 -0.021768 -0.00736282 -0.00317775
          -0.549552 -0.550484 -0.49578 -0.53106 0.725891 0.660272
          0.661841 0.739584 0.274001 0.184625 0.229358 0.243135
          -0.104985 -0.125435 -0.153426 -0.137923 -0.589541 -0.5595
          -0.56754 -0.578377 0.994249 0.973437 0.957611 0.955905
          -0.187651 -0.245591 -0.20773 -0.194693 -0.425111 -0.486264
          -0.472728 -0.453424 -0.587951 -0.59394 -0.601592 -0.597055
          -0.601592 -0.59394 -0.606765 -0.597055 -0.385583 -0.382787
          -0.401189 -0.335303 -0.0676795 -0.0746054 -0.0909205 -0.0492213
          -0.249103 -0.315558 -0.294244 -0.302569 -0.522822 -0.513139
          -0.498097 -0.51427 -0.533339 -0.510261 -0.552519 -0.507128
          -0.457714 -0.440537 -0.384992 -0.451713 0.994064 1.03604
          1.04493 0.994249 -0.528465 -0.501778 -0.487696 -0.509551
          0.274001 0.34242 0.317271 0.325313 -0.529951 -0.573364
          -0.539182 -0.562779 0.763692 0.71224 0.701116 0.778368
          -0.606613 -0.589541 -0.59445 -0.578377 0.982176 0.951491
          0.945894 0.968415 0.701116 0.679028 0.694364 0.6277
          -0.600482 -0.595565 -0.606543 -0.60549 -0.596519 -0.583544
          -0.60849 -0.591591 0.0350586 0.0354087 0.0429092 -0.0339357
          0.953422 0.967832 0.952366 0.957611 0.549801 0.559671
          0.554729 0.486622 -0.598996 -0.601787 -0.60549 -0.595565
          -0.0876329 -0.104158 -0.0748949 -0.0507497 0.964402 0.964402
          0.952366 0.919067 0.918357 0.88027 0.859342 0.909085
          0.941827 0.926939 0.957762 0.924588 -0.0689169 -0.0807488
          -0.0546027 -0.0359205 -0.596519 -0.571117 -0.587951 -0.564006
          -0.587157 -0.559433 -0.576693 -0.572757 -0.426503 -0.385427
          -0.381452 -0.386426 -0.112389 -0.205679 -0.164205 -0.123642
          -0.0918145 -0.0821753 -0.0979749 -0.0987839 -0.571445 -0.582806
          -0.600482 -0.579963 -0.516903 -0.4944 -0.53841 -0.511432
          -0.605091 -0.605291 -0.600585 -0.595495 -0.420885 -0.445396
          -0.409138 -0.456825 -0.591654 -0.594759 -0.605701 -0.583032
          0.871623 0.86023 0.905117 0.859128 -0.592 -0.605701
          -0.600585 -0.585031 -0.458207 -0.482107 -0.46894 -0.501778
          -0.508049 -0.523147 -0.548618 -0.540931 -0.219229 -0.254014
          -0.228437 -0.20773 -0.20773 -0.245591 -0.251108 -0.231736
          0.0590978 0.124246 0.15972 0.0973606 -0.542389 -0.498097
          -0.506753 -0.529073 -0.511239 -0.491207 -0.51427 -0.517394
          -0.562779 -0.596049 -0.583032 -0.577714 0.554729 0.559671
          0.60553 0.481467 -0.608411 -0.617295 -0.611269 -0.614347
          0.554507 0.485717 0.456629 0.528453 0.746051 0.673158
          0.66868 0.750003 0.961753 0.959385 0.941827 0.998789
          -0.209163 -0.321953 -0.264953 -0.274253 -0.598679 -0.606635
          -0.605291 -0.59992 -0.523147 -0.548618 -0.549448 -0.557066
          0.715046 0.635195 0.690529 0.685729 0.962158 0.945524
          0.939445 0.929123 -0.346023 -0.385583 -0.343334 -0.335303
          -0.269956 -0.269019 -0.218544 -0.232947 0.715046 0.6934
          0.769835 0.690529 -0.160316 -0.149963 -0.178468 -0.139971
          0.781783 0.835634 0.813209 0.753101 -0.230152 -0.212972
          -0.239967 -0.224153 -0.217591 -0.211871 -0.151939 -0.14341
          -0.0974204 -0.0909205 -0.10816 -0.114873 -0.20773 -0.178468
          -0.183844 -0.19048 -0.348043 -0.319052 -0.369547 -0.372283
          -0.0310522 -0.00712274 -0.0199872 -0.0274994 -0.594197 -0.591283
          -0.598679 -0.588037 0.701116 0.6934 0.694364 0.764036
          -0.327695 -0.308486 -0.337823 -0.286097 -0.282981 -0.308486
          -0.327695 -0.286097 0.43286 0.359552 0.350848 0.366123
          -0.481413 -0.464844 -0.431484 -0.424615 -0.59853 -0.605155
          -0.613989 -0.600893 -0.3614 -0.326806 -0.360076 -0.315558
          -0.205679 -0.275434 -0.191288 -0.217591 0.371555 0.259679
          0.331217 0.283342 0.685729 0.715046 0.763024 0.769835
          -0.461908 -0.452771 -0.521842 -0.508049 0.964551 0.955905
          0.9563 0.926939 -0.245591 -0.231736 -0.194693 -0.264202
          0.371555 0.23525 0.259679 0.283342 0.903438 0.949524
          0.938067 0.913168 -0.106801 -0.125053 -0.0861512 -0.0931318
          -0.239709 -0.275434 -0.323018 -0.314393 0.590354 0.630668
          0.578483 0.524128 0.325313 0.317271 0.274001 0.229358
          -0.574662 -0.550484 -0.584442 -0.546836 -0.284289 -0.307637
          -0.27071 -0.319052 -0.56841 -0.551364 -0.559713 -0.547039
          -0.605291 -0.606635 -0.606174 -0.607233 -0.208492 -0.25746
          -0.268318 -0.227221 -0.0122332 -0.0206394 -0.029839 -0.0120442
          -0.3614 -0.425111 -0.396044 -0.404675 -0.372283 -0.371754
          -0.391734 -0.397233 1.02927 1.03604 1.04493 0.994064
          -0.154251 -0.114873 -0.138966 -0.135977 -0.520877 -0.563047
          -0.55277 -0.53841 -0.58693 -0.556536 -0.571251 -0.59029
          -0.137564 -0.0946214 -0.0994993 -0.127086 0.961753 0.959385
          0.998789 1.00014 0.0852052 0.0653578 -0.0299528 0.0357389
          -0.516593 -0.513139 -0.549149 -0.539178 0.846221 0.781783
          0.871731 0.813209 0.622921 0.528453 0.620429 0.554507
          -0.372283 -0.307637 -0.326509 -0.319052 -0.576022 -0.547193
          -0.549149 -0.545036 0.896305 0.846848 0.903438 0.913168
          -0.317222 -0.36495 -0.330541 -0.397242 -0.322874 -0.332993
          -0.384992 -0.394107 0.7975 0.862298 0.826851 0.885922
          -0.376382 -0.322874 -0.358312 -0.421164 -0.340524 -0.304688
          -0.289606 -0.311202 -0.565105 -0.5242 -0.555061 -0.538075
          0.649864 0.64528 0.715046 0.746051 -0.59472 -0.58693
          -0.605534 -0.59992 0.270179 0.181751 0.274001 0.184625
          -0.0206394 -0.0297218 -0.0120442 -0.0432173 -0.306575 -0.317802
          -0.279308 -0.292999 0.941827 0.959385 0.96754 0.998789
          0.70697 0.696053 0.681261 0.585769 0.587085 0.671573
          0.6934 0.576957 0.576957 0.591048 0.587085 0.555971
          0.118445 0.0350586 0.114738 0.0853844 0.929123 0.892847
          0.945524 0.939445 0.972754 0.945524 0.939445 0.962158
          0.563365 0.554729 0.486622 0.585769 -0.308486 -0.329643
          -0.337823 -0.286097 -0.308486 -0.293712 -0.339489 -0.329643
          -0.300863 -0.28843 -0.313547 -0.326509 1.07089 1.01785
          1.0631 1.06649 -0.319052 -0.337261 -0.315142 -0.369547
          -0.511239 -0.477707 -0.491207 -0.517394 -0.0433125 -0.0366013
          -0.0158737 -0.0242749 -0.372283 -0.382787 -0.335303 -0.337261
          -0.581327 -0.587951 -0.601183 -0.564006 -0.273168 -0.220618
          -0.223718 -0.271789 -0.0242749 -0.0126354 0 0
          0.213013 0.192337 0.293154 0.215118 0.913168 0.834652
          0.846221 0.871731 0.920067 0.905539 0.96798 0.941827
          -0.360076 -0.425111 -0.396985 -0.397242 0.967832 0.964402
          0.992186 0.962865 -0.0589362 -0.0297218 -0.029839 -0.0432173
          -0.0122332 -0.0297218 -0.014675 -0.029839 0.456629 0.408272
          0.4158 0.359025 -0.607233 -0.617295 -0.611269 -0.608411
          -0.166307 -0.137564 -0.159693 -0.132948 0.45118 0.393062
          0.490251 0.447798 -0.43445 -0.456825 -0.426503 -0.4751
          -0.0507497 -0.029839 -0.026493 -0.0287179 -0.223718 -0.242638
          -0.269019 -0.271789 0.575552 0.490251 0.525818 0.603744
          -0.604088 -0.604306 -0.591783 -0.586673 -0.0873447 -0.191288
          -0.161825 -0.14341 0.962865 0.992186 0.967832 1.01785
          -0.323018 -0.275434 -0.330755 -0.314393 -0.0769447 -0.0918145
          -0.114873 -0.0945442 1.05647 1.09087 1.09294 1.09618
          -0.428833 -0.431484 -0.369417 -0.424615 -0.0876329 -0.0839381
          -0.0507497 -0.0589362 -0.184676 -0.231736 -0.233291 -0.182875
          -0.243691 -0.209163 -0.264953 -0.296868 0.962865 0.962865
          0.968415 0.962865 -0.27071 -0.269019 -0.269956 -0.319052
          -0.458207 -0.46894 -0.440537 -0.487696 -0.57823 -0.587151
          -0.56841 -0.59029 0.315608 0.365474 0.404263 0.326979
          -0.319052 -0.307637 -0.27071 -0.304688 -0.233291 -0.259877
          -0.221329 -0.269019 -0.382787 -0.431223 -0.389167 -0.4245
          -0.125435 -0.159693 -0.132948 -0.153426 -0.34114 -0.317802
          -0.292999 -0.321454 -0.593319 -0.603292 -0.592202 -0.601291
          0.60553 0.694364 0.580698 0.576606 -0.381652 -0.317802
          -0.343334 -0.34114 -0.340524 -0.304688 -0.311202 -0.335303
          -0.610537 -0.606765 -0.615295 -0.615798 -0.589306 -0.582806
          -0.598996 -0.600482 0.982276 0.953422 0.968415 0.949524
          -0.161825 -0.120107 -0.151939 -0.188792 -0.606543 -0.589306
          -0.598996 -0.600482 -0.382405 -0.3705 -0.412527 -0.391712
          -0.542343 -0.513988 -0.514976 -0.522822 -0.348043 -0.372283
          -0.369547 -0.397233 1.02927 0.994064 1.04493 1.00044
          -0.419251 -0.386426 -0.369547 -0.364814 -0.58693 -0.556536
          -0.591591 -0.571251 -0.296868 -0.36495 -0.332993 -0.3605
          -0.601903 -0.610537 -0.597244 -0.607479 -0.144184 -0.149963
          -0.104158 -0.135303 1.00014 0.998789 1.01396 1.04334
          -0.381652 -0.343334 -0.372513 -0.34114 0.97766 1.03743
          1.03394 1.0076 -0.539182 -0.528465 -0.511452 -0.501778
          -0.521842 -0.551974 -0.548618 -0.566595 0.226421 0.176386
          0.187424 0.182399 0.326979 0.362052 0.404996 0.273847
          -0.382787 -0.385583 -0.434857 -0.391712 0.60553 0.694364
          0.652694 0.580698 -0.396044 -0.330541 -0.393886 -0.397242
          0.270179 0.368224 0.342808 0.376145 -0.20773 -0.254014
          -0.228437 -0.251108 1.03604 1.00424 1.04279 0.994249
          -0.372283 -0.319052 -0.326509 -0.348043 -0.109624 -0.149963
          -0.135303 -0.104158 -0.59853 -0.594326 -0.604568 -0.605155
          0.0897101 0.0269334 0.00556753 0.0653578 0.938067 0.896305
          0.917689 0.903438 -0.0545277 -0.0433125 -0.0773241 -0.0516314
          -0.195031 -0.120107 -0.119836 -0.161189 -0.516593 -0.510375
          -0.513139 -0.539178 -0.509551 -0.550484 -0.514186 -0.49578
          0.37568 0.361752 0.422228 0.293154 -0.604306 -0.611269
          -0.608411 -0.606174 -0.477368 -0.456047 -0.490656 -0.483115
          0.576606 0.471849 0.485717 0.475443 -0.55443 -0.536958
          -0.513988 -0.516593 -0.0194943 -0.0251174 -0.0407497 -0.0492213
          -0.116728 -0.166782 -0.184803 -0.205846 0.988705 1.04991
          1.01953 1.02618 0.47369 0.528453 0.554507 0.456629
          -0.153426 -0.137923 -0.188891 -0.186335 -0.592337 -0.588382
          -0.604568 -0.59853 -0.475633 -0.513139 -0.477368 -0.516593
          -0.0362098 -0.00798877 -0.0210781 -0.0295316 -0.489206 -0.415128
          -0.471353 -0.45509 -0.55443 -0.542343 -0.553089 -0.513988
          0.486622 0.476281 0.466509 0.404263 0.0266296 -0.0397778
          -0.0289436 -0.00337952 0.9563 0.992022 0.988705 0.982276
          0.812186 0.817607 0.883765 0.829945 -0.610222 -0.601281
          -0.586673 -0.59445 -0.20878 -0.261287 -0.241278 -0.21049
          0.293154 0.393062 0.447798 0.361752 -0.587157 -0.589823
          -0.594283 -0.574159 -0.504352 -0.536958 -0.519906 -0.533339
          -0.56754 -0.565105 -0.546836 -0.5595 0.982276 0.968415
          0.982176 0.949524 -0.503135 -0.508049 -0.530527 -0.490188
          0.508089 0.514154 0.441455 0.590354 -0.228437 -0.20773
          -0.251108 -0.223718 1.0378 0.994842 1.06649 1.01979
          -0.306575 -0.251108 -0.231736 -0.282402 0.878842 0.900105
          0.918357 0.929042 -0.59029 -0.556536 -0.571251 -0.581501
          -0.550484 -0.574662 -0.541258 -0.546836 0.59525 0.554729
          0.652694 0.580698 -0.264202 -0.231736 -0.194693 -0.212972
          -0.471625 -0.431469 -0.45509 -0.475633 0.350848 0.375425
          0.325313 0.441455 -0.587951 -0.59394 -0.596519 -0.601592
          -0.0918145 -0.0800162 -0.0987839 -0.112705 -0.605701 -0.585031
          -0.592 -0.591654 -0.0663928 -0.0697344 -0.0946214 -0.0515769
          0.834652 0.813209 0.764036 0.771063 -0.163731 -0.0853689
          -0.1008 -0.0669595 -0.466643 -0.4944 -0.446413 -0.487995
          -0.211871 -0.178291 -0.184803 -0.141935 -0.491207 -0.466267
          -0.497359 -0.509131 -0.288495 -0.335138 -0.292999 -0.321454
          -0.520643 -0.503281 -0.481413 -0.503908 -0.104529 -0.0979749
          -0.138966 -0.135977 0.0354087 0.0266296 0.116801 0.0692919
          0.118445 0.0350586 0.0354087 0.114738 -0.510261 -0.489206
          -0.510375 -0.539178 0.957762 1.00044 0.957672 0.964551
          -0.145402 -0.106826 -0.0683123 -0.141935 -0.487696 -0.529951
          -0.509551 -0.485233 -0.20773 -0.254014 -0.251108 -0.245591
          0.375903 0.420383 0.441455 0.508089 -0.532774 -0.5242
          -0.546836 -0.503908 -0.180202 -0.186335 -0.221329 -0.218544
          0.00411554 0.0463107 0.0821265 -0.024701 -0.0414897 -0.055377
          -0.0388337 -0.0456833 0.696053 0.818175 0.759262 0.736088
          -0.274253 -0.321953 -0.264953 -0.319623 0.191131 0.215118
          0.293154 0.22333 -0.132669 -0.106826 -0.0637811 -0.0683123
          -0.104985 -0.122071 -0.0748949 -0.0931318 -0.482959 -0.471625
          -0.45509 -0.475633 0.953422 0.955905 0.9563 0.982276
          -0.421164 -0.46894 -0.424531 -0.464844 -0.571445 -0.567941
          -0.560632 -0.589306 -0.601903 -0.606824 -0.610537 -0.607479
          0.998789 0.973437 0.959385 0.96754 -0.1029 -0.161331
          -0.0831016 -0.106234 0.696053 0.736088 0.681261 0.652694
          -0.580158 -0.578733 -0.594765 -0.590032 -0.60549 -0.606543
          -0.602749 -0.601787 -0.375313 -0.394107 -0.332993 -0.36495
          -0.410354 -0.458207 -0.421164 -0.46894 -0.0697344 -0.0545277
          -0.0436944 -0.0727868 -0.404675 -0.446413 -0.396044 -0.445271
          -0.327936 -0.3605 -0.31289 -0.322874 -0.369547 -0.337261
          -0.315142 -0.341033 -0.0589362 -0.0475263 -0.0297218 -0.0432173
          0.00698102 0.0463107 0.00411554 -0.024701 -0.026493 -0.0194943
          -0.0407497 -0.0373548 -0.239023 -0.322149 -0.297914 -0.254984
          -0.112389 -0.205679 -0.123642 -0.0831016 -0.596049 -0.606174
          -0.600585 -0.601902 0.903438 0.896305 0.917689 0.870345
          -0.184187 -0.137564 -0.159693 -0.166307 -0.562779 -0.566982
          -0.573116 -0.536532 1.0076 1.03743 1.04546 0.992186
          0.331217 0.259679 0.27956 0.26528 0.0897101 0.00556753
          0.00698102 0.0577277 0.603092 0.661841 0.590354 0.725891
          -0.106826 -0.024701 -0.0637811 -0.0683123 -0.00337952 -0.0499682
          0.0225208 -0.0163549 0.37568 0.393062 0.447798 0.293154
          0.342808 0.315974 0.38677 0.346431 -0.153426 -0.132948
          -0.125435 -0.104985 0.514154 0.477071 0.495567 0.43286
          -0.326509 -0.313547 -0.358657 -0.317028 -0.0821753 -0.106306
          -0.0979749 -0.125203 -0.542389 -0.552479 -0.522822 -0.498097
          -0.4751 -0.491207 -0.51427 -0.511239 -0.584442 -0.604088
          -0.586673 -0.584649 -0.59992 -0.606635 -0.605291 -0.607233
          0.176386 0.187424 0.26482 0.273847 -0.59224 -0.594759
          -0.583032 -0.605701 -0.0310522 -0.0199872 -0.0281452 -0.0388337
          -0.311202 -0.292999 -0.340524 -0.34114 -0.529951 -0.544008
          -0.566982 -0.536532 -0.307478 -0.340524 -0.289606 -0.311202
          -0.46894 -0.476443 -0.453267 -0.421164 -0.0158737 0
          0 -0.0331096 0.957611 0.919067 0.918357 0.939445
          -0.122071 -0.153426 -0.155231 -0.137923 -0.470342 -0.474792
          -0.475633 -0.513139 0.918228 0.919067 0.952366 0.964402
          0.508089 0.586952 0.514154 0.603092 0.998789 0.96798
          1.01396 1.00082 0.362052 0.471849 0.41735 0.368224
          0.696053 0.554729 0.59525 0.585769 0.226421 0.22333
          0.272312 0.175661 0.0269334 -0.00792568 0.0973606 0.00556753
          -0.605701 -0.59853 -0.613989 -0.600893 0.0852052 0.0317743
          0.118803 0.127083 -0.182875 -0.191319 -0.154251 -0.184676
          -0.471625 -0.428346 -0.45509 -0.431469 1.0378 1.02033
          0.994842 1.01979 0.905539 0.929042 0.96798 0.941827
          0.953422 0.982276 0.9563 0.949524 -0.335303 -0.307637
          -0.327695 -0.3705 -0.289606 -0.337261 -0.300825 -0.304688
          0.514154 0.43286 0.441455 0.477071 0.475443 0.545908
          0.528453 0.576606 -0.607226 -0.593287 -0.602749 -0.59472
          -0.336744 -0.396985 -0.317222 -0.397242 -0.317222 -0.396985
          -0.369417 -0.397242 0.918357 0.878842 0.859342 0.900105
          -0.461908 -0.453267 -0.395046 -0.406363 0.615495 0.555971
          0.591048 0.575552 -0.523147 -0.557066 -0.549448 -0.539182
          -0.589306 -0.560632 -0.571445 -0.587347 -0.163731 -0.0669595
          -0.119836 -0.120107 0.690529 0.6934 0.769835 0.771063
          -0.0748949 -0.0727868 -0.0931318 -0.0620695 0.770988 0.753101
          0.630668 0.667222 -0.481413 -0.483101 -0.464844 -0.424615
          -0.0295316 -0.0279686 -0.0362098 -0.0515769 0.585769 0.549801
          0.62046 0.559671 0.64528 0.603744 0.621907 0.693554
          -0.471625 -0.4751 -0.492048 -0.465409 -0.144184 -0.155231
          -0.122071 -0.180202 -0.208492 -0.161189 -0.188792 -0.227221
          0.938067 0.918228 0.962865 0.893233 0.771063 0.769835
          0.846221 0.818343 -0.0299528 -0.0383277 -0.120107 -0.0826948
          -0.551364 -0.556536 -0.570157 -0.57823 1.03604 1.09618
          1.03556 1.05426 -0.273168 -0.228437 -0.223718 -0.220618
          0.961097 0.949524 0.982176 0.945894 0.929042 0.96754
          0.941827 0.959385 -0.516593 -0.539299 -0.536958 -0.504352
          -0.482107 -0.476443 -0.453267 -0.46894 0.814724 0.862298
          0.871623 0.846221 -0.152133 -0.171585 -0.160316 -0.140254
          -0.529951 -0.501778 -0.487696 -0.528465 0.559671 0.635195
          0.62046 0.690529 0.490251 0.48689 0.453532 0.366047
          0.453532 0.43286 0.375425 0.366123 -0.0289436 -0.0397778
          -0.0880543 -0.00337952 0.0225208 -0.00572604 0.0517336 -0.00337952
          -0.19048 -0.183844 -0.223718 -0.220618 -0.550484 -0.573116
          -0.562779 -0.584442 -0.516821 -0.471625 -0.526146 -0.502773
          0.0350586 -0.0334379 0.0429092 0.0389614 -0.576103 -0.553089
          -0.570554 -0.552479 -0.578733 -0.600512 -0.581108 -0.601902
          -0.376382 -0.3605 -0.322874 -0.421164 -0.516593 -0.504352
          -0.536958 -0.513988 -0.467995 -0.465925 -0.428833 -0.460937
          0.326979 0.404996 0.408722 0.333469 -0.0909205 -0.0807488
          -0.10816 -0.114873 -0.504352 -0.490656 -0.519906 -0.513988
          0.673158 0.715046 0.64528 0.591048 0.514154 0.587085
          0.555971 0.495567 0.0767849 0.0269334 0.0843481 -0.00310106
          0.835047 0.818175 0.88158 0.819384 -0.0663928 -0.0414316
          -0.0436944 -0.0515769 -0.551364 -0.522255 -0.53041 -0.547039
          0.209665 0.26528 0.182148 0.27956 0.182148 0.27956
          0.26482 0.226339 0.182148 0.26528 0.26482 0.27956
          -0.182875 -0.155184 -0.19356 -0.192492 -0.0299528 -0.0383277
          0.0317743 0.0357389 -0.160316 -0.20773 -0.183844 -0.175025
          0.209665 0.27956 0.182148 0.226339 -0.180202 -0.18142
          -0.184676 -0.221329 -0.264953 -0.214665 -0.219076 -0.163731
          -0.239709 -0.314393 -0.323018 -0.322149 0.920067 0.924588
          0.941827 0.961753 -0.269956 -0.218544 -0.241803 -0.232947
          0.428527 0.461281 0.528453 0.485717 -0.307478 -0.292999
          -0.335138 -0.34114 -0.0142378 -0.0184177 -0.026493 -0.0349902
          0.715046 0.746051 0.79386 0.77037 -0.141522 -0.188792
          -0.217622 -0.208492 0 0 0 0.000284983
          -0.572757 -0.539178 -0.559433 -0.547193 -0.0946214 -0.0994993
          -0.127086 -0.0918569 -0.0407497 -0.0335524 -0.029839 -0.0507497
          -0.503316 -0.467995 -0.520643 -0.472928 -0.604568 -0.59029
          -0.60791 -0.600877 -0.172689 -0.219229 -0.178468 -0.20773
          0.994249 1.00424 0.957611 0.973437 0.6934 0.671573
          0.753101 0.701116 1.04279 1.08311 1.09087 1.08958
          -0.0716904 0.00556753 -0.0124784 -0.0736489 -0.559433 -0.536958
          -0.55443 -0.549149 -0.0987839 -0.125203 -0.0979749 -0.126556
          -0.205679 -0.161331 -0.14341 -0.0831016 -0.421372 -0.453267
          -0.462474 -0.476443 -0.584442 -0.59224 -0.583032 -0.605756
          0.226421 0.273847 0.315608 0.22943 -0.0945442 -0.0918145
          -0.114873 -0.131573 0.26482 0.272312 0.270179 0.176386
          -0.026493 -0.0373548 -0.0359205 -0.0148698 0.771063 0.736088
          0.764036 0.778517 0.475443 0.408272 0.461281 0.373258
          -0.587157 -0.594283 -0.59394 -0.574159 0.64528 0.621907
          0.635195 0.685729 -0.182875 -0.183591 -0.19356 -0.155184
          0.622921 0.620429 0.682538 0.554507 -0.0225702 -0.00693662
          -0.00798877 -0.0295316 -0.0689169 -0.0359205 -0.0546027 -0.0373548
          -0.571365 -0.594759 -0.583032 -0.59224 0.96754 1.00082
          0.96798 0.998789 -0.230152 -0.182875 -0.181463 -0.183591
          0.903438 0.949524 0.913168 0.92421 -0.343334 -0.317802
          -0.292999 -0.34114 -0.582338 -0.555061 -0.582806 -0.567941
          -0.573116 -0.59224 -0.583032 -0.584442 0.514154 0.555971
          0.587085 0.586952 -0.0748949 -0.0872548 -0.0945442 -0.0507497
          -0.125435 -0.0946214 -0.132948 -0.137564 -0.482959 -0.471625
          -0.475595 -0.428346 -0.149963 -0.155231 -0.144184 -0.180202
          0.988705 1.0392 1.04991 1.02395 -0.0407497 -0.0507497
          -0.0676795 -0.0616949 -0.321953 -0.365193 -0.393886 -0.3605
          -0.0131021 -0.0122332 -0.0335524 -0.0297218 0.486622 0.549801
          0.466509 0.476281 -0.550484 -0.49578 -0.520643 -0.515213
          -0.586673 -0.574662 -0.567941 -0.589217 0.453532 0.495567
          0.471849 0.375425 -0.451478 -0.38119 -0.395046 -0.453267
          0.753101 0.770988 0.781563 0.667222 0.696053 0.60553
          0.554729 0.585769 0.375903 0.350848 0.325313 0.441455
          -0.145402 -0.151939 -0.209163 -0.228365 -0.289606 -0.300825
          -0.271789 -0.269019 -0.326509 -0.358657 -0.371754 -0.317028
          -0.0909205 -0.0676795 -0.0546027 -0.0807488 -0.371754 -0.372283
          -0.348043 -0.397233 -0.0873447 -0.123642 -0.171147 -0.191288
          0.922122 0.988705 0.9563 0.964551 0.992022 0.988705
          0.964551 0.9563 -0.191288 -0.254984 -0.217622 -0.161825
          0.00698102 0.0463107 0.0973606 0.088712 0.818343 0.859342
          0.900105 0.846221 1.04334 1.09618 1.05426 1.08362
          -0.308486 -0.27258 -0.270885 -0.286097 -0.264953 -0.321953
          -0.31289 -0.319623 -0.376847 -0.429248 -0.401283 -0.428833
          0.288966 0.194733 0.266939 0.222628 -0.46894 -0.501778
          -0.528465 -0.509551 0.545908 0.461281 0.538209 0.475443
          -0.0277801 -0.0122023 -0.0251656 -0.045854 0.420383 0.43286
          0.441455 0.514154 0.439675 0.538209 0.461281 0.41735
          1.07521 1.0378 1.06649 1.01979 -0.431469 -0.401189
          -0.410755 -0.381652 -0.243691 -0.184803 -0.238023 -0.249103
          -0.559433 -0.516593 -0.536958 -0.549149 -0.510261 -0.504352
          -0.516593 -0.489206 -0.0821753 -0.0918145 -0.0979749 -0.055377
          0.554729 0.60553 0.580698 0.481467 -0.532774 -0.520643
          -0.503316 -0.465925 -0.0689169 -0.0506569 -0.0807488 -0.0359205
          -0.289187 -0.319052 -0.269956 -0.315142 0.746051 0.649864
          0.66868 0.673158 0.481467 0.362052 0.404996 0.365474
          0.984227 1.01979 1.03528 1.02849 -0.593319 -0.594765
          -0.592202 -0.603292 1.08839 1.08158 1.063 1.0378
          -0.0545277 -0.0436944 -0.0509829 -0.0309387 -0.364239 -0.3191
          -0.314827 -0.337261 0.896305 0.938067 0.949524 0.913168
          0.903438 0.945894 0.949524 0.92421 0.992186 1.06673
          1.07455 1.03743 -0.566982 -0.59224 -0.583032 -0.573116
          -0.329643 -0.308486 -0.270885 -0.286097 -0.581327 -0.576103
          -0.596519 -0.564006 -0.0821753 -0.106306 -0.0762623 -0.0979749
          -0.542343 -0.514976 -0.553089 -0.522822 0.826851 0.79386
          0.847262 0.900105 -0.564006 -0.514976 -0.540096 -0.553089
          -0.327936 -0.3605 -0.322874 -0.376382 -0.327936 -0.322874
          -0.358312 -0.376382 -0.376382 -0.421164 -0.358312 -0.410354
          0.315495 0.420383 0.350848 0.375903 -0.0945442 -0.0872548
          -0.0769447 -0.0507497 -0.135977 -0.0918145 -0.126556 -0.112705
          -0.321953 -0.330541 -0.243691 -0.27546 1.03556 1.09087
          1.05647 1.09618 -0.459335 -0.47284 -0.426503 -0.421409
          -0.597055 -0.604121 -0.606765 -0.607479 0.361752 0.215118
          0.272312 0.293154 -0.59992 -0.59666 -0.607233 -0.605291
          -0.606613 -0.614932 -0.601281 -0.601484 -0.545036 -0.505201
          -0.513139 -0.511239 0.47369 0.528453 0.622921 0.554507
          0.422228 0.466509 0.550721 0.476281 0.591048 0.550721
          0.540835 0.559671 -0.38119 -0.3605 -0.327936 -0.376382
          0.0852052 0.0317743 0.0517336 0.118803 -0.516593 -0.549149
          -0.559433 -0.539178 0.585769 0.549801 0.559671 0.554729
          -0.517394 -0.491207 -0.53041 -0.522255 -0.314393 -0.314557
          -0.369417 -0.375313 -0.513988 -0.522822 -0.513139 -0.474792
          -0.331952 -0.264202 -0.306575 -0.279308 0.133991 0.213013
          0.222664 0.191131 0.968415 0.962865 0.938067 0.962865
          -0.319052 -0.337261 -0.369547 -0.372283 -0.151924 -0.184803
          -0.209163 -0.205846 -0.135303 -0.155231 -0.122071 -0.144184
          -0.552479 -0.55443 -0.553089 -0.522822 -0.520643 -0.532774
          -0.56754 -0.546836 -0.0220747 0 -0.00736282 -0.0158737
          0.725891 0.661841 0.712974 0.739584 -0.128993 -0.172689
          -0.139971 -0.160316 -0.0669595 -0.00792568 0.0269334 -0.0716904
          0.272312 0.226421 0.315608 0.29799 -0.60267 -0.60549
          -0.600207 -0.601787 -0.317222 -0.294327 -0.336744 -0.360076
          0.194733 0.146911 0.181751 0.124246 -0.574159 -0.555601
          -0.55443 -0.536958 -0.540931 -0.541258 -0.476443 -0.511452
          -0.254014 -0.292999 -0.267026 -0.251108 0.563365 0.59525
          0.554729 0.585769 0.580698 0.545908 0.6277 0.538209
          -0.421409 -0.449559 -0.397233 -0.41947 0.941827 0.959385
          0.961753 0.957762 -0.520643 -0.465925 -0.503908 -0.481413
          -0.586673 -0.546836 -0.567941 -0.574662 1.03044 1.04279
          1.07089 1.01785 0.365474 0.362052 0.404263 0.326979
          0.834652 0.913168 0.88158 0.870041 -0.385583 -0.343334
          -0.372513 -0.381652 -0.192492 -0.166307 -0.20878 -0.21049
          -0.0467611 -0.0407497 -0.0676795 -0.0616949 0.508089 0.514154
          0.590354 0.603092 -0.372513 -0.340524 -0.311202 -0.335303
          -0.451713 -0.46894 -0.514186 -0.509551 -0.336744 -0.397242
          -0.317222 -0.360076 0.945524 0.892847 0.922832 0.939445
          -0.0194943 -0.0142378 -0.00244451 -0.0148698 -0.410354 -0.451713
          -0.440537 -0.46894 -0.601903 -0.601787 -0.607479 -0.598996
          -0.282981 -0.261287 -0.284289 -0.248485 -0.00572604 -0.0826948
          -0.0163549 -0.0299528 0.26482 0.27956 0.315974 0.226339
          -0.431469 -0.434857 -0.401189 -0.385583 -0.571445 -0.600482
          -0.59431 -0.579963 -0.34114 -0.335138 -0.382811 -0.365311
          0.315608 0.365474 0.326979 0.273847 -0.601903 -0.606824
          -0.601484 -0.610537 -0.154251 -0.114873 -0.135977 -0.131573
          0.953422 0.994249 0.955905 0.982276 -0.122071 -0.137923
          -0.0931318 -0.0966911 0.922122 0.871623 0.88158 0.86023
          -0.55277 -0.555061 -0.525882 -0.571445 -0.364747 -0.3191
          -0.337261 -0.341033 -0.401768 -0.471353 -0.434857 -0.427097
          0.585769 0.559671 0.60553 0.554729 -0.184803 -0.166782
          -0.187186 -0.220345 -0.0683123 -0.145402 -0.0736489 -0.0853689
          -0.279308 -0.245591 -0.264202 -0.231736 -0.529073 -0.498097
          -0.506753 -0.497359 -0.596049 -0.595416 -0.574662 -0.591783
          0.972754 0.97766 0.957611 0.939445 0.994064 1.04493
          0.992022 0.994249 -0.372283 -0.369547 -0.397233 -0.421409
          -0.556536 -0.53041 -0.552479 -0.54589 0.50115 0.559671
          0.471849 0.576957 -0.545036 -0.517394 -0.53041 -0.556536
          -0.557066 -0.578733 -0.577714 -0.577397 -0.0669595 -0.0557286
          -0.120107 -0.0299528 -0.131573 -0.112705 -0.132948 -0.0891458
          0.959385 0.918357 0.973437 0.955905 -0.140254 -0.154251
          -0.128416 -0.114873 -0.376847 -0.428833 -0.401283 -0.369417
          1.03044 1.0076 1.04279 1.01785 0.973437 0.986222
          0.96754 1.00082 1.01785 0.992186 1.0631 1.01445
          -0.60267 -0.593911 -0.604124 -0.595565 -0.228437 -0.20773
          -0.223718 -0.183844 -0.576693 -0.552479 -0.591591 -0.58693
          -0.594326 -0.57823 -0.588382 -0.59029 -0.580158 -0.590032
          -0.593319 -0.566595 -0.567941 -0.571445 -0.582806 -0.589306
          0.576957 0.555971 0.587085 0.495567 0.622921 0.528453
          0.545908 0.620429 -0.358312 -0.394107 -0.384992 -0.421164
          -0.0282422 -0.0324757 -0.00792568 -0.0853689 0.964402 0.952366
          0.939445 0.919067 -0.539182 -0.549448 -0.562779 -0.577714
          1.07607 1.09618 1.04334 1.08362 -0.112389 -0.164205
          -0.0880543 -0.123642 -0.0124784 0.0569261 0.0577277 0.00556753
          -0.263183 -0.238931 -0.275906 -0.300681 -0.584442 -0.563005
          -0.584649 -0.550484 -0.589541 -0.56754 -0.59445 -0.578377
          -0.215086 -0.251108 -0.233291 -0.231736 0.182148 0.26482
          0.176386 0.187424 -0.551364 -0.517394 -0.556536 -0.53041
          0.60553 0.576957 0.475443 0.481467 -0.223718 -0.180202
          -0.221329 -0.218544 0.679028 0.710946 0.694364 0.6277
          -0.0716904 -0.00792568 0.0269334 0.00556753 0.79386 0.84685
          0.847262 0.878842 0.88027 0.812186 0.892847 0.857766
          -0.211871 -0.243691 -0.228365 -0.145402 -0.586673 -0.589217
          -0.567941 -0.582338 1.02395 1.08158 1.08923 1.08839
          0.359025 0.283342 0.331217 0.26528 0.959385 0.994064
          0.955905 0.994249 0.871623 0.814724 0.86023 0.859128
          0.26482 0.362052 0.270179 0.272312 -0.393886 -0.424531
          -0.462474 -0.451585 0.485717 0.376145 0.477071 0.4158
          0.0287109 -0.0324757 0.00698102 -0.00792568 -0.424615 -0.397242
          -0.369417 -0.396985 0.778517 0.771063 0.736088 0.818175
          -0.59394 -0.595506 -0.576103 -0.596519 0.555971 0.48689
          0.453532 0.490251 -0.336744 -0.396985 -0.369417 -0.317222
          -0.515213 -0.514186 -0.49578 -0.464844 0.485717 0.576606
          0.578483 0.477071 -0.598679 -0.607226 -0.605291 -0.606635
          0.272312 0.270179 0.368224 0.362052 -0.19048 -0.160393
          -0.183844 -0.180202 -0.581327 -0.553089 -0.564006 -0.55811
          -0.227508 -0.248485 -0.192492 -0.241278 0.182399 0.187424
          0.273847 0.22943 -0.504352 -0.510261 -0.516593 -0.539299
          -0.27258 -0.327695 -0.282981 -0.308486 -0.381652 -0.34114
          -0.372513 -0.365311 -0.0499682 -0.0778743 -0.0477761 -0.0163549
          0.953422 0.919067 0.9111 0.952366 -0.289187 -0.319052
          -0.315142 -0.348043 -0.603292 -0.594765 -0.592202 -0.605091
          -0.603292 -0.605091 -0.592202 -0.601291 -0.594765 -0.608718
          -0.605091 -0.603292 -0.411734 -0.420885 -0.385427 -0.381452
          -0.411734 -0.43445 -0.420885 -0.381452 -0.43445 -0.456825
          -0.420885 -0.426503 -0.0545277 -0.0433125 -0.0210781 -0.0309387
          -0.0880543 -0.00337952 -0.0778743 -0.0289436 0.778368 0.846848
          0.826217 0.842871 0.945524 0.922832 0.954037 0.939445
          -0.421164 -0.451713 -0.384992 -0.410354 -0.131573 -0.112705
          -0.155184 -0.132948 0.00931725 -0.0557286 -0.0299528 -0.0383277
          -0.601565 -0.600207 -0.589823 -0.588593 -0.026493 -0.0287179
          -0.0206394 -0.0122332 0.79386 0.878842 0.847262 0.900105
          -0.0366013 -0.0242749 -0.0179501 -0.0158737 0.982176 0.968415
          0.982276 0.994842 0.131345 0.175661 0.122055 0.0852052
          -0.408703 -0.431469 -0.428346 -0.410755 -0.331952 -0.308486
          -0.361831 -0.346023 0.0429092 -0.0397778 -0.00337952 -0.0124784
          -0.205679 -0.217591 -0.14341 -0.211871 0.999356 1.03743
          1.03394 0.97766 -0.284289 -0.258818 -0.27071 -0.248485
          -0.385583 -0.401189 -0.343334 -0.335303 -0.270885 -0.230152
          -0.239967 -0.224153 -0.505201 -0.470342 -0.475633 -0.513139
          0.293154 0.366047 0.393062 0.361752 -0.029839 -0.0206394
          -0.026493 -0.0287179 0.346431 0.315974 0.273847 0.26482
          -0.224153 -0.183591 -0.199185 -0.19356 -0.326509 -0.307637
          -0.284289 -0.319052 -0.601903 -0.601592 -0.606824 -0.606765
          -0.596519 -0.60849 -0.601183 -0.606765 0.7975 0.862298
          0.885922 0.859128 -0.264202 -0.27258 -0.231736 -0.230152
          -0.0716904 -0.0669595 -0.0299528 0.0269334 -0.381452 -0.385427
          -0.364239 -0.364747 0.857766 0.829945 0.892396 0.835634
          -0.251108 -0.233291 -0.231736 -0.282402 -0.300863 -0.284289
          -0.28843 -0.326509 -0.112389 -0.123642 -0.0880543 -0.0397778
          -0.0689169 -0.104529 -0.10816 -0.0807488 -0.600512 -0.608718
          -0.594954 -0.605495 -0.209163 -0.0853689 -0.151924 -0.163731
          0.103477 0.133991 0.222664 0.18953 -0.340524 -0.337261
          -0.289606 -0.304688 -0.552479 -0.571251 -0.583544 -0.591591
          -0.528465 -0.562779 -0.514186 -0.550484 -0.0456833 -0.055377
          -0.0388337 -0.0527576 0.64528 0.621907 0.685729 0.745728
          -0.415128 -0.471353 -0.434857 -0.401768 -0.541258 -0.483101
          -0.511452 -0.514186 0.603092 0.660272 0.661841 0.725891
          -0.330541 -0.397242 -0.36495 -0.393886 -0.0872548 -0.128416
          -0.104158 -0.131573 -0.100418 -0.0746054 -0.0676795 -0.0839381
          -0.184676 -0.153426 -0.18142 -0.180202 -0.0873447 -0.171147
          -0.161825 -0.191288 -0.0716904 -0.0853689 -0.151939 -0.163731
          1.0378 1.08158 1.03044 1.02395 1.03556 1.05647
          1.09294 1.09618 0.929042 0.951197 0.96754 0.959385
          -0.376847 -0.416931 -0.428833 -0.385172 -0.53841 -0.4944
          -0.520877 -0.528633 -0.292999 -0.317802 -0.279308 -0.245591
          -0.476443 -0.421164 -0.421372 -0.453267 0.580698 0.576957
          0.576606 0.475443 -0.574662 -0.562779 -0.584442 -0.550484
          0.712974 0.747178 0.671573 0.753101 -0.0545277 -0.0362098
          -0.0309387 -0.0210781 -0.617884 -0.604088 -0.611269 -0.608411
          -0.420765 -0.421171 -0.384992 -0.457714 -0.0407497 -0.0142378
          -0.026493 -0.0349902 0.649864 0.603744 0.64528 0.693554
          -0.0131021 -0.0142378 -0.0122332 0 -0.123642 -0.191288
          -0.205679 -0.164205 -0.539178 -0.549149 -0.559433 -0.547193
          -0.116728 -0.132669 -0.0637811 -0.0683123 0.456629 0.485717
          0.524128 0.4158 0.998789 1.00424 1.03556 1.03604
          -0.595506 -0.576693 -0.576103 -0.591591 -0.323018 -0.376847
          -0.349927 -0.330755 1.00082 1.00424 1.03556 0.998789
          -0.335138 -0.340524 -0.364239 -0.314827 1.00082 1.03556
          1.01396 0.998789 -0.606613 -0.601281 -0.610222 -0.59445
          -0.0126354 0 0 0 -0.58693 -0.571251
          -0.591591 -0.593334 0.988705 1.02618 1.01953 0.990392
          -0.482107 -0.501778 -0.523147 -0.511452 -0.112389 -0.161331
          -0.0831016 -0.1029 -0.228437 -0.183844 -0.223718 -0.19048
          -0.4245 -0.442996 -0.41947 -0.391734 -0.576103 -0.571117
          -0.596519 -0.564006 -0.0697344 -0.0946214 -0.0727868 -0.0663928
          0.0225208 0.0517336 0.10934 0.0569261 0.281712 0.368224
          0.270179 0.375425 -0.0436944 -0.0295316 -0.0362098 -0.0515769
          -0.0453142 -0.00310106 0.0268448 -0.0156401 0.133991 0.122055
          0.103477 0.0812999 -0.60267 -0.608749 -0.600207 -0.60549
          -0.112389 -0.161331 -0.205679 -0.0831016 -0.0557286 -0.0669595
          -0.0156401 -0.00310106 0.48689 0.495567 0.514154 0.555971
          0.871623 0.818175 0.86023 0.814724 0.818175 0.80277
          0.86023 0.814724 -0.46894 -0.501778 -0.511452 -0.528465
          -0.525882 -0.538075 -0.486264 -0.4944 -0.0446928 -0.106234
          -0.0736489 -0.024701 0.0225208 -0.00337952 0.0569261 0.0692919
          -0.182875 -0.184676 -0.192492 -0.227508 -0.598996 -0.595416
          -0.589217 -0.589306 -0.589823 -0.600207 -0.579112 -0.588593
          -0.525882 -0.486264 -0.466643 -0.4944 -0.395046 -0.38119
          -0.31677 -0.353888 0.992186 1.01616 0.97766 1.03743
          1.00424 0.994249 1.03604 0.998789 -0.552479 -0.529073
          -0.542389 -0.570554 -0.471353 -0.475633 -0.516593 -0.489206
          -0.578393 -0.587347 -0.581108 -0.594954 -0.0166612 -0.0683123
          0.0463107 0.00698102 0.576957 0.591048 0.635195 0.690529
          -0.336744 -0.396985 -0.397242 -0.360076 0.994249 0.957611
          1.00424 0.967832 0.949524 0.9563 0.955905 0.913168
          0.896305 0.949524 0.953422 0.913168 -0.429248 -0.431484
          -0.401283 -0.428833 -0.560632 -0.581108 -0.574662 -0.578733
          -0.587951 -0.596519 -0.601183 -0.601592 1.00424 0.986222
          0.998789 1.00082 -0.259877 -0.311202 -0.304688 -0.282402
          -0.0499682 -0.116229 -0.0477761 -0.0778743 -0.45509 -0.408703
          -0.431469 -0.428346 -0.0909205 -0.0676795 -0.0807488 -0.0974204
          0.179964 0.184625 0.181751 0.270179 -0.533339 -0.510261
          -0.504352 -0.539299 -0.526146 -0.505201 -0.545036 -0.511239
          0.913168 0.870041 0.903438 0.92421 -0.4245 -0.477031
          -0.477368 -0.474792 -0.27258 -0.233291 -0.227508 -0.282981
          0.818985 0.812186 0.747178 0.750003 -0.4751 -0.51427
          -0.47284 -0.474792 -0.548618 -0.561118 -0.578733 -0.578393
          -0.546836 -0.5242 -0.538075 -0.503281 0.77037 0.750003
          0.818985 0.747178 -0.0509829 -0.0507497 -0.0432173 -0.0748949
          -0.104158 -0.135303 -0.106801 -0.122071 0.182148 0.132925
          0.0692919 0.10934 0.6934 0.576957 0.60553 0.690529
          -0.607479 -0.606543 -0.606635 -0.606174 0.585769 0.559671
          0.62046 0.60553 -0.371754 -0.372283 -0.326509 -0.348043
          -0.322874 -0.25746 -0.245922 -0.283759 -0.589541 -0.586673
          -0.59445 -0.56754 0.293154 0.361752 0.422228 0.29799
          -0.0566621 -0.0414897 -0.0310522 -0.0456833 0.0429092 0.088712
          0.0853844 0.0389614 -0.428618 -0.427097 -0.456047 -0.382405
          0.131345 0.192337 0.215118 0.179964 -0.602749 -0.600231
          -0.601787 -0.607479 -0.551364 -0.559713 -0.556536 -0.56841
          0.266939 0.194733 0.124246 0.222628 0.359552 0.366123
          0.266951 0.266939 -0.0310522 -0.0274994 -0.0199872 -0.0414897
          0.00931725 0.0269334 0.0653578 -0.0299528 -0.604121 -0.594283
          -0.597055 -0.59394 -0.601592 -0.59394 -0.596519 -0.606765
          -0.596519 -0.59394 -0.571117 -0.576103 -0.600231 -0.593521
          -0.597055 -0.594283 0.192337 0.181751 0.131345 0.0973606
          0.192337 0.181751 0.179964 0.131345 -0.470342 -0.4751
          -0.513139 -0.505201 0.871623 0.846221 0.9111 0.913168
          0.982176 0.984227 0.968415 0.994842 -0.00572604 -0.0163549
          0.0517336 0.0317743 0.869577 0.847262 0.905539 0.900105
          -0.508049 -0.540931 -0.561118 -0.530527 -0.536958 -0.516593
          -0.55443 -0.549149 -0.556744 -0.531799 -0.516821 -0.526146
          -0.59992 -0.592337 -0.59666 -0.605291 0 -0.0126354
          0 0 -0.482107 -0.421164 -0.452771 -0.458207
          0.481467 0.365474 0.404263 0.466509 -0.104158 -0.109624
          -0.144184 -0.128416 -0.0876329 -0.106801 -0.0693774 -0.0931318
          -0.580307 -0.579112 -0.589823 -0.559433 -0.576103 -0.574159
          -0.55443 -0.576693 -0.561995 -0.578733 -0.580158 -0.566595
          -0.503316 -0.465925 -0.467995 -0.460937 0.846221 0.857766
          0.818343 0.859342 -0.533339 -0.539299 -0.552519 -0.510261
          -0.330755 -0.314557 -0.275434 -0.317222 -0.0148698 -0.00244451
          -0.00900036 0 0.0269334 0.0973606 0.0843481 0.0897101
          -0.0931318 -0.125053 -0.133725 -0.122071 0.842871 0.896305
          0.846848 0.893233 0.43286 0.375425 0.441455 0.477071
          0.746051 0.84685 0.847262 0.79386 0.507176 0.481467
          0.538209 0.439675 0.778368 0.842871 0.826217 0.781563
          -0.217622 -0.239023 -0.297914 -0.254984 -0.372513 -0.335138
          -0.375762 -0.34114 0.586952 0.66868 0.555971 0.673158
          -0.596519 -0.583544 -0.581327 -0.60849 0.0590978 0.0456061
          0.139303 0.0463107 -0.577714 -0.595416 -0.578733 -0.574662
          0.835634 0.753101 0.781563 0.778368 -0.254984 -0.239709
          -0.314393 -0.275434 -0.376847 -0.416931 -0.429248 -0.428833
          -0.563047 -0.560632 -0.53841 -0.528633 -0.573116 -0.583032
          -0.562779 -0.584442 -0.175025 -0.144184 -0.160316 -0.128416
          -0.308486 -0.253853 -0.270885 -0.27258 -0.43445 -0.4751
          -0.471625 -0.465409 -0.284289 -0.289187 -0.317028 -0.319052
          0.926939 0.859128 0.871623 0.905117 0.893709 0.86023
          0.88158 0.835047 -0.300863 -0.286097 -0.282981 -0.337823
          -0.58789 -0.580329 -0.586375 -0.588037 -0.144184 -0.149963
          -0.183844 -0.160316 0 0 0 -0.00317775
          -0.359571 -0.317802 -0.346023 -0.343334 0.918357 0.919067
          0.857766 0.939445 -0.160316 -0.144184 -0.139971 -0.128416
          0.447798 0.50115 0.540835 0.466509 -0.120107 -0.0716904
          -0.163731 -0.0669595 0.453532 0.366123 0.368224 0.361752
          0.982176 1.02033 0.994842 0.982276 0.22333 0.215118
          0.293154 0.29799 -0.0946214 -0.104985 -0.0994993 -0.0891458
          -0.335303 -0.307637 -0.339323 -0.327695 0.0354087 0.116801
          0.114738 0.0692919 0.0897101 0.131345 0.0653578 0.0852052
          -0.218544 -0.186335 -0.221329 -0.232947 -0.123642 -0.0873447
          -0.0880543 -0.00337952 1.02927 1.03604 1.00014 1.04334
          -0.0909205 -0.0990623 -0.0974204 -0.140254 0.215118 0.281712
          0.361752 0.272312 0.0429092 -0.00337952 0.0692919 -0.0124784
          -0.592337 -0.588382 -0.59992 -0.604568 -0.0589362 -0.0297218
          -0.0335524 -0.029839 -0.0194943 -0.0251174 -0.0142378 -0.0407497
          0.977511 1.01616 0.97766 0.992186 -0.34114 -0.343334
          -0.311202 -0.292999 -0.178291 -0.106234 -0.141935 -0.161331
          -0.45509 -0.415128 -0.431469 -0.408703 -0.381452 -0.337261
          -0.389167 -0.386426 0.368224 0.362052 0.26482 0.342808
          -0.0839381 -0.0872548 -0.104158 -0.0507497 -0.0807488 -0.055377
          -0.0918145 -0.0769447 -0.00736282 0 -0.0220747 -0.021768
          -0.0872548 -0.104158 -0.0945442 -0.131573 -0.3605 -0.36495
          -0.332993 -0.394107 -0.451713 -0.465698 -0.493674 -0.49578
          0.585769 0.549801 0.554729 0.486622 0.350848 0.43286
          0.375425 0.441455 -0.0891458 -0.0946214 -0.104985 -0.0697344
          0.0463107 -0.0683123 0.00106752 0.00698102 -0.504352 -0.539299
          -0.536958 -0.533339 -0.364239 -0.3191 -0.337261 -0.364747
          -0.141935 -0.106826 -0.0683123 -0.0736489 -0.382405 -0.337823
          -0.391712 -0.339323 -0.539182 -0.549448 -0.577714 -0.557066
          0.834652 0.813209 0.771063 0.846221 0.770988 0.671573
          0.630668 0.753101 -0.0310522 -0.0414897 -0.0388337 -0.0456833
          -0.607233 -0.613989 -0.617295 -0.608411 0.938067 0.949524
          0.945894 0.968415 -0.327936 -0.322874 -0.278857 -0.283759
          -0.55754 -0.556744 -0.583 -0.58394 0.37568 0.293154
          0.447798 0.361752 0.673158 0.64528 0.615495 0.591048
          -0.446413 -0.4944 -0.451585 -0.487995 -0.602749 -0.596435
          -0.608847 -0.601565 -0.273168 -0.251108 -0.289606 -0.259877
          -0.465925 -0.442072 -0.428833 -0.396985 -0.314393 -0.375313
          -0.297914 -0.332993 0.917689 0.938067 0.893233 0.870345
          -0.0516314 -0.0423778 -0.0545277 -0.0321671 -0.401283 -0.431484
          -0.375313 -0.369417 0.213013 0.266951 0.300576 0.281712
          -0.249103 -0.243691 -0.276286 -0.326806 0.0973606 0.192337
          0.15972 0.153568 -0.535277 -0.531799 -0.526146 -0.502773
          -0.0179501 -0.0242749 -0.0199872 -0.0158737 -0.138966 -0.104529
          -0.141493 -0.0979749 -0.604088 -0.610537 -0.604306 -0.601281
          0.447798 0.466509 0.540835 0.525818 0.326979 0.273847
          0.333469 0.22943 0.420383 0.48689 0.514154 0.508089
          -0.580158 -0.591306 -0.592202 -0.594765 -0.228437 -0.19048
          -0.223718 -0.220618 0.71224 0.701116 0.778368 0.682538
          -0.372513 -0.343334 -0.311202 -0.34114 0.175661 0.18953
          0.122055 0.127083 -0.0697344 -0.0946214 -0.104985 -0.0727868
          -0.0388337 -0.0199872 -0.0281452 -0.0366013 0.191131 0.192337
          0.215118 0.131345 -0.606613 -0.614932 -0.610222 -0.601281
          -0.0693774 -0.106801 -0.0861512 -0.0931318 -0.557066 -0.561995
          -0.578733 -0.577397 -0.58693 -0.591591 -0.605534 -0.59029
          -0.166782 -0.187186 -0.168531 -0.132669 -0.4245 -0.391712
          -0.428618 -0.3705 -0.513988 -0.490656 -0.519906 -0.483115
          -0.516821 -0.475595 -0.502773 -0.531799 -0.59431 -0.589306
          -0.571445 -0.587347 -0.526146 -0.471625 -0.492048 -0.502773
          -0.230152 -0.212972 -0.199185 -0.183591 -0.0453142 -0.0282422
          -0.00310106 -0.0669595 -0.0918145 -0.0979749 -0.135977 -0.126556
          -0.385172 -0.396985 -0.369417 -0.336744 1.02927 1.04493
          1.0392 1.00044 -0.442996 -0.421795 -0.4245 -0.412527
          -0.4245 -0.421795 -0.442996 -0.391734 -0.571365 -0.573364
          -0.529951 -0.562779 -0.0515769 -0.0362098 -0.0436944 -0.0697344
          0.977511 0.992186 0.97766 0.992186 0.913168 0.949524
          0.9563 0.92421 1.07521 1.01979 1.06259 1.03528
          -0.231736 -0.230152 -0.194693 -0.212972 -0.591521 -0.559286
          -0.58789 -0.580329 0.696053 0.771063 0.818175 0.736088
          -0.567941 -0.574662 -0.560632 -0.589306 0.826851 0.79386
          0.900105 0.862298 -0.591521 -0.58789 -0.602659 -0.591283
          -0.4751 -0.47284 -0.426503 -0.474792 -0.471625 -0.470342
          -0.475633 -0.505201 -0.206792 -0.239023 -0.265338 -0.217622
          0.871623 0.834652 0.846221 0.913168 1.0631 1.01785
          1.06038 1.06649 1.07607 1.03604 1.04334 1.09618
          -0.0669595 -0.0853689 -0.00792568 -0.0716904 -0.306575 -0.282402
          -0.231736 -0.27258 -0.451025 -0.471353 -0.510261 -0.489206
          0.326979 0.404996 0.333469 0.273847 -0.509551 -0.562779
          -0.528465 -0.550484 -0.0433125 -0.0331096 -0.0158737 -0.0366013
          0.922122 0.94404 0.961097 0.988705 -0.451478 -0.444654
          -0.402251 -0.421372 -0.395046 -0.38119 -0.353888 -0.406363
          -0.552479 -0.553089 -0.570554 -0.542389 -0.0946214 -0.0697344
          -0.0918569 -0.051966 0.661841 0.671573 0.712974 0.747178
          -0.4944 -0.487995 -0.520877 -0.528633 -0.0499682 -0.0477761
          0.0409103 -0.0163549 0.420383 0.359552 0.43286 0.48689
          -0.282981 -0.248485 -0.284289 -0.307637 0.215118 0.281712
          0.272312 0.270179 -0.428618 -0.434857 -0.391712 -0.431223
          -0.464844 -0.481413 -0.431484 -0.49578 0.957762 0.994064
          1.00014 1.00044 0.114738 0.166498 0.183895 0.19353
          -0.335303 -0.307637 -0.337261 -0.304688 -0.026493 -0.0126354
          -0.0148698 -0.0287179 -0.116728 -0.0853689 -0.0683123 -0.0324757
          -0.112705 -0.0800162 -0.0987839 -0.106414 0.938067 0.962865
          0.93937 0.893233 0.989552 0.989552 1.02841 1.02849
          -0.372513 -0.381452 -0.375762 -0.340524 -0.0716904 0.00698102
          -0.00792568 0.00556753 -0.3191 -0.306156 -0.300825 -0.341033
          0.477071 0.376145 0.368224 0.375425 -0.562779 -0.574662
          -0.596049 -0.577714 0.404996 0.41735 0.38677 0.346431
          -0.0689169 -0.0807488 -0.0762623 -0.104529 -0.584442 -0.583032
          -0.562779 -0.596049 0.00698102 0.00411554 0.0463107 0.088712
          -0.556536 -0.56841 -0.59029 -0.57823 0.771063 0.814724
          0.871623 0.846221 -0.581327 -0.576103 -0.553089 -0.570554
          -0.46894 -0.511452 -0.514186 -0.528465 -0.0407497 -0.029839
          -0.026493 -0.0507497 0.375903 0.420383 0.350848 0.43286
          -0.0124784 -0.0736489 0.00698102 0.00411554 -0.609688 -0.607226
          -0.602749 -0.60549 -0.578393 -0.594765 -0.578733 -0.590032
          -0.578393 -0.594954 -0.578733 -0.594765 -0.55277 -0.582806
          -0.571445 -0.579963 -0.475595 -0.407104 -0.428346 -0.43155
          -0.59472 -0.576022 -0.576693 -0.58693 -0.451478 -0.453267
          -0.402251 -0.38119 -0.228437 -0.20773 -0.183844 -0.19048
          0.325313 0.229358 0.274001 0.288966 -0.132948 -0.159693
          -0.166307 -0.153426 0.685729 0.690529 0.769835 0.71259
          -0.520643 -0.56754 -0.552556 -0.53106 -0.0124784 -0.00337952
          0.0569261 0.00556753 -0.610537 -0.615798 -0.615295 -0.617884
          -0.535277 -0.502773 -0.526146 -0.52226 0.763692 0.764036
          0.710946 0.778517 -0.161331 -0.112389 -0.205679 -0.167424
          -0.330755 -0.275434 -0.314557 -0.314393 -0.539299 -0.501965
          -0.539178 -0.529701 -0.451713 -0.46894 -0.509551 -0.487696
          -0.34214 -0.357328 -0.404675 -0.396044 -0.451713 -0.49578
          -0.431484 -0.465698 1.03044 1.04279 1.08172 1.07089
          1.04279 1.08311 1.08172 1.07089 -0.322874 -0.3605
          -0.31289 -0.264953 -0.570157 -0.554683 -0.575633 -0.586375
          -0.559713 -0.581501 -0.556536 -0.56841 -0.520643 -0.515213
          -0.481413 -0.503281 -0.0826948 -0.116229 -0.0477761 -0.0383277
          -0.389167 -0.421409 -0.372283 -0.4245 0.26528 0.184625
          0.274001 0.243135 -0.0880543 -0.171147 -0.0778743 -0.0873447
          0.635195 0.621907 0.62046 0.685729 -0.251108 -0.292999
          -0.279308 -0.245591 0.591048 0.540835 0.50115 0.559671
          -0.155184 -0.160773 -0.183665 -0.142377 0.92421 0.949524
          0.961097 0.945894 -0.311202 -0.306575 -0.282402 -0.251108
          -0.359323 -0.376847 -0.330755 -0.385172 -0.231736 -0.227508
          -0.182875 -0.230152 -0.617884 -0.608411 -0.611269 -0.614347
          0.215118 0.270179 0.272312 0.179964 0.0590978 0.0973606
          0.153568 0.0767849 0.0287109 0.0973606 0.0590978 0.0767849
          -0.106826 -0.024701 -0.0683123 -0.0736489 -0.560632 -0.561124
          -0.528633 -0.563047 -0.140254 -0.155792 -0.154251 -0.10816
          -0.283759 -0.268318 -0.322874 -0.25746 -0.183844 -0.149963
          -0.178468 -0.160316 -0.0289436 -0.0499682 0.0225208 -0.00337952
          -0.43445 -0.426503 -0.381452 -0.431223 -0.116728 -0.166782
          -0.168531 -0.132669 0.922122 0.926939 0.964551 0.9563
          0 -0.00736282 0 -0.00317775 -0.594197 -0.601291
          -0.605091 -0.605715 0.685729 0.769835 0.763024 0.71259
          1.0076 0.992186 1.03743 0.992186 -0.0727868 -0.0620695
          -0.0414316 -0.0663928 -0.570554 -0.553089 -0.55811 -0.542389
          -0.608411 -0.605701 -0.614347 -0.605756 0.0389614 0.088712
          0.136628 0.0821265 0.813209 0.781783 0.771063 0.846221
          -0.408703 -0.385583 -0.431469 -0.401189 -0.419251 -0.411353
          -0.409138 -0.386426 -0.565105 -0.546836 -0.567941 -0.56754
          -0.145402 -0.211871 -0.141935 -0.14341 -0.27071 -0.248485
          -0.241803 -0.221329 0.393062 0.366047 0.490251 0.447798
          -0.149752 -0.239023 -0.206792 -0.217622 -0.00337952 -0.0873447
          -0.0778743 -0.00572604 -0.0839381 -0.0676795 -0.0507497 -0.0616949
          -0.522822 -0.477031 -0.509884 -0.498097 -0.556536 -0.51427
          -0.552479 -0.53041 -0.214665 -0.209163 -0.163731 -0.264953
          -0.0506569 -0.0274994 -0.0359205 -0.0373548 -0.4751 -0.455538
          -0.492054 -0.465409 0.229358 0.146911 0.184625 0.194733
          0.346431 0.439675 0.404996 0.333469 -0.0876329 -0.109624
          -0.106801 -0.104158 0.953422 0.9563 0.955905 0.949524
          0.918357 0.909085 0.929042 0.951197 0.826217 0.842871
          0.846848 0.893233 -0.503316 -0.465925 -0.520643 -0.467995
          -0.0727868 -0.0945442 -0.0891458 -0.0509829 0.00931725 0.0653578
          0.0357389 -0.0299528 0.0653578 0.00556753 -0.00572604 -0.0299528
          -0.219229 -0.254014 -0.20773 -0.245591 0.10934 0.0852052
          0.118803 0.176386 -0.4616 -0.483115 -0.449159 -0.477031
          -0.509884 -0.477031 -0.522822 -0.513988 -0.288495 -0.292999
          -0.267026 -0.254014 -0.288495 -0.335138 -0.267026 -0.292999
          0 -0.0199872 0 0 -0.605495 -0.600482
          -0.600512 -0.606543 0.929042 0.951197 0.959385 0.918357
          -0.0310522 -0.0165859 -0.0281452 -0.0199872 -0.215086 -0.20773
          -0.175025 -0.183844 -0.166307 -0.159693 -0.18142 -0.153426
          0.439675 0.404996 0.481467 0.41735 -0.526146 -0.547193
          -0.55754 -0.545036 0.918357 0.939445 0.88027 0.929123
          -0.391712 -0.367459 -0.401768 -0.382405 0.715046 0.64528
          0.685729 0.745728 0.175661 0.127083 0.226421 0.22333
          -0.132948 -0.0994993 -0.112705 -0.142377 0.37568 0.393062
          0.45118 0.447798 -0.561124 -0.587347 -0.560632 -0.581108
          0.673158 0.649864 0.615495 0.64528 0.00556753 0.00698102
          -0.0124784 -0.0736489 1.03604 1.08958 1.07607 1.04493
          0.0590978 0.139303 0.15972 0.124246 -0.596049 -0.601902
          -0.600585 -0.591306 0.763692 0.71224 0.778368 0.805121
          -0.289606 -0.304688 -0.269019 -0.259877 0.747178 0.835634
          0.781783 0.753101 -0.322874 -0.384992 -0.297914 -0.330448
          0.00556753 0.00698102 0.0973606 0.0897101 0.486622 0.554729
          0.470357 0.481467 0.554729 0.559671 0.481467 0.486622
          -0.593287 -0.587157 -0.602749 -0.59472 1.00424 0.999356
          1.03394 1.0076 -0.159693 -0.18142 -0.188891 -0.166307
          -0.0727868 -0.0946214 -0.104985 -0.0663928 0.823583 0.770988
          0.781563 0.753101 -0.00572604 0.0317743 0.0852052 -0.0299528
          -0.236674 -0.265338 -0.330448 -0.297914 1.09618 1.09294
          1.03556 1.05426 1.03394 1.03743 1.04546 1.0076
          0.88027 0.859342 0.818985 0.857766 0.957611 0.919067
          0.9111 0.918357 1.04334 0.998789 1.01396 1.05426
          -0.184187 -0.137564 -0.166307 -0.16821 0.71224 0.682538
          0.778368 0.756258 0.778368 0.682538 0.781563 0.756258
          -0.580307 -0.588593 -0.579112 -0.552519 0.994842 1.01979
          1.01785 1.06649 -0.0589362 -0.0748949 -0.0432173 -0.0507497
          -0.4616 -0.453798 -0.492321 -0.442996 -0.36495 -0.369417
          -0.424615 -0.397242 -0.0872548 -0.0546027 -0.0769447 -0.0507497
          -0.565105 -0.5242 -0.538075 -0.546836 0.77037 0.747178
          0.818985 0.812186 -0.3191 -0.306156 -0.341033 -0.364814
          0.696053 0.71259 0.814724 0.771063 0.0897101 0.00556753
          0.0569261 0.0852052 -0.595416 -0.606543 -0.606174 -0.601902
          -0.539182 -0.549448 -0.511452 -0.528465 -0.563005 -0.550484
          -0.53106 -0.546836 -0.503908 -0.5242 -0.503281 -0.472728
          -0.332993 -0.375313 -0.297914 -0.384992 -0.559286 -0.556744
          -0.583 -0.55754 0.191131 0.22333 0.293154 0.265476
          -0.166307 -0.18142 -0.188891 -0.21049 -0.286097 -0.27258
          -0.270885 -0.248543 -0.141522 -0.161189 -0.188792 -0.208492
          -0.152133 -0.187651 -0.160316 -0.171585 -0.0826292 -0.0423778
          -0.0448786 -0.051966 -0.0589362 -0.029839 -0.0335524 -0.0507497
          0.559671 0.550721 0.62046 0.635195 0.982276 1.02033
          0.994842 1.0378 -0.550484 -0.541258 -0.515213 -0.546836
          -0.55277 -0.582806 -0.555061 -0.571445 -0.209163 -0.243691
          -0.264953 -0.321953 -0.411353 -0.364747 -0.409138 -0.386426
          -0.319052 -0.335303 -0.307637 -0.337261 -0.151939 -0.163731
          -0.219076 -0.188792 -0.0945442 -0.0509829 -0.0769447 -0.0891458
          -0.493674 -0.53106 -0.49578 -0.465698 -0.0499682 -0.0163549
          0.0409103 0.0517336 -0.607479 -0.601787 -0.606543 -0.598996
          1.03604 1.03556 0.998789 1.05426 -0.607226 -0.602749
          -0.606543 -0.604121 -0.428618 -0.431223 -0.391712 -0.382787
          -0.0242749 -0.0199872 0 0 -0.0727868 -0.0966911
          -0.0931318 -0.0620695 0.961753 0.96798 1.01396 1.00014
          -0.0499682 -0.149752 -0.0477761 -0.116229 0.690529 0.771063
          0.769835 0.71259 -0.0310522 -0.0165859 -0.0199872 -0.00712274
          0.982176 0.984227 0.951491 0.968415 -0.0131021 -0.0184177
          -0.0122332 -0.0142378 -0.55443 -0.513988 -0.522822 -0.513139
          -0.523147 -0.548618 -0.540931 -0.549448 -0.533339 -0.539299
          -0.559433 -0.552519 -0.456825 -0.445396 -0.409138 -0.419251
          -0.0282422 -0.0853689 -0.00792568 -0.0669595 -0.525882 -0.4944
          -0.520877 -0.53841 -0.132948 -0.0994993 -0.142377 -0.127086
          -0.359571 -0.361831 -0.415128 -0.385583 0.620429 0.576606
          0.485717 0.528453 -0.487696 -0.457714 -0.509551 -0.440537
          0.893709 0.905117 0.922122 0.86023 0.580698 0.576606
          0.701116 0.620429 0.973437 0.96754 0.951197 0.959385
          0.973437 0.986222 0.951197 0.96754 -0.144184 -0.149963
          -0.160316 -0.139971 0.60553 0.576957 0.576606 0.580698
          0.59525 0.580698 0.652694 0.538209 0.580698 0.694364
          0.652694 0.6277 -0.595416 -0.574662 -0.589217 -0.589306
          1.03743 1.07455 1.08595 1.06673 0.764036 0.701116
          0.679028 0.694364 -0.214665 -0.151924 -0.163731 -0.209163
          0.179964 0.181751 0.0897101 0.131345 0.293154 0.215118
          0.272312 0.29799 0.293154 0.281712 0.361752 0.215118
          -0.307637 -0.326509 -0.327695 -0.3705 -0.026493 -0.0148698
          -0.0359205 -0.0287179 -0.026493 -0.0546027 -0.0287179 -0.0359205
          -0.132948 -0.166307 -0.18142 -0.153426 -0.371754 -0.391734
          -0.326509 -0.372283 -0.282981 -0.327695 -0.337823 -0.286097
          0.823583 0.781563 0.842871 0.835634 -0.306575 -0.292999
          -0.279308 -0.251108 -0.217622 -0.254984 -0.25746 -0.188792
          1.04493 1.08923 1.02395 1.03044 -0.116421 -0.214665
          -0.163731 -0.182761 -0.0206394 -0.0432173 -0.0251656 -0.0436944
          -0.0716904 0.00698102 0.00556753 -0.0736489 0.576957 0.6934
          0.673158 0.591048 -0.592202 -0.601291 -0.605091 -0.594197
          -0.372513 -0.381452 -0.335303 -0.382787 -0.557066 -0.548618
          -0.549448 -0.578733 0.485717 0.471849 0.477071 0.376145
          -0.382787 -0.339323 -0.385583 -0.391712 -0.545036 -0.551364
          -0.556536 -0.570157 -0.508049 -0.540931 -0.530527 -0.511432
          0.587085 0.576957 0.673158 0.591048 1.01979 0.994842
          0.984227 1.03528 -0.219229 -0.267026 -0.228437 -0.254014
          -0.471625 -0.428346 -0.436534 -0.410755 -0.116421 -0.182761
          -0.163731 -0.144824 0.97371 0.988705 1.01953 0.990392
          -0.592 -0.595495 -0.587756 -0.600585 0.917689 0.938067
          0.945894 0.951491 -0.155792 -0.10816 -0.138966 -0.154251
          0.00698102 0.088712 0.0973606 0.0897101 0.764036 0.679028
          0.710946 0.694364 0.667222 0.620429 0.671573 0.578483
          0.962865 1.01785 0.989552 1.01445 -0.59472 -0.604121
          -0.602749 -0.606635 -0.567941 -0.555061 -0.582806 -0.571445
          0.871623 0.926939 0.913168 0.9111 0.0973606 0.124246
          0.15972 0.181751 -0.0676795 -0.0407497 -0.0492213 -0.0546027
          -0.0339357 -0.112389 -0.0397778 -0.0831016 -0.611269 -0.606635
          -0.605534 -0.607233 0.892847 0.817607 0.883765 0.812186
          -0.578733 -0.581108 -0.600512 -0.594765 0.362052 0.26482
          0.273847 0.272312 -0.106234 -0.0736489 -0.106826 -0.141935
          -0.510261 -0.510375 -0.516593 -0.539178 0.088712 0.184625
          0.181751 0.164525 -0.605291 -0.59422 -0.59666 -0.595495
          0.679028 0.701116 0.763692 0.71224 0.114738 0.0350586
          0.0354087 0.0429092 -0.59394 -0.580147 -0.571117 -0.574159
          -0.589541 -0.565105 -0.586673 -0.56754 0.266939 0.222628
          0.266951 0.315495 -0.580307 -0.552519 -0.579112 -0.559433
          -0.580307 -0.552519 -0.559433 -0.539299 -0.594197 -0.605715
          -0.605091 -0.591283 -0.507128 -0.470143 -0.490656 -0.504352
          -0.587157 -0.559433 -0.574159 -0.576693 -0.122071 -0.137923
          -0.0966911 -0.104985 0.273847 0.346431 0.333469 0.226445
          -0.175025 -0.144184 -0.184676 -0.183844 0.920067 0.905539
          0.941827 0.900105 -0.0499682 -0.149752 -0.116229 -0.120025
          -0.509551 -0.529951 -0.528465 -0.536532 0.9111 0.857766
          0.846221 0.859342 -0.335138 -0.340524 -0.314827 -0.307478
          -0.292999 -0.307478 -0.273168 -0.289606 0.179964 0.164525
          0.181751 0.184625 0.924588 0.941827 0.961753 0.957762
          -0.0589362 -0.0876329 -0.0693774 -0.0748949 0.587085 0.6934
          0.673158 0.576957 -0.104985 -0.122071 -0.0931318 -0.0966911
          0.620429 0.528453 0.545908 0.576606 0.693554 0.621907
          0.64528 0.745728 0.586952 0.555971 0.587085 0.673158
          -0.0324757 -0.0166612 0.0463107 0.00698102 -0.526146 -0.511239
          -0.545036 -0.52226 0.471849 0.362052 0.481467 0.466509
          0.209665 0.116801 0.182148 0.19353 -0.428618 -0.3705
          -0.391734 -0.4245 -0.172689 -0.187651 -0.20773 -0.160316
          -0.357328 -0.393886 -0.365193 -0.445271 -0.215086 -0.184676
          -0.233291 -0.223718 -0.0945442 -0.0769447 -0.0918145 -0.0891458
          -0.421409 -0.449559 -0.41947 -0.459335 0.994249 0.955905
          0.967832 0.953422 -0.319052 -0.289187 -0.317028 -0.348043
          0.362052 0.346431 0.404996 0.273847 0.375903 0.43286
          0.350848 0.441455 -0.570157 -0.554683 -0.586375 -0.576022
          -0.600512 -0.607226 -0.601902 -0.605091 -0.584442 -0.583032
          -0.596049 -0.605756 0.972754 1.01616 0.97766 0.977511
          -0.593319 -0.590032 -0.594765 -0.603292 -0.217591 -0.161825
          -0.254984 -0.191288 -0.504352 -0.490656 -0.513988 -0.477368
          -0.508049 -0.561118 -0.548618 -0.530527 0.992186 0.97766
          1.0076 0.992186 -0.421795 -0.361795 -0.413742 -0.391734
          -0.391734 -0.358657 -0.413742 -0.371754 -0.461908 -0.508049
          -0.521842 -0.503135 -0.055377 -0.0414897 -0.0388337 -0.0359205
          -0.52226 -0.511239 -0.545036 -0.517394 0.812186 0.725891
          0.712974 0.739584 -0.605291 -0.607226 -0.601902 -0.606174
          -0.231736 -0.191319 -0.194693 -0.230152 -0.580307 -0.559433
          -0.56772 -0.539299 -0.337261 -0.381452 -0.364239 -0.364747
          -0.128416 -0.152133 -0.160316 -0.140254 0.968415 0.989552
          0.984227 0.962865 -0.549552 -0.562779 -0.509551 -0.550484
          -0.220618 -0.180202 -0.218544 -0.197009 -0.509551 -0.536532
          -0.493674 -0.485233 -0.549552 -0.573116 -0.562779 -0.550484
          -0.536532 -0.562779 -0.509551 -0.549552 -0.511452 -0.549448
          -0.514186 -0.528465 -0.274253 -0.365193 -0.321953 -0.319623
          0.182148 0.179964 0.176386 0.26482 -0.605291 -0.606174
          -0.601902 -0.600585 -0.467995 -0.428833 -0.481413 -0.472928
          -0.467995 -0.465925 -0.481413 -0.428833 -0.358312 -0.322874
          -0.394107 -0.421164 -0.587157 -0.589823 -0.574159 -0.559433
          1.03394 1.08595 1.05647 1.04546 -0.205679 -0.275906
          -0.275434 -0.263183 -0.421164 -0.464844 -0.424531 -0.451713
          -0.591591 -0.58693 -0.605534 -0.595506 -0.322874 -0.358312
          -0.330448 -0.283759 -0.372513 -0.375762 -0.382811 -0.34114
          0.447798 0.422228 0.365474 0.466509 -0.026493 -0.0148698
          -0.0122332 -0.0142378 0.226421 0.182399 0.273847 0.22943
          -0.608411 -0.613989 -0.617295 -0.614347 -0.0194943 -0.0373548
          -0.026493 -0.0148698 0.972754 0.977511 0.97766 0.954037
          -0.0566621 -0.0414897 -0.0456833 -0.055377 -0.601281 -0.589541
          -0.586673 -0.59445 -0.27258 -0.227508 -0.231736 -0.230152
          0.0354087 0.0266296 0.0692919 0.0429092 0.191131 0.293154
          0.222664 0.265476 -0.598679 -0.607226 -0.605091 -0.605291
          -0.151924 -0.145402 -0.116728 -0.0853689 -0.571117 -0.542343
          -0.553089 -0.55443 -0.490656 -0.504352 -0.519906 -0.533339
          0.133991 0.191131 0.222664 0.18953 -0.026493 -0.0373548
          -0.0546027 -0.0359205 -0.0220747 -0.0331096 -0.0158737 -0.0321671
          -0.224153 -0.212972 -0.239967 -0.199185 -0.131573 -0.0918145
          -0.135977 -0.112705 -0.552479 -0.556536 -0.591591 -0.58693
          -0.335303 -0.327695 -0.339323 -0.3705 1.0378 1.02033
          1.01979 1.03528 0.961097 0.94404 0.97371 0.988705
          1.01953 1.04991 1.07194 1.04863 -0.0282422 -0.0853689
          -0.1008 -0.0324757 -0.391734 -0.371754 -0.41947 -0.397233
          0.420383 0.43286 0.514154 0.48689 -0.0880543 -0.0873447
          -0.0778743 -0.00337952 -0.220345 -0.184803 -0.243691 -0.249103
          0.778517 0.834652 0.764036 0.771063 -0.0407497 -0.0251174
          -0.0142378 -0.0349902 -0.391712 -0.427097 -0.428618 -0.382405
          0.00931725 -0.0669595 -0.0299528 -0.0557286 0.892847 0.857766
          0.883765 0.939445 -0.116421 -0.1008 -0.163731 -0.214665
          -0.483115 -0.514976 -0.519906 -0.513988 -0.53041 -0.509131
          -0.54589 -0.559713 0.132925 0.0852052 0.176386 0.179964
          -0.0142378 -0.0251174 -0.0184177 -0.0349902 -0.606174 -0.607233
          -0.611269 -0.608411 -0.257511 -0.214665 -0.212564 -0.264953
          -0.597055 -0.604121 -0.607479 -0.600231 -0.273168 -0.228437
          -0.251108 -0.223718 -0.571445 -0.555061 -0.525882 -0.53841
          -0.451025 -0.470143 -0.507128 -0.510261 -0.556744 -0.516821
          -0.529701 -0.526146 -0.00337952 -0.0499682 -0.0163549 -0.0778743
          0.896305 0.918228 0.938067 0.893233 0.4158 0.317271
          0.34242 0.325313 0.998789 1.03556 1.01396 1.05426
          0.959385 0.994249 0.998789 0.994064 0.270179 0.26482
          0.26528 0.342808 -0.293712 -0.284748 -0.339489 -0.329643
          -0.508049 -0.540931 -0.548618 -0.561118 -0.460937 -0.428833
          -0.467995 -0.416931 -0.375762 -0.335138 -0.382811 -0.34114
          0.938067 0.968415 0.945894 0.951491 0.475443 0.471849
          0.485717 0.376145 0.485717 0.477071 0.524128 0.4158
          0.86023 0.871623 0.88158 0.818175 -0.321953 -0.365193
          -0.3605 -0.319623 -0.458207 -0.421164 -0.406363 -0.410354
          -0.600231 -0.604121 -0.607479 -0.602749 0.176386 0.175661
          0.182399 0.226421 -0.120025 -0.149752 -0.116229 -0.140693
          -0.14341 -0.191288 -0.205679 -0.123642 0.578483 0.576606
          0.485717 0.620429 -0.311202 -0.292999 -0.306575 -0.251108
          0.781783 0.753101 0.813209 0.701116 0.71224 0.620429
          0.682538 0.622921 -0.0331096 -0.0158737 -0.0179501 0
          -0.0746054 -0.100418 -0.0974204 -0.0990623 -0.0918145 -0.0987839
          -0.126556 -0.112705 -0.182875 -0.233291 -0.184676 -0.227508
          -0.208492 -0.188792 -0.25746 -0.227221 0.994064 1.03604
          0.998789 1.00014 0.38677 0.342808 0.373258 0.315974
          -0.27071 -0.258818 -0.284289 -0.289187 -0.116728 -0.145402
          -0.0683123 -0.0853689 0.272312 0.281712 0.361752 0.270179
          -0.385583 -0.346023 -0.361831 -0.401768 -0.526146 -0.531799
          -0.516821 -0.502773 1.04493 1.03044 0.992022 0.994249
          -0.296868 -0.228365 -0.25746 -0.254984 -0.0194943 -0.0142378
          -0.026493 -0.0407497 -0.551364 -0.556536 -0.559713 -0.53041
          -0.251108 -0.311202 -0.289606 -0.259877 0.404263 0.362052
          0.404996 0.326979 0.586952 0.615495 0.555971 0.66868
          -0.175025 -0.144184 -0.183844 -0.160316 -0.589823 -0.579112
          -0.593521 -0.594283 -0.600231 -0.594283 -0.597055 -0.604121
          -0.607233 -0.604568 -0.605534 -0.617295 -0.607233 -0.604568
          -0.617295 -0.613989 -0.594283 -0.587157 -0.59394 -0.604121
          -0.269956 -0.269019 -0.27071 -0.221329 0.972754 0.954037
          0.97766 0.939445 -0.578733 -0.590032 -0.580158 -0.566595
          0.905539 0.929042 0.941827 0.900105 0.0268448 -0.0282422
          0.0767849 -0.00310106 0.667222 0.554507 0.620429 0.578483
          -0.552479 -0.522822 -0.553089 -0.542389 -0.0891458 -0.0945442
          -0.0727868 -0.104985 0.812186 0.739584 0.712974 0.747178
          -0.282402 -0.339323 -0.307637 -0.327695 -0.0683123 -0.0637811
          0.00106752 -0.024701 -0.60549 -0.600482 -0.605495 -0.606543
          0.919067 0.892396 0.964402 0.875404 0.0429092 -0.0397778
          0.0266296 -0.00337952 -0.0839381 -0.0616949 -0.0507497 -0.0589362
          -0.116728 -0.0683123 -0.0166612 -0.0324757 -0.588382 -0.586375
          -0.575633 -0.592337 -0.420885 -0.456825 -0.409138 -0.426503
          -0.275434 -0.317222 -0.27546 -0.211871 -0.591283 -0.58789
          -0.588037 -0.580329 0.924588 0.926939 0.957762 0.919014
          -0.605291 -0.607233 -0.606174 -0.600585 -0.529951 -0.528465
          -0.487696 -0.509551 0.281712 0.192337 0.179964 0.215118
          0.229358 0.136628 0.184625 0.146911 -0.228437 -0.254014
          -0.267026 -0.251108 0.941827 0.926939 0.924588 0.900105
          -0.34114 -0.321454 -0.335138 -0.365311 -0.556536 -0.559713
          -0.571251 -0.581501 -0.577714 -0.585031 -0.573364 -0.577397
          1.08923 1.08158 1.02395 1.03044 -0.175025 -0.140254
          -0.154251 -0.128416 -0.0872548 -0.0945442 -0.114873 -0.131573
          -0.340524 -0.307478 -0.335138 -0.34114 0.939445 0.883765
          0.922832 0.964402 -0.188792 -0.254984 -0.25746 -0.161825
          0.893709 0.922122 0.88158 0.86023 -0.610222 -0.604088
          -0.610537 -0.617884 0.514154 0.578483 0.524128 0.590354
          -0.596519 -0.581327 -0.601183 -0.60849 0.00556753 -0.0873447
          -0.00572604 -0.0716904 0.371555 0.408272 0.456629 0.359025
          0.43286 0.350848 0.375425 0.366123 0.477071 0.578483
          0.524128 0.514154 -0.0456833 -0.055377 -0.0527576 -0.0821753
          -0.533339 -0.559433 -0.555601 -0.552519 -0.0716904 -0.0299528
          -0.00572604 0.00556753 0.0354087 -0.0397778 0.0266296 0.0429092
          0.673158 0.6934 0.715046 0.591048 -0.120107 -0.0383277
          -0.119836 -0.161189 -0.594197 -0.59422 -0.605091 -0.595495
          -0.0324757 -0.0166612 0.0590978 0.0463107 -0.254984 -0.275434
          -0.314557 -0.217591 -0.279308 -0.245591 -0.231736 -0.251108
          -0.471353 -0.477368 -0.490656 -0.504352 -0.471353 -0.477368
          -0.504352 -0.516593 -0.248485 -0.233291 -0.221329 -0.27071
          -0.566982 -0.583032 -0.562779 -0.573116 0.763692 0.701116
          0.679028 0.764036 -0.0492213 -0.0373548 -0.0689169 -0.0546027
          -0.385583 -0.339323 -0.346023 -0.401768 -0.0979749 -0.106306
          -0.141493 -0.125203 -0.128416 -0.0974204 -0.114873 -0.0872548
          0.508089 0.48689 0.514154 0.586952 -0.0946214 -0.0994993
          -0.0918569 -0.0697344 -0.536958 -0.504352 -0.519906 -0.513988
          -0.0727868 -0.0545277 -0.0509829 -0.0891458 0.6934 0.715046
          0.781783 0.77037 -0.0727868 -0.0966911 -0.0620695 -0.0663928
          0.60553 0.559671 0.62046 0.690529 -0.233291 -0.223718
          -0.221329 -0.259877 0.6934 0.781783 0.813209 0.701116
          0.441455 0.514154 0.524128 0.590354 -0.0453142 -0.0282422
          0.0268448 -0.00310106 0.576957 0.559671 0.60553 0.690529
          -0.0349902 -0.0335524 -0.0407497 -0.0616949 0.746051 0.715046
          0.649864 0.673158 0.00931725 -0.00310106 -0.0299528 -0.0669595
          -0.36495 -0.393886 -0.424531 -0.3605 -0.364747 -0.341033
          -0.386426 -0.364814 0.896305 0.919067 0.952366 0.918228
          -0.520643 -0.546836 -0.56754 -0.53106 -0.282402 -0.233291
          -0.248485 -0.27071 -0.535277 -0.526146 -0.545036 -0.52226
          -0.182875 -0.155184 -0.192492 -0.184676 -0.580307 -0.589823
          -0.572757 -0.559433 -0.587157 -0.59472 -0.593287 -0.576022
          -0.591521 -0.583 -0.602659 -0.58789 -0.385172 -0.460937
          -0.416931 -0.428833 -0.0663928 -0.0515769 -0.0727868 -0.0697344
          0.913168 0.834652 0.871731 0.896305 -0.580158 -0.594765
          -0.592202 -0.593319 0.968415 0.962865 0.984227 0.951491
          0.962865 0.967832 0.968415 0.994842 0.961097 0.9563
          0.982276 0.949524 -0.376847 -0.428833 -0.330755 -0.385172
          -0.337823 -0.361795 -0.412527 -0.3705 -0.442996 -0.459335
          -0.41947 -0.4627 0.94404 0.987774 0.97371 0.988705
          -0.545036 -0.511239 -0.549149 -0.51427 -0.348043 -0.319052
          -0.315142 -0.369547 -0.257511 -0.214665 -0.31289 -0.319623
          -0.604088 -0.604306 -0.610537 -0.611269 -0.474792 -0.459335
          -0.426503 -0.421409 -0.539182 -0.577714 -0.573364 -0.557066
          0.554507 0.578483 0.485717 0.620429 1.0392 1.02395
          1.04493 1.04991 -0.116421 -0.0669595 -0.119836 -0.163731
          0 0 -0.0179501 0 1.02927 1.03604
          1.07607 1.04493 -0.55277 -0.571445 -0.53841 -0.563047
          -0.0566621 -0.0762623 -0.055377 -0.0821753 -0.0131021 -0.00233419
          -0.0184177 0 -0.306575 -0.27258 -0.308486 -0.339323
          -0.27258 -0.308486 -0.282981 -0.286097 -0.314393 -0.332993
          -0.314557 -0.375313 -0.0124784 -0.0873447 0.00556753 -0.0716904
          -0.283759 -0.322874 -0.278857 -0.245922 1.02033 1.02618
          1.063 1.0378 -0.224153 -0.227508 -0.19356 -0.248543
          0.769835 0.6934 0.781783 0.771063 0.447798 0.453532
          0.540835 0.50115 -0.151924 -0.116728 -0.184803 -0.205846
          -0.59472 -0.587157 -0.602749 -0.604121 -0.0891458 -0.0697344
          -0.104985 -0.0727868 0.88027 0.918357 0.929123 0.909085
          -0.608749 -0.602749 -0.600207 -0.60549 -0.0909205 -0.0974204
          -0.128416 -0.140254 -0.564006 -0.553089 -0.540096 -0.55811
          0.671573 0.701116 0.6934 0.576606 0.813209 0.835634
          0.778368 0.753101 -0.145402 -0.141935 -0.0736489 -0.14341
          -0.0945442 -0.0918145 -0.112705 -0.0891458 0.6934 0.753101
          0.781783 0.701116 -0.330755 -0.369417 -0.314557 -0.317222
          -0.598679 -0.59422 -0.59992 -0.605291 0.4158 0.359025
          0.408272 0.34242 0.987774 1.04991 1.01953 0.988705
          -0.254014 -0.292999 -0.251108 -0.245591 -0.525882 -0.4944
          -0.466643 -0.520877 -0.275434 -0.263183 -0.275906 -0.330755
          0.184625 0.136628 0.229358 0.243135 -0.602659 -0.593287
          -0.608847 -0.607226 0.270179 0.368224 0.26482 0.342808
          0.300576 0.266951 0.366047 0.281712 -0.259877 -0.304688
          -0.269019 -0.282402 -0.596049 -0.595416 -0.577714 -0.574662
          -0.0453142 -0.0669595 -0.1008 -0.0282422 -0.59029 -0.57823
          -0.588382 -0.570157 -0.00572604 0.0317743 0.0517336 0.0852052
          -0.477031 -0.522822 -0.513988 -0.474792 -0.0194943 -0.00244451
          -0.00900036 -0.0148698 -0.184187 -0.159693 -0.188891 -0.21049
          0.453532 0.375425 0.368224 0.366123 -0.269019 -0.282402
          -0.233291 -0.259877 -0.0287179 -0.0126354 -0.0148698 -0.0242749
          -0.131573 -0.0945442 -0.112705 -0.0891458 -0.601281 -0.589541
          -0.589217 -0.586673 0.179964 0.175661 0.176386 0.215118
          -0.477031 -0.442996 -0.492321 -0.4627 0.0577277 0.0897101
          0.132925 0.088712 -0.141935 -0.178291 -0.106826 -0.106234
          0.288966 0.350848 0.325313 0.375903 0.146911 0.184625
          0.181751 0.088712 -0.0158737 -0.00736282 -0.0321671 -0.0210781
          -0.217622 -0.254984 -0.297914 -0.25746 -0.359571 -0.331952
          -0.361831 -0.346023 0.166498 0.118445 0.116801 0.114738
          -0.391734 -0.4245 -0.3705 -0.372283 0.0269334 0.00556753
          0.0973606 0.0897101 -0.300681 -0.359323 -0.323018 -0.330755
          -0.606635 -0.59992 -0.605534 -0.607233 0.375425 0.34242
          0.376145 0.368224 -0.591306 -0.600585 -0.587756 -0.595495
          0.192337 0.281712 0.293154 0.215118 1.00424 0.957611
          0.97766 0.967832 -0.214665 -0.151924 -0.209163 -0.274253
          0.715046 0.591048 0.690529 0.635195 0 -0.00736282
          0 -0.0158737 -0.0872548 -0.0769447 -0.114873 -0.0945442
          0.0590978 0.0463107 0.0973606 0.00698102 -0.391734 -0.3705
          -0.326509 -0.372283 -0.0324757 0.0463107 0.0590978 0.00698102
          -0.471625 -0.436534 -0.431469 -0.475633 0.60553 0.576957
          0.694364 0.576606 0.00698102 -0.0683123 0.00106752 -0.024701
          0.362052 0.342808 0.346431 0.26482 -0.591521 -0.559286
          -0.583 -0.58789 -0.279308 -0.251108 -0.231736 -0.306575
          0.918357 0.929123 0.909085 0.951197 0.272312 0.270179
          0.361752 0.368224 0.404263 0.404996 0.408722 0.326979
          0.922122 0.988705 0.964551 0.957672 0.404263 0.404996
          0.486622 0.408722 -0.145402 -0.0853689 -0.151924 -0.209163
          -0.576103 -0.59394 -0.571117 -0.574159 0.834652 0.813209
          0.846221 0.871731 0.918357 0.909085 0.859342 0.878842
          -0.43155 -0.407104 -0.428346 -0.410755 0.00931725 -0.0299528
          0.0357389 -0.0383277 0.266951 0.266939 0.15972 0.222628
          -0.151939 -0.163731 -0.228365 -0.219076 0.690529 0.62046
          0.60553 0.585769 1.03604 1.04279 1.09087 1.08958
          -0.608749 -0.604124 -0.609688 -0.60549 0.342808 0.376145
          0.475443 0.373258 -0.607479 -0.600231 -0.601787 -0.601903
          -0.549552 -0.550484 -0.509551 -0.49578 0.48689 0.555971
          0.514154 0.586952 -0.282402 -0.233291 -0.27071 -0.269019
          -0.151924 -0.205846 -0.209163 -0.274253 0.871623 0.913168
          0.88158 0.834652 0.408272 0.376145 0.475443 0.485717
          -0.00572604 -0.0163549 0.0317743 -0.0299528 -0.389167 -0.431223
          -0.426503 -0.421409 -0.59992 -0.586375 -0.588382 -0.592337
          -0.58789 -0.576022 -0.580329 -0.55754 -0.282981 -0.284289
          -0.326509 -0.307637 -0.304688 -0.282402 -0.27071 -0.269019
          -0.539182 -0.528465 -0.562779 -0.549448 -0.0475263 -0.0277801
          -0.0432173 -0.045854 -0.401189 -0.385583 -0.372513 -0.381652
          1.02033 0.984227 0.982176 0.994842 -0.0727868 -0.0515769
          -0.0436944 -0.0697344 0.209665 0.166498 0.116801 0.19353
          -0.0876329 -0.104158 -0.106801 -0.0931318 1.04991 1.09375
          1.07194 1.08839 -0.440537 -0.451713 -0.509551 -0.487696
          -0.0746054 -0.0974204 -0.0909205 -0.0990623 -0.46894 -0.453267
          -0.452771 -0.421164 -0.314827 -0.3191 -0.300825 -0.337261
          0.961753 0.998789 0.96798 1.00014 -0.410755 -0.372513
          -0.34114 -0.365311 -0.205846 -0.276286 -0.220345 -0.243691
          -0.609688 -0.608847 -0.602749 -0.607226 0.973437 0.994249
          1.00424 0.998789 -0.592 -0.59853 -0.605701 -0.600893
          0.920067 0.900105 0.941827 0.924588 -0.551364 -0.570157
          -0.575633 -0.57823 0.0767849 0.0843481 0.133991 0.0812999
          0.0852052 0.0317743 0.127083 0.0357389 -0.482107 -0.453267
          -0.452771 -0.46894 -0.602749 -0.593521 -0.600207 -0.601787
          -0.0821753 -0.0979749 -0.0762623 -0.055377 -0.151939 -0.219076
          -0.228365 -0.188792 -0.600585 -0.605701 -0.608411 -0.596049
          -0.264953 -0.214665 -0.212564 -0.219076 -0.446413 -0.451585
          -0.396044 -0.445271 1.0378 1.03044 1.06649 0.994842
          -0.491207 -0.509131 -0.53041 -0.522255 0.0517336 0.0317743
          0.0409103 0.118803 -0.55277 -0.571445 -0.563047 -0.579963
          0.136241 0.0848547 0.0409103 0.0517336 -0.319052 -0.304688
          -0.27071 -0.269019 0.957762 0.959385 0.961753 1.00014
          -0.369417 -0.431484 -0.36495 -0.424615 -0.419251 -0.409138
          -0.456825 -0.386426 0.0463107 0.00411554 0.0821265 0.088712
          -0.314557 -0.317222 -0.27546 -0.275434 -0.588382 -0.594326
          -0.604568 -0.59853 -0.0545277 -0.0423778 -0.0826292 -0.051966
          0.226421 0.187424 0.272312 0.273847 0.176386 0.118803
          0.187424 0.182399 1.00044 0.992022 1.02395 0.988705
          -0.302569 -0.326806 -0.34214 -0.3614 -0.163731 -0.120107
          -0.219076 -0.188792 -0.0831016 -0.106234 -0.141935 -0.0736489
          -0.381452 -0.337261 -0.335303 -0.382787 1.07607 1.08958
          1.03604 1.09618 -0.421164 -0.46894 -0.464844 -0.451713
          0.6934 0.591048 0.576957 0.690529 0.834652 0.846221
          0.771063 0.871623 1.01953 1.0392 1.07194 1.04991
          -0.0131021 0 -0.0122332 0 -0.516593 -0.504352
          -0.513988 -0.477368 -0.561124 -0.587347 -0.581108 -0.578393
          -0.589823 -0.587157 -0.572757 -0.559433 -0.0831016 -0.0124784
          0.0429092 -0.0334379 -0.0339357 -0.0831016 0.0429092 -0.0334379
          -0.114873 -0.104529 -0.135977 -0.0979749 1.00424 0.97766
          1.0076 0.967832 -0.576022 -0.545036 -0.576693 -0.570157
          1.0076 0.97766 0.992186 0.967832 -0.307637 -0.248485
          -0.284289 -0.27071 -0.171147 -0.191288 -0.217622 -0.161825
          -0.550484 -0.515213 -0.520643 -0.546836 -0.217622 -0.254984
          -0.188792 -0.161825 -0.571117 -0.542343 -0.564006 -0.553089
          -0.122071 -0.155231 -0.133725 -0.137923 -0.331952 -0.279308
          -0.306575 -0.317802 -0.53841 -0.571445 -0.560632 -0.563047
          -0.364512 -0.349927 -0.401283 -0.375313 -0.571445 -0.560632
          -0.563047 -0.587347 0.913168 0.834652 0.846848 0.870041
          -0.0979749 -0.141493 -0.135977 -0.125203 0.0590978 0.0463107
          0.139303 0.124246 -0.0716904 -0.0736489 -0.0873447 -0.14341
          -0.0872548 -0.114873 -0.128416 -0.131573 1.04279 1.00424
          1.0076 0.994249 0.771063 0.814724 0.846221 0.769835
          -0.516593 -0.489206 -0.475633 -0.510375 0.681261 0.652694
          0.59525 0.696053 -0.594283 -0.593521 -0.597055 -0.580147
          1.05647 1.00424 1.04279 1.03604 0.696053 0.759262
          0.681261 0.736088 -0.604568 -0.594326 -0.600877 -0.605155
          0.972754 1.01616 0.999356 0.97766 -0.221329 -0.186335
          -0.241803 -0.232947 -0.186335 -0.155231 -0.177314 -0.218544
          -0.0876329 -0.0507497 -0.0748949 -0.0589362 -0.471353 -0.434857
          -0.477368 -0.475633 -0.340524 -0.34114 -0.335138 -0.372513
          0.9563 0.988705 0.961097 0.982276 -0.601903 -0.606824
          -0.607479 -0.606765 -0.218544 -0.177314 -0.186335 -0.232947
          -0.055377 -0.0807488 -0.0762623 -0.0506569 -0.188792 -0.120107
          -0.141522 -0.161825 -0.0199872 -0.0242749 -0.0366013 -0.0388337
          0.941827 0.96754 0.96798 0.998789 -0.492054 -0.52226
          -0.511239 -0.492048 -0.589217 -0.589541 -0.582338 -0.586673
          -0.0748949 -0.0945442 -0.0727868 -0.0509829 0.819384 0.778517
          0.834652 0.825329 -0.0918145 -0.0821753 -0.0987839 -0.0800162
          -0.192492 -0.167938 -0.183665 -0.20878 0.273847 0.315974
          0.346431 0.226445 -0.601565 -0.588593 -0.589823 -0.580307
          0.60553 0.6934 0.694364 0.576957 0.781783 0.715046
          0.818343 0.77037 0.315495 0.375903 0.350848 0.288966
          -0.455538 -0.456825 -0.420885 -0.43445 -0.19356 -0.160773
          -0.183665 -0.155184 0.999356 0.97766 1.0076 1.00424
          0.0767849 -0.00310106 0.0812999 0.0268448 0.661841 0.673158
          0.671573 0.747178 -0.610222 -0.586673 -0.604088 -0.59445
          -0.605756 -0.604088 -0.596049 -0.584442 1.00082 0.986222
          1.03556 1.00424 -0.584442 -0.591783 -0.574662 -0.586673
          0.999356 0.97766 1.03394 1.0076 0.0577277 0.164525
          0.114738 0.088712 -0.565105 -0.5242 -0.546836 -0.532774
          0.957762 0.959385 1.00014 0.994064 0.0569261 0.0897101
          0.132925 0.0577277 -0.431469 -0.436534 -0.428346 -0.410755
          -0.0515769 -0.0362098 -0.0697344 -0.051966 -0.138966 -0.170381
          -0.135977 -0.141493 -0.59666 -0.605701 -0.607233 -0.600585
          -0.171147 -0.191288 -0.239023 -0.217622 -0.0693774 -0.0748949
          -0.0931318 -0.0620695 -0.0876329 -0.0931318 -0.0693774 -0.0748949
          -0.571445 -0.600482 -0.589306 -0.59431 -0.539182 -0.523147
          -0.511452 -0.549448 -0.131573 -0.153426 -0.184676 -0.180202
          -0.421409 -0.372283 -0.391734 -0.397233 1.02927 1.03604
          1.04334 1.07607 0.929042 0.96754 0.96798 0.941827
          -0.171147 -0.239709 -0.239023 -0.191288 0.959385 0.9111
          0.926939 0.900105 -0.4751 -0.477707 -0.491207 -0.511239
          0.576957 0.495567 0.587085 0.471849 0.875404 0.964402
          0.919067 0.918228 -0.614347 -0.610222 -0.604088 -0.605756
          0.122055 0.192337 0.191131 0.131345 -0.551974 -0.561124
          -0.561118 -0.578393 0.994842 1.02033 0.984227 1.03528
          -0.601903 -0.601484 -0.597244 -0.610537 -0.151924 -0.0853689
          -0.116728 -0.0324757 0.359025 0.283342 0.26528 0.317271
          -0.591783 -0.606174 -0.595416 -0.604306 -0.393886 -0.421372
          -0.365193 -0.444654 0.813209 0.896305 0.846848 0.835634
          -0.323018 -0.314393 -0.349927 -0.322149 0.86023 0.905117
          0.922122 0.871623 0.0973606 0.088712 0.181751 0.0897101
          -0.282402 -0.335303 -0.306575 -0.311202 1.05647 1.03394
          1.04546 1.00424 -0.248147 -0.263183 -0.330755 -0.324265
          -0.0122332 0 0 0 -0.0831016 -0.0124784
          -0.0873447 -0.00337952 -0.251108 -0.267026 -0.273168 -0.292999
          -0.322874 -0.283759 -0.330448 -0.268318 -0.456047 -0.471353
          -0.470143 -0.427097 -0.410354 -0.46894 -0.440537 -0.458207
          -0.586375 -0.554683 -0.575633 -0.580329 -0.476443 -0.482107
          -0.508049 -0.511452 0.0569261 0.0852052 0.132925 0.0897101
          -0.535277 -0.545036 -0.55754 -0.554683 0.514154 0.587085
          0.578483 0.590354 0.0225208 0.0517336 0.0569261 -0.00337952
          -0.511452 -0.482107 -0.508049 -0.523147 -0.59422 -0.605291
          -0.605091 -0.595495 -0.0545277 -0.0433125 -0.0309387 -0.0509829
          -0.0184177 -0.0142378 -0.026493 -0.0122332 0.9111 0.918357
          0.859342 0.900105 -0.0909205 -0.0689169 -0.10816 -0.0807488
          0.375425 0.270179 0.34242 0.368224 -0.0499682 -0.0163549
          0.0517336 0.0225208 0.133991 0.191131 0.18953 0.122055
          -0.550484 -0.514186 -0.49578 -0.515213 -0.556536 -0.549149
          -0.552479 -0.51427 -0.510375 -0.513139 -0.475633 -0.516593
          -0.421409 -0.391734 -0.41947 -0.397233 -0.116421 -0.1008
          -0.0669595 -0.163731 0.0973606 0.181751 0.15972 0.192337
          0.818985 0.817607 0.892847 0.812186 0.954037 0.922832
          0.964402 0.939445 0.869577 0.905539 0.920067 0.900105
          -0.611269 -0.606765 -0.610537 -0.615798 -0.161825 -0.0716904
          -0.151939 -0.120107 -0.153426 -0.159693 -0.18142 -0.188891
          -0.598996 -0.610537 -0.597244 -0.601281 -0.597244 -0.589541
          -0.582338 -0.601281 -0.0194943 -0.0251174 -0.00468258 -0.0142378
          -0.610222 -0.610537 -0.604088 -0.601281 -0.593287 -0.59472
          -0.598679 -0.576022 -0.598679 -0.593287 -0.607226 -0.59472
          -0.269956 -0.27071 -0.241803 -0.221329 -0.151939 -0.0716904
          -0.163731 -0.120107 -0.528465 -0.549448 -0.514186 -0.562779
          -0.308486 -0.293712 -0.270885 -0.253853 -0.601291 -0.591521
          -0.605715 -0.591283 -0.594197 -0.605091 -0.598679 -0.591283
          -0.565105 -0.538075 -0.555061 -0.567941 -0.408703 -0.385583
          -0.415128 -0.431469 0.819384 0.825329 0.834652 0.870041
          -0.331952 -0.306575 -0.308486 -0.346023 -0.602749 -0.589823
          -0.600207 -0.593521 -0.0210781 -0.00798877 -0.00736282 -0.00317775
          -0.116728 -0.0683123 -0.0637811 -0.0166612 -0.319052 -0.269019
          -0.269956 -0.300825 -0.319052 -0.337261 -0.300825 -0.315142
          0.6934 0.715046 0.769835 0.781783 -0.592202 -0.594197
          -0.605091 -0.595495 -0.128993 -0.160316 -0.139971 -0.128416
          -0.453267 -0.482107 -0.508049 -0.476443 0.447798 0.366123
          0.453532 0.361752 -0.605756 -0.610222 -0.604088 -0.584649
          -0.220618 -0.197009 -0.19048 -0.180202 0.0577277 0.132925
          0.164525 0.088712 0.696053 0.60553 0.59525 0.554729
          -0.128416 -0.0974204 -0.152133 -0.140254 -0.442996 -0.453798
          -0.4627 -0.41947 0.393062 0.366047 0.447798 0.361752
          -0.135977 -0.126556 -0.160773 -0.155184 -0.0853689 0.00698102
          -0.0736489 -0.0683123 0 -0.00736282 -0.0158737 -0.0210781
          -0.602659 -0.58394 -0.596435 -0.593287 -0.556536 -0.59029
          -0.58693 -0.570157 -0.155184 -0.132948 -0.18142 -0.131573
          -0.602659 -0.596435 -0.608847 -0.593287 0.270179 0.342808
          0.26528 0.376145 -0.0131021 -0.0184177 -0.0142378 0
          0.953422 0.913168 0.9111 0.896305 -0.597055 -0.580147
          -0.587951 -0.59394 -0.331952 -0.264202 -0.293712 -0.306575
          -0.560632 -0.589306 -0.574662 -0.581108 -0.0299528 -0.0716904
          -0.120107 -0.0669595 -0.205679 -0.238931 -0.275906 -0.263183
          0.0429092 0.0266296 0.0692919 -0.00337952 -0.0515769 -0.0697344
          -0.0946214 -0.051966 -0.471625 -0.475595 -0.502773 -0.516821
          0.994249 0.957611 0.967832 0.955905 0.490251 0.447798
          0.540835 0.525818 -0.4245 -0.477368 -0.428618 -0.474792
          0.913168 0.834652 0.896305 0.846848 -0.140254 -0.114873
          -0.128416 -0.10816 -0.353888 -0.38119 -0.31289 -0.327936
          -0.239023 -0.239709 -0.322149 -0.254984 0.70697 0.759262
          0.681261 0.696053 0.70697 0.71259 0.80277 0.696053
          0.771063 0.736088 0.696053 0.694364 -0.282402 -0.339323
          -0.27258 -0.306575 -0.349927 -0.376847 -0.401283 -0.369417
          -0.382787 -0.335303 -0.339323 -0.3705 -0.565105 -0.567941
          -0.555061 -0.582338 -0.128993 -0.152133 -0.160316 -0.128416
          -0.606635 -0.598679 -0.59472 -0.59992 -0.606635 -0.59472
          -0.605534 -0.59992 -0.00736282 -0.0220747 -0.0423778 -0.021768
          0.60553 0.481467 0.475443 0.580698 -0.53041 -0.509131
          -0.497359 -0.54589 0.47369 0.408272 0.528453 0.456629
          -0.576693 -0.552479 -0.576103 -0.591591 -0.576103 -0.552479
          -0.583544 -0.591591 -0.610222 -0.610537 -0.614932 -0.617884
          1.08839 1.08158 1.0378 1.02395 -0.580158 -0.591306
          -0.594765 -0.578733 -0.607479 -0.597055 -0.600231 -0.601903
          -0.0509829 -0.0545277 -0.0800162 -0.0891458 0.439675 0.404996
          0.41735 0.38677 0.23525 0.166498 0.259679 0.19353
          -0.371754 -0.361795 -0.326509 -0.391734 0.362052 0.342808
          0.41735 0.346431 -0.431484 -0.369417 -0.401283 -0.428833
          0.404996 0.362052 0.481467 0.41735 -0.465925 -0.453424
          -0.503908 -0.481413 -0.0773241 -0.0423778 -0.0826292 -0.0545277
          -0.420765 -0.421171 -0.363672 -0.384992 -0.4245 -0.428618
          -0.431223 -0.474792 -0.106414 -0.0773241 -0.0826292 -0.0800162
          -0.0251174 -0.00984418 -0.0142378 -0.0184177 -0.106414 -0.112705
          -0.0800162 -0.0994993 -0.4944 -0.528633 -0.53841 -0.511432
          0.71224 0.701116 0.682538 0.620429 0.900105 0.918357
          0.959385 0.9111 -0.596049 -0.591306 -0.577714 -0.595416
          -0.451585 -0.4944 -0.503281 -0.516903 -0.230152 -0.183591
          -0.181463 -0.212972 -0.14341 -0.0873447 -0.191288 -0.123642
          0.453532 0.368224 0.471849 0.361752 -0.120107 -0.0383277
          -0.141522 -0.0826948 1.0392 1.09375 1.07194 1.04991
          -0.594759 -0.591654 -0.605701 -0.600893 -0.327695 -0.339323
          -0.337823 -0.308486 -0.263183 -0.300681 -0.275906 -0.330755
          0.0897101 0.179964 0.131345 0.0852052 -0.608749 -0.608847
          -0.601565 -0.602749 -0.608749 -0.601565 -0.600207 -0.602749
          -0.607479 -0.610537 -0.597244 -0.598996 -0.289606 -0.223718
          -0.269019 -0.271789 0 0 -0.0122332 0
          -0.517394 -0.477707 -0.491207 -0.522255 -0.576693 -0.59394
          -0.574159 -0.587157 -0.507128 -0.510261 -0.504352 -0.533339
          0 -0.00712274 -0.0199872 -0.00444756 -0.364512 -0.363672
          -0.328099 -0.384992 -0.0821753 -0.055377 -0.0527576 -0.0773241
          0.819384 0.834652 0.88158 0.870041 -0.19048 -0.180202
          -0.183844 -0.220618 0 0 0 -0.0120442
          0.226421 0.182399 0.187424 0.273847 -0.0716904 -0.0736489
          -0.0124784 -0.0873447 -0.457714 -0.421171 -0.384992 -0.440537
          -0.114873 -0.0918145 -0.135977 -0.131573 0.753101 0.671573
          0.630668 0.667222 0.94404 0.987774 0.988705 0.957672
          0.953422 0.952366 0.9111 0.955905 -0.140254 -0.154251
          -0.114873 -0.10816 -0.585031 -0.591306 -0.577397 -0.577714
          -0.515213 -0.514186 -0.464844 -0.483101 -0.154251 -0.10816
          -0.138966 -0.114873 0.404996 0.38677 0.439675 0.346431
          -0.610222 -0.601281 -0.604088 -0.586673 -0.604088 -0.601281
          -0.604306 -0.586673 -0.180202 -0.184676 -0.233291 -0.221329
          -0.542343 -0.536958 -0.513988 -0.55443 -0.205679 -0.191288
          -0.14341 -0.217591 0.747178 0.753101 0.781783 0.671573
          0.961753 0.941827 0.96798 0.998789 -0.0800162 -0.0773241
          -0.0987839 -0.106414 -0.27258 -0.233291 -0.231736 -0.227508
          -0.551974 -0.561118 -0.548618 -0.578393 -0.0126354 -0.0158737
          -0.0242749 -0.0210781 -0.249103 -0.326806 -0.276286 -0.302569
          -0.440537 -0.451713 -0.457714 -0.509551 -0.0334379 -0.0831016
          -0.1029 -0.0339357 0 0 -0.0158737 -0.0210781
          -0.0126354 0 -0.0158737 -0.0210781 -0.597244 -0.589541
          -0.601281 -0.601484 -0.161825 -0.151939 -0.228365 -0.188792
          0.00411554 0.088712 0.0429092 0.0389614 -0.0324757 -0.1008
          -0.151924 -0.0853689 -0.515213 -0.483101 -0.481413 -0.503281
          -0.0282422 -0.0669595 -0.1008 -0.0853689 0.481467 0.362052
          0.365474 0.466509 -0.552479 -0.513139 -0.522822 -0.51427
          -0.317222 -0.369417 -0.36495 -0.397242 -0.475633 -0.474792
          -0.477368 -0.513139 -0.513139 -0.505201 -0.549149 -0.547193
          0.554729 0.580698 0.538209 0.481467 -0.431223 -0.474792
          -0.459335 -0.4245 1.01979 0.989552 0.984227 0.968415
          -0.589306 -0.606543 -0.598996 -0.595416 -0.0831016 -0.0873447
          -0.123642 -0.00337952 -0.0876329 -0.104158 -0.0931318 -0.0748949
          -0.251108 -0.292999 -0.289606 -0.311202 0.315495 0.350848
          0.266939 0.288966 -0.0909205 -0.0546027 -0.0689169 -0.0807488
          0.587085 0.673158 0.671573 0.661841 0.661841 0.514154
          0.590354 0.587085 0.603092 0.660272 0.590354 0.661841
          -0.00798877 -0.00693662 -0.00317775 -0.0295316 -0.361795 -0.358657
          -0.413742 -0.391734 -0.600585 -0.59666 -0.605291 -0.607233
          0.823583 0.842871 0.875404 0.835634 0.813209 0.753101
          0.778368 0.701116 -0.597055 -0.59394 -0.606765 -0.604121
          0.835634 0.829945 0.892396 0.823583 0.747178 0.673158
          0.77037 0.750003 0.673158 0.746051 0.77037 0.750003
          -0.0778743 -0.116229 -0.0477761 -0.0826948 -0.319052 -0.300825
          -0.269956 -0.315142 -0.600585 -0.605701 -0.607233 -0.608411
          0.176386 0.26482 0.272312 0.273847 -0.236674 -0.268318
          -0.297914 -0.330448 -0.539299 -0.536958 -0.559433 -0.539178
          1.07521 1.02033 1.0378 1.03528 -0.607226 -0.602749
          -0.604121 -0.606635 0.371555 0.283342 0.331217 0.359025
          -0.587951 -0.59394 -0.571117 -0.596519 -0.59394 -0.594283
          -0.597055 -0.580147 0.739584 0.812186 0.818985 0.750003
          -0.0831016 -0.0736489 -0.0124784 -0.0446928 -0.431223 -0.474792
          -0.421409 -0.459335 0.769835 0.814724 0.7975 0.71259
          -0.431484 -0.465698 -0.420765 -0.451713 -0.275434 -0.27546
          -0.228365 -0.217591 0.420383 0.514154 0.441455 0.508089
          -0.217591 -0.275434 -0.314557 -0.228365 -0.135977 -0.112705
          -0.126556 -0.155184 -0.131573 -0.144184 -0.153426 -0.180202
          -0.131573 -0.122071 -0.153426 -0.144184 -0.606613 -0.589541
          -0.601281 -0.59445 0.842871 0.918228 0.896305 0.893233
          0.875404 0.918228 0.919067 0.896305 0.842871 0.875404
          0.896305 0.918228 -0.540931 -0.511432 -0.476443 -0.541258
          -0.540931 -0.541258 -0.560632 -0.511432 0.315608 0.273847
          0.326979 0.22943 -0.209163 -0.243691 -0.321953 -0.274253
          0.59525 0.60553 0.652694 0.554729 0.48689 0.615495
          0.555971 0.586952 -0.493723 -0.462474 -0.487995 -0.445271
          -0.444654 -0.462474 -0.493723 -0.445271 -0.238023 -0.294327
          -0.294244 -0.315558 -0.611269 -0.617295 -0.615798 -0.617884
          -0.462474 -0.493723 -0.490188 -0.444654 -0.476443 -0.483101
          -0.511432 -0.462474 -0.151939 -0.163731 -0.209163 -0.228365
          -0.128416 -0.160316 -0.175025 -0.140254 -0.125053 -0.133725
          -0.0861512 -0.0931318 -0.375313 -0.451713 -0.384992 -0.394107
          -0.359571 -0.346023 -0.361831 -0.385583 -0.601903 -0.601787
          -0.598996 -0.595565 -0.601903 -0.595565 -0.598996 -0.597244
          -0.420765 -0.363672 -0.364512 -0.384992 -0.556536 -0.53041
          -0.54589 -0.559713 -0.219229 -0.245591 -0.20773 -0.187651
          -0.46894 -0.483101 -0.424531 -0.464844 0.938067 0.951491
          0.917689 0.93937 -0.279308 -0.231736 -0.264202 -0.306575
          -0.0880543 -0.120025 -0.0499682 -0.0778743 -0.0880543 -0.0778743
          -0.0499682 -0.0289436 -0.579963 -0.571445 -0.563047 -0.587347
          0.900105 0.878842 0.905539 0.929042 -0.326509 -0.284289
          -0.317028 -0.319052 0.71259 0.685729 0.690529 0.62046
          0.6934 0.77037 0.781783 0.747178 -0.201109 -0.261287
          -0.20878 -0.21049 0.6934 0.747178 0.781783 0.671573
          -0.055377 -0.0388337 -0.0242749 -0.0359205 -0.492048 -0.4751
          -0.505201 -0.511239 -0.0589362 -0.0432173 -0.0748949 -0.0693774
          0.371555 0.331217 0.428527 0.408272 -0.471625 -0.4751
          -0.505201 -0.492048 -0.0589362 -0.0475263 -0.0432173 -0.0693774
          -0.307637 -0.339323 -0.282402 -0.335303 -0.594283 -0.579112
          -0.593521 -0.580147 0.4158 0.408272 0.376145 0.34242
          -0.58394 -0.556744 -0.547193 -0.55754 1.04546 1.03743
          1.08595 1.06673 -0.466643 -0.486264 -0.425111 -0.4944
          0.6277 0.580698 0.701116 0.620429 -0.29873 -0.243691
          -0.274253 -0.321953 0.620429 0.545908 0.6277 0.580698
          -0.0436944 -0.00798877 -0.0362098 -0.0295316 -0.321953 -0.29873
          -0.365193 -0.274253 -0.0349902 -0.0335524 -0.026493 -0.0407497
          0.763024 0.715046 0.685729 0.745728 -0.511239 -0.517394
          -0.51427 -0.53041 -0.511239 -0.53041 -0.51427 -0.556536
          -0.205846 -0.276286 -0.243691 -0.29873 -0.227508 -0.233291
          -0.18142 -0.248485 -0.00900036 -0.0373548 -0.0148698 -0.0274994
          -0.482959 -0.475633 -0.45509 -0.501965 -0.565105 -0.538075
          -0.567941 -0.546836 -0.137564 -0.0994993 -0.132948 -0.127086
          -0.596435 -0.572757 -0.593287 -0.58394 -0.5242 -0.486264
          -0.503281 -0.472728 0.959385 0.951197 0.973437 0.918357
          0.187424 0.176386 0.272312 0.273847 -0.510261 -0.489206
          -0.539178 -0.539299 -0.31289 -0.321953 -0.3605 -0.319623
          -0.461908 -0.451478 -0.395046 -0.453267 -0.205679 -0.275434
          -0.217591 -0.211871 -0.59029 -0.586375 -0.588382 -0.59992
          -0.248147 -0.317222 -0.275434 -0.211871 -0.217591 -0.151939
          -0.191288 -0.14341 -0.340524 -0.292999 -0.307478 -0.34114
          -0.218544 -0.242638 -0.232947 -0.267441 -0.408703 -0.410755
          -0.428346 -0.381652 -0.607226 -0.604121 -0.606543 -0.606635
          -0.372283 -0.369547 -0.421409 -0.389167 -0.598996 -0.601787
          -0.606543 -0.60549 -0.47284 -0.449559 -0.421409 -0.459335
          -0.381452 -0.386426 -0.389167 -0.426503 0.778517 0.818175
          0.736088 0.819384 0.50115 0.466509 0.471849 0.559671
          0.984227 0.989552 1.01979 1.02849 -0.456047 -0.434857
          -0.471353 -0.427097 0.281712 0.179964 0.270179 0.215118
          0.408272 0.359025 0.376145 0.34242 -0.556744 -0.531799
          -0.526146 -0.55754 -0.58394 -0.55754 -0.572757 -0.576022
          0.690529 0.694364 0.6934 0.771063 0.587085 0.673158
          0.555971 0.591048 -0.131573 -0.132948 -0.18142 -0.153426
          -0.546836 -0.541258 -0.567941 -0.574662 -0.297914 -0.25746
          -0.322874 -0.268318 -0.114873 -0.0979749 -0.135977 -0.0918145
          0.213013 0.281712 0.300576 0.293154 0.967832 1.01785
          1.03044 0.994842 0.962865 0.992186 1.01785 1.01445
          -0.552479 -0.556536 -0.571251 -0.591591 -0.59029 -0.571251
          -0.593334 -0.581501 -0.556536 -0.54589 -0.571251 -0.559713
          -0.300681 -0.359323 -0.330755 -0.324265 -0.324265 -0.330755
          -0.248147 -0.336744 -0.0831016 -0.161331 -0.14341 -0.141935
          0.265476 0.312661 0.37568 0.293154 -0.601592 -0.601183
          -0.615295 -0.606765 -0.442996 -0.421795 -0.413742 -0.391734
          0.281712 0.181751 0.179964 0.192337 -0.381452 -0.386426
          -0.385427 -0.364747 -0.596519 -0.605534 -0.60849 -0.606765
          0.317271 0.243135 0.34242 0.274001 1.0076 0.992186
          0.97766 1.03743 -0.421372 -0.402251 -0.365193 -0.444654
          -0.336744 -0.330755 -0.248147 -0.317222 -0.3605 -0.421372
          -0.365193 -0.393886 1.02927 1.07607 1.0392 1.04493
          -0.0909205 -0.0807488 -0.114873 -0.0974204 -0.598679 -0.602659
          -0.605091 -0.607226 -0.0516314 -0.0331096 -0.0321671 -0.0433125
          -0.0516314 -0.0321671 -0.0545277 -0.0433125 -0.100418 -0.109624
          -0.0974204 -0.128416 0.924588 0.926939 0.919014 0.885922
          -0.188891 -0.217356 -0.221329 -0.241803 0.477071 0.368224
          0.471849 0.375425 0.453532 0.375425 0.471849 0.368224
          0.281712 0.361752 0.270179 0.368224 -0.393886 -0.462474
          -0.444654 -0.445271 -0.161331 -0.263183 -0.205679 -0.248147
          0.486622 0.466509 0.481467 0.404263 -0.1029 -0.0446928
          -0.0831016 -0.0334379 -0.1029 -0.106234 -0.0831016 -0.0446928
          0.0897101 0.131345 0.0269334 0.0653578 0.466509 0.422228
          0.550721 0.525818 -0.331952 -0.293712 -0.339489 -0.308486
          -0.609688 -0.604124 -0.605495 -0.60549 -0.589823 -0.588593
          -0.579112 -0.580307 0.955905 0.992022 0.9563 0.982276
          -0.3705 -0.327695 -0.337823 -0.361795 0.955905 0.994249
          0.992022 0.982276 -0.25746 -0.332993 -0.322874 -0.296868
          -0.167938 -0.155184 -0.183665 -0.142377 -0.605701 -0.594759
          -0.613989 -0.605756 0.957611 0.97766 0.952366 0.964402
          -0.0194943 -0.0373548 -0.0148698 -0.00900036 -0.331952 -0.339489
          -0.361831 -0.308486 1.04991 1.04493 1.09375 1.08839
          0.759262 0.80277 0.835047 0.818175 -0.501965 -0.475633
          -0.45509 -0.489206 0.587085 0.673158 0.6934 0.671573
          0.671573 0.673158 0.6934 0.747178 -0.614932 -0.610537
          -0.610222 -0.601281 -0.555061 -0.5242 -0.525882 -0.538075
          -0.161189 -0.0383277 -0.141522 -0.120107 0.475443 0.461281
          0.528453 0.545908 0.576957 0.50115 0.555971 0.495567
          -0.590032 -0.594954 -0.594765 -0.603292 0.555971 0.50115
          0.591048 0.540835 -0.607226 -0.606543 -0.601902 -0.606174
          -0.264953 -0.228365 -0.163731 -0.219076 -0.578393 -0.594954
          -0.594765 -0.590032 0.179964 0.0852052 0.176386 0.175661
          -0.596435 -0.589823 -0.572757 -0.580307 -0.572757 -0.547193
          -0.549149 -0.576022 -0.587157 -0.593287 -0.572757 -0.576022
          -0.572757 -0.559433 -0.549149 -0.547193 0.187424 0.226445
          0.273847 0.22943 0 -0.021768 0 -0.00736282
          -0.364239 -0.337261 -0.314827 -0.340524 -0.282981 -0.261287
          -0.300863 -0.284289 0.293154 0.213013 0.222664 0.300576
          -0.580307 -0.572757 -0.56772 -0.559433 -0.294244 -0.294327
          -0.317222 -0.360076 0.147286 0.114738 0.183895 0.19353
          0.00698102 0.00106752 0.0463107 -0.024701 0 0
          0 -0.00736282 -0.58394 -0.556744 -0.56772 -0.547193
          -0.56772 -0.556744 -0.529701 -0.547193 -0.52226 -0.492054
          -0.511239 -0.517394 -0.545036 -0.513139 -0.549149 -0.511239
          0.559671 0.550721 0.635195 0.591048 -0.0279686 -0.00736282
          -0.0423778 -0.021768 -0.0210781 -0.00798877 0 -0.00736282
          -0.248147 -0.294327 -0.211871 -0.238023 0.630668 0.554507
          0.578483 0.524128 0.667222 0.554507 0.578483 0.630668
          0.485717 0.578483 0.524128 0.477071 -0.560632 -0.561124
          -0.563047 -0.587347 0.955905 0.994064 0.992022 0.994249
          -0.601484 -0.606824 -0.606613 -0.614932 -0.559286 -0.535277
          -0.55754 -0.554683 -0.135977 -0.141493 -0.164258 -0.125203
          -0.135977 -0.125203 -0.164258 -0.160773 -0.596049 -0.604088
          -0.591783 -0.584442 0.690529 0.60553 0.6934 0.694364
          -0.588382 -0.59029 -0.59992 -0.604568 -0.135977 -0.170381
          -0.164258 -0.141493 -0.135977 -0.125203 -0.160773 -0.126556
          -0.0131021 -0.0122332 -0.014675 0 -0.0467611 -0.0349902
          -0.0407497 -0.0616949 0.0853844 0.088712 0.136628 0.0389614
          0.892847 0.812186 0.883765 0.857766 -0.606635 -0.604121
          -0.606543 -0.607479 -0.331952 -0.306575 -0.346023 -0.317802
          0.929123 0.88027 0.892847 0.939445 -0.483115 -0.513988
          -0.477368 -0.477031 0.270179 0.274001 0.281712 0.375425
          -0.31289 -0.214665 -0.264953 -0.319623 0.524128 0.441455
          0.4158 0.477071 -0.31677 -0.257511 -0.31289 -0.319623
          -0.607226 -0.606543 -0.606174 -0.606635 -0.591591 -0.571251
          -0.583544 -0.593334 -0.122071 -0.153426 -0.180202 -0.155231
          -0.60549 -0.60267 -0.595565 -0.601787 -0.197009 -0.160393
          -0.19048 -0.180202 -0.576693 -0.545036 -0.549149 -0.570157
          0.892396 0.812186 0.883765 0.829945 -0.578393 -0.581108
          -0.578733 -0.594954 -0.324265 -0.336744 -0.385172 -0.330755
          -0.386426 -0.341033 -0.369547 -0.364814 0 -0.00444756
          -0.0179501 0 0.70697 0.80277 0.818175 0.696053
          -0.161331 -0.248147 -0.211871 -0.178291 0.490251 0.540835
          0.575552 0.525818 -0.0126354 0 -0.0242749 -0.0158737
          0.957611 0.97766 0.967832 0.952366 0.896305 0.953422
          0.938067 0.952366 0.953422 0.952366 0.955905 0.957611
          -0.493674 -0.536532 -0.509551 -0.549552 -0.536532 -0.573116
          -0.562779 -0.549552 0.0350586 0.0429092 -0.0334379 -0.0339357
          -0.0407497 -0.0335524 -0.0507497 -0.0616949 0.745728 0.79386
          0.847262 0.826851 0.982276 1.03044 1.02395 1.0378
          -0.580158 -0.590032 -0.594765 -0.593319 0.580698 0.545908
          0.538209 0.475443 0.769835 0.862298 0.814724 0.818343
          -0.571117 -0.553089 -0.564006 -0.576103 0.987774 1.0392
          1.01953 1.04991 0.361752 0.50115 0.471849 0.453532
          -0.53041 -0.509131 -0.559713 -0.547039 -0.27258 -0.339323
          -0.327695 -0.308486 -0.581327 -0.576103 -0.564006 -0.553089
          -0.571117 -0.55443 -0.553089 -0.576103 -0.227508 -0.233291
          -0.231736 -0.182875 1.08923 1.08158 1.03044 1.08172
          -0.532774 -0.546836 -0.520643 -0.503908 -0.503316 -0.520643
          -0.53106 -0.472928 -0.503316 -0.520643 -0.552556 -0.53106
          0.22333 0.226421 0.272312 0.29799 0.133991 0.18953
          0.103477 0.122055 -0.20773 -0.245591 -0.191319 -0.194693
          0.812186 0.739584 0.747178 0.750003 0.122055 0.18953
          0.103477 0.0711169 0.122055 0.18953 0.0711169 0.127083
          0.987774 1.0392 1.04991 0.988705 0.265476 0.22333
          0.293154 0.29799 -0.607479 -0.606543 -0.604306 -0.598996
          -0.109624 -0.149963 -0.104158 -0.144184 -0.161825 -0.228365
          -0.254984 -0.25746 -0.0831016 -0.0446928 -0.0124784 -0.0334379
          -0.326806 -0.396044 -0.34214 -0.3614 0.620429 0.576606
          0.671573 0.578483 -0.587157 -0.595506 -0.576693 -0.59394
          1.05647 1.04546 1.04279 1.00424 -0.104985 -0.0966911
          -0.0727868 -0.0663928 -0.0839381 -0.0746054 -0.0676795 -0.0616949
          -0.337261 -0.369547 -0.372283 -0.389167 -0.451713 -0.49578
          -0.509551 -0.514186 0.875404 0.964402 0.964402 0.919067
          -0.116728 -0.184803 -0.0683123 -0.145402 -0.209163 -0.205846
          -0.243691 -0.274253 -0.209163 -0.163731 -0.264953 -0.228365
          -0.509551 -0.544008 -0.536532 -0.485233 -0.529951 -0.544008
          -0.536532 -0.509551 0.0897101 0.0653578 0.00556753 0.0852052
          -0.451713 -0.49578 -0.493674 -0.509551 0.0852052 0.00556753
          -0.00572604 0.0653578 -0.529951 -0.544008 -0.509551 -0.485233
          0.953422 0.896305 0.9111 0.919067 -0.330755 -0.359323
          -0.385172 -0.324265 -0.140254 -0.0909205 -0.10816 -0.128416
          -0.0566621 -0.0762623 -0.0414897 -0.055377 -0.0366013 -0.0433125
          -0.0331096 -0.0516314 0.0853844 0.0350586 0.0429092 0.0389614
          -0.153426 -0.125435 -0.188891 -0.137923 -0.0456833 -0.0388337
          -0.0281452 -0.0366013 -0.375313 -0.384992 -0.332993 -0.394107
          -0.408703 -0.401189 -0.431469 -0.381652 -0.100418 -0.109624
          -0.128416 -0.139971 -0.539182 -0.562779 -0.573364 -0.577714
          -0.565105 -0.56754 -0.567941 -0.586673 -0.386426 -0.381452
          -0.337261 -0.364747 -0.184187 -0.16821 -0.166307 -0.201109
          -0.0414897 -0.0274994 -0.0388337 -0.0359205 -0.171585 -0.140254
          -0.154251 -0.175025 -0.171585 -0.140254 -0.155792 -0.154251
          -0.131573 -0.112705 -0.135977 -0.155184 -0.104529 -0.106306
          -0.141493 -0.0979749 -0.520877 -0.563047 -0.53841 -0.528633
          -0.220345 -0.187186 -0.184803 -0.249103 -0.605701 -0.600893
          -0.613989 -0.594759 -0.59853 -0.604568 -0.605701 -0.613989
          -0.221329 -0.18142 -0.233291 -0.248485 -0.296868 -0.228365
          -0.264953 -0.25746 -0.472928 -0.431484 -0.401283 -0.429248
          -0.562779 -0.574662 -0.541258 -0.550484 0.712974 0.671573
          0.630668 0.770988 -0.214665 -0.209163 -0.264953 -0.274253
          -0.408703 -0.359571 -0.385583 -0.381652 -0.396044 -0.393886
          -0.357328 -0.445271 -0.396044 -0.451585 -0.393886 -0.445271
          -0.611269 -0.615798 -0.610537 -0.617884 0.266939 0.124246
          0.15972 0.222628 0.266951 0.266939 0.281712 0.192337
          -0.520877 -0.4944 -0.466643 -0.487995 -0.528633 -0.4944
          -0.487995 -0.493723 -0.3614 -0.425111 -0.360076 -0.396044
          -0.396044 -0.451585 -0.397242 -0.393886 0.693554 0.64528
          0.715046 0.745728 -0.384992 -0.421171 -0.363672 -0.440537
          -0.384992 -0.440537 -0.363672 -0.410354 -0.384992 -0.363672
          -0.330448 -0.410354 -0.0831016 -0.112389 -0.1029 -0.0339357
          -0.364747 -0.3191 -0.341033 -0.364814 -0.0515769 -0.0279686
          -0.0362098 -0.051966 -0.425111 -0.442072 -0.396985 -0.397242
          -0.330541 -0.393886 -0.36495 -0.3605 0.712974 0.747178
          0.753101 0.770988 1.03556 0.986222 0.999356 1.00424
          -0.228365 -0.211871 -0.145402 -0.151939 0.919014 0.859128
          0.926939 0.905117 1.03044 1.04493 1.08923 1.08172
          -0.449159 -0.477368 -0.428618 -0.477031 -0.604088 -0.608411
          -0.614347 -0.605756 -0.322874 -0.327936 -0.358312 -0.283759
          0.587085 0.576957 0.471849 0.477071 -0.611269 -0.607479
          -0.606174 -0.604306 -0.393886 -0.397242 -0.424531 -0.451585
          -0.330541 -0.321953 -0.393886 -0.3605 -0.0546027 -0.055377
          -0.0509829 -0.0359205 -0.358312 -0.322874 -0.384992 -0.394107
          -0.0873447 -0.0736489 -0.0124784 -0.14341 -0.510261 -0.489206
          -0.516593 -0.510375 -0.545036 -0.511239 -0.51427 -0.556536
          -0.545036 -0.51427 -0.549149 -0.556536 -0.421372 -0.453267
          -0.444654 -0.462474 1.04493 1.08958 1.07607 1.08923
          -0.385583 -0.359571 -0.343334 -0.381652 0.968415 0.967832
          0.953422 0.994842 0.778517 0.763692 0.764036 0.825329
          1.02033 1.0378 1.063 1.07521 -0.549448 -0.548618
          -0.540931 -0.578733 -0.431484 -0.472928 -0.401283 -0.465698
          -0.401283 -0.465698 -0.420765 -0.431484 0.982276 0.968415
          0.953422 0.994842 -0.282981 -0.248485 -0.307637 -0.282402
          -0.5595 -0.565105 -0.546836 -0.532774 -0.0876329 -0.109624
          -0.104158 -0.0839381 1.0378 1.08158 1.06649 1.03044
          -0.223718 -0.221329 -0.269019 -0.218544 -0.508049 -0.476443
          -0.540931 -0.511432 1.00044 0.994064 1.00014 1.02927
          0.994064 1.03604 1.00014 1.02927 -0.184676 -0.233291
          -0.18142 -0.227508 0.591048 0.559671 0.50115 0.576957
          -0.446413 -0.4944 -0.425111 -0.451585 0.66868 0.649864
          0.615495 0.673158 0.439675 0.538209 0.41735 0.481467
          -0.420885 -0.409138 -0.385427 -0.426503 -0.284289 -0.258818
          -0.317028 -0.289187 -0.481413 -0.472928 -0.431484 -0.49578
          -0.269956 -0.221329 -0.241803 -0.218544 0.270179 0.184625
          0.274001 0.26528 1.03604 1.03044 1.04493 0.994249
          0.994842 0.989552 1.01979 0.968415 -0.549552 -0.573116
          -0.550484 -0.563005 -0.166307 -0.201109 -0.20878 -0.21049
          -0.166307 -0.167938 -0.20878 -0.201109 -0.109624 -0.135303
          -0.106801 -0.104158 -0.376382 -0.38119 -0.353888 -0.327936
          -0.0282422 -0.00792568 0.0767849 -0.00310106 -0.453267 -0.490188
          -0.462474 -0.476443 -0.0826948 -0.0873447 -0.161825 -0.0716904
          -0.27071 -0.289187 -0.284289 -0.319052 -0.00572604 -0.0873447
          -0.0826948 -0.0716904 -0.149963 -0.155231 -0.135303 -0.144184
          0.34242 0.243135 0.26528 0.274001 -0.215086 -0.231736
          -0.233291 -0.184676 0.994842 1.01785 1.03044 1.06649
          -0.230152 -0.181463 -0.194693 -0.212972 0.9111 0.857766
          0.871731 0.846221 -0.349927 -0.314393 -0.369417 -0.375313
          -0.547193 -0.505201 -0.549149 -0.545036 -0.0909205 -0.0492213
          -0.0689169 -0.0676795 -0.0446928 -0.0736489 0.00411554 -0.024701
          0.00411554 -0.0736489 0.00698102 -0.024701 0.088712 0.00411554
          0.0821265 0.0389614 -0.545036 -0.517394 -0.556536 -0.551364
          -0.52226 -0.517394 -0.545036 -0.551364 -0.554683 -0.52226
          -0.545036 -0.551364 0.955905 0.994064 0.964551 0.992022
          0.0389614 -0.0446928 0.00411554 -0.024701 0.00411554 -0.024701
          0.0821265 0.0389614 -0.545036 -0.556536 -0.549149 -0.570157
          0.603092 0.514154 0.590354 0.660272 0.603092 0.586952
          0.514154 0.660272 -0.596049 -0.601902 -0.595416 -0.606174
          -0.607233 -0.617295 -0.605534 -0.611269 0.481467 0.404996
          0.404263 0.365474 0.404263 0.481467 0.486622 0.404996
          -0.542343 -0.519906 -0.514976 -0.513988 -0.55443 -0.513988
          -0.553089 -0.522822 -0.477031 -0.513988 -0.477368 -0.474792
          -0.55443 -0.516593 -0.513988 -0.513139 -0.592202 -0.591306
          -0.587756 -0.595495 0.229358 0.194733 0.181751 0.274001
          0.878842 0.918357 0.909085 0.929042 0.817607 0.812186
          0.725891 0.829945 -0.525882 -0.5242 -0.486264 -0.538075
          -0.477368 -0.490656 -0.513988 -0.483115 0.60553 0.694364
          0.696053 0.652694 0.70697 0.71259 0.696053 0.585769
          0.0429092 -0.0334379 -0.0124784 0.00411554 -0.545036 -0.505201
          -0.549149 -0.513139 -0.529073 -0.51427 -0.498097 -0.497359
          -0.542389 -0.552479 -0.498097 -0.529073 -0.0716904 -0.0853689
          -0.0736489 -0.145402 -0.0716904 0.00698102 -0.0736489 -0.0853689
          0.266951 0.15972 0.192337 0.153568 0.213013 0.281712
          0.293154 0.192337 0.475443 0.576606 0.528453 0.485717
          0.266951 0.153568 0.192337 0.213013 -0.337261 -0.369547
          -0.389167 -0.386426 -0.605756 -0.604088 -0.584442 -0.584649
          0 0 0 -0.0158737 0.690529 0.635195
          0.62046 0.685729 -0.182875 -0.183591 -0.155184 -0.135977
          -0.475633 -0.474792 -0.434857 -0.477368 -0.55443 -0.516593
          -0.513139 -0.549149 0.226421 0.272312 0.315608 0.273847
          -0.411734 -0.385427 -0.364239 -0.381452 -0.539178 -0.510375
          -0.547193 -0.529701 0.959385 0.994064 0.998789 1.00014
          -0.391712 -0.339323 -0.401768 -0.367459 -0.393886 -0.424531
          -0.3605 -0.421372 0.909085 0.84685 0.859342 0.878842
          -0.465925 -0.442072 -0.453424 -0.428833 0.226339 0.315974
          0.26482 0.226445 0.477071 0.587085 0.578483 0.514154
          0.667222 0.578483 0.671573 0.630668 0.9563 0.92421
          0.922122 0.913168 0.871623 0.913168 0.922122 0.88158
          0.922122 0.926939 0.9563 0.913168 0.94404 0.905117
          0.922122 0.893709 -0.571365 -0.594759 -0.573364 -0.583032
          0.871623 0.926939 0.922122 0.913168 1.02618 1.04991
          1.063 1.02395 0.94404 0.922122 0.929731 0.893709
          -0.605291 -0.607226 -0.606174 -0.606635 0.998789 0.994249
          1.03604 0.994064 -0.263183 -0.300681 -0.330755 -0.324265
          -0.587347 -0.600512 -0.594954 -0.605495 0.6934 0.591048
          0.690529 0.715046 -0.0206394 -0.0120442 -0.0122518 -0.0251656
          -0.0676795 -0.0407497 -0.0546027 -0.0507497 -0.551364 -0.53041
          -0.559713 -0.547039 -0.434857 -0.401768 -0.428618 -0.391712
          -0.161331 -0.205679 -0.211871 -0.248147 -0.161331 -0.205679
          -0.14341 -0.211871 -0.475633 -0.471353 -0.45509 -0.489206
          -0.205679 -0.275434 -0.211871 -0.248147 -0.0918145 -0.0769447
          -0.055377 -0.0800162 -0.270885 -0.293712 -0.284748 -0.253853
          -0.205679 -0.112389 -0.164205 -0.167424 -0.46894 -0.528465
          -0.514186 -0.509551 -0.593287 -0.589823 -0.602749 -0.587157
          -0.593287 -0.596435 -0.602749 -0.589823 0 -0.00736282
          0 0 -0.248147 -0.263183 -0.275434 -0.330755
          -0.0736489 -0.024701 -0.0683123 0.00698102 1.03556 1.03394
          1.05647 1.00424 -0.0683123 0.00698102 -0.0166612 -0.0324757
          0.315608 0.365474 0.273847 0.272312 -0.0166612 -0.0637811
          0.00106752 -0.0683123 -0.516821 -0.482959 -0.505201 -0.471625
          -0.471625 -0.465409 -0.502773 -0.475595 -0.205846 -0.166782
          -0.184803 -0.220345 -0.549149 -0.55443 -0.552479 -0.522822
          -0.0909205 -0.0676795 -0.0689169 -0.0546027 -0.549149 -0.55443
          -0.576103 -0.552479 1.03394 1.03743 1.08595 1.04546
          -0.0807488 -0.0506569 -0.055377 -0.0359205 -0.178291 -0.141935
          -0.211871 -0.161331 0.9111 0.857766 0.859342 0.918357
          0.265476 0.293154 0.37568 0.29799 -0.425111 -0.453424
          -0.442072 -0.397242 -0.426503 -0.456825 -0.419251 -0.47284
          0.962865 0.967832 0.994842 1.01785 0.967832 1.01785
          0.994249 1.03044 -0.587951 -0.580147 -0.571117 -0.59394
          -0.419251 -0.456825 -0.426503 -0.386426 0.712974 0.753101
          0.671573 0.770988 -0.47284 -0.466267 -0.419251 -0.449559
          0.441455 0.325313 0.4158 0.34242 0.696053 0.814724
          0.80277 0.771063 0.818175 0.871623 0.88158 0.834652
          -0.0506569 -0.0274994 -0.0414897 -0.0359205 -0.0506569 -0.0414897
          -0.055377 -0.0359205 0.819384 0.818175 0.88158 0.834652
          0.778517 0.834652 0.818175 0.819384 0.80277 0.814724
          0.818175 0.771063 -0.605091 -0.602659 -0.605715 -0.607226
          -0.408703 -0.431469 -0.410755 -0.381652 -0.114873 -0.104529
          -0.138966 -0.135977 -0.10816 -0.104529 -0.138966 -0.114873
          -0.576693 -0.55443 -0.576103 -0.549149 -0.455538 -0.456825
          -0.43445 -0.4751 -0.19356 -0.183591 -0.199185 -0.164258
          0.10934 0.0852052 0.176386 0.132925 0.903438 0.938067
          0.896305 0.913168 -0.122071 -0.104985 -0.153426 -0.137923
          0.447798 0.366047 0.490251 0.453532 -0.330755 -0.336744
          -0.385172 -0.369417 0.870041 0.846848 0.903438 0.825329
          0.846848 0.870041 0.903438 0.913168 0.826217 0.846848
          0.870345 0.893233 -0.219229 -0.228437 -0.178468 -0.20773
          -0.308486 -0.264202 -0.293712 -0.27258 -0.306575 -0.264202
          -0.308486 -0.27258 -0.0184177 -0.0122332 -0.026493 -0.0335524
          -0.0184177 -0.0131021 -0.0122332 -0.0335524 -0.306575 -0.231736
          -0.264202 -0.27258 -0.228437 -0.178468 -0.20773 -0.19048
          -0.0148698 -0.00244451 0 0 0 -0.0148698
          0 0 -0.576103 -0.570554 -0.583544 -0.552479
          -0.552479 -0.570554 -0.583544 -0.571251 -0.0148698 0
          0 -0.0126354 -0.561118 -0.581108 -0.578733 -0.578393
          -0.602659 -0.593287 -0.607226 -0.598679 -0.155184 -0.126556
          -0.160773 -0.142377 0.694364 0.6934 0.771063 0.781783
          0.694364 0.710946 0.652694 0.6277 0.694364 0.736088
          0.652694 0.710946 -0.4616 -0.449159 -0.442996 -0.477031
          -0.4616 -0.421795 -0.442996 -0.449159 0.408272 0.376145
          0.485717 0.4158 -0.145402 -0.141935 -0.0683123 -0.0736489
          0.694364 0.6934 0.701116 0.576606 0.903438 0.846848
          0.870345 0.825329 0.753101 0.667222 0.781563 0.778368
          -0.319052 -0.372283 -0.335303 -0.337261 0.913168 0.926939
          0.9563 0.9111 0.43286 0.477071 0.495567 0.375425
          -0.493674 -0.549552 -0.509551 -0.49578 0.47369 0.371555
          0.428527 0.408272 0.47369 0.428527 0.528453 0.408272
          -0.175025 -0.128416 -0.131573 -0.144184 -0.128416 -0.144184
          -0.139971 -0.109624 -0.144184 -0.149963 -0.139971 -0.109624
          -0.492048 -0.4751 -0.492054 -0.465409 -0.549149 -0.556536
          -0.552479 -0.576693 -0.549149 -0.552479 -0.576103 -0.576693
          -0.0509829 -0.0432173 -0.0436944 -0.0748949 0.818985 0.812186
          0.88027 0.857766 -0.144184 -0.122071 -0.153426 -0.180202
          0.962865 0.989552 0.968415 0.962865 -0.114873 -0.154251
          -0.128416 -0.131573 -0.411353 -0.364747 -0.386426 -0.364814
          -0.428833 -0.481413 -0.472928 -0.431484 -0.428618 -0.391712
          -0.412527 -0.3705 -0.4245 -0.428618 -0.391712 -0.382787
          0.226339 0.26482 0.182148 0.226445 0.140613 0.226445
          0.226339 0.182148 -0.428833 -0.396985 -0.369417 -0.385172
          -0.218544 -0.242638 -0.267441 -0.269019 -0.412527 -0.3705
          -0.391734 -0.428618 -0.594326 -0.587151 -0.600877 -0.605155
          -0.3705 -0.307637 -0.326509 -0.372283 -0.029839 -0.0432173
          -0.0297218 -0.0206394 -0.59853 -0.605155 -0.604568 -0.613989
          -0.326509 -0.300863 -0.337823 -0.361795 -0.300863 -0.313547
          -0.361795 -0.326509 -0.282981 -0.241278 -0.300863 -0.261287
          0.0266296 -0.00337952 0.0225208 0.0692919 -0.282981 -0.241278
          -0.261287 -0.248485 -0.361795 -0.313547 -0.358657 -0.326509
          -0.361795 -0.358657 -0.371754 -0.326509 0.763024 0.745728
          0.826851 0.79386 -0.0546027 -0.0807488 -0.055377 -0.0359205
          -0.606543 -0.602749 -0.601787 -0.607479 0.660272 0.586952
          0.514154 0.661841 0.660272 0.514154 0.590354 0.661841
          -0.0807488 -0.0689169 -0.0762623 -0.0506569 0.84685 0.77037
          0.818985 0.859342 -0.465925 -0.453424 -0.481413 -0.428833
          0.77037 0.84685 0.79386 0.859342 0.88027 0.84685
          0.859342 0.909085 -0.419251 -0.411353 -0.386426 -0.364814
          0.118445 0.0853844 0.114738 0.147286 -0.0499682 0.0517336
          0.0409103 0.0225208 0.961097 0.988705 0.990392 0.982276
          0.896305 0.919067 0.875404 0.835634 -0.151924 -0.145402
          -0.209163 -0.184803 -0.341033 -0.3191 -0.337261 -0.300825
          -0.239023 -0.322149 -0.328099 -0.297914 -0.265338 -0.239023
          -0.328099 -0.297914 -0.297914 -0.265338 -0.330448 -0.328099
          -0.297914 -0.363672 -0.328099 -0.330448 -0.384992 -0.363672
          -0.297914 -0.330448 -0.384992 -0.363672 -0.328099 -0.297914
          -0.297914 -0.364512 -0.328099 -0.384992 1.07521 1.08158
          1.06649 1.0378 -0.191319 -0.175025 -0.154251 -0.184676
          -0.322149 -0.364512 -0.328099 -0.297914 -0.191288 -0.254984
          -0.239023 -0.217622 0.576957 0.50115 0.495567 0.471849
          0.453532 0.50115 0.495567 0.555971 0.896305 0.952366
          0.938067 0.918228 0.490251 0.555971 0.575552 0.540835
          0.490251 0.453532 0.555971 0.540835 -0.149963 -0.160393
          -0.155231 -0.180202 0.359552 0.350848 0.366123 0.266939
          -0.604088 -0.596049 -0.608411 -0.605756 -0.0206394 -0.00798877
          -0.0309387 -0.0436944 -0.431223 -0.426503 -0.381452 -0.389167
          0.846221 0.781783 0.857766 0.871731 0.913168 0.846221
          0.9111 0.871731 -0.208492 -0.217622 -0.268318 -0.25746
          -0.358312 -0.384992 -0.330448 -0.410354 0.176386 0.0852052
          0.182399 0.175661 -0.514976 -0.4616 -0.509884 -0.483115
          -0.149752 -0.217622 -0.206792 -0.177303 -0.217622 -0.297914
          -0.268318 -0.25746 -0.514976 -0.4616 -0.492321 -0.509884
          -0.606765 -0.607479 -0.606635 -0.611269 -0.611269 -0.606635
          -0.606765 -0.605534 0.913168 0.871731 0.9111 0.896305
          -0.425111 -0.486264 -0.453424 -0.451585 -0.182875 -0.154251
          -0.131573 -0.184676 -0.182875 -0.154251 -0.135977 -0.131573
          0.447798 0.422228 0.466509 0.525818 0.447798 0.45118
          0.422228 0.525818 -0.282981 -0.233291 -0.227508 -0.248485
          -0.282981 -0.241278 -0.248485 -0.227508 -0.267026 -0.307478
          -0.273168 -0.292999 -0.286097 -0.241278 -0.300863 -0.282981
          0.954037 0.952366 0.964402 0.957611 1.01953 1.04991
          1.04863 1.02618 -0.254984 -0.239709 -0.322149 -0.314393
          -0.0299528 0.0317743 0.0852052 0.0357389 1.0392 1.04493
          1.09375 1.04991 -0.0716904 -0.0826948 -0.00572604 -0.0299528
          1.04279 1.04546 1.08311 1.07089 -0.215086 -0.223718
          -0.259877 -0.251108 0.673158 0.77037 0.6934 0.747178
          0.673158 0.715046 0.6934 0.77037 0.715046 0.746051
          0.77037 0.673158 -0.4751 -0.426503 -0.431223 -0.474792
          0.77037 0.746051 0.84685 0.750003 0.84685 0.750003
          0.818985 0.77037 0.77037 0.812186 0.818985 0.857766
          -0.43155 -0.407104 -0.410755 -0.382811 -0.577714 -0.601902
          -0.578733 -0.595416 -0.598996 -0.606543 -0.604306 -0.595416
          0.0897101 0.088712 0.179964 0.164525 0.0897101 0.088712
          0.181751 0.179964 -0.112705 -0.0987839 -0.126556 -0.106414
          -0.532774 -0.503908 -0.520643 -0.465925 0.179964 0.088712
          0.181751 0.164525 0.179964 0.270179 0.176386 0.26482
          0.179964 0.270179 0.272312 0.176386 0.746051 0.693554
          0.79386 0.745728 0.746051 0.693554 0.715046 0.79386
          -0.0122518 0 -0.0122023 -0.0120442 -0.0122332 -0.0120442
          -0.014675 0 1.03044 1.07089 1.08158 1.06649
          0.696053 0.690529 0.60553 0.585769 0.696053 0.652694
          0.59525 0.60553 0.690529 0.694364 0.696053 0.60553
          0.967832 1.03044 0.994249 0.994842 0.690529 0.771063
          0.696053 0.694364 -0.386426 -0.409138 -0.385427 -0.364747
          0.982276 0.994249 1.03044 0.994842 0.763024 0.745728
          0.79386 0.715046 -0.466643 -0.4944 -0.425111 -0.446413
          -0.0120442 -0.0122332 0 0 -0.504352 -0.470143
          -0.471353 -0.510261 0.00556753 -0.0124784 0.00411554 0.0577277
          -0.269956 -0.269019 -0.221329 -0.218544 -0.218544 -0.221329
          -0.241803 -0.232947 -0.140693 -0.161825 -0.0778743 -0.0873447
          -0.218544 -0.19915 -0.177314 -0.232947 -0.254984 -0.314557
          -0.332993 -0.296868 -0.254984 -0.314393 -0.332993 -0.314557
          -0.197009 -0.19915 -0.177314 -0.218544 -0.570157 -0.556536
          -0.549149 -0.576693 -0.160316 -0.171585 -0.175025 -0.140254
          -0.481413 -0.515213 -0.464844 -0.483101 -0.55443 -0.513139
          -0.522822 -0.549149 -0.172689 -0.160316 -0.178468 -0.139971
          1.00424 1.03394 1.04546 1.0076 -0.0446928 -0.0736489
          -0.0124784 0.00411554 0.259679 0.19353 0.209665 0.26528
          0.0269334 -0.00792568 0.0843481 0.0973606 -0.471625 -0.43155
          -0.475595 -0.428346 0.580698 0.481467 0.475443 0.538209
          -0.404675 -0.466643 -0.425111 -0.446413 -0.0872548 -0.0676795
          -0.0507497 -0.0839381 -0.314827 -0.337261 -0.289606 -0.340524
          -0.0516314 -0.0331096 -0.0220747 -0.0321671 -0.476443 -0.511432
          -0.490188 -0.462474 -0.0831016 -0.00337952 -0.123642 -0.0397778
          -0.511452 -0.523147 -0.508049 -0.540931 -0.560632 -0.528633
          -0.561124 -0.511432 -0.511432 -0.528633 -0.561124 -0.530527
          -0.511432 -0.528633 -0.530527 -0.493723 -0.358312 -0.421164
          -0.384992 -0.410354 0.945894 0.938067 0.917689 0.903438
          -0.322874 -0.3605 -0.394107 -0.421164 -0.610222 -0.604088
          -0.584649 -0.59445 0.226421 0.175661 0.272312 0.176386
          -0.605091 -0.607226 -0.601902 -0.605291 -0.442072 -0.472728
          -0.503908 -0.453424 -0.453424 -0.472728 -0.503908 -0.503281
          0.175661 0.0852052 0.118803 0.127083 -0.453424 -0.503281
          -0.503908 -0.481413 -0.465925 -0.442072 -0.503908 -0.453424
          -0.425111 -0.453424 -0.397242 -0.451585 1.04493 1.08923
          1.07607 1.09375 1.04493 1.07607 1.0392 1.09375
          0.763692 0.679028 0.710946 0.764036 1.04493 1.02395
          1.0392 1.00044 1.04493 1.08923 1.09375 1.08839
          -0.184676 -0.155184 -0.18142 -0.131573 -0.131573 -0.153426
          -0.18142 -0.184676 -0.175025 -0.144184 -0.131573 -0.184676
          -0.184676 -0.180202 -0.233291 -0.223718 -0.596435 -0.572757
          -0.589823 -0.593287 -0.132948 -0.112705 -0.155184 -0.142377
          -0.112705 -0.126556 -0.155184 -0.142377 -0.112705 -0.106414
          -0.126556 -0.142377 0.80277 0.818175 0.86023 0.835047
          -0.58693 -0.591591 -0.59029 -0.593334 -0.605534 -0.58693
          -0.59029 -0.604568 0.222664 0.300576 0.312661 0.293154
          0.312661 0.293154 0.393062 0.37568 0.300576 0.366047
          0.393062 0.293154 -0.607226 -0.593287 -0.608847 -0.602749
          -0.593287 -0.596435 -0.608847 -0.602749 0.312661 0.300576
          0.393062 0.293154 -0.014675 -0.0277801 -0.0120442 -0.0297218
          0.226421 0.176386 0.272312 0.187424 0.22333 0.215118
          0.272312 0.175661 -0.410354 -0.46894 -0.421164 -0.451713
          -0.330755 -0.275434 -0.248147 -0.317222 -0.364239 -0.337261
          -0.340524 -0.381452 0.575552 0.555971 0.591048 0.540835
          -0.476443 -0.424531 -0.421372 -0.421164 1.01979 1.02033
          0.994842 1.03528 -0.421372 -0.424531 -0.3605 -0.421164
          1.01979 0.989552 1.02841 1.02849 1.01979 0.994842
          0.989552 0.989552 1.03528 1.01979 1.02841 1.02849
          1.01979 0.989552 0.989552 1.02849 0.576957 0.471849
          0.475443 0.481467 0.576957 0.471849 0.576606 0.475443
          0.576957 0.576606 0.471849 0.477071 0.576957 0.6934
          0.694364 0.576606 0.576957 0.671573 0.6934 0.576606
          -0.120107 -0.0826948 -0.141522 -0.161825 -0.161825 -0.0716904
          -0.120107 -0.0826948 -0.576103 -0.59394 -0.574159 -0.576693
          0.477071 0.376145 0.471849 0.368224 0.368224 0.471849
          0.475443 0.376145 -0.254984 -0.314393 -0.297914 -0.332993
          -0.322149 -0.375313 -0.297914 -0.314393 -0.349927 -0.314393
          -0.375313 -0.322149 -0.327936 -0.31289 -0.278857 -0.322874
          0.270179 0.362052 0.26482 0.368224 -0.217591 -0.161825
          -0.191288 -0.151939 0.471849 0.362052 0.466509 0.368224
          0.471849 0.368224 0.466509 0.361752 0.00556753 0.00411554
          0.00698102 0.0577277 -0.412527 -0.428618 -0.391734 -0.4245
          -0.289187 -0.27071 -0.269956 -0.319052 -0.321953 -0.27546
          -0.243691 -0.296868 -0.321953 -0.330541 -0.27546 -0.296868
          -0.608749 -0.609688 -0.602749 -0.60549 0.0897101 0.0577277
          0.00698102 0.088712 -0.520643 -0.546836 -0.503281 -0.503908
          -0.0826948 -0.0716904 -0.120107 -0.0299528 -0.604306 -0.611269
          -0.604088 -0.608411 -0.192492 -0.248485 -0.18142 -0.21049
          -0.249103 -0.294244 -0.326806 -0.302569 -0.0748949 -0.0620695
          -0.0436944 -0.0727868 -0.0194943 -0.00468258 -0.00244451 -0.0142378
          0.929731 0.94404 0.97371 0.961097 -0.606824 -0.606765
          -0.615295 -0.610537 -0.606824 -0.610537 -0.615295 -0.614932
          -0.614932 -0.610537 -0.615295 -0.617884 0.871731 0.835634
          0.896305 0.813209 0.834652 0.813209 0.871731 0.896305
          -0.610537 -0.606765 -0.611269 -0.607479 -0.610537 -0.607479
          -0.611269 -0.604306 0.661841 0.673158 0.747178 0.750003
          -0.55754 -0.531799 -0.526146 -0.535277 -0.55754 -0.526146
          -0.556744 -0.547193 -0.471625 -0.428346 -0.410755 -0.43155
          -0.576022 -0.55754 -0.583 -0.58394 -0.125435 -0.137564
          -0.132948 -0.159693 -0.141522 -0.217622 -0.177303 -0.208492
          0.176386 0.0852052 0.118803 0.182399 -0.314827 -0.300825
          -0.271789 -0.289606 -0.273168 -0.223718 -0.289606 -0.271789
          -0.570157 -0.586375 -0.588382 -0.59029 -0.421164 -0.482107
          -0.46894 -0.458207 -0.582338 -0.582806 -0.597244 -0.598996
          -0.273168 -0.314827 -0.271789 -0.289606 -0.598996 -0.582806
          -0.597244 -0.595565 -0.559286 -0.531799 -0.556744 -0.55754
          -0.559286 -0.55754 -0.580329 -0.554683 -0.0876329 -0.0839381
          -0.104158 -0.0507497 0.661841 0.586952 0.514154 0.587085
          0.661841 0.586952 0.587085 0.673158 0.661841 0.630668
          0.590354 0.712974 0.590354 0.661841 0.712974 0.725891
          0.671573 0.630668 0.661841 0.712974 0.447798 0.422228
          0.361752 0.365474 0.365474 0.272312 0.315608 0.29799
          0.422228 0.365474 0.315608 0.29799 -0.0324757 0.00698102
          0.0590978 0.0287109 0.0287109 0.00698102 0.0590978 0.0973606
          -0.584442 -0.604088 -0.591783 -0.586673 0.194733 0.0821265
          0.124246 0.139303 0.222628 0.194733 0.124246 0.139303
          0.222628 0.124246 0.15972 0.139303 -0.410755 -0.382811
          -0.375762 -0.411734 -0.513988 -0.542343 -0.553089 -0.522822
          0.77037 0.747178 0.812186 0.857766 0.857766 0.747178
          0.812186 0.835634 -0.205846 -0.184803 -0.243691 -0.220345
          0.857766 0.812186 0.829945 0.835634 -0.511452 -0.483101
          -0.476443 -0.514186 -0.604121 -0.602749 -0.606543 -0.607479
          -0.600585 -0.595495 -0.605291 -0.59666 -0.322874 -0.3605
          -0.332993 -0.394107 -0.421164 -0.394107 -0.384992 -0.451713
          -0.36495 -0.431484 -0.394107 -0.424531 -0.36495 -0.431484
          -0.375313 -0.394107 -0.539182 -0.523147 -0.501778 -0.511452
          0.926939 0.955905 0.9563 0.9111 0.926939 0.959385
          0.955905 0.9111 0.959385 0.918357 0.955905 0.9111
          -0.552479 -0.529073 -0.570554 -0.54589 0.955905 0.918357
          0.957611 0.9111 0.955905 0.919067 0.9111 0.957611
          0.955905 0.957611 0.967832 0.953422 0.953422 0.955905
          0.9111 0.913168 0.955905 0.9563 0.9111 0.913168
          0.620429 0.667222 0.682538 0.554507 0.951491 0.962865
          0.984227 0.93937 -0.3705 -0.382787 -0.335303 -0.372283
          -0.319052 -0.372283 -0.307637 -0.335303 0.826851 0.862298
          0.900105 0.885922 -0.4944 -0.486264 -0.425111 -0.451585
          -0.562779 -0.541258 -0.514186 -0.550484 -0.541258 -0.483101
          -0.476443 -0.511452 0.926939 0.9111 0.871623 0.862298
          0.926939 0.9111 0.862298 0.900105 0.900105 0.926939
          0.885922 0.862298 0.919014 0.964551 0.957672 0.926939
          0.957762 0.964551 0.919014 0.926939 0.905117 0.919014
          0.957672 0.926939 0.957762 0.964551 0.957672 0.919014
          -0.275434 -0.191288 -0.239709 -0.205679 -0.275434 -0.254984
          -0.239709 -0.191288 -0.191288 -0.239709 -0.239023 -0.254984
          -0.471353 -0.456047 -0.477368 -0.434857 -0.471353 -0.456047
          -0.490656 -0.477368 -0.522822 -0.509884 -0.506753 -0.498097
          -0.514976 -0.509884 -0.513988 -0.483115 -0.471353 -0.451025
          -0.470143 -0.427097 -0.451025 -0.470143 -0.510261 -0.471353
          -0.322874 -0.296868 -0.3605 -0.264953 -0.0800162 -0.112705
          -0.0918145 -0.0891458 -0.106414 -0.0800162 -0.0826292 -0.0994993
          -0.332993 -0.25746 -0.322874 -0.297914 -0.358312 -0.322874
          -0.330448 -0.384992 -0.297914 -0.322874 -0.330448 -0.268318
          -0.322874 -0.332993 -0.3605 -0.296868 -0.254984 -0.275434
          -0.314393 -0.314557 1.04863 1.04991 1.063 1.02618
          -0.029839 -0.0297218 -0.014675 -0.0120442 -0.573364 -0.594759
          -0.591654 -0.583032 -0.0148698 0 0 -0.0242749
          -0.248543 -0.227508 -0.282981 -0.27258 -0.59422 -0.598679
          -0.605091 -0.605291 -0.591283 -0.58789 -0.598679 -0.588037
          -0.606543 -0.600482 -0.598996 -0.595565 0.86023 0.818175
          0.88158 0.835047 -0.286097 -0.248543 -0.282981 -0.27258
          0.23525 0.183895 0.19353 0.283342 0.283342 0.23525
          0.259679 0.19353 -0.0979749 -0.125203 -0.135977 -0.126556
          -0.57823 -0.587151 -0.59029 -0.594326 0.903438 0.896305
          0.870345 0.846848 0.962865 0.989552 0.989552 0.968415
          -0.58693 -0.576022 -0.570157 -0.586375 -0.464844 -0.424531
          -0.431484 -0.424615 -0.151924 -0.116728 -0.145402 -0.184803
          0.813209 0.846848 0.778368 0.835634 -0.419251 -0.445396
          -0.409138 -0.411353 -0.419251 -0.456147 -0.445396 -0.411353
          -0.466267 -0.456147 -0.445396 -0.419251 -0.58693 -0.586375
          -0.59992 -0.59472 -0.58693 -0.576022 -0.586375 -0.59472
          -0.0158737 -0.00736282 -0.0220747 -0.0321671 -0.0220747 -0.00736282
          -0.0423778 -0.0321671 -0.294244 -0.243691 -0.211871 -0.238023
          -0.249103 -0.238023 -0.243691 -0.294244 -0.249103 -0.294244
          -0.243691 -0.326806 -0.611269 -0.617295 -0.605534 -0.615798
          -0.396044 -0.425111 -0.397242 -0.451585 -0.396044 -0.425111
          -0.360076 -0.397242 -0.0716904 -0.0853689 -0.145402 -0.151939
          -0.0716904 -0.145402 -0.0736489 -0.151939 -0.0716904 -0.151939
          -0.0736489 -0.14341 -0.0873447 -0.14341 -0.151939 -0.0716904
          -0.0873447 -0.151939 -0.161825 -0.0716904 -0.0873447 -0.14341
          -0.161825 -0.151939 -0.151939 -0.161825 -0.191288 -0.14341
          -0.151939 -0.145402 -0.0736489 -0.14341 -0.151939 -0.211871
          -0.145402 -0.14341 -0.104158 -0.128416 -0.144184 -0.131573
          -0.589823 -0.579112 -0.574159 -0.559433 -0.104158 -0.0872548
          -0.0748949 -0.0507497 -0.0475263 -0.045854 -0.0432173 -0.0693774
          -0.0432173 -0.045854 -0.0620695 -0.0693774 -0.0748949 -0.0432173
          -0.0620695 -0.0693774 -0.0748949 -0.0432173 -0.0436944 -0.0620695
          -0.401189 -0.434857 -0.382787 -0.385583 -0.0432173 -0.045854
          -0.0251656 -0.0620695 -0.0432173 -0.0277801 -0.0251656 -0.045854
          0.870041 0.834652 0.846848 0.825329 -0.4616 -0.453798
          -0.442996 -0.421795 -0.442996 -0.453798 -0.492321 -0.4627
          -0.421795 -0.413742 -0.453798 -0.442996 0.18953 0.22333
          0.191131 0.265476 0.22333 0.18953 0.191131 0.175661
          -0.550484 -0.520643 -0.53106 -0.546836 -0.550484 -0.49578
          -0.53106 -0.520643 -0.472928 -0.53106 -0.49578 -0.520643
          -0.472928 -0.520643 -0.49578 -0.481413 -0.503316 -0.532774
          -0.552556 -0.520643 -0.322149 -0.364512 -0.297914 -0.375313
          -0.598996 -0.60549 -0.606543 -0.595565 -0.401283 -0.420765
          -0.364512 -0.375313 -0.401283 -0.420765 -0.375313 -0.431484
          -0.431484 -0.420765 -0.375313 -0.451713 -0.0800162 -0.0509829
          -0.0433125 -0.0545277 -0.0800162 -0.0545277 -0.0433125 -0.0773241
          -0.375313 -0.420765 -0.384992 -0.451713 -0.375313 -0.420765
          -0.364512 -0.384992 -0.375313 -0.364512 -0.297914 -0.384992
          -0.282981 -0.248485 -0.282402 -0.233291 -0.27258 -0.282981
          -0.282402 -0.233291 -0.282402 -0.233291 -0.231736 -0.27258
          -0.557066 -0.561995 -0.548618 -0.578733 -0.187651 -0.20773
          -0.171585 -0.191319 -0.0206394 -0.0126354 0 -0.0122332
          -0.0126354 0 0 -0.0122332 -0.0122332 0
          -0.0148698 -0.0126354 -0.026493 -0.0122332 -0.0148698 -0.0126354
          -0.306575 -0.264202 -0.293712 -0.308486 -0.331952 -0.306575
          -0.293712 -0.308486 -0.0287179 -0.0148698 -0.0359205 -0.0242749
          -0.0359205 -0.055377 -0.0287179 -0.0242749 -0.0359205 -0.055377
          -0.0509829 -0.0287179 -0.0287179 -0.0546027 -0.0509829 -0.0359205
          0.97766 0.977511 0.992186 0.964402 0.967832 0.97766
          0.992186 0.964402 -0.172689 -0.187651 -0.160316 -0.152133
          0.957611 0.97766 0.964402 0.954037 0.97766 0.954037
          0.957611 0.939445 0.97766 0.977511 0.964402 0.954037
          -0.552479 -0.549149 -0.513139 -0.51427 -0.552479 -0.549149
          -0.522822 -0.513139 -0.474792 -0.4751 -0.51427 -0.513139
          -0.410755 -0.34114 -0.382811 -0.365311 -0.0331096 -0.0366013
          -0.0179501 -0.0158737 -0.249103 -0.238023 -0.294244 -0.315558
          -0.0872548 -0.0546027 -0.0507497 -0.0676795 -0.27258 -0.230152
          -0.253853 -0.270885 -0.0746054 -0.0467611 -0.0676795 -0.0616949
          -0.0746054 -0.0467611 -0.0492213 -0.0676795 -0.0676795 -0.0492213
          -0.0689169 -0.0546027 -0.0339357 -0.0831016 -0.0397778 0.0429092
          0.0354087 -0.0339357 -0.0397778 0.0429092 -0.608411 -0.606174
          -0.607233 -0.600585 0.48689 0.43286 0.514154 0.495567
          -0.0407497 -0.0373548 -0.0546027 -0.026493 -0.471625 -0.436534
          -0.475633 -0.470342 -0.0251174 -0.0467611 -0.0349902 -0.0407497
          0.43286 0.495567 0.453532 0.375425 0.183895 0.118445
          0.114738 0.147286 0.514154 0.587085 0.495567 0.477071
          0.183895 0.118445 0.166498 0.114738 0.453532 0.50115
          0.471849 0.495567 0.0354087 0.114738 0.0429092 0.0692919
          0.164525 0.114738 0.182148 0.0692919 0.164525 0.116801
          0.182148 0.114738 -0.591783 -0.608411 -0.604088 -0.596049
          -0.181463 -0.155792 -0.138966 -0.154251 -0.605534 -0.58693
          -0.604568 -0.59992 -0.605534 -0.59992 -0.604568 -0.607233
          -0.0509829 -0.0309387 -0.0436944 -0.0432173 -0.0309387 -0.0206394
          -0.0436944 -0.0432173 -0.0436944 -0.00798877 -0.0309387 -0.0362098
          -0.254984 -0.322149 -0.297914 -0.314393 -0.029839 -0.0206394
          -0.0297218 -0.0120442 -0.587951 -0.581327 -0.601183 -0.596519
          0.967832 1.0076 0.994249 1.01785 0.967832 0.992186
          1.0076 1.01785 0.992186 0.992186 1.0076 1.01785
          0.992186 0.992186 1.01785 1.01445 1.0076 0.992186
          1.06673 1.01785 1.07089 1.0076 1.06673 1.01785
          1.07089 1.01785 1.06673 1.0631 1.01785 0.992186
          1.06673 1.0631 0.994842 1.01979 0.984227 0.968415
          1.01785 1.0076 0.994249 1.03044 1.01785 1.01445
          1.06038 1.06649 -0.594326 -0.59029 -0.588382 -0.604568
          -0.610537 -0.601484 -0.597244 -0.601281 -0.605715 -0.591521
          -0.602659 -0.591283 0.696053 0.771063 0.690529 0.71259
          0.71259 0.62046 0.690529 0.696053 0.71259 0.62046
          0.696053 0.585769 0.696053 0.62046 0.690529 0.585769
          -0.332993 -0.296868 -0.25746 -0.254984 -0.19356 -0.192492
          -0.183665 -0.20878 0.747178 0.857766 0.781783 0.835634
          0.77037 0.747178 0.857766 0.781783 -0.59666 -0.600585
          -0.595495 -0.592 -0.00798877 -0.0122518 0.000284983 -0.00693662
          1.0076 1.06673 1.04546 1.07089 0.6934 0.671573
          0.781783 0.753101 -0.431223 -0.477368 -0.434857 -0.474792
          -0.431223 -0.434857 -0.391712 -0.382787 -0.215086 -0.259877
          -0.233291 -0.251108 -0.53841 -0.528633 -0.560632 -0.511432
          -0.516903 -0.53841 -0.560632 -0.511432 -0.393886 -0.424531
          -0.421372 -0.462474 -0.0448786 -0.0362098 -0.0279686 -0.051966
          -0.28843 -0.255181 -0.313547 -0.258818 0.0266296 -0.0289436
          0.0225208 -0.00337952 -0.0279686 -0.0362098 -0.0423778 -0.00736282
          -0.0448786 -0.0423778 -0.0362098 -0.051966 -0.307637 -0.282402
          -0.248485 -0.27071 -0.511432 -0.516903 -0.4944 -0.462474
          -0.483101 -0.516903 -0.511432 -0.462474 -0.483101 -0.516903
          -0.462474 -0.451585 -0.123642 -0.00337952 -0.0880543 -0.0397778
          -0.0295316 -0.0362098 -0.0279686 -0.00317775 -0.508049 -0.482107
          -0.521842 -0.523147 -0.123642 -0.0880543 -0.171147 -0.164205
          -0.508049 -0.476443 -0.511432 -0.490188 0.818343 0.846221
          0.900105 0.862298 -0.0122518 -0.0120442 -0.0122023 -0.0251656
          0.846221 0.781783 0.771063 0.818343 0.846221 0.818343
          0.857766 0.781783 -0.122071 -0.137923 -0.133725 -0.0931318
          -0.591283 -0.605715 -0.598679 -0.602659 0.846221 0.9111
          0.862298 0.871623 0.846221 0.9111 0.900105 0.862298
          -0.574662 -0.541258 -0.560632 -0.540931 -0.567941 -0.541258
          -0.560632 -0.574662 -0.239709 -0.205679 -0.275906 -0.275434
          -0.541258 -0.516903 -0.560632 -0.511432 -0.541258 -0.516903
          -0.511432 -0.483101 -0.541258 -0.511432 -0.476443 -0.483101
          -0.503281 -0.516903 -0.483101 -0.451585 -0.511432 -0.493723
          -0.490188 -0.462474 -0.449159 -0.456047 -0.428618 -0.477368
          -0.428618 -0.449159 -0.412527 -0.456047 -0.511432 -0.4944
          -0.493723 -0.462474 -0.00317775 -0.0210781 -0.0362098 -0.00736282
          0.0269334 -0.00792568 0.0767849 0.0843481 -0.00317775 -0.0362098
          -0.0279686 -0.00736282 -0.0295316 -0.0210781 -0.0362098 -0.00317775
          -0.0448786 -0.0423778 -0.0279686 -0.0362098 -0.27071 -0.233291
          -0.221329 -0.269019 -0.289187 -0.27071 -0.241803 -0.269956
          -0.289187 -0.27071 -0.258818 -0.241803 0.739584 0.660272
          0.661841 0.66868 -0.0831016 -0.0124784 -0.00337952 -0.0397778
          0.739584 0.66868 0.661841 0.750003 -0.217356 -0.258818
          -0.248485 -0.27071 -0.217356 -0.27071 -0.248485 -0.241803
          -0.217356 -0.258818 -0.27071 -0.241803 0.746051 0.84685
          0.79386 0.77037 0.79386 0.818343 0.900105 0.862298
          0.79386 0.693554 0.715046 0.745728 -0.321953 -0.357328
          -0.365193 -0.29873 -0.239709 -0.275906 -0.323018 -0.275434
          0.939445 0.952366 0.957611 0.919067 -0.163731 -0.120107
          -0.119836 -0.195031 -0.144824 -0.163731 -0.119836 -0.195031
          -0.608718 -0.607226 -0.600512 -0.605091 -0.604088 -0.611269
          -0.610537 -0.617884 -0.0974204 -0.100418 -0.128416 -0.128993
          -0.128416 -0.0974204 -0.128993 -0.152133 -0.607226 -0.606543
          -0.600512 -0.601902 -0.314827 -0.337261 -0.300825 -0.289606
          -0.0414897 -0.0762623 -0.0506569 -0.055377 0.859342 0.9111
          0.900105 0.846221 0.903438 0.945894 0.938067 0.949524
          -0.171585 -0.20773 -0.175025 -0.191319 -0.0210781 -0.00798877
          -0.00317775 -0.0295316 0.226445 0.187424 0.136241 0.22943
          -0.0436944 -0.0225702 -0.0295316 -0.0414316 -0.0414316 -0.0295316
          -0.0436944 -0.0515769 -0.483115 -0.456047 -0.449159 -0.477368
          -0.00798877 0 -0.0210781 0 0 0
          -0.00798877 0 0 0 0 -0.00798877
          0 0.000284983 0 -0.00798877 0 0
          0.000284983 -0.00798877 -0.217591 -0.254984 -0.275434 -0.191288
          0 -0.0126354 -0.0206394 -0.00798877 0 0
          -0.0126354 -0.00798877 -0.0126354 0 -0.0210781 -0.00798877
          0.769835 0.781783 0.818343 0.771063 -0.00798877 0
          0 -0.00317775 -0.445396 -0.491207 -0.466267 -0.456825
          -0.455538 -0.477707 -0.456825 -0.492054 -0.456825 -0.466267
          -0.445396 -0.419251 -0.346023 -0.385583 -0.359571 -0.343334
          -0.445396 -0.477707 -0.491207 -0.456825 -0.589823 -0.579112
          -0.600207 -0.593521 -0.589823 -0.596435 -0.602749 -0.601565
          0.088712 0.136628 0.184625 0.164525 0.961097 0.922122
          0.988705 0.9563 0.9563 0.92421 0.961097 0.922122
          0.179964 0.164525 0.184625 0.270179 -0.498097 -0.474792
          -0.459335 -0.47284 0.701116 0.667222 0.778368 0.682538
          0.778368 0.667222 0.781563 0.682538 0.0225208 0.0517336
          0.0409103 0.0848547 -0.520643 -0.532774 -0.552556 -0.56754
          -0.602749 -0.589823 -0.594283 -0.587157 0.962865 0.989552
          0.994842 0.968415 0.274001 0.34242 0.270179 0.26528
          0.477071 0.441455 0.34242 0.375425 0.34242 0.376145
          0.477071 0.375425 -0.545036 -0.554683 -0.570157 -0.576022
          -0.554683 -0.551364 -0.545036 -0.570157 -0.554683 -0.551364
          -0.570157 -0.575633 0.989552 0.989552 0.994842 0.968415
          -0.574159 -0.536958 -0.55443 -0.559433 -0.536958 -0.516593
          -0.559433 -0.539178 -0.605091 -0.605291 -0.601902 -0.600585
          -0.391734 -0.361795 -0.326509 -0.3705 -0.412527 -0.361795
          -0.391734 -0.3705 -0.43445 -0.455538 -0.4751 -0.465409
          -0.412527 -0.391734 -0.421795 -0.4245 -0.412527 -0.361795
          -0.421795 -0.391734 0.694364 0.6934 0.781783 0.764036
          -0.59029 -0.593334 -0.60791 -0.600877 -0.0994993 -0.0826292
          -0.106414 -0.127086 -0.0994993 -0.106414 -0.142377 -0.127086
          -0.0994993 -0.106414 -0.112705 -0.142377 -0.59029 -0.600877
          -0.604568 -0.594326 -0.0994993 -0.0826292 -0.127086 -0.0918569
          0.694364 0.781783 0.771063 0.764036 -0.453424 -0.442072
          -0.397242 -0.396985 -0.58394 -0.547193 -0.56772 -0.572757
          0.715046 0.591048 0.635195 0.64528 0.576957 0.591048
          0.559671 0.635195 0.576957 0.635195 0.559671 0.690529
          0.635195 0.621907 0.550721 0.62046 -0.00736282 0
          0 -0.0158737 -0.00736282 -0.00798877 0 -0.00317775
          0.685729 0.715046 0.769835 0.690529 -0.0122518 0
          0.000284983 -0.0122023 0.988705 1.02395 0.990392 0.982276
          1.00044 1.0392 0.988705 1.02395 1.00044 1.0392
          0.987774 0.988705 0.0692919 0.0569261 0.132925 0.0577277
          0.97371 0.987774 1.01953 0.988705 -0.586673 -0.574662
          -0.589217 -0.591783 -0.586673 -0.589217 -0.604306 -0.591783
          1.04279 1.0076 1.07089 1.01785 -0.591783 -0.589217
          -0.604306 -0.595416 -0.539299 -0.559433 -0.56772 -0.539178
          -0.595506 -0.591591 -0.576103 -0.596519 -0.539299 -0.539178
          -0.56772 -0.529701 1.03604 1.08958 1.04493 1.04279
          1.03604 1.04493 1.03044 1.04279 1.04279 1.04493
          1.03044 1.08172 1.04493 1.04279 1.08923 1.08172
          1.04493 1.08958 1.08923 1.04279 1.04279 1.08958
          1.08923 1.08172 1.04279 1.08311 1.08958 1.08172
          -0.591654 -0.605701 -0.585031 -0.583032 -0.104158 -0.122071
          -0.0748949 -0.0945442 -0.104158 -0.122071 -0.0945442 -0.131573
          -0.431223 -0.474792 -0.426503 -0.421409 -0.426503 -0.47284
          -0.419251 -0.421409 -0.426503 -0.386426 -0.421409 -0.419251
          -0.386426 -0.369547 -0.421409 -0.419251 -0.421409 -0.369547
          -0.397233 -0.419251 -0.449559 -0.421409 -0.397233 -0.419251
          -0.421409 -0.47284 -0.419251 -0.449559 -0.330541 -0.36495
          -0.296868 -0.3605 -0.440537 -0.485233 -0.457714 -0.421171
          -0.4245 -0.391734 -0.41947 -0.421409 -0.4245 -0.372283
          -0.391734 -0.421409 0.753101 0.701116 0.671573 0.667222
          0.701116 0.667222 0.753101 0.778368 -0.321953 -0.296868
          -0.243691 -0.264953 -0.321953 -0.296868 -0.264953 -0.3605
          -0.321953 -0.330541 -0.296868 -0.3605 -0.442996 -0.421409
          -0.41947 -0.459335 0.270179 0.164525 0.184625 0.26528
          0.0269334 0.0843481 0.131345 0.0897101 0.495567 0.587085
          0.471849 0.477071 -0.296868 -0.209163 -0.264953 -0.228365
          0.273847 0.226445 0.333469 0.22943 -0.436534 -0.43445
          -0.381452 -0.431223 0.26482 0.315974 0.273847 0.226445
          0.905117 0.871623 0.926939 0.922122 0.905117 0.926939
          0.957672 0.922122 0.905117 0.957672 0.94404 0.922122
          0.94404 0.988705 0.922122 0.957672 0.0577277 -0.00337952
          0.0692919 0.0569261 0.0225208 0.0569261 0.10934 0.0692919
          0.913168 0.92421 0.922122 0.88158 0.922122 0.92421
          0.929731 0.88158 0.893709 0.922122 0.929731 0.88158
          0.549801 0.550721 0.62046 0.559671 0.549801 0.550721
          0.559671 0.476281 0.549801 0.559671 0.466509 0.476281
          0.549801 0.466509 0.559671 0.486622 -0.0891458 -0.0994993
          -0.0946214 -0.0697344 0.559671 0.466509 0.481467 0.486622
          0.466509 0.481467 0.471849 0.559671 0.559671 0.481467
          0.471849 0.576957 0.559671 0.550721 0.466509 0.476281
          0.60553 0.576957 0.580698 0.475443 0.992186 1.01616
          1.03743 0.992186 -0.125435 -0.0946214 -0.104985 -0.132948
          -0.104985 -0.0946214 -0.125435 -0.0663928 -0.0966911 -0.104985
          -0.125435 -0.0663928 -0.104985 -0.137923 -0.0966911 -0.125435
          -0.104985 -0.132948 -0.0994993 -0.0891458 -0.104985 -0.131573
          -0.132948 -0.0891458 -0.0891458 -0.131573 -0.0945442 -0.104985
          -0.504352 -0.470143 -0.490656 -0.471353 -0.104985 -0.0945442
          -0.0748949 -0.122071 -0.104985 -0.131573 -0.0945442 -0.122071
          -0.122071 -0.131573 -0.153426 -0.104985 -0.153426 -0.131573
          -0.132948 -0.104985 -0.0165859 -0.00444756 -0.0281452 -0.0199872
          -0.0165859 -0.00444756 -0.0199872 -0.00712274 0.179964 0.175661
          0.131345 0.0852052 -0.0274994 -0.00712274 -0.0199872 -0.00900036
          -0.00900036 -0.0148698 -0.0199872 -0.0274994 -0.0199872 -0.0148698
          -0.00900036 0 0 -0.0199872 -0.00900036 0
          -0.0242749 -0.0148698 -0.0199872 0 -0.0148698 -0.0359205
          -0.0242749 -0.0199872 -0.0148698 -0.0359205 -0.0199872 -0.0274994
          -0.0206394 -0.0225702 -0.00798877 -0.0436944 -0.401189 -0.372513
          -0.410755 -0.381652 -0.0199872 -0.00712274 0 -0.00900036
          -0.206792 -0.217622 -0.265338 -0.236674 -0.177303 -0.217622
          -0.206792 -0.236674 -0.177303 -0.217622 -0.236674 -0.208492
          -0.236674 -0.217622 -0.268318 -0.208492 -0.236674 -0.297914
          -0.268318 -0.217622 -0.236674 -0.217622 -0.265338 -0.297914
          -0.217622 -0.239023 -0.265338 -0.297914 -0.125435 -0.159693
          -0.153426 -0.188891 -0.314827 -0.3191 -0.271789 -0.300825
          -0.3191 -0.259364 -0.271789 -0.300825 -0.275434 -0.27546
          -0.314557 -0.228365 0.563365 0.59525 0.507176 0.554729
          0.470357 0.507176 0.554729 0.563365 0.59525 0.554729
          0.538209 0.507176 0.470357 0.554729 0.486622 0.563365
          -0.154251 -0.175025 -0.131573 -0.184676 0.48689 0.453532
          0.43286 0.495567 0.209665 0.116801 0.140613 0.182148
          0.182148 0.116801 0.140613 0.0692919 -0.0407497 -0.026493
          -0.0546027 -0.0507497 -0.0142378 -0.00984418 -0.00233419 -0.0184177
          -0.0184177 -0.00233419 -0.0142378 0 0.164525 0.270179
          0.179964 0.182148 0.164525 0.270179 0.182148 0.26528
          0.182148 0.270179 0.26482 0.26528 0.182148 0.270179
          0.179964 0.26482 -0.606543 -0.601902 -0.595416 -0.600512
          -0.428833 -0.442072 -0.453424 -0.396985 -0.382787 -0.337261
          -0.372283 -0.389167 -0.382787 -0.389167 -0.372283 -0.4245
          0.917689 0.896305 0.938067 0.870345 -0.0436944 -0.0225702
          -0.00798877 -0.0295316 -0.0839381 -0.109624 -0.104158 -0.0872548
          -0.3614 -0.396044 -0.360076 -0.326806 -0.396044 -0.397242
          -0.360076 -0.326806 -0.396044 -0.397242 -0.326806 -0.330541
          -0.396044 -0.330541 -0.326806 -0.393886 -0.396044 -0.326806
          -0.357328 -0.393886 -0.357328 -0.326806 -0.321953 -0.393886
          -0.29873 -0.326806 -0.321953 -0.357328 -0.29873 -0.357328
          -0.34214 -0.326806 -0.276286 -0.29873 -0.34214 -0.326806
          -0.276286 -0.326806 -0.34214 -0.302569 -0.243691 -0.29873
          -0.276286 -0.326806 -0.29873 -0.326806 -0.243691 -0.321953
          -0.326806 -0.330541 -0.243691 -0.321953 -0.326806 -0.330541
          -0.321953 -0.393886 -0.431223 -0.459335 -0.421409 -0.4245
          -0.608749 -0.608847 -0.602749 -0.609688 -0.294244 -0.238023
          -0.211871 -0.294327 -0.493723 -0.4944 -0.487995 -0.462474
          -0.462474 -0.4944 -0.487995 -0.451585 -0.462474 -0.451585
          -0.487995 -0.445271 -0.462474 -0.516903 -0.4944 -0.451585
          -0.462474 -0.424531 -0.476443 -0.483101 0.962865 0.962865
          0.938067 0.93937 0.667222 0.620429 0.701116 0.671573
          -0.160316 -0.187651 -0.20773 -0.175025 0.179964 0.164525
          0.132925 0.0897101 -0.606174 -0.606635 -0.611269 -0.607233
          -0.611269 -0.607479 -0.606635 -0.606174 -0.0131021 -0.0122332
          -0.0297218 -0.014675 0.701116 0.667222 0.682538 0.620429
          0.962865 0.951491 0.938067 0.93937 -0.464844 -0.46894
          -0.483101 -0.514186 0.938067 0.896305 0.893233 0.870345
          -0.282402 -0.339323 -0.306575 -0.335303 -0.339323 -0.382787
          -0.385583 -0.335303 -0.372513 -0.381452 -0.340524 -0.335303
          -0.381452 -0.337261 -0.340524 -0.335303 0.939445 0.892396
          0.883765 0.964402 -0.0475263 -0.0277801 -0.0297218 -0.0432173
          -0.0297218 -0.0277801 -0.0120442 -0.0432173 -0.553992 -0.532774
          -0.552556 -0.503316 -0.184187 -0.166307 -0.159693 -0.21049
          0.408722 0.404996 0.470357 0.333469 -0.481413 -0.515213
          -0.49578 -0.464844 -0.464844 -0.483101 -0.424531 -0.424615
          0.266939 0.375425 0.281712 0.274001 0.181751 0.274001
          0.266939 0.281712 0.266939 0.181751 0.281712 0.192337
          0.266939 0.15972 0.181751 0.192337 0.181751 0.124246
          0.15972 0.266939 0.181751 0.194733 0.124246 0.266939
          0.274001 0.194733 0.181751 0.266939 0.229358 0.194733
          0.274001 0.266939 0.229358 0.266939 0.274001 0.288966
          0.229358 0.194733 0.266939 0.288966 -0.477368 -0.513988
          -0.513139 -0.474792 -0.477368 -0.513988 -0.516593 -0.513139
          -0.528465 -0.529951 -0.562779 -0.536532 -0.591306 -0.605091
          -0.600585 -0.595495 -0.0433125 -0.0158737 -0.0210781 -0.0242749
          0.715046 0.64528 0.635195 0.685729 0.0767849 0.153568
          0.0843481 0.0973606 -0.055377 -0.0527576 -0.0773241 -0.0433125
          -0.3705 -0.326509 -0.327695 -0.361795 0.954037 0.964402
          0.964402 0.952366 0.896305 0.953422 0.952366 0.919067
          -0.464844 -0.514186 -0.49578 -0.451713 0.554507 0.578483
          0.524128 0.485717 -0.578733 -0.594765 -0.600512 -0.601902
          0.973437 0.918357 0.957611 0.955905 -0.0436944 -0.0545277
          -0.0509829 -0.0727868 1.00424 0.986222 0.973437 0.998789
          -0.605091 -0.594765 -0.601902 -0.600512 -0.605091 -0.594765
          -0.600512 -0.608718 -0.180202 -0.155231 -0.186335 -0.218544
          -0.188891 -0.18142 -0.153426 -0.186335 -0.221329 -0.186335
          -0.188891 -0.241803 -0.594765 -0.594954 -0.600512 -0.608718
          0.175661 0.215118 0.272312 0.176386 -0.410755 -0.381452
          -0.411734 -0.372513 -0.317222 -0.294244 -0.211871 -0.294327
          -0.175025 -0.183844 -0.184676 -0.215086 -0.407104 -0.365311
          -0.410755 -0.382811 -0.407104 -0.365311 -0.428346 -0.410755
          -0.381652 -0.410755 -0.428346 -0.365311 -0.381652 -0.372513
          -0.410755 -0.365311 0.982276 0.992022 1.02395 1.03044
          0.900105 0.926939 0.924588 0.885922 -0.56754 -0.532774
          -0.5595 -0.546836 -0.221329 -0.21049 -0.18142 -0.248485
          -0.221329 -0.217356 -0.21049 -0.248485 -0.188891 -0.217356
          -0.21049 -0.221329 -0.188891 -0.21049 -0.18142 -0.221329
          0.6277 0.701116 0.679028 0.620429 -0.184187 -0.21049
          -0.188891 -0.217356 -0.184187 -0.215126 -0.21049 -0.217356
          -0.184187 -0.215126 -0.201109 -0.21049 0.954037 0.964402
          0.952366 0.939445 0.938067 0.953422 0.962865 0.952366
          0.954037 0.939445 0.952366 0.957611 -0.215126 -0.255181
          -0.201109 -0.21049 -0.215126 -0.255181 -0.21049 -0.258818
          -0.215126 -0.21049 -0.217356 -0.258818 -0.217356 -0.21049
          -0.248485 -0.258818 -0.21049 -0.255181 -0.248485 -0.258818
          -0.21049 -0.255181 -0.261287 -0.248485 -0.21049 -0.261287
          -0.241278 -0.248485 0.982276 0.994249 0.992022 1.03044
          0.0517336 -0.00572604 0.0569261 -0.00337952 -0.201109 -0.255181
          -0.261287 -0.21049 -0.59853 -0.604568 -0.607233 -0.605701
          -0.605701 -0.591654 -0.592 -0.600893 -0.0282422 -0.0324757
          0.0287109 -0.00792568 -0.0282422 0.0287109 0.0767849 -0.00792568
          -0.0853689 -0.00792568 -0.0683123 -0.0324757 -0.0853689 0.00698102
          -0.0683123 -0.00792568 -0.00792568 0.00698102 -0.0683123 -0.0324757
          -0.00792568 0.00698102 0.0973606 0.00556753 0.422228 0.466509
          0.476281 0.365474 0.422228 0.365474 0.476281 0.404263
          0.422228 0.365474 0.404263 0.315608 0.365474 0.466509
          0.476281 0.404263 0.368224 0.365474 0.466509 0.361752
          0.272312 0.368224 0.361752 0.365474 0.361752 0.293154
          0.272312 0.365474 0.361752 0.293154 0.365474 0.29799
          0.365474 0.293154 0.272312 0.29799 0.272312 0.368224
          0.365474 0.362052 0.365474 0.362052 0.273847 0.272312
          0.365474 0.362052 0.326979 0.273847 0.368224 0.362052
          0.466509 0.365474 -0.160393 -0.19915 -0.133725 -0.155231
          -0.197009 -0.160393 -0.155231 -0.19915 -0.197009 -0.155231
          -0.177314 -0.19915 -0.155231 -0.197009 -0.177314 -0.218544
          -0.0163549 -0.0778743 -0.0826948 -0.00572604 -0.180202 -0.197009
          -0.155231 -0.218544 -0.180202 -0.160393 -0.155231 -0.197009
          -0.160316 -0.187651 -0.175025 -0.171585 -0.0873447 -0.171147
          -0.0778743 -0.140693 -0.155231 -0.133725 -0.137923 -0.177314
          -0.155231 -0.19915 -0.133725 -0.177314 -0.587157 -0.572757
          -0.576693 -0.576022 -0.587157 -0.576022 -0.576693 -0.59472
          -0.576693 -0.572757 -0.549149 -0.576022 -0.576022 -0.545036
          -0.549149 -0.576693 -0.576693 -0.559433 -0.549149 -0.572757
          -0.576693 -0.559433 -0.55443 -0.549149 -0.426503 -0.456825
          -0.47284 -0.4751 -0.311202 -0.343334 -0.306575 -0.292999
          -0.576693 -0.556536 -0.552479 -0.58693 -0.570157 -0.556536
          -0.576693 -0.58693 0.994249 0.973437 0.955905 0.959385
          0.18953 0.191131 0.222664 0.265476 0.998789 0.986222
          0.973437 1.00082 0.959385 0.994249 0.973437 0.998789
          -0.0697344 -0.0545277 -0.0727868 -0.0891458 0.885922 0.900105
          0.920067 0.924588 -0.481413 -0.503281 -0.483101 -0.453424
          -0.556744 -0.526146 -0.529701 -0.547193 -0.526146 -0.492048
          -0.505201 -0.511239 -0.526146 -0.505201 -0.547193 -0.545036
          0.0590978 0.124246 0.0973606 0.0463107 0.955905 0.964551
          0.9563 0.992022 0.00556753 -0.0124784 0.00698102 0.00411554
          0.209665 0.26528 0.19353 0.182148 -0.516821 -0.471625
          -0.505201 -0.526146 -0.526146 -0.471625 -0.505201 -0.492048
          -0.323018 -0.314393 -0.330755 -0.349927 -0.59472 -0.576022
          -0.586375 -0.598679 -0.492054 -0.477707 -0.511239 -0.517394
          -0.4751 -0.477707 -0.511239 -0.492054 0.962865 1.01785
          0.994842 0.989552 -0.513139 -0.4751 -0.51427 -0.511239
          -0.511239 -0.513139 -0.549149 -0.51427 -0.513139 -0.4751
          -0.511239 -0.505201 0.283342 0.19353 0.259679 0.26528
          0.283342 0.19353 0.26528 0.243135 0.283342 0.183895
          0.19353 0.243135 0.23525 0.166498 0.19353 0.183895
          -0.589217 -0.574662 -0.567941 -0.589306 -0.591783 -0.574662
          -0.589217 -0.595416 -0.578733 -0.581108 -0.595416 -0.601902
          -0.578733 -0.581108 -0.574662 -0.595416 -0.581108 -0.589306
          -0.574662 -0.595416 -0.581108 -0.589306 -0.595416 -0.600512
          -0.581108 -0.600512 -0.595416 -0.601902 -0.581108 -0.587347
          -0.589306 -0.600512 -0.581108 -0.587347 -0.600512 -0.594954
          -0.581108 -0.594954 -0.600512 -0.594765 0.578483 0.671573
          0.576957 0.576606 0.578483 0.576606 0.576957 0.477071
          0.587085 0.578483 0.576957 0.477071 0.587085 0.671573
          0.576957 0.578483 0.587085 0.578483 0.661841 0.671573
          0.587085 0.578483 0.590354 0.661841 0.578483 0.630668
          0.590354 0.661841 0.578483 0.630668 0.661841 0.671573
          -0.607479 -0.606543 -0.606174 -0.604306 -0.595416 -0.606543
          -0.604306 -0.606174 -0.242638 -0.259364 -0.232947 -0.267441
          -0.223718 -0.218544 -0.269019 -0.242638 -0.242638 -0.19915
          -0.232947 -0.259364 -0.453424 -0.451585 -0.424531 -0.397242
          -0.453424 -0.483101 -0.424531 -0.451585 -0.453424 -0.503281
          -0.483101 -0.451585 -0.451585 -0.453424 -0.503281 -0.4944
          -0.451585 -0.486264 -0.453424 -0.4944 -0.453424 -0.486264
          -0.503281 -0.4944 -0.453424 -0.486264 -0.472728 -0.503281
          -0.428618 -0.477368 -0.434857 -0.431223 -0.428618 -0.477368
          -0.431223 -0.474792 -0.428618 -0.456047 -0.434857 -0.477368
          -0.434857 -0.427097 -0.456047 -0.428618 0.769835 0.715046
          0.818343 0.781783 0.715046 0.769835 0.818343 0.79386
          0.715046 0.763024 0.769835 0.79386 0.763024 0.79386
          0.826851 0.769835 0.763024 0.769835 0.826851 0.7975
          0.763024 0.769835 0.7975 0.71259 -0.594197 -0.601291
          -0.605715 -0.591283 0.7975 0.769835 0.826851 0.862298
          0.769835 0.79386 0.826851 0.862298 0.769835 0.818343
          0.79386 0.862298 -0.605715 -0.605091 -0.598679 -0.602659
          0 0 -0.00798877 -0.0120442 0 -0.0120442
          -0.00798877 -0.0206394 -0.0206394 -0.0122332 0 -0.0120442
          -0.00798877 -0.0120442 -0.0122518 -0.0206394 -0.00798877 -0.0120442
          0.000284983 -0.0122518 -0.00798877 0 0.000284983 -0.0120442
          -0.0120442 0 0.000284983 -0.0122518 0 -0.00203494
          0 -0.0120442 0 -0.00203494 -0.0120442 -0.014675
          -0.014675 -0.00203494 -0.0120442 -0.0277801 -0.0120442 -0.00203494
          -0.0122023 -0.0277801 -0.0120442 -0.0277801 -0.0122023 -0.0251656
          -0.0120442 -0.0277801 -0.0251656 -0.0432173 0 -0.00203494
          -0.0122023 -0.0120442 -0.00337952 -0.00572604 0.0569261 0.00556753
          -0.471625 -0.43445 -0.465409 -0.43155 -0.471625 -0.410755
          -0.43445 -0.43155 -0.471625 -0.436534 -0.43445 -0.410755
          -0.436534 -0.4751 -0.471625 -0.43445 -0.436534 -0.43445
          -0.410755 -0.372513 -0.436534 -0.381452 -0.43445 -0.372513
          -0.43445 -0.381452 -0.410755 -0.372513 -0.43445 -0.381452
          -0.411734 -0.410755 -0.43445 -0.410755 -0.411734 -0.43155
          -0.465409 -0.43445 -0.411734 -0.43155 -0.43445 -0.411734
          -0.455538 -0.465409 -0.603292 -0.594954 -0.594765 -0.608718
          0.834652 0.813209 0.896305 0.846848 -0.211871 -0.141935
          -0.14341 -0.161331 -0.455538 -0.420885 -0.411734 -0.43445
          -0.455538 -0.445396 -0.420885 -0.456825 0.70697 0.80277
          0.759262 0.818175 0.759262 0.818175 0.835047 0.819384
          0.736088 0.818175 0.759262 0.819384 -0.0979749 -0.106306
          -0.0762623 -0.104529 -0.273168 -0.251108 -0.259877 -0.223718
          1.0076 1.04546 1.04279 1.07089 -0.475633 -0.431223
          -0.431469 -0.434857 -0.475633 -0.434857 -0.431469 -0.471353
          -0.475633 -0.431469 -0.45509 -0.471353 -0.471353 -0.415128
          -0.431469 -0.45509 -0.471353 -0.415128 -0.434857 -0.431469
          -0.431469 -0.385583 -0.415128 -0.434857 -0.215086 -0.223718
          -0.233291 -0.259877 0.176386 0.132925 0.182148 0.10934
          0.0897101 0.0852052 0.132925 0.179964 -0.561118 -0.511432
          -0.561124 -0.530527 -0.591521 -0.58789 -0.591283 -0.580329
          -0.58789 -0.583 -0.58394 -0.576022 -0.530527 -0.561118
          -0.551974 -0.561124 -0.540931 -0.511432 -0.561118 -0.530527
          -0.59394 -0.595506 -0.606765 -0.604121 -0.587157 -0.59472
          -0.576693 -0.595506 -0.587157 -0.595506 -0.59394 -0.604121
          -0.59394 -0.595506 -0.596519 -0.606765 0.359025 0.26528
          0.408272 0.376145 0.371555 0.331217 0.408272 0.359025
          0.47369 0.371555 0.408272 0.456629 -0.552479 -0.51427
          -0.522822 -0.498097 -0.552479 -0.51427 -0.498097 -0.529073
          -0.498097 -0.513139 -0.474792 -0.51427 -0.51427 -0.474792
          -0.498097 -0.47284 -0.257511 -0.214665 -0.182761 -0.212564
          -0.219076 -0.214665 -0.212564 -0.182761 -0.506753 -0.477031
          -0.4627 -0.498097 -0.506753 -0.498097 -0.4627 -0.497359
          -0.369417 -0.431484 -0.375313 -0.36495 -0.182875 -0.192492
          -0.19356 -0.227508 -0.0821753 -0.0800162 -0.055377 -0.0773241
          0.194733 0.146911 0.124246 0.0821265 -0.0800162 -0.0433125
          -0.055377 -0.0773241 0.124246 0.146911 0.088712 0.0821265
          0.146911 0.136628 0.088712 0.0821265 0.229358 0.184625
          0.181751 0.194733 0.274001 0.181751 0.229358 0.184625
          0.184625 0.147286 0.164525 0.136628 0.243135 0.147286
          0.184625 0.136628 0.495567 0.477071 0.471849 0.375425
          0.812186 0.712974 0.725891 0.829945 0.812186 0.712974
          0.829945 0.770988 0.835634 0.812186 0.829945 0.770988
          0.812186 0.770988 0.835634 0.753101 0.747178 0.812186
          0.835634 0.753101 0.747178 0.770988 0.812186 0.753101
          0.747178 0.712974 0.812186 0.770988 -0.555061 -0.538075
          -0.525882 -0.53841 -0.555061 -0.567941 -0.538075 -0.571445
          -0.605534 -0.593334 -0.591591 -0.60791 -0.591591 -0.593334
          -0.60849 -0.60791 -0.591591 -0.583544 -0.60849 -0.593334
          -0.341033 -0.337261 -0.315142 -0.300825 -0.300825 -0.306156
          -0.315142 -0.341033 -0.0880543 -0.171147 -0.120025 -0.0778743
          -0.0778743 -0.0873447 -0.0826948 -0.00572604 -0.215086 -0.183844
          -0.184676 -0.223718 -0.223718 -0.20773 -0.215086 -0.183844
          -0.20773 -0.215086 -0.251108 -0.223718 -0.187651 -0.191319
          -0.171585 -0.194693 -0.0778743 -0.171147 -0.120025 -0.140693
          -0.20773 -0.231736 -0.251108 -0.215086 -0.359571 -0.317802
          -0.343334 -0.381652 -0.343334 -0.317802 -0.306575 -0.292999
          -0.491207 -0.456147 -0.445396 -0.466267 -0.491207 -0.456147
          -0.466267 -0.509131 -0.477707 -0.456147 -0.491207 -0.509131
          -0.491207 -0.477707 -0.509131 -0.522255 -0.330755 -0.428833
          -0.369417 -0.385172 -0.477707 -0.456147 -0.445396 -0.491207
          -0.47284 -0.491207 -0.466267 -0.497359 -0.47284 -0.51427
          -0.491207 -0.497359 -0.4751 -0.491207 -0.47284 -0.51427
          -0.51427 -0.497359 -0.529073 -0.491207 0.477071 0.441455
          0.4158 0.34242 0.4158 0.376145 0.477071 0.34242
          0.4158 0.359025 0.34242 0.317271 0.359025 0.26528
          0.34242 0.317271 0.359025 0.26528 0.376145 0.34242
          0.34242 0.376145 0.270179 0.26528 0.34242 0.270179
          0.376145 0.368224 0.317271 0.243135 0.26528 0.34242
          1.07521 1.0378 1.01979 1.03528 -0.31677 -0.31289
          -0.278857 -0.353888 -0.31677 -0.257511 -0.278857 -0.31289
          -0.257511 -0.264953 -0.278857 -0.31289 -0.257511 -0.214665
          -0.264953 -0.31289 -0.264953 -0.321953 -0.3605 -0.31289
          -0.604568 -0.600877 -0.617295 -0.605155 -0.604568 -0.605155
          -0.617295 -0.613989 -0.604568 -0.600877 -0.60791 -0.617295
          -0.604568 -0.60791 -0.605534 -0.617295 -0.0545277 -0.0362098
          -0.0436944 -0.0309387 0.10934 0.182148 0.140613 0.0692919
          0.140613 0.0225208 0.10934 0.0692919 0.140613 0.0225208
          0.0848547 0.10934 -0.605701 -0.613989 -0.608411 -0.614347
          0.10934 0.0848547 0.136241 0.0517336 -0.617884 -0.604088
          -0.608411 -0.614347 0.0517336 0.0852052 0.118803 0.10934
          0.147286 0.114738 0.164525 0.136628 0.147286 0.0853844
          0.114738 0.136628 0.0225208 0.0517336 0.0848547 0.10934
          -0.592 -0.587756 -0.585031 -0.600585 -0.0122332 -0.0142378
          0 0 -0.0142378 0 0 0
          -0.0142378 -0.00233419 0 0 -0.0142378 -0.00233419
          -0.00468258 0 -0.0142378 -0.00468258 -0.00244451 0
          -0.0148698 -0.0142378 -0.00244451 0 -0.0142378 -0.0148698
          0 0 -0.00984418 -0.00233419 -0.00468258 -0.0142378
          -0.0251174 -0.00984418 -0.00468258 -0.0142378 -0.503135 -0.548618
          -0.551974 -0.508049 -0.329643 -0.293712 -0.284748 -0.308486
          -0.329643 -0.308486 -0.284748 -0.270885 -0.308486 -0.293712
          -0.284748 -0.270885 0.331217 0.376145 0.342808 0.373258
          0.331217 0.342808 0.27956 0.373258 0.331217 0.342808
          0.26528 0.27956 0.331217 0.376145 0.26528 0.342808
          0.26528 0.26482 0.27956 0.342808 0.27956 0.26482
          0.315974 0.342808 0.27956 0.342808 0.315974 0.373258
          0.342808 0.315974 0.346431 0.26482 -0.292999 -0.340524
          -0.307478 -0.311202 -0.192492 -0.248485 -0.21049 -0.241278
          -0.477031 -0.459335 -0.4627 -0.498097 -0.19356 -0.155184
          -0.183665 -0.192492 -0.46894 -0.451713 -0.440537 -0.487696
          -0.587347 -0.600482 -0.600512 -0.605495 -0.587347 -0.59431
          -0.600482 -0.605495 -0.587347 -0.589306 -0.600482 -0.59431
          -0.587347 -0.589306 -0.600512 -0.600482 -0.600512 -0.600482
          -0.589306 -0.606543 -0.605495 -0.604124 -0.59431 -0.600482
          -0.604124 -0.59431 -0.600482 -0.593911 -0.604124 -0.600482
          -0.595565 -0.593911 0 0 -0.0242749 -0.0158737
          -0.0158737 -0.0242749 -0.0199872 0 -0.589823 -0.579112
          -0.594283 -0.574159 -0.595565 -0.600482 -0.582806 -0.593911
          -0.600482 -0.582806 -0.598996 -0.595565 -0.600482 -0.59431
          -0.582806 -0.593911 -0.600482 -0.582806 -0.59431 -0.579963
          -0.0807488 -0.0676795 -0.0546027 -0.0872548 -0.428833 -0.453424
          -0.424615 -0.396985 -0.424615 -0.483101 -0.424531 -0.453424
          -0.453424 -0.424531 -0.424615 -0.397242 -0.424615 -0.431484
          -0.36495 -0.424531 -0.36495 -0.424615 -0.424531 -0.397242
          -0.481413 -0.483101 -0.424615 -0.453424 -0.481413 -0.453424
          -0.424615 -0.428833 -0.0979749 -0.0918145 -0.0807488 -0.055377
          -0.0979749 -0.0807488 -0.0762623 -0.055377 -0.0807488 -0.0979749
          -0.0762623 -0.104529 -0.114873 -0.104529 -0.0979749 -0.0807488
          -0.114873 -0.0807488 -0.0979749 -0.0918145 -0.0807488 -0.104529
          -0.10816 -0.114873 -0.591283 -0.605091 -0.598679 -0.605715
          0.696053 0.80277 0.818175 0.771063 -0.605091 -0.605715
          -0.608718 -0.607226 0.696053 0.71259 0.80277 0.814724
          0.71259 0.7975 0.80277 0.814724 0.769835 0.814724
          0.846221 0.818343 -0.55754 -0.547193 -0.572757 -0.576022
          -0.55754 -0.547193 -0.576022 -0.545036 -0.55754 -0.545036
          -0.576022 -0.554683 -0.55754 -0.576022 -0.580329 -0.554683
          0.0463107 0.0821265 0.124246 0.088712 0.0463107 0.124246
          0.0973606 0.088712 0.124246 0.0463107 0.139303 0.0821265
          0.0463107 0.0456061 0.139303 0.0821265 0.0463107 0.0456061
          0.0821265 0.00106752 0.0463107 0.00106752 0.0821265 -0.024701
          0.0463107 0.0456061 0.00106752 -0.0166612 -0.0166612 -0.0683123
          0.00106752 0.0463107 -0.589217 -0.567941 -0.582806 -0.589306
          -0.572757 -0.56772 -0.539178 -0.547193 -0.572757 -0.56772
          -0.559433 -0.539178 -0.539178 -0.547193 -0.56772 -0.529701
          -0.526146 -0.492048 -0.511239 -0.52226 -0.595506 -0.605534
          -0.591591 -0.596519 -0.59394 -0.576693 -0.576103 -0.595506
          -0.526146 -0.502773 -0.492048 -0.52226 -0.539178 -0.513139
          -0.549149 -0.547193 -0.208492 -0.217622 -0.25746 -0.188792
          -0.420765 -0.465698 -0.457714 -0.451713 -0.457714 -0.465698
          -0.493674 -0.451713 -0.457714 -0.451713 -0.493674 -0.509551
          -0.151939 -0.120107 -0.163731 -0.188792 -0.420765 -0.457714
          -0.384992 -0.451713 -0.509551 -0.485233 -0.493674 -0.457714
          -0.487696 -0.485233 -0.509551 -0.457714 -0.161189 -0.120107
          -0.141522 -0.188792 1.04863 1.08839 1.08532 1.063
          -0.0414897 -0.0274994 -0.0199872 -0.0388337 -0.511452 -0.541258
          -0.514186 -0.549448 -0.511452 -0.540931 -0.541258 -0.549448
          -0.549448 -0.523147 -0.511452 -0.540931 0.447798 0.366047
          0.453532 0.366123 0.447798 0.366047 0.366123 0.361752
          0.48689 0.366123 0.453532 0.366047 -0.557066 -0.549448
          -0.577714 -0.578733 -0.577714 -0.549448 -0.574662 -0.578733
          -0.562779 -0.549448 -0.574662 -0.577714 -0.562779 -0.549448
          -0.541258 -0.574662 -0.549448 -0.541258 -0.514186 -0.562779
          -0.549448 -0.540931 -0.541258 -0.574662 -0.549448 -0.540931
          -0.574662 -0.578733 0.48689 0.359552 0.366123 0.366047
          -0.431484 -0.451713 -0.375313 -0.394107 0.0692919 0.114738
          0.0429092 0.0577277 -0.0800162 -0.0773241 -0.0826292 -0.0545277
          -0.0800162 -0.0545277 -0.0826292 -0.0994993 0.764036 0.736088
          0.694364 0.710946 -0.0994993 -0.112705 -0.0800162 -0.0891458
          -0.0821753 -0.0918145 -0.055377 -0.0800162 -0.481413 -0.424615
          -0.431484 -0.428833 -0.0800162 -0.0509829 -0.055377 -0.0433125
          -0.605534 -0.59029 -0.60791 -0.604568 -0.605534 -0.593334
          -0.60791 -0.59029 -0.59029 -0.591591 -0.605534 -0.593334
          -0.604568 -0.59029 -0.59992 -0.58693 -0.58693 -0.59029
          -0.59992 -0.586375 -0.58693 -0.570157 -0.59029 -0.586375
          -0.248543 -0.241278 -0.282981 -0.227508 -0.248543 -0.27258
          -0.230152 -0.227508 -0.364747 -0.341033 -0.337261 -0.386426
          -0.59029 -0.587151 -0.581501 -0.600877 -0.59029 -0.587151
          -0.600877 -0.594326 -0.591783 -0.606174 -0.608411 -0.596049
          -0.0499682 -0.116229 -0.0778743 -0.120025 -0.598679 -0.58789
          -0.593287 -0.576022 -0.576022 -0.58789 -0.586375 -0.598679
          -0.576022 -0.580329 -0.586375 -0.58789 -0.286097 -0.241278
          -0.282981 -0.248543 -0.591283 -0.58789 -0.602659 -0.598679
          -0.602659 -0.58789 -0.593287 -0.598679 -0.602659 -0.58789
          -0.58394 -0.593287 -0.602659 -0.583 -0.58394 -0.58789
          -0.421164 -0.483101 -0.424531 -0.46894 -0.421164 -0.476443
          -0.483101 -0.46894 -0.0831016 -0.123642 -0.0873447 -0.14341
          -0.482107 -0.46894 -0.452771 -0.421164 -0.0831016 -0.205679
          -0.123642 -0.14341 -0.46894 -0.482107 -0.476443 -0.511452
          -0.476443 -0.511452 -0.514186 -0.46894 -0.46894 -0.476443
          -0.483101 -0.514186 -0.583032 -0.585031 -0.573364 -0.577714
          0.0692919 0.114738 0.0577277 0.164525 -0.46894 -0.482107
          -0.511452 -0.501778 -0.46894 -0.501778 -0.509551 -0.487696
          -0.339323 -0.346023 -0.306575 -0.335303 -0.339323 -0.385583
          -0.346023 -0.335303 0.818985 0.812186 0.892847 0.88027
          -0.292999 -0.321454 -0.335138 -0.34114 0.77037 0.859342
          0.79386 0.818343 0.77037 0.781783 0.859342 0.818343
          0.77037 0.781783 0.857766 0.859342 0.859342 0.77037
          0.818985 0.857766 0.859342 0.781783 0.857766 0.818343
          0.79386 0.818343 0.859342 0.900105 0.79386 0.859342
          0.878842 0.900105 0.859342 0.84685 0.79386 0.878842
          -0.125053 -0.155231 -0.133725 -0.122071 -0.0931318 -0.137923
          -0.133725 -0.0966911 -0.0931318 -0.133725 -0.0861512 -0.0966911
          -0.0931318 -0.0966911 -0.0861512 -0.0620695 -0.507128 -0.470143
          -0.504352 -0.510261 -0.331952 -0.346023 -0.359571 -0.317802
          -0.559433 -0.579112 -0.574159 -0.555601 -0.596049 -0.601902
          -0.591306 -0.595416 -0.574159 -0.559433 -0.55443 -0.576693
          -0.574159 -0.555601 -0.571117 -0.55443 -0.580147 -0.555601
          -0.571117 -0.574159 -0.574159 -0.579112 -0.580147 -0.555601
          -0.456825 -0.409138 -0.426503 -0.386426 -0.456825 -0.477707
          -0.4751 -0.492054 -0.456825 -0.477707 -0.491207 -0.4751
          -0.456825 -0.491207 -0.47284 -0.4751 -0.456825 -0.491207
          -0.466267 -0.47284 -0.456825 -0.466267 -0.419251 -0.47284
          -0.0831016 -0.161331 -0.141935 -0.106234 -0.0831016 -0.141935
          -0.14341 -0.0736489 0.825329 0.846848 0.805121 0.763692
          0.825329 0.846848 0.870345 0.805121 0.805121 0.846848
          0.870345 0.826217 0.805121 0.778368 0.846848 0.826217
          0.846848 0.778368 0.805121 0.763692 -0.116728 -0.132669
          -0.0683123 -0.184803 -0.166782 -0.184803 -0.187186 -0.132669
          0.835634 0.770988 0.823583 0.753101 0.835634 0.829945
          0.823583 0.770988 0.846848 0.896305 0.870345 0.893233
          0.961097 0.92421 0.929731 0.922122 -0.59224 -0.605701
          -0.583032 -0.605756 -0.583032 -0.605701 -0.596049 -0.605756
          -0.594759 -0.571365 -0.573364 -0.591654 -0.56754 -0.546836
          -0.567941 -0.586673 -0.586673 -0.584442 -0.56754 -0.546836
          -0.586673 -0.584442 -0.584649 -0.56754 -0.59445 -0.586673
          -0.584649 -0.56754 -0.59445 -0.56754 -0.584649 -0.552556
          -0.59445 -0.578377 -0.56754 -0.552556 -0.578377 -0.56754
          -0.552556 -0.553992 -0.578377 -0.5595 -0.56754 -0.553992
          -0.553992 -0.5595 -0.56754 -0.532774 -0.553992 -0.56754
          -0.552556 -0.532774 -0.56754 -0.563005 -0.584649 -0.552556
          -0.563005 -0.56754 -0.53106 -0.552556 -0.563005 -0.546836
          -0.53106 -0.56754 -0.550484 -0.563005 -0.56754 -0.546836
          -0.584442 -0.550484 -0.56754 -0.546836 -0.584442 -0.550484
          -0.584649 -0.56754 -0.550484 -0.563005 -0.584649 -0.56754
          0.857766 0.892396 0.883765 0.939445 0.857766 0.892396
          0.919067 0.835634 0.857766 0.892396 0.939445 0.919067
          0.857766 0.812186 0.883765 0.892396 0.857766 0.812186
          0.892396 0.829945 -0.493674 -0.549552 -0.49578 -0.53106
          -0.211871 -0.184803 -0.145402 -0.141935 0.507176 0.554729
          0.538209 0.481467 0.554729 0.507176 0.470357 0.481467
          -0.0994993 -0.0826292 -0.0918569 -0.0697344 -0.0697344 -0.0800162
          -0.0545277 -0.0891458 -0.504352 -0.471353 -0.516593 -0.489206
          0.182399 0.118803 0.187424 0.22943 -0.510261 -0.471353
          -0.504352 -0.489206 0.778517 0.764036 0.834652 0.825329
          0.834652 0.764036 0.846848 0.825329 0.834652 0.764036
          0.813209 0.846848 0.764036 0.778368 0.813209 0.846848
          0.764036 0.778368 0.846848 0.763692 0.825329 0.764036
          0.846848 0.763692 0.763692 0.701116 0.764036 0.778368
          1.03556 1.03604 1.05647 1.09087 0.764036 0.701116
          0.813209 0.778368 0.701116 0.6934 0.764036 0.813209
          0.764036 0.6934 0.781783 0.813209 0.764036 0.781783
          0.771063 0.813209 -0.545036 -0.53041 -0.511239 -0.556536
          0.575552 0.525818 0.540835 0.603744 0.540835 0.525818
          0.621907 0.603744 -0.545036 -0.517394 -0.511239 -0.53041
          0.540835 0.525818 0.550721 0.621907 0.540835 0.466509
          0.550721 0.525818 0.540835 0.550721 0.466509 0.559671
          -0.166782 -0.168531 -0.187186 -0.220345 0.259679 0.209665
          0.27956 0.26528 -0.220345 -0.276286 -0.249103 -0.243691
          -0.220345 -0.249103 -0.276286 -0.302569 0.694364 0.701116
          0.6277 0.580698 0.694364 0.701116 0.580698 0.576606
          -0.339489 -0.329643 -0.367459 -0.308486 -0.339489 -0.367459
          -0.361831 -0.308486 -0.339489 -0.367459 -0.384611 -0.361831
          -0.31677 -0.319623 -0.31289 -0.38119 -0.31677 -0.38119
          -0.31289 -0.353888 -0.391712 -0.339323 -0.367459 -0.382405
          -0.38119 -0.3605 -0.31289 -0.327936 -0.319623 -0.3605
          -0.31289 -0.38119 -0.308486 -0.367459 -0.361831 -0.339323
          -0.308486 -0.329643 -0.367459 -0.339323 -0.339323 -0.329643
          -0.367459 -0.382405 -0.228365 -0.161825 -0.254984 -0.217591
          0.404996 0.439675 0.470357 0.333469 0.507176 0.439675
          0.470357 0.404996 0.507176 0.404996 0.470357 0.481467
          0.507176 0.439675 0.404996 0.481467 -0.275434 -0.27546
          -0.217591 -0.211871 0.486622 0.481467 0.470357 0.404996
          0.486622 0.404996 0.470357 0.408722 0.404996 0.362052
          0.404263 0.365474 -0.0124784 -0.00337952 0.0577277 0.0569261
          -0.282981 -0.300863 -0.337823 -0.327695 -0.282981 -0.300863
          -0.327695 -0.326509 -0.307637 -0.326509 -0.282981 -0.327695
          -0.327695 -0.300863 -0.337823 -0.326509 -0.327695 -0.326509
          -0.337823 -0.361795 -0.391712 -0.337823 -0.327695 -0.339323
          -0.391712 -0.327695 -0.3705 -0.339323 -0.391712 -0.337823
          -0.3705 -0.327695 -0.521842 -0.548618 -0.561995 -0.566595
          -0.521842 -0.523147 -0.561995 -0.548618 -0.508049 -0.523147
          -0.521842 -0.548618 -0.566595 -0.548618 -0.561995 -0.578733
          -0.566595 -0.548618 -0.578733 -0.578393 -0.566595 -0.551974
          -0.548618 -0.578393 -0.539299 -0.489206 -0.510375 -0.501965
          -0.539299 -0.489206 -0.539178 -0.510375 -0.539178 -0.510375
          -0.513139 -0.547193 -0.510375 -0.489206 -0.475633 -0.501965
          -0.501965 -0.482959 -0.475633 -0.510375 0.266951 0.366047
          0.281712 0.366123 0.300576 0.281712 0.366047 0.366123
          0.300576 0.366123 0.366047 0.293154 0.300576 0.281712
          0.366123 0.293154 0.293154 0.281712 0.366123 0.361752
          0.293154 0.366123 0.366047 0.361752 0.281712 0.361752
          0.368224 0.366123 0.281712 0.366123 0.368224 0.375425
          -0.28843 -0.261287 -0.255181 -0.284289 -0.28843 -0.284289
          -0.255181 -0.258818 -0.28843 -0.258818 -0.313547 -0.284289
          -0.326509 -0.28843 -0.313547 -0.284289 -0.326509 -0.284289
          -0.313547 -0.317028 -0.284289 -0.258818 -0.313547 -0.317028
          -0.284289 -0.248485 -0.255181 -0.258818 -0.284289 -0.261287
          -0.255181 -0.248485 -0.00337952 -0.0873447 -0.00572604 0.00556753
          0.988705 1.02395 1.02618 0.990392 0.957762 0.959385
          0.994064 0.964551 -0.0124784 -0.0873447 -0.00337952 0.00556753
          0.114738 0.0350586 0.0429092 0.0853844 0.0429092 0.114738
          0.0853844 0.088712 0.957762 1.00044 0.964551 0.994064
          0.114738 0.164525 0.136628 0.088712 0.0853844 0.114738
          0.136628 0.088712 0.114738 0.116801 0.182148 0.0692919
          -0.0407497 -0.0194943 -0.0492213 -0.0373548 -0.0492213 -0.0373548
          -0.0546027 -0.0407497 -0.0251174 -0.0467611 -0.0407497 -0.0492213
          -0.0467611 -0.0407497 -0.0492213 -0.0676795 -0.55811 -0.553089
          -0.540096 -0.518352 -0.372513 -0.335138 -0.340524 -0.375762
          0.153568 0.213013 0.191131 0.192337 -0.239709 -0.220655
          -0.275906 -0.205679 -0.308486 -0.293712 -0.253853 -0.27258
          -0.4245 -0.442996 -0.412527 -0.428618 -0.442996 -0.428618
          -0.4245 -0.477031 -0.144824 -0.182761 -0.163731 -0.212564
          -0.4245 -0.421409 -0.41947 -0.442996 -0.449159 -0.428618
          -0.442996 -0.477031 -0.442996 -0.449159 -0.412527 -0.428618
          -0.449159 -0.421795 -0.442996 -0.412527 -0.442996 -0.413742
          -0.453798 -0.41947 -0.487696 -0.485233 -0.457714 -0.440537
          -0.322874 -0.31289 -0.278857 -0.245922 -0.227221 -0.268318
          -0.283759 -0.25746 -0.283759 -0.25746 -0.245922 -0.227221
          0.175661 0.127083 0.118803 0.182399 0.182399 0.0852052
          0.118803 0.175661 0.175661 0.127083 0.182399 0.226421
          -0.278857 -0.219076 -0.212564 -0.245922 -0.245922 -0.31289
          -0.278857 -0.219076 -0.322874 -0.31289 -0.245922 -0.219076
          -0.322874 -0.219076 -0.245922 -0.25746 -0.322874 -0.264953
          -0.219076 -0.25746 -0.322874 -0.31289 -0.219076 -0.264953
          -0.219076 -0.31289 -0.278857 -0.264953 -0.264953 -0.228365
          -0.219076 -0.25746 -0.188792 -0.219076 -0.228365 -0.25746
          -0.25746 -0.188792 -0.219076 -0.227221 -0.25746 -0.219076
          -0.245922 -0.227221 -0.245922 -0.219076 -0.195031 -0.227221
          -0.245922 -0.219076 -0.212564 -0.195031 -0.144824 -0.219076
          -0.195031 -0.212564 -0.144824 -0.163731 -0.219076 -0.212564
          -0.144824 -0.163731 -0.195031 -0.219076 -0.163731 -0.120107
          -0.195031 -0.219076 -0.219076 -0.120107 -0.195031 -0.161189
          -0.219076 -0.161189 -0.195031 -0.227221 -0.188792 -0.161189
          -0.219076 -0.227221 -0.188792 -0.120107 -0.219076 -0.161189
          -0.434857 -0.427097 -0.428618 -0.401768 -0.415128 -0.451025
          -0.471353 -0.401768 -0.385583 -0.339323 -0.401768 -0.391712
          -0.415128 -0.385583 -0.361831 -0.401768 -0.415128 -0.361831
          -0.384611 -0.401768 -0.415128 -0.401768 -0.434857 -0.385583
          0.540835 0.603744 0.621907 0.64528 0.575552 0.603744
          0.540835 0.64528 0.591048 0.575552 0.540835 0.64528
          -0.401768 -0.391712 -0.434857 -0.385583 0.615495 0.575552
          0.591048 0.64528 0.615495 0.575552 0.64528 0.649864
          0.575552 0.603744 0.64528 0.649864 0.64528 0.693554
          0.715046 0.746051 -0.53041 -0.497359 -0.529073 -0.54589
          -0.53041 -0.529073 -0.552479 -0.54589 -0.51427 -0.529073
          -0.552479 -0.53041 -0.51427 -0.491207 -0.529073 -0.53041
          -0.517394 -0.491207 -0.51427 -0.53041 -0.491207 -0.497359
          -0.529073 -0.53041 -0.491207 -0.509131 -0.497359 -0.53041
          -0.376847 -0.428833 -0.369417 -0.330755 -0.330755 -0.376847
          -0.349927 -0.369417 -0.330755 -0.314393 -0.369417 -0.349927
          -0.292999 -0.307478 -0.289606 -0.311202 -0.192492 -0.21049
          -0.20878 -0.241278 -0.60549 -0.602749 -0.600207 -0.601787
          -0.60549 -0.607226 -0.602749 -0.606543 -0.604124 -0.60267
          -0.595565 -0.60549 -0.604124 -0.60549 -0.595565 -0.600482
          -0.60549 -0.604124 -0.605495 -0.600482 -0.0746054 -0.100418
          -0.0676795 -0.0974204 -0.608749 -0.60267 -0.604124 -0.60549
          -0.0148698 -0.0126354 0 -0.0242749 -0.0148698 -0.0126354
          0 0 -0.601903 -0.597055 -0.601592 -0.606765
          0.122055 0.0711169 0.103477 0.0812999 0.0812999 0.0711169
          0.103477 0.0268448 0.972754 0.945524 0.954037 0.939445
          0.817607 0.725891 0.812186 0.739584 0.817607 0.812186
          0.818985 0.739584 -0.289606 -0.304688 -0.300825 -0.269019
          -0.602749 -0.593521 -0.594283 -0.589823 0.739584 0.661841
          0.747178 0.750003 0.739584 0.661841 0.712974 0.747178
          -0.27546 -0.243691 -0.228365 -0.211871 -0.546836 -0.516903
          -0.538075 -0.541258 -0.546836 -0.538075 -0.567941 -0.541258
          -0.567941 -0.538075 -0.560632 -0.541258 -0.538075 -0.567941
          -0.560632 -0.571445 -0.53841 -0.538075 -0.560632 -0.571445
          -0.560632 -0.538075 -0.53841 -0.516903 -0.538075 -0.516903
          -0.560632 -0.541258 -0.538075 -0.4944 -0.53841 -0.516903
          -0.538075 -0.503281 -0.4944 -0.516903 -0.538075 -0.503281
          -0.486264 -0.4944 -0.538075 -0.5242 -0.486264 -0.503281
          -0.0545277 -0.0362098 -0.0423778 -0.051966 -0.0362098 -0.0545277
          -0.0697344 -0.051966 0.10934 0.0517336 0.187424 0.118803
          0.10934 0.0517336 0.136241 0.187424 0.187424 0.0848547
          0.136241 0.10934 0.140613 0.0848547 0.187424 0.10934
          0.187424 0.182148 0.140613 0.10934 0.140613 0.226445
          0.182148 0.187424 0.140613 0.187424 0.136241 0.226445
          0.140613 0.0848547 0.136241 0.187424 0.182148 0.26482
          0.187424 0.226445 0.187424 0.226445 0.26482 0.273847
          0.187424 0.0517336 0.136241 0.118803 0.187424 0.118803
          0.136241 0.22943 -0.596049 -0.606174 -0.608411 -0.600585
          -0.596049 -0.605701 -0.608411 -0.605756 -0.605701 -0.613989
          -0.607233 -0.608411 0.366123 0.350848 0.281712 0.266939
          0.366123 0.375425 0.281712 0.350848 0.350848 0.375425
          0.281712 0.266939 0.375425 0.350848 0.274001 0.266939
          0.375425 0.34242 0.274001 0.350848 0.375425 0.34242
          0.350848 0.325313 0.350848 0.34242 0.274001 0.325313
          0.325313 0.274001 0.350848 0.288966 0.350848 0.288966
          0.274001 0.266939 0.778368 0.835634 0.842871 0.781563
          0.778368 0.835634 0.846848 0.842871 0.896305 0.842871
          0.846848 0.835634 0.896305 0.875404 0.842871 0.835634
          -0.137564 -0.127086 -0.132948 -0.166307 -0.137564 -0.127086
          -0.166307 -0.16821 -0.166307 -0.127086 -0.167938 -0.16821
          -0.166307 -0.16821 -0.167938 -0.201109 1.04493 1.03044
          1.02395 0.992022 1.04493 0.992022 1.02395 1.00044
          -0.166307 -0.155184 -0.183665 -0.167938 -0.167938 -0.166307
          -0.155184 -0.142377 -0.166307 -0.127086 -0.142377 -0.167938
          -0.132948 -0.127086 -0.142377 -0.166307 -0.166307 -0.132948
          -0.155184 -0.142377 0.962865 0.964402 0.952366 0.964402
          0.964402 0.962865 0.952366 0.962865 0.964402 0.962865
          0.967832 0.952366 0.952366 0.97766 0.967832 0.964402
          0.962865 0.967832 0.952366 0.968415 0.962865 0.968415
          0.952366 0.962865 0.952366 0.968415 0.953422 0.962865
          0.952366 0.967832 0.953422 0.968415 0.952366 0.919067
          0.9111 0.955905 0.952366 0.919067 0.955905 0.957611
          0.475443 0.376145 0.408272 0.373258 0.408272 0.331217
          0.373258 0.376145 0.408272 0.26528 0.331217 0.376145
          0.359025 0.26528 0.331217 0.408272 0.428527 0.331217
          0.373258 0.408272 0.408272 0.428527 0.461281 0.373258
          0.428527 0.461281 0.485717 0.408272 0.428527 0.485717
          0.528453 0.408272 -0.606824 -0.601183 -0.615295 -0.601592
          0.194733 0.184625 0.181751 0.146911 0.124246 0.146911
          0.181751 0.088712 -0.0557286 -0.0383277 -0.120107 -0.0299528
          -0.0453142 -0.0669595 -0.0156401 -0.0809527 -0.116421 -0.0809527
          -0.0669595 -0.0453142 -0.116421 -0.0809527 -0.144824 -0.119836
          -0.116421 -0.119836 -0.0669595 -0.0809527 -0.0809527 -0.0669595
          -0.0557286 -0.119836 -0.0809527 -0.0669595 -0.0156401 -0.0557286
          -0.0179501 -0.0242749 -0.0366013 -0.0199872 -0.0527576 -0.0433125
          -0.0366013 -0.0516314 -0.0566621 -0.055377 -0.0456833 -0.0821753
          -0.0206394 -0.0251656 -0.0122518 -0.0225702 -0.408703 -0.385583
          -0.401189 -0.381652 -0.183844 -0.180202 -0.223718 -0.218544
          -0.220618 -0.183844 -0.223718 -0.218544 -0.220618 -0.180202
          -0.183844 -0.218544 -0.183844 -0.160393 -0.149963 -0.180202
          0.243135 0.147286 0.19353 0.184625 -0.511239 -0.4751
          -0.492054 -0.492048 -0.576693 -0.58693 -0.591591 -0.595506
          -0.576693 -0.58693 -0.595506 -0.59472 -0.595506 -0.58693
          -0.605534 -0.59472 -0.595506 -0.59472 -0.605534 -0.606635
          -0.595506 -0.605534 -0.606765 -0.606635 -0.604121 -0.595506
          -0.606765 -0.606635 -0.604121 -0.59472 -0.595506 -0.606635
          -0.595506 -0.605534 -0.596519 -0.606765 0.88027 0.857766
          0.892847 0.939445 0.918357 0.939445 0.857766 0.88027
          0.84685 0.859342 0.818985 0.88027 -0.161825 -0.141522
          -0.140693 -0.0826948 -0.141522 -0.161825 -0.140693 -0.188792
          -0.141522 -0.140693 -0.217622 -0.188792 -0.141522 -0.140693
          -0.177303 -0.217622 -0.140693 -0.177303 -0.116229 -0.141522
          -0.140693 -0.141522 -0.116229 -0.0826948 0.66868 0.586952
          0.661841 0.673158 -0.140693 -0.149752 -0.116229 -0.177303
          -0.149752 -0.217622 -0.177303 -0.140693 -0.217622 -0.149752
          -0.239023 -0.140693 -0.217622 -0.140693 -0.239023 -0.171147
          -0.171147 -0.217622 -0.140693 -0.161825 -0.140693 -0.161825
          -0.217622 -0.188792 -0.140693 -0.149752 -0.239023 -0.171147
          -0.171147 -0.149752 -0.120025 -0.140693 -0.476443 -0.490188
          -0.508049 -0.453267 -0.453267 -0.490188 -0.444654 -0.462474
          -0.451478 -0.421372 -0.402251 -0.453267 -0.451478 -0.453267
          -0.444654 -0.421372 0.992022 1.02395 0.988705 0.982276
          -0.396044 -0.446413 -0.425111 -0.451585 -0.606765 -0.605534
          -0.60849 -0.615798 -0.605534 -0.591591 -0.60849 -0.615798
          -0.605534 -0.591591 -0.615798 -0.60791 -0.617295 -0.60791
          -0.605534 -0.615798 -0.615798 -0.591591 -0.60849 -0.60791
          0.9111 0.857766 0.919067 0.871731 0.9111 0.919067
          0.896305 0.871731 0.871731 0.919067 0.896305 0.835634
          0.871731 0.857766 0.919067 0.835634 0.781783 0.857766
          0.871731 0.835634 0.781783 0.871731 0.813209 0.835634
          -0.59992 -0.604568 -0.607233 -0.59666 -0.592337 -0.604568
          -0.59992 -0.59666 -0.592337 -0.604568 -0.59666 -0.59853
          -0.59666 -0.604568 -0.607233 -0.59853 -0.59666 -0.59853
          -0.607233 -0.605701 -0.592 -0.59853 -0.59666 -0.605701
          -0.470342 -0.4751 -0.505201 -0.471625 -0.544008 -0.571365
          -0.529951 -0.566982 -0.571365 -0.594759 -0.59224 -0.566982
          -0.571365 -0.59224 -0.583032 -0.566982 -0.571365 -0.583032
          -0.562779 -0.566982 -0.566982 -0.571365 -0.529951 -0.562779
          0.122055 0.191131 0.215118 0.131345 0.192337 0.213013
          0.191131 0.215118 0.153568 0.213013 0.133991 0.191131
          -0.602749 -0.594283 -0.600231 -0.604121 -0.602749 -0.593521
          -0.600231 -0.594283 0.941827 0.918357 0.959385 0.900105
          0.959385 0.926939 0.941827 0.900105 0.959385 0.926939
          0.957762 0.941827 -0.0158737 0 -0.0199872 -0.0179501
          0 0 -0.0199872 -0.0179501 0 -0.00444756
          -0.0199872 -0.0179501 -0.0199872 -0.00444756 -0.0281452 -0.0179501
          -0.19356 -0.183591 -0.164258 -0.160773 0.131345 0.215118
          0.122055 0.175661 0.131345 0.181751 0.0897101 0.0973606
          -0.0821753 -0.125203 -0.0979749 -0.0987839 -0.0800162 -0.0821753
          -0.0987839 -0.0773241 0.184625 0.136628 0.088712 0.146911
          0.0767849 0.153568 0.133991 0.0843481 0.0843481 0.0287109
          0.0767849 0.0973606 0.0767849 0.0843481 0.0812999 -0.00310106
          0.0269334 0.0843481 0.122055 0.131345 -0.0158737 -0.0220747
          0 -0.0331096 -0.0158737 0 0 -0.0220747
          -0.0220747 0 0 -0.0331096 0.64528 0.540835
          0.635195 0.621907 0.591048 0.540835 0.635195 0.64528
          0.591048 0.540835 0.550721 0.635195 0.635195 0.540835
          0.550721 0.621907 -0.401768 -0.427097 -0.428618 -0.391712
          -0.401768 -0.451025 -0.471353 -0.427097 -0.401768 -0.384611
          -0.451025 -0.427097 -0.427097 -0.384611 -0.367459 -0.401768
          -0.427097 -0.401768 -0.367459 -0.382405 -0.401768 -0.361831
          -0.384611 -0.367459 -0.401768 -0.339323 -0.361831 -0.367459
          -0.112389 -0.0831016 -0.123642 -0.0397778 -0.451478 -0.402251
          -0.395046 -0.38119 -0.395046 -0.402251 -0.31677 -0.38119
          -0.38119 -0.402251 -0.31677 -0.319623 -0.319623 -0.365193
          -0.38119 -0.402251 -0.319623 -0.365193 -0.3605 -0.38119
          -0.3605 -0.38119 -0.365193 -0.421372 -0.38119 -0.402251
          -0.365193 -0.421372 1.06259 1.01979 1.02841 1.03528
          1.06259 1.06649 1.02841 1.01979 1.06038 1.01979
          1.02841 1.06649 1.06038 1.01445 1.01979 1.06649
          1.06038 1.01445 0.989552 1.01979 1.06038 0.989552
          1.02841 1.01979 0.989552 1.01445 1.01785 1.01979
          0.994842 0.989552 1.01785 1.01979 1.01979 1.01445
          1.01785 1.06649 -0.536958 -0.559433 -0.555601 -0.533339
          -0.519906 -0.536958 -0.555601 -0.533339 -0.555601 -0.519906
          -0.542343 -0.536958 -0.536958 -0.539299 -0.559433 -0.533339
          -0.539182 -0.529951 -0.562779 -0.528465 -0.561995 -0.578733
          -0.591306 -0.580158 -0.561995 -0.591306 -0.577397 -0.580158
          -0.561995 -0.578733 -0.577397 -0.591306 -0.577714 -0.591306
          -0.577397 -0.578733 -0.577714 -0.601902 -0.591306 -0.578733
          -0.591306 -0.601902 -0.577714 -0.595416 -0.591306 -0.601902
          -0.594765 -0.578733 -0.594765 -0.605091 -0.601902 -0.591306
          -0.580158 -0.577397 -0.592202 -0.591306 -0.591306 -0.577397
          -0.592202 -0.587756 -0.573364 -0.591654 -0.585031 -0.583032
          0.986222 0.973437 0.999356 1.00424 0.973437 0.97766
          0.999356 1.00424 0.973437 0.957611 0.97766 1.00424
          0.361752 0.466509 0.471849 0.50115 0.447798 0.466509
          0.361752 0.50115 0.215118 0.191131 0.122055 0.175661
          -0.570554 -0.583544 -0.581327 -0.596519 -0.576103 -0.570554
          -0.581327 -0.596519 -0.576103 -0.570554 -0.596519 -0.591591
          -0.576103 -0.583544 -0.570554 -0.591591 -0.570554 -0.583544
          -0.596519 -0.591591 -0.184803 -0.243691 -0.211871 -0.145402
          -0.209163 -0.145402 -0.243691 -0.184803 -0.209163 -0.184803
          -0.243691 -0.205846 -0.145402 -0.184803 -0.106826 -0.141935
          -0.184803 -0.106826 -0.0683123 -0.145402 -0.132669 -0.106826
          -0.0683123 -0.184803 -0.184803 -0.178291 -0.132669 -0.106826
          -0.184803 -0.178291 -0.106826 -0.141935 -0.184803 -0.178291
          -0.187186 -0.132669 -0.549552 -0.563005 -0.550484 -0.53106
          -0.0546027 -0.026493 -0.0287179 -0.0507497 -0.0546027 -0.0287179
          -0.0509829 -0.0507497 0.283342 0.259679 0.331217 0.26528
          -0.275906 -0.300681 -0.323018 -0.330755 -0.253853 -0.230152
          -0.239967 -0.270885 -0.0287179 -0.0126354 -0.0206394 -0.0122332
          -0.275434 -0.275906 -0.323018 -0.330755 -0.055377 -0.0509829
          -0.0287179 -0.0433125 -0.055377 -0.0287179 -0.0242749 -0.0433125
          -0.0433125 -0.0242749 -0.0210781 -0.0287179 -0.161331 -0.167424
          -0.238931 -0.263183 -0.161331 -0.238931 -0.205679 -0.263183
          -0.220655 -0.238931 -0.275906 -0.205679 -0.335303 -0.307637
          -0.304688 -0.282402 -0.191319 -0.245591 -0.231736 -0.194693
          -0.311202 -0.335303 -0.304688 -0.282402 -0.319052 -0.337261
          -0.304688 -0.300825 0.972754 0.939445 0.957611 0.962158
          0.972754 0.97766 0.962158 0.957611 0.972754 0.97766
          0.999356 0.962158 0.962158 0.97766 0.999356 0.973437
          0.986222 0.962158 0.999356 0.973437 0.986222 0.962158
          0.973437 0.951197 0.973437 0.951197 0.962158 0.918357
          0.973437 0.962158 0.957611 0.918357 0.962158 0.97766
          0.973437 0.957611 0.962158 0.957611 0.918357 0.939445
          0.962158 0.939445 0.918357 0.929123 0.951197 0.962158
          0.918357 0.929123 -0.00310106 -0.00792568 0.0767849 0.0269334
          -0.00310106 -0.00792568 0.0269334 -0.0669595 -0.0453142 -0.0669595
          -0.00310106 -0.0156401 -0.0557286 -0.0669595 -0.00310106 0.00931725
          -0.00310106 0.0269334 -0.0299528 -0.0669595 -0.0769447 -0.0800162
          -0.0918145 -0.0891458 -0.0769447 -0.0509829 -0.055377 -0.0800162
          -0.0509829 -0.0800162 -0.0769447 -0.0891458 -0.319052 -0.304688
          -0.269019 -0.300825 0.814724 0.862298 0.846221 0.818343
          0.814724 0.7975 0.859128 0.862298 0.80277 0.7975
          0.859128 0.814724 0.814724 0.80277 0.86023 0.859128
          -0.607226 -0.602659 -0.605715 -0.608847 -0.607226 -0.605715
          -0.608718 -0.608847 -0.300825 -0.306156 -0.267441 -0.315142
          -0.300825 -0.267441 -0.269956 -0.315142 -0.306156 -0.259364
          -0.300825 -0.267441 -0.47284 -0.459335 -0.498097 -0.497359
          -0.609688 -0.60549 -0.605495 -0.606543 -0.47284 -0.449559
          -0.459335 -0.497359 -0.238023 -0.243691 -0.211871 -0.184803
          -0.178291 -0.238023 -0.211871 -0.184803 -0.184803 -0.187186
          -0.178291 -0.238023 0.00931725 0.0653578 0.0711169 0.0357389
          -0.606824 -0.601592 -0.615295 -0.606765 0.0269334 0.122055
          0.0711169 0.0653578 0.131345 0.122055 0.0269334 0.0653578
          0.131345 0.122055 0.0653578 0.0852052 0.0852052 0.175661
          0.122055 0.0653578 0.0852052 0.175661 0.0653578 0.127083
          0.0653578 0.175661 0.122055 0.127083 0.122055 0.127083
          0.0711169 0.0653578 0.0653578 0.127083 0.0711169 0.0357389
          1.04991 1.08839 1.07194 1.08532 1.04863 1.04991
          1.07194 1.08532 1.04863 1.08839 1.04991 1.08532
          1.04863 1.08839 1.063 1.04991 -0.0310522 -0.0388337
          -0.0281452 -0.0456833 1.04991 1.0378 1.063 1.02395
          1.08839 1.0378 1.04991 1.02395 1.02395 1.08923
          1.04991 1.08839 1.02395 1.08923 1.04493 1.04991
          1.04991 1.08923 1.04493 1.08839 1.08839 1.0378
          1.063 1.04991 0.679028 0.701116 0.71224 0.620429
          0.679028 0.620429 0.71224 0.622921 0.622921 0.545908
          0.679028 0.620429 1.04279 1.08311 1.05647 1.09087
          1.05647 1.08311 1.09294 1.09087 -0.515213 -0.514186
          -0.483101 -0.541258 -0.515213 -0.541258 -0.483101 -0.516903
          -0.515213 -0.483101 -0.503281 -0.516903 -0.515213 -0.503281
          -0.538075 -0.516903 -0.546836 -0.515213 -0.538075 -0.516903
          -0.546836 -0.541258 -0.515213 -0.516903 -0.546836 -0.503281
          -0.538075 -0.515213 -0.243691 -0.209163 -0.296868 -0.27546
          -0.243691 -0.209163 -0.27546 -0.228365 -0.27546 -0.209163
          -0.296868 -0.228365 -0.192492 -0.155184 -0.183665 -0.166307
          -0.18142 -0.155184 -0.192492 -0.166307 -0.0872548 -0.109624
          -0.104158 -0.0974204 -0.0872548 -0.0974204 -0.104158 -0.128416
          -0.607226 -0.606543 -0.609688 -0.600512 -0.609688 -0.607226
          -0.60549 -0.606543 -0.608718 -0.607226 -0.609688 -0.600512
          -0.609688 -0.606543 -0.605495 -0.600512 -0.608718 -0.609688
          -0.605495 -0.600512 -0.608718 -0.608847 -0.609688 -0.607226
          -0.474792 -0.459335 -0.4245 -0.477031 -0.477031 -0.459335
          -0.4245 -0.442996 -0.459335 -0.421409 -0.4245 -0.442996
          -0.474792 -0.47284 -0.426503 -0.459335 -0.459335 -0.449559
          -0.4627 -0.497359 -0.498097 -0.459335 -0.4627 -0.497359
          -0.459335 -0.449559 -0.41947 -0.4627 -0.219076 -0.182761
          -0.212564 -0.163731 -0.219076 -0.214665 -0.182761 -0.163731
          -0.467995 -0.481413 -0.520643 -0.472928 -0.520643 -0.465925
          -0.481413 -0.467995 -0.467995 -0.428833 -0.429248 -0.416931
          -0.0282422 -0.00792568 -0.00310106 -0.0669595 0.66868 0.673158
          0.661841 0.750003 -0.0826948 -0.0477761 -0.0163549 -0.0383277
          -0.0299528 -0.0826948 -0.0163549 -0.0383277 -0.0299528 -0.0163549
          0.0317743 -0.0383277 -0.0163549 -0.0477761 0.0317743 -0.0383277
          -0.0163549 -0.0477761 0.0409103 0.0317743 0.0517336 -0.0163549
          0.0409103 0.0317743 -0.0163549 -0.00572604 0.0517336 0.0225208
          -0.149963 -0.160393 -0.135303 -0.155231 -0.406363 -0.38119
          -0.353888 -0.376382 -0.406363 -0.38119 -0.376382 -0.421164
          -0.406363 -0.421164 -0.376382 -0.410354 -0.135303 -0.160393
          -0.125053 -0.155231 -0.135303 -0.155231 -0.125053 -0.122071
          -0.509884 -0.514976 -0.540096 -0.518352 -0.553089 -0.509884
          -0.540096 -0.518352 -0.509884 -0.553089 -0.55811 -0.518352
          -0.542389 -0.509884 -0.55811 -0.518352 -0.542389 -0.509884
          -0.518352 -0.506753 -0.542389 -0.522822 -0.509884 -0.506753
          -0.542389 -0.522822 -0.553089 -0.509884 -0.542389 -0.553089
          -0.55811 -0.509884 -0.522822 -0.514976 -0.553089 -0.509884
          -0.553089 -0.514976 -0.540096 -0.509884 -0.518352 -0.509884
          -0.492321 -0.506753 -0.506753 -0.509884 -0.492321 -0.4627
          -0.506753 -0.477031 -0.509884 -0.4627 -0.509884 -0.477031
          -0.506753 -0.498097 -0.509884 -0.477031 -0.492321 -0.4627
          -0.509884 -0.4616 -0.492321 -0.477031 -0.509884 -0.4616
          -0.477031 -0.483115 -0.509884 -0.477031 -0.513988 -0.483115
          -0.375762 -0.381452 -0.364239 -0.340524 -0.340524 -0.335138
          -0.364239 -0.375762 -0.317222 -0.397242 -0.330541 -0.294244
          -0.330541 -0.27546 -0.317222 -0.294244 -0.330541 -0.243691
          -0.27546 -0.294244 -0.330541 -0.243691 -0.294244 -0.326806
          -0.326806 -0.397242 -0.294244 -0.330541 -0.326806 -0.397242
          -0.360076 -0.294244 -0.315558 -0.326806 -0.360076 -0.294244
          -0.315558 -0.294327 -0.294244 -0.360076 -0.294244 -0.315558
          -0.326806 -0.302569 -0.27546 -0.243691 -0.211871 -0.294244
          -0.317222 -0.27546 -0.211871 -0.294244 -0.109624 -0.0974204
          -0.0872548 -0.0839381 -0.109624 -0.100418 -0.0974204 -0.0839381
          -0.0839381 -0.100418 -0.0974204 -0.0676795 -0.0839381 -0.0974204
          -0.0872548 -0.0676795 -0.0974204 -0.0676795 -0.0807488 -0.0872548
          -0.0974204 -0.0807488 -0.114873 -0.0872548 -0.0974204 -0.109624
          -0.104158 -0.128416 -0.128416 -0.0909205 -0.10816 -0.0974204
          -0.0990623 -0.100418 -0.0974204 -0.128993 -0.0974204 -0.0990623
          -0.128993 -0.152133 -0.0974204 -0.0990623 -0.152133 -0.140254
          -0.227508 -0.224153 -0.19356 -0.183591 -0.227508 -0.19356
          -0.182875 -0.183591 -0.227508 -0.183591 -0.182875 -0.230152
          -0.227508 -0.224153 -0.183591 -0.230152 -0.183591 -0.212972
          -0.199185 -0.170381 -0.183591 -0.212972 -0.170381 -0.181463
          -0.170381 -0.183591 -0.181463 -0.138966 -0.170381 -0.135977
          -0.183591 -0.138966 -0.170381 -0.164258 -0.183591 -0.135977
          -0.183591 -0.135977 -0.164258 -0.160773 -0.183591 -0.160773
          -0.155184 -0.135977 -0.183591 -0.154251 -0.138966 -0.135977
          -0.181463 -0.154251 -0.138966 -0.183591 -0.389167 -0.386426
          -0.421409 -0.426503 -0.389167 -0.369547 -0.421409 -0.386426
          -0.0872548 -0.0546027 -0.0807488 -0.0769447 -0.0748949 -0.0769447
          -0.0509829 -0.0507497 0.869577 0.900105 0.920067 0.885922
          0.826851 0.900105 0.869577 0.885922 0.826851 0.847262
          0.869577 0.900105 0.745728 0.847262 0.869577 0.826851
          -0.0546027 -0.055377 -0.0807488 -0.0769447 -0.0546027 -0.055377
          -0.0769447 -0.0509829 -0.0769447 -0.0546027 -0.0509829 -0.0507497
          -0.605091 -0.601291 -0.603292 -0.605715 -0.605091 -0.603292
          -0.608718 -0.605715 -0.155231 -0.137923 -0.153426 -0.186335
          -0.180202 -0.155231 -0.153426 -0.186335 -0.153426 -0.18142
          -0.180202 -0.186335 -0.155231 -0.137923 -0.186335 -0.177314
          -0.186335 -0.137923 -0.188891 -0.177314 -0.186335 -0.177314
          -0.188891 -0.241803 -0.186335 -0.177314 -0.241803 -0.232947
          -0.120025 -0.116229 -0.0778743 -0.140693 -0.187651 -0.20773
          -0.175025 -0.171585 0.176386 0.179964 0.182148 0.132925
          0.179964 0.164525 0.182148 0.132925 0.182148 0.164525
          0.0692919 0.132925 0.957762 0.959385 0.964551 0.926939
          0.964551 0.959385 0.955905 0.926939 0.132925 0.0897101
          0.164525 0.088712 -0.0509829 -0.0309387 -0.0432173 -0.0507497
          -0.0509829 -0.029839 -0.0309387 -0.0507497 -0.029839 -0.0309387
          -0.0287179 -0.0509829 -0.029839 -0.0206394 -0.0287179 -0.0309387
          -0.0309387 -0.0206394 -0.0432173 -0.029839 -0.0309387 -0.029839
          -0.0432173 -0.0507497 -0.0206394 -0.0287179 -0.0309387 -0.0126354
          -0.00798877 -0.0126354 -0.0206394 -0.0309387 -0.00798877 -0.0126354
          -0.0309387 -0.0210781 -0.0309387 -0.00798877 -0.0210781 -0.0362098
          -0.0309387 -0.0287179 -0.0210781 -0.0126354 -0.0433125 -0.0287179
          -0.0210781 -0.0309387 -0.0433125 -0.0287179 -0.0309387 -0.0509829
          -0.205679 -0.167424 -0.164205 -0.220655 -0.205679 -0.167424
          -0.220655 -0.238931 -0.167424 -0.112389 -0.164205 -0.220655
          -0.220655 -0.191288 -0.239709 -0.164205 -0.27258 -0.264202
          -0.293712 -0.253853 -0.27258 -0.264202 -0.253853 -0.230152
          -0.264202 -0.212972 -0.253853 -0.230152 -0.230152 -0.212972
          -0.253853 -0.239967 -0.540931 -0.561118 -0.578733 -0.548618
          -0.540931 -0.561118 -0.560632 -0.578733 -0.540931 -0.560632
          -0.561118 -0.511432 -0.561118 -0.560632 -0.561124 -0.511432
          -0.561118 -0.561124 -0.560632 -0.581108 -0.561118 -0.581108
          -0.560632 -0.578733 -0.548618 -0.561118 -0.551974 -0.530527
          -0.539178 -0.501965 -0.510375 -0.529701 -0.516821 -0.501965
          -0.529701 -0.510375 -0.526146 -0.516821 -0.529701 -0.510375
          -0.547193 -0.526146 -0.529701 -0.510375 -0.547193 -0.526146
          -0.510375 -0.505201 -0.510375 -0.505201 -0.513139 -0.547193
          -0.505201 -0.513139 -0.475633 -0.510375 -0.510375 -0.471625
          -0.475633 -0.505201 -0.482959 -0.471625 -0.510375 -0.505201
          -0.516821 -0.482959 -0.510375 -0.505201 -0.526146 -0.516821
          -0.510375 -0.505201 -0.516821 -0.482959 -0.501965 -0.510375
          -0.482959 -0.471625 -0.475633 -0.510375 0.26528 0.19353
          0.184625 0.243135 0.26528 0.164525 0.184625 0.19353
          0.19353 0.26528 0.164525 0.182148 0.19353 0.116801
          0.182148 0.164525 0.19353 0.114738 0.116801 0.164525
          0.147286 0.114738 0.19353 0.164525 0.19353 0.147286
          0.164525 0.184625 0.19353 0.166498 0.116801 0.114738
          0.259679 0.166498 0.209665 0.19353 0.900105 0.847262
          0.905539 0.878842 -0.223718 -0.220618 -0.242638 -0.271789
          -0.223718 -0.220618 -0.218544 -0.242638 -0.220618 -0.197009
          -0.218544 -0.242638 -0.197009 -0.19915 -0.218544 -0.242638
          -0.218544 -0.19915 -0.232947 -0.242638 -0.300825 -0.242638
          -0.271789 -0.269019 -0.267441 -0.242638 -0.300825 -0.269019
          -0.267441 -0.259364 -0.300825 -0.242638 -0.300825 -0.259364
          -0.271789 -0.242638 -0.36495 -0.330541 -0.296868 -0.314557
          -0.36495 -0.330541 -0.314557 -0.317222 -0.369417 -0.317222
          -0.36495 -0.314557 -0.369417 -0.375313 -0.314557 -0.36495
          -0.314557 -0.330541 -0.27546 -0.317222 -0.314557 -0.330541
          -0.296868 -0.27546 -0.314557 -0.27546 -0.296868 -0.228365
          -0.227508 -0.248485 -0.18142 -0.192492 -0.192492 -0.184676
          -0.18142 -0.227508 -0.192492 -0.155184 -0.18142 -0.184676
          -0.461908 -0.453267 -0.406363 -0.452771 -0.461908 -0.452771
          -0.508049 -0.453267 -0.461908 -0.508049 -0.503135 -0.453267
          -0.461908 -0.453267 -0.503135 -0.451478 -0.453267 -0.490188
          -0.503135 -0.451478 -0.451478 -0.490188 -0.444654 -0.453267
          -0.508049 -0.490188 -0.503135 -0.453267 -0.452771 -0.482107
          -0.508049 -0.453267 -0.452771 -0.421164 -0.453267 -0.406363
          -0.421164 -0.38119 -0.453267 -0.406363 -0.421164 -0.38119
          -0.421372 -0.453267 -0.453267 -0.421372 -0.402251 -0.38119
          -0.453267 -0.38119 -0.395046 -0.406363 -0.431484 -0.464844
          -0.394107 -0.424531 -0.431484 -0.451713 -0.394107 -0.464844
          -0.464844 -0.451713 -0.394107 -0.424531 0.0429092 0.0577277
          0.114738 0.088712 0.0577277 0.088712 0.0429092 0.00411554
          0.0577277 0.00411554 0.00698102 0.088712 -0.583032 -0.605701
          -0.585031 -0.596049 -0.583032 -0.596049 -0.585031 -0.577714
          -0.0124784 -0.00337952 0.0692919 0.0577277 0.922122 0.926939
          0.957672 0.964551 0.987774 0.957672 0.964551 0.988705
          0.987774 0.964551 1.00044 0.988705 0.987774 0.957672
          1.00044 0.964551 0.992022 1.00044 0.964551 0.988705
          0.994064 1.00044 0.964551 0.992022 0.0517336 0.0569261
          0.0852052 0.10934 0.0517336 -0.00572604 0.0852052 0.0569261
          0.0569261 0.00556753 -0.00572604 0.0852052 0.10934 0.0852052
          0.132925 0.0569261 0.10934 0.132925 0.0692919 0.0569261
          0.0577277 0.00556753 0.0569261 0.0897101 -0.587756 -0.591306
          -0.577397 -0.585031 -0.587756 -0.591306 -0.585031 -0.600585
          -0.596049 -0.591306 -0.600585 -0.585031 -0.585031 -0.605701
          -0.600585 -0.596049 -0.596049 -0.591306 -0.585031 -0.577714
          0.982276 1.02033 1.0378 1.02618 0.982276 1.02618
          1.0378 1.02395 0.982276 1.02618 1.02395 0.990392
          0.982276 1.02033 1.02618 0.990392 -0.0388337 -0.055377
          -0.0242749 -0.0433125 -0.0388337 -0.0242749 -0.0366013 -0.0433125
          -0.0527576 -0.0388337 -0.0366013 -0.0433125 -0.0527576 -0.055377
          -0.0388337 -0.0433125 -0.0388337 -0.0199872 -0.0242749 -0.0359205
          -0.0388337 -0.0274994 -0.0199872 -0.0359205 -0.385583 -0.401189
          -0.372513 -0.343334 -0.0122518 -0.0225702 -0.00693662 -0.00798877
          -0.0727868 -0.0414316 -0.0436944 -0.0663928 -0.0727868 -0.0620695
          -0.0436944 -0.0414316 -0.0436944 -0.0432173 -0.0414316 -0.0620695
          -0.0436944 -0.0432173 -0.0251656 -0.0414316 -0.0414316 -0.0432173
          -0.0251656 -0.0620695 -0.436534 -0.401189 -0.372513 -0.410755
          -0.436534 -0.381452 -0.372513 -0.401189 -0.436534 -0.431223
          -0.381452 -0.401189 -0.436534 -0.431469 -0.431223 -0.401189
          -0.431469 -0.434857 -0.431223 -0.401189 -0.431223 -0.434857
          -0.382787 -0.401189 -0.401189 -0.431223 -0.381452 -0.382787
          -0.401189 -0.381452 -0.372513 -0.382787 -0.401189 -0.382787
          -0.372513 -0.335303 -0.343334 -0.401189 -0.372513 -0.335303
          -0.289606 -0.259877 -0.269019 -0.223718 -0.259877 -0.223718
          -0.221329 -0.269019 -0.289606 -0.311202 -0.304688 -0.259877
          -0.191319 -0.231736 -0.184676 -0.182875 -0.215086 -0.231736
          -0.184676 -0.191319 -0.175025 -0.215086 -0.184676 -0.191319
          -0.20773 -0.215086 -0.175025 -0.191319 -0.20773 -0.231736
          -0.215086 -0.191319 -0.20773 -0.245591 -0.231736 -0.191319
          -0.191319 -0.154251 -0.181463 -0.182875 -0.191319 -0.182875
          -0.181463 -0.230152 -0.191319 -0.181463 -0.194693 -0.230152
          -0.194693 -0.191319 -0.155792 -0.181463 -0.194693 -0.171585
          -0.155792 -0.191319 -0.191319 -0.171585 -0.155792 -0.154251
          -0.191319 -0.154251 -0.155792 -0.181463 -0.140693 -0.116229
          -0.0778743 -0.0826948 -0.140693 -0.161825 -0.0826948 -0.0778743
          -0.0778743 -0.161825 -0.0826948 -0.0873447 -0.0778743 -0.00337952
          -0.0499682 -0.0289436 -0.0156401 -0.00310106 0.0268448 0.0711169
          -0.0156401 0.00931725 -0.00310106 0.0711169 0.00931725 -0.00310106
          0.0711169 0.0653578 0.00931725 0.0269334 -0.00310106 0.0653578
          0.00931725 0.0269334 -0.0299528 -0.00310106 -0.00310106 0.0269334
          0.0711169 0.0653578 0.0269334 0.0711169 0.122055 -0.00310106
          0.0269334 -0.00310106 0.122055 0.0812999 -0.00310106 0.0711169
          0.122055 0.0812999 -0.00310106 0.0711169 0.0812999 0.0268448
          0.362052 0.471849 0.481467 0.41735 0.41735 0.471849
          0.481467 0.475443 0.41735 0.538209 0.475443 0.481467
          0.41735 0.538209 0.461281 0.475443 0.41735 0.475443
          0.461281 0.373258 0.38677 0.41735 0.461281 0.373258
          0.38677 0.342808 0.41735 0.373258 0.41735 0.342808
          0.38677 0.346431 0.41735 0.342808 0.475443 0.373258
          0.342808 0.41735 0.475443 0.376145 0.342808 0.368224
          0.41735 0.376145 0.41735 0.368224 0.475443 0.376145
          0.41735 0.471849 0.475443 0.368224 -0.217591 -0.27546
          -0.228365 -0.211871 0.862298 0.926939 0.885922 0.919014
          0.862298 0.919014 0.885922 0.859128 0.862298 0.926939
          0.919014 0.859128 -0.474792 -0.4751 -0.513139 -0.470342
          -0.4751 -0.431223 -0.470342 -0.474792 -0.4751 -0.426503
          -0.470342 -0.431223 -0.4751 -0.426503 -0.43445 -0.470342
          -0.4751 -0.43445 -0.436534 -0.470342 -0.470342 -0.43445
          -0.436534 -0.431223 -0.470342 -0.431223 -0.436534 -0.431469
          -0.475633 -0.470342 -0.436534 -0.431469 -0.475633 -0.431223
          -0.470342 -0.431469 -0.475633 -0.470342 -0.431223 -0.434857
          -0.475633 -0.474792 -0.470342 -0.434857 -0.470342 -0.474792
          -0.431223 -0.434857 -0.470342 -0.426503 -0.43445 -0.431223
          1.04546 1.06673 1.08595 1.08311 1.04546 1.08595
          1.05647 1.08311 1.05647 1.04546 1.08311 1.04279
          1.04546 1.06673 1.08311 1.07089 1.04546 1.03743
          1.06673 0.992186 -0.601281 -0.586673 -0.589217 -0.604306
          -0.601281 -0.589217 -0.598996 -0.604306 -0.597244 -0.601281
          -0.589217 -0.598996 -0.597244 -0.589217 -0.582338 -0.598996
          -0.597244 -0.601281 -0.582338 -0.589217 -0.601281 -0.589541
          -0.582338 -0.589217 -0.582338 -0.582806 -0.598996 -0.589217
          -0.582338 -0.567941 -0.582806 -0.589217 -0.589217 -0.598996
          -0.604306 -0.595416 -0.588382 -0.57823 -0.575633 -0.570157
          -0.570157 -0.586375 -0.575633 -0.588382 -0.248543 -0.27258
          -0.270885 -0.230152 -0.227508 -0.230152 -0.248543 -0.224153
          -0.59422 -0.592337 -0.59992 -0.605291 -0.605291 -0.592337
          -0.59666 -0.59422 -0.58789 -0.588037 -0.586375 -0.598679
          -0.59992 -0.598679 -0.586375 -0.588037 -0.59992 -0.588037
          -0.586375 -0.592337 -0.588037 -0.592337 -0.59992 -0.59422
          -0.598679 -0.588037 -0.59992 -0.59422 -0.586375 -0.588037
          -0.575633 -0.592337 -0.586375 -0.580329 -0.575633 -0.588037
          -0.248543 -0.227508 -0.192492 -0.241278 -0.248543 -0.192492
          -0.20878 -0.241278 -0.19356 -0.192492 -0.20878 -0.248543
          -0.19356 -0.227508 -0.192492 -0.248543 -0.340524 -0.289606
          -0.314827 -0.307478 -0.0433125 -0.0158737 -0.0321671 -0.0210781
          -0.0433125 -0.0321671 -0.0545277 -0.0210781 -0.0210781 -0.0362098
          -0.0321671 -0.0545277 -0.0362098 -0.0210781 -0.0321671 -0.00736282
          -0.0362098 -0.0321671 -0.0423778 -0.00736282 -0.0321671 -0.0362098
          -0.0423778 -0.0545277 -0.0321671 -0.0331096 -0.0158737 -0.0433125
          -0.00792568 0.0287109 0.0843481 0.0973606 -0.00792568 0.0287109
          0.0767849 0.0843481 0.0973606 0.153568 0.0843481 0.192337
          0.0973606 0.0843481 0.131345 0.192337 0.0843481 0.0973606
          0.131345 0.0897101 0.131345 0.0843481 0.122055 0.192337
          0.0843481 0.192337 0.191131 0.122055 0.0843481 0.191131
          0.133991 0.122055 0.0843481 0.122055 0.133991 0.0812999
          0.0843481 0.0269334 0.122055 0.0812999 0.0843481 0.0269334
          0.0812999 -0.00310106 0.153568 0.191131 0.133991 0.0843481
          0.153568 0.192337 0.191131 0.0843481 -0.574159 -0.594283
          -0.59394 -0.580147 -0.594283 -0.579112 -0.580147 -0.574159
          -0.346023 -0.308486 -0.361831 -0.339323 -0.346023 -0.339323
          -0.361831 -0.401768 -0.346023 -0.306575 -0.308486 -0.339323
          -0.346023 -0.317802 -0.306575 -0.343334
        </DataArray>
        <DataArray type="Float64" Name="u0" format="ascii" RangeMin="-0.0442204" RangeMax="0.394862">
          0.248309 0.276815 0.297489 0.209017 0.122207 0.131645
          0.124809 0.0816163 0.107566 0.106885 0.0974821 0.109254
          0.180281 0.145549 0.171264 0.162 0.0991005 0.100967
          0.168288 0.0689865 0.0674725 0.0442687 0.0772562 0.0758985
          -0.0268066 0.019031 0.060929 0.0171833 0.256253 0.172295
          0.185509 0.214788 0.145903 0.0896431 0.137992 0.117288
          0.0242242 0.00691554 -0.00778128 0.0259847 0.0508163 0.0764155
          0.01461 0.0548873 0.00765602 0.016022 0.021377 0.0292423
          0.119042 0.0878253 0.102378 0.0845509 0.247261 0.198685
          0.254201 0.289994 0.0689865 0.0991005 0.100967 0.0692071
          0.0245713 -0.0152809 -0.0014031 0.0176904 0.298834 0.217678
          0.268238 0.272272 0.124138 0.0919653 0.122749 0.155675
          0.14323 0.120774 0.185682 0.109529 0.0970682 0.0421184
          0.0696074 0.0352309 0.364544 0.27609 0.373022 0.361653
          0.0228868 0.0311669 -0.0180461 0.0101504 0.239077 0.21932
          0.189171 0.231423 0.115975 0.155675 0.175406 0.128141
          0.109382 0.0525426 0.0433159 0.100789 0.0688902 0.14323
          0.078365 0.109529 0.111468 0.114299 0.119576 0.118476
          -0.00694388 -0.0180461 0.0228868 -0.0129101 0.113746 0.107431
          0.112644 0.112637 0.0811874 0.0556279 0.0809459 0.0452555
          0.0754783 0.164032 0.199691 0.13533 0.199036 0.167838
          0.124138 0.155675 0.19211 0.131645 0.171681 0.177759
          0.135136 0.1144 0.137741 0.118368 0.120603 0.0615568
          0.102812 0.0754448 0.220738 0.22275 0.169989 0.222148
          0.0439374 0.0553065 0.0742199 0.0648896 0.19211 0.177392
          0.16371 0.205526 0.222064 0.239193 0.256621 0.203901
          0.141147 0.141182 0.115205 0.0987851 0.0540152 0.0667859
          0.0680056 0.0245713 0.18131 0.179763 0.147387 0.130792
          0.100967 0.104946 0.0611862 0.0449238 0.201989 0.117833
          0.178795 0.24751 0.0273608 0.0527092 0.0101279 0.0548873
          0.110055 0.122055 0.120859 0.073581 0.0689447 0.0311669
          0.0487007 0.0331346 0.119042 0.114044 0.132045 0.102378
          0.102322 0.0590932 0.15796 0.0689063 0.0441608 0.0233769
          0.0425612 0.0171834 0.000362789 0.030685 0.0481888 0.0129194
          0.18704 0.199929 0.152841 0.166017 0.164177 0.126251
          0.16549 0.121678 0.163842 0.243538 0.161268 0.215481
          -0.0388781 -0.0402609 -0.0116154 -0.0129988 0.121678 0.165557
          0.157734 0.133529 0.118476 0.0998571 0.109724 0.0987473
          0.130862 0.115624 0.112396 0.116074 0.123047 0.120603
          0.102812 0.0754448 0.26761 0.22275 0.220738 0.222148
          -0.038764 -0.0150094 0.0213185 4.09269e-05 0.113639 0.0908379
          0.0896834 0.0964633 0.0410239 0.00408605 0.0135894 0.0172693
          0.1297 0.123019 0.119565 0.127146 0.0638506 0.0919653
          0.0598204 0.00379622 0.162928 0.161751 0.130047 0.123047
          0.154866 0.147637 0.152519 0.101176 0.0450636 -0.000871435
          0.0345143 0.0125049 0.141569 0.111056 0.199017 0.134692
          0.0967532 0.0967532 0.169989 0.0967532 0.159944 0.134357
          0.113639 0.130132 -0.0383281 -0.0152809 -0.0295031 -0.0096781
          0.00322887 0.000235171 0 0.00220275 0.134573 0.117073
          0.119123 0.129355 0.0449238 -0.00934244 0.100967 -0.0143431
          0.23316 0.19211 0.249159 0.239077 -0.0211191 0.0830577
          -0.0101049 0.0594662 0.145882 0.106761 0.111359 0.1552
          0.013461 0 0.0274571 0 0.0987772 0.074161
          0.0974821 0.0998489 0.15796 0.0939533 0.165688 0.0689063
          0.100967 0.141569 0.0611862 0.104946 0.204595 0.148758
          0.201861 0.180715 0.19211 0.160387 0.131645 0.124809
          0.0918535 0.120583 0.132188 0.128242 0.184437 0.150403
          0.171264 0.15353 0.152816 0.146871 0.127413 0.127146
          0.141569 0.134692 0.199017 0.198498 0.0798418 0.0966303
          0.0556986 0.10478 0.0508684 0.0125049 0.0444503 0.00402628
          -0.0139035 -0.00773479 0.0508163 -0.0055242 0.217441 0.272704
          0.303862 0.262492 0.0808134 0.150391 0.0846141 0.171272
          0.272272 0.317504 0.35665 0.293221 0.199466 0.163842
          0.137108 0.23391 0.282294 0.298929 0.256007 0.262572
          0.00322887 0 0.0062396 0.00220275 0.117833 0.089927
          0.185822 0.15877 -0.0410849 -0.0421975 -0.0048344 -0.0417754
          0.0698431 0.0667859 0.0825549 0.0862894 -0.00804499 0.0713689
          0.111056 0.0640984 0.108162 0.0433159 0.0583965 0.0388664
          0.113746 0.121685 0.107566 0.104713 0.141147 0.168513
          0.204595 0.148758 0.135136 0.1144 0.130566 0.137741
          0.128141 0.149133 0.175406 0.115975 0.0583685 0.0514059
          0.0784527 0.0407461 0.160002 0.137233 0.163383 0.154852
          0.0918535 0.0862894 0.0962148 0.132188 0.109254 0.115624
          0.120129 0.116074 0.331863 0.303862 0.319563 0.389693
          0.164278 0.166124 0.163383 0.124448 0.0657571 0.0945674
          0.0919653 0.00962742 0.109208 0.172426 0.199017 0.192891
          0.0345143 0.0508293 0.0695339 0.0188405 -0.0104375 -0.0183776
          0.0276634 0.049198 0.107318 0.101268 0.111468 0.108992
          0.0890549 0.076987 0.074161 0.0845377 0.129565 0.152816
          0.130792 0.127413 0.073427 0.0603935 0.0974886 0.0770825
          0.0679001 0.116441 0.0746714 0.148895 0.0829969 0.0608181
          0.0623433 0.0419592 0.131919 0.110551 0.11299 0.165145
          0.15353 0.150403 0.171264 0.145549 0.0862894 0.121216
          0.126891 0.0975373 0.117288 0.117288 0.117288 0.141182
          0.316173 0.260232 0.262492 0.199691 0.109413 0.0992329
          0.0998489 0.119123 0.0737005 0.0425612 0.0755101 0.101464
          -0.0211191 -0.0213389 0.0590932 0.102322 0.24751 0.366693
          0.376057 0.342939 0.0836865 0.0480688 0.0859557 0.073082
          0.103987 0.0994754 0.0998571 0.0914105 -0.0402609 -0.00275804
          -0.0410849 -0.0116154 0.114294 0.125346 0.111468 0.106077
          0.00553736 0.0303649 0.0341126 0.0256855 0.27145 0.293472
          0.248601 0.204122 -0.0355365 0.0266702 0.00213241 0.00402628
          0.0450636 0.0698431 0.0508684 0.0444503 0.0982184 0.060929
          0.116016 0.0171833 0.172727 0.239744 0.185124 0.28714
          0.0689447 0.0487007 0.0679743 0.0331346 0.076987 0.0890549
          0.0801628 0.0992329 0.26761 0.250416 0.284176 0.260994
          0.000362789 0.00880291 -0.00345285 0.030685 0.222148 0.214788
          0.169989 0.149803 -0.042216 -0.0431464 -0.0438624 0.00270117
          0.086844 0.137108 0.135582 0.199466 0.100508 0.0876484
          0.0995078 0.102143 0.148946 0.111699 0.172295 0.14422
          0.231761 0.251644 0.268008 0.204595 0.0654843 0.0877043
          0.128315 0.109617 0.00020316 -0.0227859 -0.0292533 -0.0270274
          -0.0357635 -0.0102802 -0.0116991 -0.0075844 0.128315 0.109617
          0.138348 0.151141 0.121678 0.0943749 0.133529 0.11878
          0.246225 0.182105 0.287691 0.279438 0.0157321 0.0331346
          0.0266702 0.0608181 0.159365 0.229061 0.274803 0.219222
          -0.000871435 -0.0431464 -0.010015 0.00270117 -0.0347885 -0.0292533
          -0.0075844 -0.0357635 0.0742199 0.0865935 0.0715879 0.0648896
          0.101464 0.102126 0.135107 0.12208 0.073581 0.0327647
          0.0558022 0.0276634 0.315243 0.27609 0.326695 0.352832
          0.116016 0.165241 0.165688 0.228849 0.145529 0.154929
          0.12387 0.148566 0.0688902 0.14323 0.130885 0.078365
          0.146871 0.156081 0.1297 0.127146 0.251013 0.199466
          0.306307 0.29657 0.11472 0.124799 0.145529 0.12387
          0.331863 0.389693 0.319563 0.394862 -0.00165095 -0.00551033
          0.00405932 0.00965275 0.168288 0.163956 0.185682 0.120774
          0.329085 0.26761 0.264721 0.304568 0.0502169 0.0698431
          0.0252408 0.0444503 0.267528 0.228849 0.315243 0.27609
          0.116016 0.185828 0.15877 0.0982184 0.23316 0.227329
          0.199929 0.175681 0.0925816 0.1081 0.102214 0.106885
          0.117833 0.0982184 0.089927 0.15877 0.300097 0.276815
          0.345247 0.297489 0.102214 0.106885 0.0984941 0.0925816
          0.204595 0.216996 0.254847 0.201861 0.0925113 0.0855552
          0.097403 0.0865935 0.0242242 -0.00778128 0.00022389 0.0259847
          0.0581534 0.0326146 0.0793457 0.0410239 0.177392 0.131645
          0.128141 0.171681 0.25535 0.344346 0.271213 0.332187
          0.00379622 0.0598204 -0.00458031 -0.00630596 0.0720016 -0.0249977
          0.0359137 0.023489 0.120205 0.15353 0.130862 0.127413
          -0.00896293 -0.0292533 0.00020316 -0.0116991 0.141147 0.115205
          0.148758 0.143039 0.0770825 0.0603935 0.0871718 0.0571961
          0.124962 0.141147 0.107308 0.0838931 0.114469 0.0974886
          0.10914 0.09246 0.330412 0.26761 0.264721 0.329085
          0.0303649 0.0508293 0.0341126 0.0256855 -0.0308071 -0.0386367
          0.00691554 -0.0144376 0.16371 0.131645 0.160387 0.122207
          0.25535 0.271213 0.219222 0.243538 0.251013 0.23391
          0.185795 0.270051 0.137741 0.1144 0.118662 0.125961
          0.239744 0.172727 0.267607 0.238454 0.209922 0.154107
          0.153914 0.198685 0.122055 0.133888 0.16614 0.164565
          0.150518 0.114861 0.150465 0.144869 0.203901 0.161148
          0.145882 0.146166 -0.00441511 0.00765602 0 -0.00310213
          0.0425612 0.0171834 0.00182056 0.0345143 0.185795 0.132813
          0.199466 0.200648 0.0483354 0.0801628 0.0391397 0.0764351
          0.110055 0.073581 0.120859 0.0834431 0.103987 0.114299
          0.118476 0.122016 0.153439 0.141147 0.168513 0.204595
          0.0407461 0.0811874 0.0680056 0.0418506 0.213557 0.149133
          0.216692 0.182105 0.0389648 0.0695339 0.0667859 0.0680056
          0.0583685 0.0255033 0.0514059 0.0303638 0.238454 0.172426
          0.293523 0.213365 -0.0150094 -0.000947842 0.00727071 0.0386203
          -0.00165095 0.00405932 -0.00608307 0.00322887 -0.010015 0.00270117
          -0.0152809 -0.0014031 0.319563 0.316173 0.199691 0.237426
          -0.0014031 0.0188405 0.0165473 0.0256855 0.28714 0.344346
          0.35414 0.344461 0.160387 0.176831 0.175681 0.146451
          0.00553736 -0.010015 -0.0014031 0.0188405 0.109382 0.0896431
          0.145903 0.0820273 0.148566 0.132045 0.154929 0.12387
          0.0290398 0.0381607 0.021377 0.016022 0.0271315 0.0349748
          0.0559069 0.0398111 0.0801865 0.0558022 0.0276634 0.073581
          -0.00991763 0.0595115 0.0808134 -0.0160427 0.118801 0.149308
          0.13808 0.148566 0.198539 0.252053 0.178795 0.237126
          0.0982184 0.0519335 0.060929 0.0171833 0.173823 0.115975
          0.149133 0.137752 -0.00165095 -0.00700115 -0.00551033 -0.0102802
          0.247261 0.198685 0.289994 0.272881 -0.000402004 -0.00778128
          0.00022389 0.0242242 -0.0014031 0.0188405 0.0256855 -0.0075844
          0.00753595 0.0327647 0.0419592 0.0689447 0.0746342 0.069771
          0.116094 0.0864608 0.271213 0.215481 0.161268 0.243538
          0.364544 0.282707 0.373022 0.240365 0.120205 0.127413
          0.0974886 0.0970682 0.233002 0.19409 0.239193 0.220738
          -0.00151333 0.0808134 -0.0101049 -0.00991763 0.049462 0.045572
          0.0269824 -0.0244421 0.0558022 0.0801865 0.0769836 0.110055
          0.0062396 0.0105776 0.0274925 0.0311991 0.315675 0.251511
          0.314985 0.32407 0.146451 0.109413 0.120205 0.137254
          0.341816 0.289994 0.294293 0.332879 0.0670694 0.0674725
          0.0964633 0.0758985 0.0337951 0.0535114 0.0653537 0.0647985
          0.0368505 0.0619345 0.0784527 0.0583685 -0.0312485 0.00213241
          -0.0309792 -0.0355365 0.293221 0.272272 0.285884 0.35665
          0.0176904 0.0188405 -0.0014031 0.0245713 0.384031 0.298834
          0.34366 0.303862 0.0512157 0.0283937 0.0653537 0.0337951
          0.0273608 0.0548873 0.0764155 0.0932756 0.177759 0.189171
          0.134062 0.147387 0.145798 0.164032 0.190968 0.0754783
          0.0595115 0.150391 0.0808134 0.171272 0.107324 0.0907144
          0.108162 0.0388664 0.0611862 -0.00934244 0.0449238 -0.0157458
          0.169989 0.18707 0.168881 0.0967532 0.204548 0.240943
          0.137752 0.213557 0.121298 0.12041 0.126913 0.113746
          0 0 0.013461 0 0.256253 0.214788
          0.227293 0.26761 0.168513 0.204595 0.216313 0.216196
          0.13533 0.189954 0.0830577 0.0808134 0.137752 0.204548
          0.109294 0.16095 -0.0352411 -0.0112473 0.00069831 -0.00895024
          -0.0343607 -0.000947842 0.00727071 -0.0150094 0.0252408 0.0698431
          0.0125049 0.0444503 0.113639 0.0896834 0.121678 0.0964633
          0.256253 0.26761 0.250416 0.284176 0.0945674 0.0664855
          0.0688967 0.00962742 0.268008 0.204595 0.254847 0.201861
          -0.0152553 -0.0199145 -0.0209827 0.0692071 -0.010015 0.00270117
          -0.042216 -0.0152809 0.0556986 0.0737005 0.0441608 0.0966303
          0.177759 0.134062 0.125164 0.135703 0.0853375 0.0653537
          0.0808666 0.0836865 0.102925 0.159421 0.160203 0.118528
          0.0261287 0.00962742 0.0657571 0.0116505 0.317504 0.367966
          0.293221 0.302232 0.0640031 0.0740235 0.0734512 0.123789
          0.238454 0.213365 0.293523 0.35358 0.0444503 0.0819989
          0.0910404 0.0491411 0.0553065 0.0711245 0.0805224 0.0865935
          0.120268 0.133529 0.158708 0.130047 -0.000871435 -0.0421975
          0.0125049 -0.0048344 -0.00458031 -0.00630596 0.0598204 0.0567087
          0.0967532 0.14422 0.115032 0.111699 0.107566 0.112241
          0.113746 0.108992 0.0608994 0.0862894 0.0502169 0.0962148
          0.0556279 0.0514059 0.0311991 0.0274925 0.149682 0.137108
          0.0887729 0.163842 0.269623 0.222461 0.150391 0.221318
          0.373022 0.240365 0.301397 0.361653 -0.00151333 0.0754783
          0.0808134 0.0846141 0.0439374 0.0254341 0.0559069 0.0271315
          0.213557 0.229906 0.175406 0.173823 0.0116505 0.026183
          0.0657571 0.0261287 0.149682 0.0887729 0.130585 0.126597
          0.106057 0.112396 0.0998489 0.110311 0.268238 0.272704
          0.217441 0.186477 0.168288 0.185682 0.254571 0.204548
          0.063013 0.0385235 0.045819 0.0619345 0.260233 0.312824
          0.296649 0.24719 0.289143 0.284969 0.258775 0.335373
          0.101464 0.11946 0.130472 0.0825549 0.18131 0.179763
          0.15353 0.179652 0.284969 0.254201 0.216313 0.292096
          -0.0402609 -0.038764 -0.00275804 4.09269e-05 0.00182056 -0.00895024
          0.0347523 0.0341126 0.0977345 0.0605018 0.0715661 0.0863681
          0.128141 0.0688967 0.131645 0.11452 0.0508293 0.073345
          0.105846 0.0931616 0.1081 0.113746 0.106885 0.107566
          0.302232 0.268238 0.317504 0.380329 0.177392 0.131645
          0.171681 0.19211 -0.0150094 0.0386203 0.00727071 0.0213185
          0.12041 0.105112 0.116001 0.107431 4.09269e-05 -0.00275804
          0.0441608 0.0475774 0.0751999 0.0540152 0.0667859 0.0680056
          0.264721 0.209054 0.246243 0.262803 0.0737005 0.0732646
          0.0825549 0.0345143 0.0171833 0.0337169 0.0982184 0.0519335
          0.110675 0.135703 0.0817732 0.0948104 0.113746 0.126913
          0.110326 0.116001 0.274803 0.229061 0.331839 0.257162
          0.274099 0.260994 0.330875 0.315064 0.267528 0.344461
          0.254682 0.28714 0.127413 0.152816 0.127146 0.10914
          0.139728 0.0966303 0.135107 0.101464 0.0483354 0.0391397
          0.0423568 0.0764351 0.102925 0.159421 0.164565 0.160203
          0.237126 0.293499 0.298245 0.296192 0 0
          0 0.013461 0.330412 0.294293 0.315774 0.264721
          0.268008 0.216996 0.254847 0.204595 -0.0438624 -0.0442204
          -0.0255505 -0.00603925 0.00562483 0.0108895 0.0159097 0.0182165
          0.0987473 0.0853375 0.0914105 0.0836865 0.272272 0.298834
          0.317504 0.268238 0.0737005 0.0425612 0.101464 0.0732646
          0.2938 0.341624 0.268008 0.289816 0.0801628 0.074161
          0.0998489 0.0973108 -0.0116991 -0.00165095 -0.00441511 0.00020316
          0.296192 0.271522 0.198539 0.260232 0.239744 0.228849
          0.267528 0.27609 0.239744 0.35414 0.267528 0.28714
          0.086844 0.135582 0.0734512 0.137752 0.117833 0.185822
          0.12867 0.178795 0.248309 0.179831 0.222461 0.17999
          0.139728 0.10478 0.135107 0.0966303 0.137108 0.185795
          0.132813 0.199466 0.141569 0.163459 0.100178 0.104946
          0.0274571 0.045819 0.046611 0.0220256 0.0512157 0.0853375
          0.073082 0.0653537 -0.010015 -0.000871435 0.00270117 0.0345143
          0.168513 0.222148 0.216996 0.174536 0.256007 0.262572
          0.256621 0.222064 0.086844 0.199466 0.135582 0.16095
          0.0406751 0.0386203 0.0101504 -0.000947842 0.239744 0.35414
          0.267607 0.361653 0.0165473 0.0176904 -0.0014031 0.00965275
          0.24751 0.185822 0.293499 0.282707 0.0914105 0.0821186
          0.0998571 0.0653537 -0.0383281 -0.0295031 -0.029149 -0.0096781
          0.154866 0.101176 0.120603 0.113901 0.0754783 0.13533
          0.127105 0.100937 -0.00458031 -0.0124161 0.0567087 -0.0163625
          0.126597 0.0443352 0.0939533 0.0583242 0.0987473 0.0998571
          0.0836865 0.0914105 0.175406 0.214694 0.229906 0.216692
          0.0608181 0.118728 0.0829969 0.113901 0.0742199 0.0805224
          0.0865935 0.0553065 0.107324 0.108162 0.0583965 0.0388664
          0.173823 0.109294 0.115975 0.137752 0.154929 0.159944
          0.147899 0.128281 0.0689865 0.100967 0.103092 0.0611862
          0.329085 0.284176 0.26761 0.304568 0.0979294 0.12387
          0.11472 0.128281 0.0595115 0.0808134 0.0846141 -0.00991763
          0.101268 0.0859557 0.0998671 0.0995078 -0.0129101 0.0276634
          -0.0202432 0.0311669 0.110055 0.0801865 0.132605 0.073581
          0.0527092 0.0677674 0.0816163 0.0932756 -0.0390216 -0.0360913
          -0.0355365 0.0157321 -0.00441511 -0.0116991 -0.0198786 -0.00700115
          0.0331346 0.0101504 0.00753595 0.0311669 0.175681 0.128315
          0.138348 0.151141 0.0701937 0.0657571 0.106478 0.0850406
          0.0689865 -0.0152553 0.0692071 -0.0143431 0.198685 0.145903
          0.207948 0.154107 0.175681 0.166017 0.152841 0.138348
          0.279438 0.182105 0.287691 0.230788 0.113746 0.116001
          0.110326 0.112644 0.159944 0.134357 0.157734 0.143157
          0.11452 0.16371 0.139514 0.122207 0.0608181 0.0157321
          0.0508684 0.0266702 0.0615568 0.0829969 0.0419592 0.0327647
          0.0518296 0.0782603 0.0615418 0.0228868 0.126251 0.0894282
          0.114044 0.124448 0.0858781 0.0487007 0.0679743 0.0689447
          0.201861 0.211651 0.216996 0.254847 0.368553 0.24719
          0.299233 0.293472 0.0228868 -0.0202432 0.0311669 -0.0129101
          0.0603935 0.0974886 0.0885485 0.073427 0.0742199 0.0979294
          0.0855552 0.0741411 -0.0048344 0.0125049 0.0450636 0.00402628
          0.137752 0.0567087 0.16095 0.109294 0.109382 0.0896431
          0.0820273 0.0525426 0.164091 0.129355 0.137254 0.133596
          0.0581534 0.0118425 0.0410239 0.049659 0.00020316 0.00562483
          0.0108895 -0.00441511 -0.00559399 0.0500145 -0.00726708 -0.000573831
          0.109254 0.120129 0.114469 0.116074 0.120859 0.0689447
          0.0829969 0.0834431 0.384031 0.389693 0.331863 0.394862
          0.0257655 -0.0104375 0.0276634 0.049198 0.0720016 0.126597
          0.0799235 0.161857 0.0391397 0.0654843 0.0764351 0.0728637
          0.315675 0.324155 0.306307 0.243931 0.23391 0.315675
          0.306307 0.243931 0.0406751 -0.000947842 0.0101504 0.00138579
          0.0638506 0.115975 0.0919653 0.137117 0.201989 0.178795
          0.266947 0.24751 0.116094 0.148017 0.146533 0.133888
          0.0927891 0.118728 0.0608181 0.113901 0.00156437 0.00765602
          0.00020316 -0.00310213 0.0995078 0.101268 0.107318 0.108992
          0.102717 0.0740493 0.0792191 0.137992 0.187876 0.123789
          0.200648 0.182105 0.209308 0.177732 0.15353 0.179652
          0.073581 0.102925 0.122055 0.120859 0.262565 0.215632
          0.279438 0.272434 -0.0048344 -0.000871435 0.0450636 0.0125049
          0.124799 0.148566 0.132045 0.118801 -0.0161031 -0.0155251
          0.0689063 -0.0209697 0.216196 0.231761 0.27271 0.209525
          0.262492 0.199691 0.190968 0.237426 0.26761 0.22275
          0.227293 0.250416 0.0247822 0.0407461 0.00965275 0.0418506
          0.132605 0.126251 0.110055 0.121678 0.0337951 0.0270565
          0.0647985 0.0480688 0.159365 0.274803 0.198498 0.219222
          0.10645 0.146533 0.124448 0.116094 0.103987 0.0998571
          0.0994754 0.122016 0.0410239 -0.00694388 0.00408605 0.0118425
          0.00965275 -0.00551033 0.00405932 0.0048109 0.0410239 0.0326146
          0.0782603 0.0518296 0.214788 0.18707 0.22275 0.169989
          0.0881059 0.0925816 0.0984941 0.0770825 0.0836865 0.0715879
          0.102221 0.0925113 0.14323 0.185682 0.130885 0.109529
          0.164565 0.132605 0.165496 0.166124 0.0157321 0.00727071
          -0.0355365 0.00213241 0.16095 0.137108 0.086844 0.199466
          0.0245713 -0.0152809 0.0176904 0.00486514 -0.042216 -0.0438624
          -0.0152809 0.00270117 0.216996 0.220738 0.222064 0.174536
          0.177759 0.249124 0.214694 0.254645 0.145402 0.0966303
          0.150518 0.139728 0.0487702 0.0463084 0.0220256 0.0385235
          0.135703 0.106478 0.125164 0.153324 0.282707 0.301397
          0.240365 0.298245 -0.0118951 -0.0155251 0.0876554 -0.0161031
          0.11452 0.0816163 0.122207 0.0932756 0.0698431 0.0862894
          0.0975373 0.0962148 0.111468 0.109724 0.118768 0.112241
          -0.0360913 -0.0273646 -0.0312485 0.00727071 0.112472 0.10517
          0.114469 0.119565 0.12962 0.12041 0.134646 0.147899
          0.106478 0.117983 0.153324 0.135703 0.137361 0.1297
          0.110097 0.125961 0.049198 -0.0126592 -0.0183776 0.0249799
          -0.00441511 -0.0116991 -0.0292533 -0.0254388 0.0688902 0.000458692
          0.0882954 -0.00458031 0.13533 0.164032 0.199691 0.171272
          0.216483 0.272704 0.186477 0.205824 -0.0272993 0.0337169
          0.089927 -0.0211191 0 0 0 0.00562483
          0.168513 0.148758 0.141147 0.115205 0.248309 0.222461
          0.300097 0.276815 0.227293 0.190655 0.24468 0.216442
          0.205526 0.177392 0.261294 0.19211 0.310355 0.262343
          0.313974 0.35358 0.130862 0.116074 0.120205 0.127413
          0.165688 0.0939533 0.15796 0.172727 0.110032 0.113639
          0.121768 0.0964633 -0.0116154 -0.00275804 -0.0410849 -0.0048344
          0.120268 0.130047 0.158708 0.123047 0.0518296 0.0481888
          0.0705408 0.0410239 0.181436 0.27145 0.260233 0.296649
          -0.00726708 -0.000573831 0.0688902 0.0250181 0.0737005 0.0825549
          0.0450636 0.0345143 0.282707 0.237126 0.240365 0.185822
          0.18704 0.199929 0.166017 0.175681 0.0764155 0.135072
          0.135405 0.11452 0.0407461 0.0811874 0.0418506 0.0452555
          0.104713 0.0974821 0.107566 0.0875997 0.15877 0.165688
          0.116016 0.060929 0.0418506 0.0811874 0.0809459 0.0452555
          0.130792 0.124087 0.147387 0.110675 0.0554554 0.0728637
          0.0764351 0.0801628 0.178795 0.181436 0.201989 0.252053
          0.0228868 -0.0180461 0.0311669 -0.0202432 -0.0129101 0.0276634
          -0.02311 -0.0202432 0.045572 -0.0206594 -0.0124161 -0.0158773
          0.0249799 0.0327647 0.0424382 0.0119736 0.0680056 0.0567513
          0.0418506 0.0389648 -0.0155251 -0.0129809 -0.0095751 0.0635172
          0.165145 0.19409 0.220738 0.161148 0.257162 0.31346
          0.323171 0.324155 0.18704 0.175681 0.152841 0.138348
          -0.0075844 -0.0116991 0.0108895 0.0165473 0.0159457 0.0275312
          0.00965275 0.0176904 0.131259 0.102378 0.114044 0.119042
          -0.0116991 -0.00441511 -0.0292533 0.00020316 0.24751 0.366693
          0.282707 0.376057 0.364544 0.282707 0.366693 0.373022
          0.164565 0.122055 0.165496 0.132605 0.0686171 0.110093
          0.0732646 0.073345 0.268008 0.282294 0.308147 0.254847
          0.0598204 0.0688967 0.0445276 0.000364435 -0.0387419 -0.0398427
          0.00182056 -0.0388781 0.0101279 0.0237723 0.0170272 0.0664855
          0.164565 0.160203 0.120859 0.122055 0.197509 0.209308
          0.179763 0.21932 0.216483 0.217678 0.268238 0.298834
          0.0449238 -0.00934244 -0.0143431 -0.0157458 0.178795 0.185822
          0.237126 0.293499 0.1297 0.10082 0.114543 0.123019
          0.0519335 0.0337169 0.0982184 0.089927 0.0987851 0.141182
          0.115205 0.117288 0.0817732 0.0970682 0.110675 0.0696074
          0.164565 0.160203 0.165496 0.120859 0.109724 0.101268
          0.108096 0.112241 0.0964633 0.0896834 0.121678 0.0943749
          0.0680056 0.0567513 0.0407461 0.0418506 0.148895 0.201989
          0.178795 0.181436 0.168513 0.149803 0.222148 0.174536
          0.12962 0.112709 0.128281 0.130675 0.0927891 0.102925
          0.0608181 0.118728 0.203477 0.172754 0.166017 0.180281
          0.0979294 0.112709 0.0855552 0.0741411 0.116016 0.0799235
          0.060929 0.165241 0.154929 0.159245 0.130132 0.132045
          0.0865935 0.0805224 0.097403 0.0923287 0.0974821 0.106885
          0.0984941 0.109254 0.106478 0.125164 0.0850406 0.0657571
          0.0364287 0.0377969 0.0832282 0.0116505 0.0826533 0.0364287
          0.0832282 0.0638506 0.112637 0.113683 0.112472 0.119565
          0.100508 0.0995078 0.1144 0.102143 0.0862894 0.121216
          0.0975373 0.134593 0.135405 0.11452 0.139514 0.0932756
          0.137254 0.114991 0.119123 0.130566 0.0512157 0.0653537
          0.0808666 0.0853375 0.129565 0.152816 0.127413 0.10914
          0.01461 0.0548873 0.0273608 -0.0055242 -0.0417754 -0.0442204
          -0.0421975 -0.0048344 0 0.0311991 0.0105776 0.0062396
          0.152841 0.130792 0.135703 0.117983 0.0091938 0.0679001
          0.0746714 0.0803818 0.0689063 0.0467083 -0.0209697 -0.0155251
          0.0245713 0.0334735 0.0338639 0.00706416 0.0770825 0.0571961
          0.0871718 0.0665122 0.222148 0.209054 0.166592 0.216313
          4.09269e-05 0.0213185 -0.00275804 0.0475774 0.0101279 0.0246036
          0.0237723 0.0664855 0.134646 0.11977 0.121298 0.121685
          0.121298 0.11977 0.113746 0.121685 0.0864608 0.073581
          0.0615418 0.0689447 -0.0112473 -0.0352411 0.00069831 -0.00484605
          -0.0158773 -0.00773479 0.0445276 -0.0139035 0.113639 0.0908379
          0.0964633 0.0670694 0.154852 0.131259 0.149308 0.160002
          0.218704 0.249124 0.214694 0.177759 0.284969 0.26761
          0.289143 0.222148 0.179763 0.21932 0.231423 0.18131
          0.0689063 0.0590932 -0.0161031 -0.0213389 0.209308 0.171264
          0.197509 0.15353 0.158504 0.0907144 0.127105 0.108162
          0.0881059 0.0770825 0.09246 0.0665122 0.201861 0.143039
          0.180715 0.148758 0.127105 0.145798 0.217441 0.190968
          0.0973108 0.0910021 0.106057 0.104248 0.12041 0.103554
          0.116001 0.105112 -0.00710968 0.0713689 0.0611862 0.0217851
          0.168513 0.149803 0.141182 0.166592 0.386449 0.296192
          0.316173 0.387982 0.0974821 0.106077 0.104248 0.0910021
          -0.0386929 -0.010015 -0.0014031 -0.0075844 0.117288 0.117288
          0.141182 0.145903 0.198685 0.153914 0.209922 0.200281
          0.289994 0.285884 0.336675 0.341479 0.0290398 0.0303649
          0.0126215 0.021377 0.12041 0.145529 0.134646 0.147899
          0.109724 0.118801 0.102221 0.0998571 0.049198 -0.0183776
          0.0276634 0.0249799 0.0500145 0.0688902 0.109529 0.120774
          0.0508293 0.0863681 0.073345 0.0931616 0.0801628 0.074161
          0.0973108 0.076987 0.0975595 0.0654843 0.0764351 0.128315
          0.1144 0.112614 0.125961 0.118368 -0.0104375 -0.00345285
          -0.0126592 0.030685 0.1544 0.156081 0.1297 0.150403
          0.272272 0.35898 0.35012 0.35665 0.137361 0.1297
          0.125961 0.155927 0.239077 0.227329 0.189171 0.21932
          0.175681 0.203477 0.166017 0.146451 -0.038764 -0.0150094
          -0.0390216 -0.00275804 -0.00275804 0.0213185 0.0157321 0.0556986
          0.0720016 0.0443352 0.0799235 0.126597 0.110032 0.0964633
          0.121768 0.0873117 0.0510099 0.0444074 0.0670694 0.0254341
          0.15353 0.130862 0.150403 0.145549 0.316173 0.296192
          0.260232 0.271522 0.120129 0.113683 0.112637 0.119565
          -0.00151333 0.0808134 -0.00991763 0.0846141 0.24719 0.181436
          0.148895 0.149244 0.332879 0.254201 0.289994 0.264721
          0.135582 0.135072 0.182105 0.123789 0.0995078 0.108992
          0.112614 0.0998671 0.203477 0.166017 0.163709 0.180281
          0.27145 0.316074 0.290993 0.378687 0.158825 0.120177
          0.137992 0.156753 0.0858781 0.0864608 0.0487007 0.0689447
          0.0259847 0.0242242 -0.000402004 0.00022389 0.27145 0.196146
          0.302232 0.290993 -0.0116154 -0.0421975 -0.0410849 -0.0398427
          0.186567 0.109382 0.165257 0.100789 0.0966303 0.10478
          0.144869 0.139728 0.109294 0.0567087 0.16095 0.0991005
          -0.00895024 0.00069831 0.0347523 0.0341126 -0.00275804 -0.0410849
          -0.0048344 -0.0417754 0.0754448 0.0615568 0.0424382 0.0834431
          0.0487702 0.0316418 0.0220256 0.0292423 0.100508 0.0864786
          0.0995078 0.0876484 0.127105 0.196146 0.217441 0.186477
          0.118728 0.118528 0.160203 0.152768 0.113901 0.118528
          0.118728 0.152768 0.089927 0.0982184 0.0519335 0.15877
          0.0948104 0.134062 0.125164 0.0945674 0.109555 0.0965191
          0.123019 0.13511 -0.0055242 0.0508163 0.000364435 -0.00773479
          0.0688902 0.0882954 0.14323 0.109294 -0.00102808 0.060043
          0.0851486 -0.0118951 0.378687 0.27145 0.370712 0.302232
          0.228106 0.23316 0.199929 0.175681 0.292096 0.216313
          0.251644 0.285884 0.0213185 0.0556986 0.0475774 0.0798418
          -0.00102808 -0.00714448 0.060043 -0.0118951 0.164468 0.204595
          0.141147 0.216196 -0.042216 -0.0438624 -0.0295031 -0.0152809
          0.130885 0.0882954 0.0826533 0.137117 -0.00848475 0.00350164
          0.0716709 -0.0101049 -0.0213389 -0.0161031 0.0689063 -0.0209697
          0.120205 0.130792 0.127413 0.0970682 0.101176 0.0829969
          0.0623433 0.0615568 0.0553065 0.0439374 0.0659989 0.0398111
          0.112614 0.108992 0.115624 0.114543 0.302885 0.213557
          0.292862 0.295685 -0.00441511 -0.00165095 -0.0116991 -0.00700115
          -0.0055242 0.0101279 0.0548873 0.0273608 0.0834431 0.123047
          0.130047 0.084756 0.332017 0.26761 0.289143 0.284969
          0.0425612 0.0341126 0.0686171 0.0732646 0.0423568 0.0843502
          0.0483354 0.0764351 0.0925113 0.0742199 0.0855552 0.0865935
          0.0751999 0.0540152 0.0680056 0.104426 0.332879 0.254201
          0.264721 0.330412 0.25535 0.271213 0.243538 0.332187
          0.114044 0.0908379 0.0937691 0.102378 0.224695 0.186567
          0.167438 0.165257 0.0558778 0.0846141 0.0754783 -0.00151333
          0.0834431 0.0829969 0.120603 0.0615568 0.0836865 0.0821186
          0.0937691 0.0647985 0.153439 0.141876 0.164468 0.216196
          0.0598204 0.128141 0.0948509 0.0688967 0.216692 0.175406
          0.214694 0.171681 0.367966 0.293221 0.359992 0.349887
          0.261294 0.216692 0.267948 0.19211 0.00753595 0.0419592
          0.00213241 0.0331346 0.0603935 0.0421184 0.0554554 0.0728637
          0.260233 0.296649 0.27145 0.24719 0.101268 0.0925113
          0.107431 0.0998671 0.15796 0.0939533 0.0689063 0.0467083
          -0.00165095 -0.0254388 -0.00700115 -0.0102802 0.0679743 0.0386203
          0.0490511 0.00727071 0.289994 0.254201 0.246243 0.264721
          0.384031 0.303862 0.331863 0.389693 0.120286 0.100937
          0.196146 0.198539 0.198539 0.252053 0.120286 0.178795
          -0.00804499 -0.00710968 0.0640984 -0.0123321 0.156753 0.102717
          0.120177 0.137992 0.135405 0.120177 0.137992 0.158825
          0.394862 0.316173 0.387982 0.389693 0.118528 0.159421
          0.160203 0.152768 0.118528 0.113705 0.142066 0.159421
          0.154866 0.152519 0.15653 0.120603 0.19409 0.165145
          0.131919 0.161148 0.0615568 0.0327647 0.0343041 0.0424382
          0.0510099 0.00880291 0.0444074 0.0254341 0.0368505 0.045819
          0.013461 0.0182165 0.0834431 0.073581 0.0689447 0.0327647
          0.12962 0.134646 0.126913 0.147899 -0.0355365 -0.0405949
          0.00402628 -0.0364058 0.0182165 0.00562483 0 0
          0.228849 0.165241 0.27609 0.239744 0.216196 0.217678
          0.224695 0.167438 0.341816 0.299471 0.294293 0.289994
          0.000364435 0.0101279 0.00962742 0.0688967 0.149803 0.117288
          0.0967532 0.115205 -0.0357635 -0.0254388 -0.0116991 -0.0102802
          -0.00441511 -0.0254388 -0.0198786 -0.0116991 -0.00991763 0.0595115
          -0.0160427 -0.0117722 0.114543 0.113683 0.112637 0.120129
          0.0862894 0.0751999 0.0608994 0.0667859 0.366693 0.280246
          0.24751 0.282707 0.0257655 0.030685 0.049198 0.0481888
          -0.0075844 -0.0116991 0.00020316 0.0108895 0.00402628 -0.0396832
          0.0242242 -0.0364058 0.266947 0.24751 0.376057 0.342939
          0.114469 0.109254 0.116074 0.0974886 0.168288 0.14323
          0.204548 0.0991005 0.115205 0.0967532 0.149803 0.165145
          0.0826533 0.0882954 0.0638506 0.137117 0.0256855 0.0508293
          0.0341126 0.0188405 0.227293 0.250416 0.24468 0.284176
          0.0657571 0.125164 0.0919653 0.0945674 -0.0386929 -0.0384657
          -0.0075844 -0.0357635 0.0450636 0.0556986 0.0508684 0.0737005
          0.0734512 0.135582 0.182105 0.149133 0.115205 0.115205
          0.148758 0.115205 0.0623433 0.0242242 0.0259847 0.0615568
          0.239077 0.189171 0.249124 0.231423 0.0648896 0.0711245
          0.0553065 0.0865935 0.369769 0.301397 0.379682 0.378097
          0.0615568 0.0829969 0.0623433 0.0419592 0.0508684 0.0266702
          0.0444503 0.0242242 0.073581 0.0801865 0.0558022 0.110055
          0.0334735 0.0608994 0.0667859 0.0338639 0.0101504 0.0386203
          0.00727071 -0.000947842 0.138138 0.120838 0.135136 0.111776
          0.260232 0.217441 0.199691 0.13533 0.0406751 0.0386203
          0.0487007 0.0101504 0.00753595 0.0419592 0.0331346 0.0689447
          0.106885 0.113746 0.110326 0.112644 0.0998489 0.074161
          0.0974821 0.0973108 0.216996 0.168513 0.148758 0.204595
          0.204548 0.243931 0.16095 0.240943 0.106057 0.0998489
          0.0974821 0.0973108 0.164565 0.120859 0.165496 0.122055
          0.154929 0.130132 0.159944 0.113639 0.0754448 0.0834431
          0.0424382 0.084756 0.332017 0.284969 0.289143 0.335373
          0.0368281 0.0249799 0.0424382 -0.0113336 0.0925113 0.0742199
          0.105112 0.0855552 0.149133 0.128141 0.175406 0.177392
          0.104713 0.106885 0.0875997 0.107566 -0.000871435 -0.0421975
          -0.010015 -0.0431464 0.330412 0.264721 0.315774 0.329085
          0.0406751 0.0487007 0.0311669 0.0101504 0.148946 0.14422
          0.185509 0.169989 0.197509 0.179763 0.176831 0.21932
          0.199929 0.152841 0.166017 0.164091 0.359488 0.238454
          0.293523 0.358776 0.378097 0.248309 0.300097 0.297489
          0.073581 0.0864608 0.108289 0.122055 0.260232 0.217441
          0.262492 0.199691 0.0548873 0.0948509 0.11452 0.0688967
          0.15796 0.179831 0.17999 0.11408 -0.00275804 -0.0150094
          -0.0390216 0.0157321 0.26761 0.214788 0.22275 0.222148
          0.0834431 0.0615568 0.120603 0.0754448 -0.0396448 -0.0421975
          -0.0431464 -0.010015 0.109555 0.085481 0.10082 0.0965191
          0.158421 0.215481 0.161268 0.271213 0.141147 0.153439
          0.124962 0.164468 0.0407461 0.0368505 0.0784527 0.0583685
          0.296722 0.243931 0.306307 0.304914 0.114044 0.0878253
          0.0908379 0.102378 0.18131 0.130792 0.147387 0.135703
          0.364544 0.240365 0.373022 0.27609 0.109254 0.112637
          0.120129 0.115624 0.126251 0.166124 0.163383 0.164177
          0.13533 0.189954 0.0808134 0.171272 0.12387 0.132045
          0.130132 0.114044 0.00156437 -0.0184737 -0.00896293 -0.00484605
          0.049462 0.0269824 0.045572 0.0640031 0.282294 0.298929
          0.31334 0.256007 -0.0036987 0.0846141 -0.00151333 -0.00991763
          0.0338639 0.00706416 0.0502169 0.0252408 0.0948582 0.0796746
          0.10082 0.109555 0.0894282 0.0908379 0.126251 0.114044
          0.0247822 0.00322887 0.0159097 0.0161469 0.10645 0.116094
          0.124448 0.0793457 0.12387 0.154929 0.128281 0.130132
          0.387982 0.381624 0.298245 0.379682 0.134692 0.103092
          0.162043 0.159365 0.251644 0.258775 0.282294 0.216996
          0.101095 0.0668794 0.0740493 0.0612522 0.10517 0.0984941
          0.0974886 0.09246 0.134593 0.147637 0.143208 0.0962148
          0.27609 0.280246 0.282707 0.240365 0.109724 0.118476
          0.118768 0.124799 0.137233 0.132045 0.159245 0.154852
          0.0871718 0.0603935 0.0970682 0.0571961 0.216996 0.148758
          0.201861 0.204595 0.18704 0.175681 0.138348 0.151141
          -0.0169867 0.0594662 -0.0211191 -0.00848475 -0.0390216 -0.00275804
          0.0157321 0.00402628 0.222064 0.174536 0.161148 0.146166
          0.0679743 0.0157321 0.0556986 0.0608181 0.24564 0.272881
          0.198685 0.247261 0.0865935 0.0742199 0.0855552 0.0805224
          0.130792 0.120205 0.124087 0.0970682 0.319563 0.316173
          0.262492 0.199691 0.0798418 0.0556986 0.0475774 0.10478
          0.0410239 0.0782603 0.0793457 0.0894282 0.0519335 0.102322
          -0.0213389 -0.0211191 0.134646 0.11977 0.12041 0.121298
          0.0508293 0.0567513 0.0931616 0.0695339 0.1297 0.155927
          0.137361 0.1544 0.0159457 0.0418506 0.0540152 0.0275312
          0.217678 0.165257 0.186477 0.268238 0.199466 0.137108
          0.185795 0.23391 0.0240896 0.0654843 0.0527092 0.0677674
          0.0567087 -0.0163625 0.045572 0.0437957 0.0444074 0.0442687
          0.0758985 0.0349748 -0.0343607 -0.0273646 0.00727071 -0.000947842
          0.0817732 0.0696074 0.0948104 0.0352309 0.0603776 0.073345
          0.0686171 0.0732646 0.0713689 0.134692 0.111056 0.141569
          -0.00804499 -0.00710968 0.0713689 0.0640984 0.131259 0.10645
          0.0878253 0.102378 0.336675 0.335373 0.339454 0.292096
          0.086844 -0.0209827 0.0540385 0.0437957 0.231423 0.209308
          0.18131 0.236316 -0.00275804 -0.0150094 0.0157321 0.0213185
          -0.0272993 0.0337169 -0.0211191 -0.0169867 0.0480306 0.0421184
          0.0970682 0.0352309 0.0125049 0.0252408 0.0444503 -0.000402004
          0.0449238 0.0359137 -0.0240479 -0.0199145 0.0463084 0.0423499
          0.0385235 0.063013 0.303862 0.298834 0.34366 0.272704
          0.123789 0.135072 0.182105 0.187876 0.267528 0.239744
          0.27609 0.35414 -0.0244421 -0.0209827 -0.0273946 0.0540385
          0.0245713 0.00270117 -0.0014031 -0.0152809 0.0581534 0.0410239
          0.0793457 0.0894282 0.168513 0.216313 0.251644 0.216996
          0.19211 0.189171 0.131645 0.134062 0.0801628 0.0885485
          0.109413 0.0998489 0.104713 0.1081 0.106885 0.107566
          0.264721 0.209054 0.254201 0.246243 -0.00559399 -0.00726708
          0.0689865 -0.0152553 0.303862 0.272704 0.331863 0.262492
          0.153746 0.137254 0.130566 0.133596 0.104248 0.106057
          0.111468 0.106077 0.155675 0.171681 0.175406 0.128141
          0.254645 0.239077 0.19211 0.189171 0.0418506 0.0407461
          0.00965275 0.0176904 0.0273608 0.0527092 0.0548873 0.0932756
          0.272434 0.177392 0.215632 0.216692 0.0424382 0.0327647
          0.0343041 0.0119736 -0.0357635 -0.0335928 -0.0254388 -0.0102802
          0.0887729 0.0359137 0.0449238 -0.0199145 0.00020316 0.00156437
          -0.00896293 0.016022 0.227347 0.167838 0.229906 0.173823
          0.0500145 0.0688902 0.120774 0.0689865 0.130862 0.115624
          0.125961 0.118662 0.164468 0.153439 0.124962 0.11098
          0.0918535 0.0751999 0.0608994 0.0862894 0.15353 0.177732
          0.152816 0.179652 0.169989 0.14422 0.18707 0.0967532
          0.0851486 0.060043 0.143321 0.0876554 0.158421 0.161268
          0.0887729 0.104946 -0.011625 0.0746714 -0.00848475 0.0091938
          -0.0209827 -0.0199145 -0.0273946 0.0540385 0.159365 0.25679
          0.198498 0.274803 0.364544 0.280246 0.282707 0.27609
          0.17999 0.212417 0.221318 0.276815 0.0338639 0.0667859
          0.0334735 0.0245713 0.0594662 0.0830577 0.12867 0.089927
          0.120603 0.15653 0.161751 0.102812 0.0863681 0.0977345
          0.073345 0.108133 0.110032 0.0979294 0.113639 0.0964633
          0.0481888 0.0444074 0.0670694 0.0510099 0.127413 0.114469
          0.0974886 0.10914 0.0998671 0.108992 0.112614 0.114543
          0.238454 0.293523 0.209017 0.297489 0.146871 0.156081
          0.150403 0.1297 0.0487702 0.0220256 0.046611 0.0385235
          0.0331346 0.00727071 0.00753595 0.0101504 0.209308 0.210773
          0.177732 0.179652 -0.0312485 0.00753595 0.00213241 0.0331346
          0.189171 0.160387 0.190515 0.19211 0.013461 0
          0 0.0425707 0.166592 0.145903 0.198685 0.137992
          0.00270117 0.0338639 -0.00603925 0.00706416 0.0705408 0.0896834
          0.0894282 0.0908379 0.0987851 0.145903 0.141182 0.117288
          -0.0169867 0.116441 0.0594662 -0.011625 0.264721 0.294293
          0.315774 0.262803 0.248309 0.189954 0.222461 0.179831
          0.303862 0.316173 0.319563 0.389693 0.359488 0.35414
          0.267607 0.28714 0.215481 0.149682 0.126597 0.161268
          0.1297 0.109555 0.123019 0.13511 0.25535 0.337898
          0.35358 0.344346 0.0737005 0.0441608 0.0425612 0.0450636
          0.0410239 0.0326146 0.0793457 0.0782603 0.222064 0.211651
          0.174536 0.146166 0.299471 0.247261 0.294293 0.289994
          0.168513 0.216996 0.251644 0.204595 0.0689447 0.0829969
          0.118728 0.120859 0.00213241 0.0327647 0.00691554 0.0419592
          0.0594662 0.089927 -0.0211191 0.0830577 0.171272 0.164032
          0.0846141 0.13533 0.107318 0.0987473 0.111468 0.101268
          0.00379622 0.00962742 0.0598204 0.0688967 0.0598204 0.00962742
          0.0919653 0.0688967 0.198685 0.24564 0.209922 0.272881
          0.228106 0.190515 0.246998 0.249159 0.201989 0.178795
          0.252053 0.266947 0.203477 0.180281 0.163709 0.197509
          0.0998489 0.109413 0.0801628 0.0992329 0.199466 0.23391
          0.306307 0.243931 0.290993 0.196146 0.302232 0.268238
          -0.0014031 0.0176904 -0.0152809 -0.0096781 0.0337389 0.100789
          0.00350164 0.0137284 0.0948104 0.124809 0.134062 0.0945674
          0.0161469 0.0274925 0.0247822 0.0275312 0.389693 0.386449
          0.384595 0.296192 0.296649 0.342939 0.378063 0.312824
          0.0410239 0.0481888 0.0135894 0.00408605 -0.000871435 -0.00603925
          0.00270117 0.0125049 0.302885 0.304914 0.240943 0.295685
          0.141147 0.0987851 0.115205 0.0838931 0.268238 0.302232
          0.224695 0.248601 0.243538 0.324155 0.243931 0.257162
          0.0439374 0.0742199 0.0715879 0.0648896 0.26761 0.284176
          0.256253 0.304568 -0.0355365 -0.0390216 0.00402628 -0.0405949
          0.268008 0.204595 0.201861 0.180715 0.247261 0.246243
          0.289994 0.254201 0.114044 0.119042 0.132045 0.137233
          0.227329 0.160387 0.190515 0.189171 0.317504 0.293221
          0.272272 0.224695 -0.0129988 0.0233769 -0.0116154 0.0150799
          0.209308 0.21932 0.231423 0.179763 0.296192 0.316074
          0.384595 0.290993 0.24751 0.117833 0.185822 0.185828
          0.185822 0.089927 0.102322 0.15877 0.162043 0.103092
          0.163956 0.159365 0.198498 0.219222 0.262343 0.159365
          -0.0417754 -0.0048344 0.00402628 -0.0405949 0.130792 0.152816
          0.15353 0.127413 0.049659 0.0410239 0.0535114 0.0172693
          -0.00710968 -0.00934244 0.0611862 -0.0157458 0.11472 0.128281
          0.112709 0.0979294 0.137254 0.110311 0.119123 0.118662
          0.261294 0.177392 0.216692 0.19211 0.114044 0.137233
          0.132045 0.130132 0.0701937 0.0261287 0.0657571 0.026183
          0.378097 0.300097 0.386422 0.345247 0.00069831 0.0303649
          0.0347523 0.0341126 0.137233 0.163383 0.159245 0.130132
          0.181436 0.27145 0.296649 0.252053 0.0594662 0.120286
          0.178795 0.12867 0.182741 0.215481 0.193616 0.251511
          0.328598 0.298834 0.27271 0.258085 0.0159457 0.0048109
          0.00965275 0.0275312 0.0439374 0.0271315 0.0559069 0.0398111
          0.109208 0.0876554 0.172426 0.143321 0.172426 0.143321
          0.209017 0.192891 0.172426 0.0876554 0.209017 0.143321
          0.0737005 0.0825549 0.130472 0.0975373 0.243538 0.324155
          0.337898 0.332187 -0.0116154 -0.00275804 -0.0048344 0.0171834
          0.109208 0.143321 0.172426 0.192891 0.0125049 0.0698431
          0.0450636 0.0444503 0.182105 0.200648 0.230788 0.199466
          0.130885 0.137117 0.0826533 0.167838 0.341816 0.341479
          0.289994 0.332879 0.0259847 -0.000402004 0.0491411 0.00022389
          0.0700909 0.150391 0.0846141 0.0808134 -0.0312485 0.00727071
          -0.0273646 0.0101504 -0.00310213 -0.0227859 0.00020316 -0.0270274
          0.27145 0.24719 0.293472 0.204122 0.31346 0.240943
          0.239664 0.302885 0 0 0 0.000235171
          0.0998571 0.102378 0.118801 0.0821186 0.0540152 0.0680056
          0.104426 0.0809459 -0.00896293 -0.0292533 -0.0116991 -0.0075844
          0.0590884 0.0701937 0.0817732 0.106478 0.10082 0.0865935
          0.104453 0.0923287 -0.0402609 -0.038764 -0.0410849 -0.00275804
          0.222148 0.214788 0.166592 0.209054 0.196146 0.100937
          0.100789 0.127105 0.22275 0.216442 0.250416 0.260994
          0.163842 0.161268 0.100967 0.0692071 0.118801 0.132045
          0.12387 0.0937691 0.0931616 0.108133 0.073345 0.105846
          0.0688902 -0.00726708 0.0991005 0.0689865 0.16371 0.190515
          0.122207 0.160387 0.127413 0.146871 0.150403 0.127146
          0.359488 0.297489 0.369769 0.368693 0.0188405 0.0508293
          0.0341126 0.0345143 0.209017 0.267607 0.15796 0.238454
          0.00020316 0.016022 0.021377 0.00765602 0.268238 0.272704
          0.186477 0.216483 0.171272 0.0595115 0.150391 0.156872
          0.109724 0.118768 0.11977 0.124799 0.296649 0.378063
          0.316074 0.378687 0.0737005 0.101464 0.130472 0.0825549
          0.0558778 0.0754783 0.0201388 -0.00151333 0.00405932 0.00220275
          0.00322887 0.0161469 0.0290398 0.021377 0.0126215 0.016022
          0.184437 0.156081 0.150403 0.146871 0.246243 0.262803
          0.294293 0.264721 0.0966303 0.0737005 0.0755101 0.101464
          0.164468 0.204595 0.216196 0.231761 0.0487007 0.0386203
          0.00727071 0.0101504 0.073427 0.0554554 0.074161 0.0885485
          0.152816 0.146871 0.150403 0.127413 0.0594662 0.178795
          0.120286 0.116441 -0.0014031 0.00553736 0.0188405 -0.0075844
          0.0334735 0.0540152 0.0667859 0.0751999 0.0581534 0.0410239
          0.0118425 0.0326146 -0.0421975 -0.00603925 -0.000871435 0.0125049
          0.282294 0.336045 0.298929 0.262572 -0.00896293 -0.0075844
          -0.0112473 -0.0347885 0.135072 0.135405 0.11452 0.177392
          -0.0211321 -0.00441511 -0.0292533 -0.0254388 0.387982 0.386449
          0.298245 0.381624 0.130792 0.135703 0.0817732 0.110675
          0.0974886 0.120205 0.0885485 0.0987772 0.185822 0.12867
          0.189954 0.102322 0.188102 0.205526 0.246998 0.190515
          0.100789 0.0337389 0.0433159 0.0137284 0.303862 0.260232
          0.316173 0.389693 -0.0272993 0.0519335 -0.0213389 -0.0211191
          0.086844 0.16095 0.135582 0.137752 0.00213241 0.00691554
          -0.0364058 0.0242242 0.120603 0.161751 0.123047 0.102812
          0.00069831 -0.0112473 0.0126215 0.0303649 0.123047 0.0834431
          0.0754448 0.084756 0.168288 0.120774 0.185682 0.14323
          0.289816 0.282294 0.251644 0.292096 0.258775 0.282294
          0.292096 0.251644 0.14323 0.173823 0.239664 0.204548
          0.0887729 0.0359137 0.126597 0.0583242 0.248601 0.209922
          0.272881 0.224695 0.329085 0.284176 0.304568 0.327232
          0.118528 0.0927891 0.150518 0.152768 0.182105 0.135072
          0.215632 0.187876 0.0832282 0.0850406 0.122749 0.0657571
          -0.0268066 -0.0276234 0.060929 0.019031 0.189171 0.21932
          0.179763 0.18131 0.164032 0.150391 0.237426 0.171272
          -0.0280384 -0.0182313 -0.00551033 -0.029149 0.0337169 0.089927
          -0.0211191 0.0594662 0.269623 0.237426 0.150391 0.222461
          0.203901 0.222064 0.161148 0.146166 0.0782603 0.0615418
          0.0228868 0.0406751 0.0734512 0.045572 -0.0124161 -0.0158773
          0.118801 0.114044 0.132045 0.0937691 0.131259 0.137233
          0.114044 0.10645 0.0863681 0.0508293 0.073345 0.0423499
          0.316173 0.260232 0.199691 0.271522 0.0480306 0.0817732
          0.0590884 0.0261287 0.0290398 0.0381607 0.0303649 0.021377
          0.0638979 0.0615568 0.0259847 0.0343041 0.24719 0.260233
          0.148895 0.181436 0.271522 0.248309 0.300097 0.301397
          0.15053 0.146166 0.1552 0.111359 0.138138 0.130566
          0.135136 0.120838 0.288612 0.239193 0.256621 0.222064
          0.0407461 0.00965275 0.0165473 0.0114538 -0.02311 -0.0308071
          -0.0309792 0.0327647 0.153439 0.141147 0.204595 0.216196
          0.164468 0.180715 0.204595 0.231761 0.0967532 0.168881
          0.115032 0.14422 0.177732 0.146871 0.150403 0.152816
          0.159421 0.118528 0.150518 0.152768 0.12962 0.11472
          0.12041 0.147899 0.0863681 0.0977345 0.0605018 0.073345
          0.154929 0.159944 0.128281 0.113639 0.359992 0.293472
          0.299233 0.272881 0.147899 0.159944 0.152257 0.128281
          0.272434 0.177392 0.216692 0.261294 0.272434 0.216692
          0.267948 0.261294 0.261294 0.19211 0.267948 0.254645
          0.0171833 0.0337169 0.0519335 -0.0272993 0.0188405 0.00553736
          0.0256855 -0.0075844 0.0732646 0.0508293 0.105846 0.0695339
          0.135072 0.0948509 0.0734512 0.0944564 0.256253 0.250416
          0.227293 0.284176 0.0943749 0.0674725 0.049198 0.0769836
          0.121685 0.112241 0.113746 0.107566 0.240365 0.239744
          0.267607 0.27609 0.0998671 0.110097 0.114543 0.112614
          0.0881059 0.102214 0.0984941 0.0925816 0.0647985 0.0665471
          0.0908379 0.0510099 -0.0036987 0.0846141 0.0558778 -0.00151333
          0.373022 0.298245 0.381656 0.381624 0.252053 0.381656
          0.293499 0.296192 0.205526 0.177392 0.272434 0.261294
          0.25535 0.337898 0.262343 0.35358 0.114044 0.0937691
          0.118801 0.102378 0.389693 0.386449 0.296192 0.316173
          0.0254341 0.0444074 0.0559069 0.0271315 0.137117 0.115975
          0.0919653 0.155675 0.130132 0.113639 0.0908379 0.0896834
          0.101199 0.0798418 0.0679743 0.0490511 0.247533 0.228849
          0.315243 0.267528 0.148758 0.115205 0.141147 0.115205
          0.0615568 0.0327647 0.0424382 0.0834431 0.132813 0.045572
          0.135582 0.0640031 -0.0431464 -0.00603925 0.00270117 -0.000871435
          0.0979294 0.12387 0.128281 0.113639 0.0817732 0.0480306
          0.0871718 0.0970682 0.0255033 0 0.0105776 0.013461
          0.0091938 0.0746714 0.0173037 0.0803818 -0.0388781 -0.0402609
          -0.0398427 -0.0116154 0.23391 0.149682 0.215481 0.163842
          0.267607 0.359488 0.369769 0.361653 0.102285 0.104248
          0.119576 0.106077 0.0598204 -0.00630596 0.00379622 0.000364435
          -0.0276234 -0.0227431 0.0939533 0.0443352 0.124799 0.148566
          0.12387 0.132045 0.146451 0.124087 0.160387 0.176831
          -0.0150094 0.00727071 -0.0360913 0.0157321 0.394862 0.319563
          0.316173 0.389693 0.199691 0.164032 0.190968 0.237426
          0.0769836 0.0772562 0.084756 0.120268 0.289994 0.254201
          0.332879 0.336675 0.0817732 0.0261287 0.0352309 0.0948104
          0.0974886 0.0970682 0.0885485 0.120205 0.220738 0.22275
          0.19409 0.165145 0.301397 0.248309 0.379682 0.378097
          0.217678 0.216196 0.27271 0.209525 0.0864608 0.0487007
          0.0311669 0.0406751 0.0975373 0.0862894 0.134593 0.0962148
          -0.02912 -0.00896293 -0.0112473 -0.0347885 -0.0169867 0.0594662
          -0.00848475 -0.011625 0.0311669 0.00753595 0.0331346 0.0689447
          0.177759 0.189171 0.147387 0.18131 0.00379622 0.0688967
          0.0598204 0.000364435 0.120177 0.102717 0.0792191 0.137992
          0.00156437 -0.00310213 0.00906148 0.00765602 0.254645 0.177759
          0.249124 0.189171 0.104713 0.106077 0.107566 0.0974821
          0.113901 0.147637 0.101176 0.0910404 0.219222 0.257162
          0.274803 0.243538 0.209017 0.143321 0.212417 0.192891
          0.0782603 0.108289 0.0615418 0.0864608 0.0801628 0.0973108
          0.0890549 0.076987 0.0101504 -0.0273646 -0.0180461 0.00138579
          0.369769 0.301397 0.378097 0.297489 0.104713 0.1081
          0.0925816 0.106885 0.0425612 0.0341126 0.0732646 0.0345143
          0.168513 0.222148 0.216313 0.216996 0.00270117 0.00706416
          -0.0152809 0.00486514 0.289816 0.272272 0.27271 0.35898
          0.0483354 0.0554554 0.0391397 0.0801628 -0.0228156 -0.0308071
          0.0327647 0.0119736 0.133888 0.124448 0.108289 0.16614
          0.389693 0.296192 0.260232 0.316173 0.045572 0.0269824
          -0.0206594 0.00474097 0.0540385 0.086844 0.0692071 0.137108
          0.0490511 0.0213185 0.0798418 0.0556986 0.0873117 0.0964633
          0.121768 0.0758985 0.130862 0.112396 0.120205 0.116074
          0.135405 0.148946 0.166592 0.137992 0.284969 0.289143
          0.258775 0.222148 0.0834431 0.0424382 0.084756 0.0769836
          0.0742199 0.0559069 0.0979294 0.0741411 0.237126 0.296192
          0.189954 0.198539 0.0647985 0.0254341 0.0559069 0.0742199
          0.180281 0.137254 0.145549 0.162 0.23391 0.315675
          0.243931 0.243538 0.0345143 0.0695339 0.0667859 0.0389648
          0.254201 0.198685 0.209054 0.216313 0.0150799 0.0425612
          0.00182056 0.0341126 0.0832282 0.0657571 0.122749 0.0919653
          0.220738 0.169989 0.22275 0.165145 0.209054 0.209269
          0.246243 0.262803 0.165145 0.0967532 0.131919 0.110551
          0.102285 0.0845377 0.0975384 0.0910021 -0.0390216 -0.00275804
          0.00402628 -0.0048344 0.102221 0.0979294 0.105112 0.0925113
          0.085481 0.0648896 0.0796746 0.0865935 0.153746 0.133596
          0.138138 0.164091 0.0885485 0.0801628 0.074161 0.0998489
          0.198539 0.178795 0.120286 0.12867 0.0558778 0.0846141
          0.164032 0.0754783 0.267948 0.171681 0.214694 0.19211
          0.204543 0.0994822 0.149682 0.137108 0.117288 0.141182
          0.137992 0.145903 0.197509 0.163709 0.15353 0.145549
          0.330875 0.284176 0.329085 0.327232 0.0500145 0.109529
          0.163956 0.120774 0.100967 0.192396 0.104946 0.161268
          0.000458692 0.0250181 0.0619518 0.0203376 0.127413 0.129565
          0.10914 0.130792 0.0770825 0.0871718 0.09246 0.0665122
          0.0277829 0.0157321 0.0508684 0.0556986 0.172426 0.209017
          0.238454 0.293523 0.0439374 0.0254341 0.0742199 0.0559069
          0.260232 0.198539 0.171272 0.271522 0.00402628 0.0125049
          0.0444503 -0.000402004 0.145798 0.205824 0.217441 0.190968
          0.163842 0.149682 0.215481 0.161268 0.293472 0.194109
          0.299233 0.24564 0.153914 0.101095 0.102717 0.154107
          0.0567087 0.0734512 0.137752 0.086844 0.0974886 0.0987772
          0.0885485 0.073427 0.262572 0.239193 0.274099 0.288612
          -0.0117722 -0.0118951 0.0851486 0.0876554 0.254201 0.284969
          0.216313 0.222148 0.272272 0.317504 0.35898 0.35665
          0.209017 0.248309 0.15796 0.267607 0.11452 0.131645
          0.122207 0.0816163 0.0808134 0.11408 0.0830577 -0.0160427
          0.130585 0.0994822 0.0887729 0.149682 0.0945674 0.0688967
          0.0919653 0.00962742 0.216483 0.268238 0.272704 0.298834
          0.11977 0.108096 0.11472 0.12041 0.178795 0.117833
          0.185822 0.24751 0.00379622 0.00962742 0.0919653 0.0598204
          0.110675 0.147387 0.135703 0.134062 0.0808134 0.13533
          0.0716709 0.0830577 0.0995078 0.107318 0.112614 0.108992
          0.267607 0.15796 0.179831 0.248309 -0.0417754 -0.0442204
          -0.0048344 0.0125049 0.12962 0.128281 0.147899 0.130675
          0.0983677 0.0910404 0.0975373 0.143208 0.358776 0.293523
          0.297489 0.368693 0.137233 0.131259 0.114044 0.119042
          0.0927891 0.118728 0.113901 0.118528 0.0406751 0.0101504
          0.0311669 0.00138579 0.25679 0.229061 0.331839 0.274803
          0.168513 0.145903 0.207948 0.141182 0.0638979 0.0615568
          0.0343041 0.0754448 0.120838 0.130566 0.135136 0.1144
          0.120838 0.1144 0.135136 0.111776 0.130566 0.109567
          0.1144 0.120838 -0.0129101 -0.0104375 -0.0183776 0.0276634
          -0.0129101 0.0257655 -0.0104375 0.0276634 0.0257655 0.030685
          -0.0104375 0.049198 0.0407461 0.0368505 0.0159097 0.0114538
          0.163956 0.159365 0.229061 0.162043 0.108162 0.141876
          0.0583965 0.0647625 0.120177 0.0792191 0.107034 0.137992
          0.19211 0.177759 0.214694 0.254645 0.0345143 0.0695339
          0.0825549 0.0667859 0.32407 0.315675 0.243538 0.324155
          0.114299 0.119576 0.118476 0.130971 0.00020316 0.0108895
          -0.00165095 -0.00441511 0.293472 0.24564 0.299233 0.272881
          0.045819 0.0182165 0.0274571 0.013461 0.201861 0.148758
          0.216996 0.174536 0.185124 0.28714 0.254682 0.25535
          0.0746342 0.0782603 0.0326146 0.0228868 0.101199 0.118528
          0.121041 0.0858781 0.0611862 0.103092 0.159365 0.100967
          0.0688902 0.109294 0.0991005 0.0567087 0.172295 0.14422
          0.185509 0.148946 0.101176 0.0989644 0.0623433 0.0910404
          0.0864608 0.0615418 0.0487007 0.0689447 0.150518 0.0966303
          0.144869 0.139728 0.0665471 0.0705408 0.0894282 0.0908379
          0.27609 0.185828 0.280246 0.240365 -0.0116991 -0.00165095
          0.00020316 0.0108895 0.276815 0.212417 0.297489 0.209017
          0.139728 0.101464 0.135107 0.130472 0.120603 0.0829969
          0.101176 0.0615568 0.104713 0.121298 0.1081 0.113746
          0.12041 0.116001 0.126913 0.113746 0.367966 0.293221
          0.349887 0.35665 0.0798418 0.0927891 0.0556986 0.0966303
          0.163842 0.23391 0.243538 0.215481 0.0276634 -0.0183776
          -0.02311 -0.0228156 0.154107 0.0612522 0.0896431 0.109382
          0.0157321 0.0508684 0.0556986 0.0608181 0.154866 0.101176
          0.152519 0.120603 0.0500145 0.120774 0.163956 0.103092
          0.0290398 0.0603776 0.0347523 0.0303649 0.110311 0.109567
          0.114991 0.103294 0.135582 0.137108 0.132813 0.199466
          0.319326 0.247533 0.315243 0.344461 0.00753595 0.0327647
          0.00213241 0.0419592 0.0979294 0.0855552 0.103554 0.105112
          0.179763 0.15353 0.147387 0.130792 0.063013 0.0423499
          0.0385235 0.0619345 0.296649 0.378063 0.378687 0.368553
          0.116094 0.124448 0.108289 0.133888 0.124087 0.124809
          0.176831 0.147387 -0.011625 0.0679001 0.0746714 0.0091938
          0.0948509 0.0688967 0.128141 0.11452 0.00553736 0.00182056
          -0.010015 0.0345143 -0.0387419 -0.0352411 -0.0112473 -0.0384657
          0.0450636 0.0338639 0.0698431 0.0125049 0.168288 0.185682
          0.204548 0.14323 0.163842 0.137108 0.16095 0.199466
          0.222064 0.239193 0.220738 0.262572 0.256253 0.227293
          0.24468 0.284176 0.247261 0.201574 0.246243 0.254201
          0.0832282 0.0377969 0.0657571 0.0116505 0.0764351 0.0654843
          0.0423568 0.0877043 0.00727071 0.0386203 0.0490511 0.0213185
          0.160387 0.19211 0.16371 0.190515 0.199691 0.198539
          0.13533 0.171272 0.120205 0.15353 0.127413 0.130792
          0.0173037 0.12824 0.100937 0.100789 0.0407461 0.0247822
          0.0114538 0.0159097 0.112472 0.114469 0.112637 0.120129
          0.191072 0.261623 0.214694 0.218704 -0.00896293 -0.00310213
          0.00020316 -0.0270274 0.260233 0.342939 0.296649 0.312824
          -0.0211321 -0.00310213 -0.00441511 0 0.120774 0.14323
          0.0688902 0.109529 0.102378 0.0937691 0.118801 0.0821186
          0.049462 -0.0244421 -0.0273946 0.0540385 -0.00991763 0.0808134
          -0.0101049 -0.0160427 0.264721 0.214788 0.256253 0.26761
          0.108096 0.102221 0.11472 0.105112 0.0826533 0.0832282
          0.124138 0.0638506 0.262803 0.214788 0.256253 0.264721
          -0.0273646 0.00753595 -0.02311 -0.0309792 0.262803 0.256253
          0.315774 0.264721 0.0881059 0.0984941 0.10517 0.09246
          0.00562483 0 0 0 0.0925113 0.0855552
          0.105112 0.097403 0.282294 0.256007 0.31334 0.254847
          0.227329 0.21932 0.203477 0.176831 0.0500145 -0.00726708
          0.0689865 -0.00559399 -0.0390216 -0.0048344 0.00402628 -0.0417754
          0.110055 0.133529 0.120268 0.130047 0.11472 0.145529
          0.12041 0.147899 0.0418506 0.0540152 0.0176904 0.0159457
          0.198498 0.262343 0.213365 0.192396 0.165688 0.179831
          0.15796 0.102322 0.00965275 0.0161469 0.0247822 0.0275312
          0.270051 0.251511 0.271852 0.314985 0.247533 0.254682
          0.319326 0.262653 0.102285 0.106363 0.119576 0.104248
          0.0500145 -0.00726708 0.0688902 0.0689865 0.315675 0.23391
          0.314985 0.251511 0.117833 0.12867 0.0594662 0.178795
          0.272272 0.298834 0.35898 0.317504 0.298834 0.371492
          0.35898 0.317504 0.189171 0.21932 0.176831 0.179763
          0.0391397 0.0728637 0.0246036 0.0654843 -0.0143431 -0.0152553
          0.0692071 -0.0199145 0.198498 0.159365 0.192396 0.141569
          0.0737005 0.0450636 0.0975373 0.0983677 0.0974821 0.112396
          0.0987772 0.0998489 0.118476 0.119576 0.13808 0.130971
          0.0391397 0.0246036 0.0240896 0.0654843 0.246998 0.205526
          0.264155 0.262565 0.0967532 0.111699 0.148946 0.14422
          0.214788 0.222148 0.26761 0.264721 0.0979294 0.0873117
          0.110032 0.112709 0.124448 0.0894282 0.114044 0.10645
          0.129355 0.0992329 0.119123 0.114991 0.023489 0.0540385
          0.0359137 0.0887729 0.198539 0.252053 0.316074 0.290993
          0.00379622 0.00962742 0.0688967 0.000364435 0.222148 0.166592
          0.214788 0.149803 0.204595 0.251644 0.216313 0.216196
          0.153439 0.204595 0.168513 0.216196 0.0850406 0.125164
          0.122749 0.0657571 0.109413 0.119123 0.120205 0.137254
          0.134646 0.12041 0.126913 0.121298 0.214788 0.209269
          0.264721 0.262803 0.0266702 0.0331346 0.0419592 0.0608181
          0.25679 0.323171 0.331839 0.229061 0.0793457 0.0746342
          0.0782603 0.0326146 0.00069831 -0.0112473 0.0303649 -0.00895024
          0.172727 0.0467083 0.0939533 0.15796 0.154852 0.131259
          0.137233 0.119042 0.0535114 0.0665471 0.0647985 0.0510099
          0.216196 0.209525 0.164468 0.231761 0.110055 0.121678
          0.126251 0.0896834 0.0927891 0.0508684 0.0983677 0.113901
          0.133475 0.101095 0.12824 0.149244 0.0481888 0.0670694
          0.0674725 0.0896834 0.166017 0.134573 0.137254 0.129355
          0.0970682 0.0421184 0.0728637 0.0696074 0.204122 0.149244
          0.133475 0.12824 0.0165473 -0.0075844 -0.0102802 -0.0014031
          -0.010015 -0.0431464 -0.042216 0.00270117 0.172426 0.163459
          0.141569 0.213365 0.196146 0.198539 0.260232 0.290993
          0.107566 0.106057 0.108992 0.115624 0.389693 0.296192
          0.384595 0.260232 0.123047 0.0834431 0.120603 0.0754448
          0.216692 0.213557 0.287792 0.285631 0.0770825 0.0974886
          0.09246 0.0871718 0.27609 0.240365 0.373022 0.361653
          0.0715661 0.0463084 0.0487702 0.063013 0.0611862 0.0583242
          -0.0123321 -0.0157458 0.132605 0.16614 0.166124 0.164565
          0.185124 0.165241 0.239744 0.172727 0.111468 0.114294
          0.106077 0.107566 0.0439374 0.0659989 0.0742199 0.0553065
          0.060929 -0.0276234 0.0443352 0.019031 0.0982184 0.15877
          0.116016 0.060929 0.0487702 0.0292423 0.0220256 0.0463084
          0.32407 0.215481 0.271213 0.243538 0.112241 0.118768
          0.121685 0.11977 0.121298 0.11977 0.12041 0.113746
          0.12041 0.11977 0.145529 0.11472 0.114294 0.125346
          0.121685 0.118768 0.165241 0.0939533 0.185124 0.126597
          0.165241 0.0939533 0.172727 0.185124 0.0705408 0.0481888
          0.0908379 0.0665471 0.272272 0.224695 0.207948 0.216196
          0.201861 0.15053 0.148758 0.174536 0.219222 0.274803
          0.262343 0.337898 0.351348 0.299233 0.299471 0.272881
          0.175681 0.146451 0.134573 0.138348 0.132045 0.114044
          0.12387 0.0937691 0.064645 0.0283937 0.049659 0.0535114
          0.0998671 0.0948582 0.110097 0.112614 0 0.00562483
          0 0 0.227329 0.19211 0.23316 0.239077
          0.271522 0.301397 0.379682 0.298245 -0.010015 -0.0396448
          -0.000871435 0.00182056 -0.0386929 -0.042216 -0.0383281 -0.0152809
          0.122016 0.13808 0.118476 0.118801 0.11472 0.124799
          0.12387 0.102221 0.172754 0.137254 0.153746 0.164091
          0.0590884 0.0261287 0.0701937 0.026183 0.224695 0.154107
          0.248601 0.209922 0.154852 0.119042 0.149308 0.131259
          0.0638506 0.115975 0.0882954 0.0598204 0.00765602 0.00906148
          0.0210138 0 0.215481 0.126597 0.193616 0.158421
          -0.0152809 -0.0438624 -0.0255505 0.00270117 0.0647625 0.153439
          0.141876 0.0838931 0.089927 0.102322 -0.0211191 0.0830577
          0.24719 0.194109 0.299233 0.293472 0.324902 0.271522
          0.237426 0.269623 0.108162 0.0647625 0.0583965 0.0433159
          0.239664 0.227347 0.229906 0.173823 0.0311669 -0.0273646
          -0.0202432 0.0101504 0.116441 0.148895 0.178795 0.181436
          0.12041 0.103554 0.12962 0.116001 0.0720016 -0.0249977
          -0.0153192 0.0359137 0.145549 0.112396 0.137254 0.120205
          0.109382 0.100789 0.0433159 0.108162 0.173823 0.130885
          0.137117 0.0882954 0.0832282 0.0377969 0.0850406 0.0657571
          0.0843502 0.109413 0.0764351 0.0877043 0.152816 0.150403
          0.15353 0.127413 0.0171834 -0.000871435 -0.0116154 0.00182056
          0.118528 0.114861 0.150518 0.0927891 0.0257655 0.0481888
          0.0410239 0.00408605 0.101176 0.0638979 0.102812 0.0615568
          0.285884 0.35665 0.272272 0.35012 0.351746 0.35898
          0.27271 0.328598 0.154866 0.152768 0.113901 0.160203
          0.0853375 0.073082 0.0859557 0.0876484 -0.000871435 -0.0421975
          -0.0048344 -0.0116154 0 0 0 0.0062396
          0.069771 0.0386203 0.0858781 0.0487007 0.198685 0.145903
          0.154107 0.137992 -0.0116154 -0.000871435 -0.0398427 0.00182056
          0.282707 0.237126 0.293499 0.298245 0.243931 0.163842
          0.199466 0.23391 0.185822 0.15877 0.179831 0.240365
          0.201861 0.211651 0.174536 0.216996 0.35414 0.239744
          0.27609 0.361653 0.0540152 0.0245713 0.0680056 0.0389648
          0.0689447 0.0829969 0.102925 0.118728 0.0713689 0.111056
          0.0640984 0.141569 0.158421 0.185124 0.271213 0.25535
          -0.000402004 0.0252408 0.0444503 0.00022389 0.120774 0.168288
          0.163956 0.159365 0.332017 0.26761 0.330412 0.329085
          0.00069831 -0.0264292 -0.00895024 0.0150799 0.239744 0.165688
          0.240365 0.267607 0.0611862 0.159365 0.141569 0.100967
          0.0948582 0.0796746 0.0998671 0.10082 -0.0357635 -0.0254388
          -0.0292533 -0.0116991 0.00156437 -0.0184737 -0.00310213 -0.00896293
          0.106311 0.111699 0.148946 0.0967532 0.0101504 0.0487007
          0.0331346 0.00727071 -0.0163625 -0.0152553 0.0437957 -0.00726708
          0.0793457 0.116094 0.0782603 0.0746342 0.0276634 0.0327647
          0.0558022 0.0249799 0.179831 0.248309 0.209017 0.17999
          -0.0384657 0.00553736 -0.010015 -0.0075844 0.0303649 0.0423499
          0.0508293 0.0256855 0.0105776 0 0.0255033 0.0311991
          0.00553736 -0.010015 0.0188405 0.0345143 0.177392 0.128141
          0.175406 0.171681 0.177759 0.153324 0.182702 0.135703
          0.389693 0.386449 0.316173 0.387982 0.0519335 0.089927
          0.102322 -0.0211191 0.0389648 0.0540152 0.0245713 0.0418506
          0.0359137 0.0540385 -0.0258321 0.0887729 0.137233 0.119042
          0.132045 0.154852 -0.02311 -0.0308071 0.0327647 -0.0228156
          0.0437957 -0.0209827 0.0540385 0.0692071 0.164565 0.160203
          0.122055 0.102925 0.197509 0.163709 0.145549 0.180281
          0.217678 0.165257 0.268238 0.224695 0.0337389 0.100937
          0.00350164 0.100789 0.0487702 0.0463084 0.0385235 0.063013
          0.114543 0.123019 0.113683 0.120129 0.141147 0.204595
          0.180715 0.148758 0.272434 0.216692 0.279438 0.285631
          0.0653537 0.064645 0.0808666 0.0914105 0.364544 0.27609
          0.282707 0.240365 0.181436 0.296649 0.201989 0.252053
          0.0527092 0.0654843 0.0816163 0.0677674 0.111468 0.103987
          0.104386 0.114299 -0.0355365 0.0157321 0.00213241 0.0266702
          0.0261287 0.0170272 0.0657571 0.00962742 0.137117 0.155675
          0.229906 0.175406 0.124962 0.141147 0.0838931 0.11098
          0.0583685 0.0514059 0.0407461 0.0303638 0.122749 0.125164
          0.155675 0.0919653 0.228849 0.116016 0.239777 0.165688
          -0.0158773 0.0734512 0.0202828 0.0508163 0.126597 0.165241
          0.0799235 0.161857 0.0337951 0.0283937 0.0535114 0.0172693
          0.0274571 0.0182165 0.0220256 0.013461 0.0686171 0.0603776
          0.110093 0.073345 0.114469 0.106885 0.109254 0.0984941
          0.282707 0.298245 0.293499 0.376057 0.378097 0.297489
          0.345247 0.368693 0.0337169 0.117833 0.0594662 -0.0169867
          0.153746 0.137741 0.135136 0.130566 -0.0390216 -0.0417754
          0.00402628 -0.0405949 0.0907144 0.127105 0.108162 0.0201388
          0.0311669 0.0487007 0.0331346 0.0101504 0.28714 0.344461
          0.254682 0.344346 0.0418506 0.0540152 0.0245713 0.0176904
          0.0385235 0.0220256 0.046611 0.045819 0.267528 0.165241
          0.239744 0.185124 0.0881059 0.102214 0.10517 0.0984941
          -0.0383281 -0.042216 -0.0295031 -0.0152809 0.180281 0.172754
          0.137254 0.162 0.0925113 0.105112 0.107431 0.0865935
          0.0269824 -0.0206594 -0.026268 -0.0244421 0.110055 0.122055
          0.132605 0.120859 0.130132 0.163383 0.159245 0.164177
          0.049659 0.0118425 0.0172693 0.0283937 0.0890549 0.0998489
          0.0801628 0.0992329 0.0535114 0.0410239 0.0135894 0.0172693
          0.0966303 0.10478 0.135107 0.101464 0.270051 0.204543
          0.251511 0.23391 0.0508293 0.073345 0.0732646 0.105846
          0.0116505 0.00962742 0.0919653 0.00379622 0.332017 0.289143
          0.336045 0.335373 0.133529 0.165818 0.110055 0.165496
          0.110055 0.165818 0.133529 0.130047 0.184437 0.171264
          0.209308 0.15353 0.0275312 0.0247822 0.00965275 0.0418506
          0.106311 0.0967532 0.148946 0.0967532 0.216196 0.204595
          0.251644 0.231761 0.203901 0.146166 0.145882 0.1552
          0.0556986 0.0966303 0.0475774 0.10478 0.0819398 0.0512157
          0.0853375 0.073082 0.303862 0.268238 0.298834 0.272704
          0.0885485 0.120205 0.109413 0.0998489 0.359992 0.293472
          0.272881 0.293221 0.0819398 0.0853375 0.0982553 0.0864786
          0.0481888 0.0674725 0.049198 0.0896834 0.0410239 0.0705408
          0.0894282 0.0665471 0.315148 0.227347 0.279336 0.239664
          0.272272 0.217678 0.224695 0.216196 0.131919 0.165145
          0.11299 0.161148 0.330875 0.26761 0.329085 0.284176
          0.23391 0.137108 0.149682 0.163842 0.0679743 0.0608181
          0.0556986 0.0927891 0.146533 0.124448 0.131259 0.10645
          0.378097 0.300097 0.345247 0.297489 0.18131 0.15353
          0.179763 0.130792 0.0368505 0.0425707 0.013461 0.045819
          0.289816 0.341624 0.268008 0.282294 0.188102 0.139514
          0.176877 0.16371 0.246998 0.205526 0.262565 0.249159
          0.0979294 0.128281 0.112709 0.110032 0.0540152 0.0418506
          0.0809459 0.0452555 0.0746714 0.100937 0.0173037 0.12824
          0.0654843 0.0677674 0.0423568 0.0877043 0.25679 0.331839
          0.313974 0.274803 0.0337169 0.0982184 0.089927 0.117833
          0.113901 0.0910404 0.101176 0.0829969 0.239744 0.165688
          0.267607 0.15796 0.132605 0.108289 0.122055 0.0801865
          0.134062 0.0948104 0.125164 0.135703 0.336675 0.284969
          0.330412 0.335373 0.0640984 0.039149 -0.0095751 0.0635172
          0.0689447 0.0829969 0.0327647 0.0419592 0.00020316 0.00562483
          0.00765602 0.0108895 0.049462 0.137108 0.0540385 0.0994822
          0.0695339 0.0567513 0.0931616 0.0954823 0.141147 0.115205
          0.107308 0.0838931 0.0992901 0.0992901 0.106761 0.111359
          0.0311669 0.0276634 -0.0202432 0.00753595 0.163842 0.0887729
          0.149682 0.161268 -0.0308071 -0.0144376 0.00691554 0.0119736
          0.0830577 0.11408 0.179831 0.102322 0.15353 0.120205
          0.130862 0.145549 0.300097 0.222461 0.221318 0.276815
          0.0290398 0.0303649 0.0605018 0.0603776 0.127413 0.150403
          0.15353 0.130862 0.0887729 0.0449238 0.0359137 0.0583242
          0.0742199 0.0553065 0.0865935 0.0648896 0.268238 0.317504
          0.272272 0.224695 0.12962 0.11472 0.128281 0.112709
          0.189171 0.176831 0.147387 0.179763 -0.00896293 -0.0116991
          0.00020316 -0.0075844 -0.0272993 0.0337169 0.0519335 0.089927
          0.100967 0.0692071 0.0887729 0.0449238 0.104664 0.107318
          0.111468 0.104248 0.129355 0.130566 0.137254 0.133596
          0.129355 0.114991 0.137254 0.130566 0.0483354 0.074161
          0.0801628 0.076987 0.0118425 -0.00751634 0.0326146 -0.00694388
          0.101268 0.0836865 0.102221 0.0925113 0.188102 0.190515
          0.176877 0.205526 -0.0390216 -0.00275804 -0.0048344 -0.0417754
          -0.0213389 -0.0209697 0.0689063 -0.0268066 0.0667859 0.0608994
          0.0862894 0.0338639 0.378687 0.290993 0.302232 0.380329
          0.0817732 0.0871718 0.0821075 0.117983 0.100967 0.159365
          0.192396 0.161268 0.106885 0.112644 0.110326 0.112472
          0.0337951 0.0172693 0.0535114 0.0270565 0.158504 0.186477
          0.205824 0.216483 -0.00726708 0.0500145 0.0688902 -0.000573831
          0.0638506 0.0882954 0.115975 0.137117 0.119042 0.0845509
          0.102378 0.0828441 0.177759 0.189171 0.18131 0.231423
          0.01461 0.0764155 0.0273608 0.0548873 0.177759 0.135703
          0.125164 0.153324 0.220738 0.22275 0.233002 0.19409
          0.22275 0.216442 0.233002 0.19409 0.216692 0.177392
          0.215632 0.182105 0.0715879 0.0480688 0.0683278 0.0859557
          0.0659989 0.0805224 0.0742199 0.0553065 0.0817732 0.110675
          0.0948104 0.0696074 0.257162 0.323171 0.331839 0.324155
          0.0558022 0.0769836 0.0834431 0.110055 0.0876554 0.0467083
          0.0689063 -0.0155251 0.163956 0.185682 0.229061 0.168288
          0.316074 0.378063 0.384595 0.378687 0.0157321 0.00727071
          0.0490511 0.0213185 0.252053 0.293499 0.237126 0.296192
          0.0825549 0.11946 0.126891 0.112393 0.231761 0.204595
          0.268008 0.180715 0.0331346 0.0679743 0.0608181 0.0157321
          0.0364287 0.0832282 0.0638506 0.0116505 0.0556986 0.0983677
          0.0737005 0.0966303 0.112472 0.120129 0.112637 0.119565
          0.239744 0.15796 0.267607 0.172727 0.0720016 0.126597
          0.161857 0.182741 0.130585 0.126597 0.0720016 0.182741
          -0.0209827 -0.0199145 0.0540385 0.0692071 0.109413 0.117073
          0.0877043 0.0843502 0.0150799 0.0458732 0.0425612 0.0347523
          0.285631 0.292862 0.216692 0.213557 -0.0048344 -0.0421975
          -0.0410849 -0.0116154 0.162043 0.25679 0.198498 0.159365
          0.0257655 0.049198 0.0276634 0.0801865 0.049462 0.0269824
          -0.026268 -0.0244421 0.289816 0.285884 0.292096 0.251644
          0 0.0105776 0 0.0062396 0.100508 0.111776
          0.1144 0.107518 0.378687 0.302232 0.370712 0.380329
          0.169989 0.0967532 0.14422 0.0967532 0.0176904 -0.0096781
          0.0048109 0.0159457 0.112709 0.128281 0.130675 0.110032
          0.120129 0.1297 0.119565 0.127146 -0.0157458 0.0583242
          -0.0171148 -0.0240479 0.165257 0.186567 0.268238 0.224695
          0.0746342 0.0864608 0.0782603 0.0615418 0.0368281 -0.00659978
          -0.0126592 0.0249799 0.0603935 0.0970682 0.0885485 0.0871718
          0.086844 0.0567087 0.0437957 0.0991005 0.0623433 0.0910404
          0.0491411 0.0444503 0.280246 0.185828 0.24751 0.282707
          0.293875 0.227347 0.315148 0.239664 0.159365 0.168288
          0.229061 0.219222 -0.0384657 -0.0112473 -0.0075844 -0.0347885
          0.113639 0.121678 0.134357 0.0964633 0.0742199 0.0670694
          0.0979294 0.0559069 0.200648 0.135582 0.199466 0.182105
          0.0381607 0.0292423 0.021377 0.016022 0.0481888 0.000362789
          0.0129194 0.00408605 -0.0209697 -0.0227431 0.0467083 -0.0276234
          0.276815 0.269623 0.300097 0.345247 -0.0386929 -0.0396448
          -0.042216 -0.010015 0.168513 0.251644 0.216313 0.204595
          0.198685 0.200281 0.247261 0.201574 0.0583965 0.0647625
          0.141876 0.0838931 0.0590884 0.0261287 0.0817732 0.0701937
          0.0176904 0.0188405 0.0389648 0.0165473 0.32407 0.271213
          0.332187 0.243538 0.271213 0.161268 0.219222 0.243538
          -0.038764 -0.0150094 -0.00275804 0.0213185 0.213365 0.25535
          0.35358 0.238454 0.165557 0.164177 0.16549 0.121678
          0.134357 0.121678 0.113639 0.130132 -0.0343607 0.00727071
          -0.0360913 -0.0150094 -0.0343607 -0.0273646 -0.0360913 0.00727071
          0 0.0220256 0 0 0.103294 0.0973108
          0.110311 0.106057 0.247261 0.201574 0.254201 0.198685
          0.0487702 0.0523025 0.046611 0.0220256 0.0277829 -0.00275804
          0.0171834 -0.0048344 0.0862894 0.0608994 0.0698431 0.0338639
          0.269623 0.300097 0.271522 0.222461 0.0535114 0.0821186
          0.0653537 0.0647985 0.198685 0.137992 0.153914 0.156753
          0.122055 0.163356 0.133888 0.164565 0.27145 0.296649
          0.378687 0.368553 0.28714 0.344346 0.359488 0.35414
          0.0667859 0.0680056 0.0695339 0.112393 0.364544 0.280246
          0.366693 0.282707 0.117073 0.0992329 0.109413 0.119123
          0.181436 0.260233 0.201989 0.296649 0.161268 0.0887729
          0.100967 0.0692071 0.26761 0.260994 0.330875 0.289143
          0.0720016 -0.0153192 0.0799235 0.0443352 0.130862 0.118662
          0.125961 0.137741 0.158504 0.0907144 0.108162 0.107324
          0.00213241 0.0419592 0.0242242 0.0266702 0.12824 0.109382
          0.186567 0.100789 0.216692 0.214694 0.229906 0.280167
          0.161268 0.0887729 0.126597 0.158421 0.387982 0.316173
          0.392529 0.271522 0.316173 0.296192 0.271522 0.387982
          0.0987473 0.109724 0.111468 0.101268 0.214788 0.172295
          0.185509 0.169989 0.0608994 0.0698431 0.0502169 0.0862894
          0.0176904 0.0540152 0.0245713 0.0159457 0.0525426 0.0337389
          0.0433159 0.100789 0.219222 0.337898 0.25535 0.243538
          0.30514 0.279336 0.280167 0.229906 0.284176 0.24468
          0.256253 0.304568 0.185509 0.14422 0.18707 0.169989
          0.153914 0.209922 0.133475 0.154107 0.166592 0.145903
          0.207948 0.198685 0.329085 0.264721 0.315774 0.304568
          0.0918535 0.0751999 0.0862894 0.120583 0.0907144 0.0201388
          0.108162 0.0388664 0.108162 0.0201388 0.0433159 0.0388664
          0.122016 0.130971 0.13808 0.149308 0.174536 0.146166
          0.165145 0.161148 -0.0357635 -0.0014031 -0.0102802 -0.0075844
          0.165557 0.165145 0.157734 0.133529 0.128141 0.0919653
          0.0945674 0.0688967 0.00553736 0.0126215 0.0256855 -0.0075844
          0.0603935 0.0421184 0.0728637 0.0970682 0.204122 0.12824
          0.133475 0.101095 -0.0308071 -0.0144376 0.0119736 -0.0113336
          0.303862 0.380329 0.317504 0.268238 0.158421 0.161268
          0.192396 0.25535 0.112396 0.106057 0.115624 0.118662
          0.197509 0.163709 0.176831 0.179763 0.129565 0.130792
          0.117983 0.0970682 0.0352309 0.0421184 0.0696074 0.0237723
          0.175406 0.155675 0.229906 0.214694 0.0512157 0.064645
          0.0808666 0.0653537 0.267528 0.35414 0.27609 0.352832
          0.0862894 0.0698431 0.0502169 0.0962148 0.152768 0.0927891
          0.150518 0.145402 0.31346 0.304914 0.240943 0.302885
          -0.0129988 4.09269e-05 -0.0116154 0.0233769 0.0811874 0.0514059
          0.0556279 0.0452555 -0.0357635 -0.0116991 -0.0292533 -0.0075844
          0.296192 0.381656 0.384595 0.316074 0.216996 0.211651
          0.174536 0.222064 0.130792 0.124087 0.110675 0.0970682
          0.0483354 0.074161 0.0554554 0.0801628 0.135582 0.0734512
          0.182105 0.135072 -0.00659978 -0.0228156 -0.0126592 0.0249799
          0.0615568 0.0689447 0.0829969 0.0327647 0.16095 0.199466
          0.230788 0.240943 0.0188405 0.0165473 0.0256855 0.0389648
          0.182702 0.117983 0.135703 0.153324 0.25679 0.274803
          0.313974 0.262343 0.107566 0.106077 0.106057 0.0974821
          0.26761 0.256253 0.264721 0.304568 0.107318 0.111468
          0.106057 0.112241 0.132605 0.0801865 0.122055 0.073581
          0.0182165 0.0220256 0 0 0.0176904 0.00486514
          -0.0152809 -0.0096781 0.332879 0.294293 0.315774 0.330412
          0.25679 0.293875 0.331839 0.323171 0.290993 0.268238
          0.302232 0.380329 0.0487702 0.0523025 0.0220256 0.0316418
          0.201861 0.15053 0.143039 0.148758 -0.0211321 -0.0227859
          -0.00441511 -0.00310213 0.12387 0.130132 0.113639 0.0908379
          0.203477 0.166017 0.146451 0.163709 0.154852 0.119042
          0.118801 0.149308 0.030685 -0.00345285 -0.0126592 0.0368281
          0.204543 0.137108 0.149682 0.23391 0.0391397 0.0654843
          0.0423568 0.0764351 0.0667859 0.0680056 0.112393 0.104426
          0.069771 0.121041 0.116094 0.0864608 0.0754783 0.13533
          0.0808134 0.0846141 0.231423 0.218704 0.18131 0.249124
          0.351746 0.35012 0.289816 0.35898 0.199691 0.13533
          0.127105 0.0754783 0.209054 0.246243 0.201574 0.254201
          0.209054 0.209269 0.201574 0.246243 -0.000871435 -0.0421975
          -0.0116154 -0.0398427 0.260232 0.198539 0.13533 0.199691
          0.319563 0.199691 0.262492 0.237426 0.199691 0.217441
          0.262492 0.190968 0.112396 0.120205 0.0987772 0.0998489
          0.14422 0.115032 0.190655 0.168881 0.186477 0.127105
          0.145798 0.217441 0.200648 0.132813 0.199466 0.135582
          0.172727 0.0939533 0.158421 0.185124 0.27609 0.239744
          0.267607 0.361653 0.27609 0.165688 0.240365 0.239744
          0.0829969 0.120603 0.118728 0.120859 0.00020316 0.00765602
          0.021377 0.0108895 0.00020316 0.0126215 0.0108895 0.021377
          0.0667859 0.0862894 0.0698431 0.0338639 0.123047 0.130047
          0.120603 0.0834431 0.113901 0.118728 0.160203 0.152768
          0.0525426 0.0433159 0.0647625 0.109382 0.0679743 0.00727071
          0.0490511 0.0157321 0.239664 0.173823 0.213557 0.240943
          0.289143 0.274099 0.262572 0.220738 0.251013 0.200648
          0.199466 0.256875 -0.00165095 -0.0102802 -0.00551033 0.00965275
          0.163842 0.0887729 0.161268 0.0692071 0.198539 0.196146
          0.181436 0.252053 0.135136 0.111776 0.1144 0.100508
          0.0311669 0.0276634 0.0689447 0.073581 0.180281 0.166017
          0.163709 0.137254 0.0808134 0.189954 0.0830577 0.11408
          0.073581 0.102925 0.0864608 0.122055 0.0647985 0.0439374
          0.0742199 0.0715879 0.175681 0.146451 0.138348 0.128315
          0.120286 0.198539 0.181436 0.252053 0.146166 0.174536
          0.15053 0.1552 -0.038764 -0.0360913 -0.0390216 -0.0150094
          0.0410239 0.0326146 0.0518296 0.0228868 0.251013 0.256875
          0.199466 0.29657 0.308147 0.282294 0.31334 0.254847
          0.137361 0.118368 0.138658 0.125961 0.124962 0.141147
          0.180715 0.143039 0.0458732 0.0347523 0.0686171 0.0425612
          0.0887729 0.0583242 0.126597 0.158421 0.186477 0.145798
          0.205824 0.217441 0.0137284 0.0754783 0.100937 0.0716709
          0.115205 0.165145 0.0992901 0.110551 0.101268 0.112241
          0.111468 0.108992 0.0885485 0.0554554 0.074161 0.0801628
          0.272272 0.285884 0.216196 0.207948 0.126597 0.0443352
          0.0799235 0.0939533 -0.0112473 -0.00896293 -0.00484605 0.0126215
          0.0217851 0.0500145 0.103092 0.0689865 0.112637 0.108992
          0.107431 0.114543 0.102717 0.0668794 0.0740493 0.101095
          0.137254 0.119123 0.110311 0.130566 0.248309 0.209017
          0.297489 0.267607 -0.0152553 0.0692071 -0.0209827 0.0437957
          0.131259 0.0878253 0.114044 0.102378 0.0583242 0.0467083
          0.0939533 0.100178 0.112614 0.102143 0.110097 0.118368
          0.145798 0.127105 0.158504 0.0907144 0.0640984 -0.00710968
          0.0713689 0.0611862 0.11977 0.136736 0.145529 0.124799
          0.0770825 0.0603935 0.0974886 0.0871718 0.060929 0.019031
          0.116016 0.0171833 0.122016 0.149308 0.13808 0.118801
          0.122016 0.149308 0.118801 0.119042 0.100508 0.107518
          0.1144 0.0864786 0.160002 0.164278 0.163383 0.137233
          0.109724 0.118801 0.124799 0.102221 0.00270117 0.00706416
          0.00486514 0.0245713 0.297489 0.276815 0.345247 0.279083
          0.0171834 -0.000871435 0.0450636 -0.0048344 0.341816 0.299471
          0.289994 0.272881 0.25679 0.293875 0.323171 0.237712
          0.18131 0.209308 0.179763 0.179652 0.207948 0.154107
          0.224695 0.209922 -0.0273646 0.00753595 -0.0309792 -0.0312485
          0.00727071 -0.0312485 -0.0355365 0.00213241 0.172727 0.100178
          0.0939533 0.0467083 0.341479 0.289994 0.332879 0.336675
          -0.0357635 -0.0386929 -0.0383281 -0.0014031 0.120286 0.196146
          0.181436 0.198539 0.0245713 0.00270117 -0.0152809 0.00486514
          0.0754783 0.0846141 0.164032 0.13533 0.312824 0.378063
          0.296649 0.368553 0.116441 0.178795 0.120286 0.181436
          0.0994822 0.023489 0.0359137 0.0887729 0.0535114 0.0510099
          0.0647985 0.0270565 0.189954 0.248309 0.271522 0.298245
          0.109208 0.111056 0.172426 0.0635172 0.132605 0.120859
          0.130047 0.110055 -0.0402609 4.09269e-05 -0.00275804 -0.0116154
          0.0764155 0.11452 0.135405 0.0932756 0.0277829 0.0450636
          0.0508684 0.00402628 0.0188405 0.0256855 0.0508293 0.0389648
          0.0769836 0.0772562 0.120268 0.0943749 0.222148 0.216313
          0.149803 0.168513 0.0615568 0.0638979 0.102812 0.0754448
          0.248309 0.276815 0.300097 0.297489 -0.0272993 0.089927
          0.0519335 -0.0211191 0.0715879 0.0480688 0.0859557 0.0836865
          0.110311 0.107318 0.118662 0.1144 0.127413 0.150403
          0.130862 0.127146 0.135405 0.111699 0.148946 0.106311
          0.138138 0.133596 0.130566 0.120838 0.109294 0.204548
          0.173823 0.14323 0.137233 0.163383 0.130132 0.126251
          0.175681 0.134573 0.166017 0.138348 0.0967532 0.148946
          0.169989 0.0967532 0.165818 0.162928 0.158708 0.130047
          0.130047 0.161751 0.158708 0.123047 0.228106 0.175681
          0.199929 0.18704 0.0423499 0.0463084 0.0385235 0.021377
          0.0270565 0.0510099 0.0647985 0.0254341 0.101095 0.0091938
          0.0173037 0.0803818 0.112614 0.107318 0.118662 0.115624
          0.0556986 0.0441608 0.0475774 0.0966303 0.122016 0.118801
          0.0994754 0.119042 0.0327647 0.0276634 -0.02311 -0.0228156
          0.00182056 -0.0129988 -0.0116154 0.0150799 0.148758 0.0992901
          0.15053 0.115205 0.152841 0.15353 0.18131 0.130792
          -0.0405949 0.0125049 -0.000402004 -0.0425719 0.18131 0.179652
          0.182702 0.236316 0.152841 0.152816 0.15353 0.130792
          0.179652 0.15353 0.18131 0.152841 0.176831 0.163709
          0.147387 0.179763 0.123789 0.135405 0.135072 0.187876
          0.172426 0.172727 0.238454 0.209017 0.112614 0.115624
          0.118662 0.125961 0.0701937 0.0657571 0.0948104 0.106478
          0.0701937 0.0261287 0.0948104 0.0657571 0.267948 0.216692
          0.171681 0.19211 0.109724 0.118476 0.124799 0.118801
          0.185509 0.190655 0.227293 0.18707 0.0688902 0.0619518
          0.0882954 0.000458692 0.19211 0.134062 0.131645 0.177759
          0.105112 0.0925113 0.107431 0.108096 0.216692 0.267948
          0.280167 0.285631 0.0311669 -0.0202432 -0.0180461 0.0101504
          0.282707 0.373022 0.301397 0.298245 0.00020316 0.00765602
          -0.00441511 -0.00310213 0.359488 0.358776 0.297489 0.368693
          0.120129 0.123019 0.113683 0.119565 0.00156437 0.016022
          0.00020316 0.00765602 0.135405 0.106311 0.148946 0.107034
          0.0715661 0.0463084 0.063013 0.0423499 0.0984941 0.0770825
          0.0974886 0.09246 0.0927891 0.0983677 0.0556986 0.0966303
          0.0713689 0.134692 0.141569 0.0611862 0.267528 0.27609
          0.315243 0.352832 0.0995078 0.107318 0.1144 0.112614
          0.132813 0.086844 0.049462 0.137108 0.145529 0.154929
          0.128281 0.12387 0.163383 0.137233 0.159245 0.154852
          0.247533 0.267528 0.315243 0.344461 0.00020316 0.016022
          0.0126215 0.021377 0.0255033 0.0425707 0.013461 0.0303638
          0.139728 0.10478 0.144869 0.135107 0.0345143 0.0508293
          0.0732646 0.0695339 0.0979294 0.0742199 0.105112 0.0925113
          0.0689447 0.118728 0.102925 0.120859 0.222064 0.211651
          0.146166 0.1552 0.268008 0.341624 0.308147 0.282294
          0.31334 0.298929 0.335042 0.291481 0.204543 0.137108
          0.185795 0.0994822 0.130047 0.123047 0.120268 0.084756
          0.0337169 0.089927 0.0594662 0.117833 0.163956 0.168288
          0.229061 0.159365 0.00474097 0.045572 0.0734512 -0.0158773
          0.216483 0.217678 0.186477 0.268238 -0.00896293 -0.0184737
          -0.00310213 -0.0270274 0.122055 0.16614 0.132605 0.164565
          0.32407 0.23391 0.243538 0.315675 0.102717 0.154107
          0.0740493 0.137992 0.251013 0.185795 0.199466 0.200648
          0.164177 0.159944 0.159245 0.130132 0.0559069 0.0349748
          0.0741411 0.0659989 0.163459 0.25535 0.238454 0.172727
          -0.00310213 -0.0184737 -0.0227859 -0.0270274 0.115624 0.114543
          0.112637 0.120129 0.246225 0.200648 0.287691 0.182105
          0.121685 0.112241 0.107566 0.114294 -0.0355365 -0.0390216
          0.0157321 0.00402628 0.0801628 0.0554554 0.0391397 0.0764351
          0.146533 0.164278 0.160002 0.131259 0.064645 0.049659
          0.0828441 0.0535114 0.159365 0.25679 0.274803 0.229061
          0.153439 0.0987851 0.141147 0.0838931 -0.0160427 -0.0161031
          0.0590932 -0.0213389 0.264721 0.256253 0.315774 0.304568
          0.254201 0.222148 0.264721 0.284969 0.15796 0.209017
          0.0876554 0.17999 0.113705 0.150465 0.142066 0.159421
          0.175681 0.146451 0.166017 0.134573 0.026183 0.0657571
          0.0701937 0.0377969 -0.0202432 -0.0273646 -0.0180461 0.0101504
          0.141147 0.148758 0.180715 0.143039 0.171272 0.189954
          0.0808134 0.11408 0.0808134 0.0830577 -0.0101049 -0.0160427
          0.35898 0.272272 0.27271 0.298834 0.135072 0.135405
          0.177392 0.187876 0.239077 0.19211 0.249159 0.254645
          0.114294 0.112241 0.107566 0.111468 0.238454 0.28714
          0.358776 0.359488 0.237712 0.293875 0.323171 0.254571
          0.0991005 0.14323 0.0688902 0.120774 0.0716709 0.13533
          0.0808134 0.0754783 0.0331346 0.00727071 0.0679743 0.0157321
          0.186567 0.100789 0.165257 0.127105 0.0907144 0.0754783
          0.0201388 0.0558778 0.0425707 0.013461 0.0274571 0
          -0.0352411 -0.0387419 -0.00895024 -0.0264292 0.0508293 0.0931616
          0.105846 0.0695339 0.0737005 0.0508684 0.0450636 0.0983677
          0.302885 0.240943 0.213557 0.295685 0.284969 0.26761
          0.264721 0.330412 0.221318 0.17999 0.156872 0.212417
          0.0623433 0.0989644 0.101176 0.0638979 0.049462 0.086844
          0.0540385 0.137108 0.267607 0.165688 0.240365 0.15796
          0.0864608 0.0858781 0.121041 0.133888 0.0535114 0.0283937
          0.049659 0.0172693 0.289143 0.220738 0.258775 0.222148
          0.149133 0.137752 0.213557 0.173823 0.00156437 -0.00310213
          0.00020316 -0.00896293 0.0439374 0.0742199 0.0659989 0.0559069
          0.0157321 0.0331346 0.00213241 0.0266702 0.379682 0.248309
          0.300097 0.378097 0.116441 0.201989 0.178795 0.148895
          0.0171834 -0.000871435 -0.0048344 -0.0116154 0.118476 0.13808
          0.125346 0.118768 0.114294 0.118768 0.121685 0.112241
          0.114543 0.10082 0.107431 0.113683 0.114543 0.10082
          0.113683 0.123019 0.118768 0.109724 0.11977 0.112241
          0.0259847 0.0242242 0.0623433 0.0444503 0.135405 0.107034
          0.148946 0.137992 0.137254 0.133596 0.153746 0.164091
          0.299471 0.247261 0.289994 0.272881 0.271852 0.204543
          0.182741 0.251511 0.0137284 -0.00151333 0.0754783 0.0716709
          0.0979294 0.113639 0.128281 0.110032 0.0389648 0.0188405
          0.0176904 0.0245713 0.101095 0.0803818 0.0173037 0.12824
          0.0608181 0.102925 0.0829969 0.118728 0.0540385 -0.0273946
          -0.0258321 -0.0199145 0.104248 0.0973108 0.103294 0.106057
          0.145903 0.0896431 0.117288 0.0820273 0.0611862 0.103092
          0.134692 0.159365 -0.0384657 -0.0347885 -0.0075844 -0.0357635
          0.049462 0.0540385 0.023489 0.0994822 0.0796746 0.0859557
          0.0683278 0.0948582 -0.0104375 0.030685 -0.0126592 0.049198
          0.0882954 0.0598204 0.0944564 0.0567087 0.0864786 0.0853375
          0.0876484 0.073082 0.341479 0.285884 0.336675 0.344688
          0.112614 0.114543 0.115624 0.125961 0.209308 0.179763
          0.231423 0.18131 0.165688 0.165241 0.172727 0.239744
          -0.0209697 -0.0171148 0.0467083 -0.0227431 -0.0390216 -0.0150094
          -0.0360913 0.0157321 0.289994 0.285884 0.341479 0.272881
          0.0101504 -0.000947842 -0.0273646 0.00138579 0.0742199 0.0659989
          0.0855552 0.0805224 0.145549 0.155927 0.171264 0.162
          0.274099 0.239193 0.262572 0.220738 0.0171834 0.0150799
          0.0425612 0.00182056 0.00553736 0.0188405 0.0341126 0.0345143
          0.00753595 -0.0312485 -0.0273646 0.0101504 0.137992 0.0740493
          0.0792191 0.117288 0.240943 0.173823 0.213557 0.204548
          0.351746 0.289816 0.27271 0.35898 0.10517 0.114469
          0.106885 0.112472 0.0594662 0.0716709 -0.0101049 -0.00848475
          0.12041 0.12962 0.126913 0.116001 0.161268 0.168288
          0.219222 0.163842 -0.00102808 0.0595115 -0.00991763 -0.0117722
          0.089927 0.0519335 0.102322 0.15877 0.0830577 0.0716709
          -0.0101049 0.0594662 0.063013 0.0423499 0.0619345 0.0863681
          0.154852 0.118801 0.148566 0.149308 0.163842 0.243538
          0.219222 0.161268 0.0713689 0.103092 0.134692 0.0611862
          0.181436 0.196146 0.27145 0.252053 0.243931 0.324155
          0.306307 0.304914 0.100508 0.102143 0.1144 0.118368
          0.0994822 0.023489 0.0720016 0.0359137 0.173823 0.0882954
          0.115975 0.109294 0.0490511 0.0213185 0.0556986 0.0157321
          0.124448 0.126251 0.163383 0.137233 0.124448 0.126251
          0.137233 0.114044 0.0910404 0.0508684 0.0444503 0.0623433
          0.177732 0.150403 0.15353 0.152816 0.158504 0.127105
          0.145798 0.186477 -0.00484605 0.016022 0.0290398 0.0126215
          0.0864608 0.102925 0.0858781 0.133888 0.073345 0.0977345
          0.110093 0.108133 0.00182056 -0.00895024 0.0341126 0.00553736
          -0.0169867 0.117833 0.0594662 0.116441 0.0540152 0.0680056
          0.0809459 0.0418506 0.132045 0.137233 0.159245 0.130132
          0.0176904 0.0407461 0.0165473 0.0389648 0.196146 0.27145
          0.186567 0.204122 0.0176904 0.00486514 -0.0096781 0.0159457
          0.260232 0.296192 0.384595 0.290993 0.0508684 0.00402628
          0.0444503 0.0266702 0.196146 0.186567 0.165257 0.127105
          -0.0211191 0.0594662 -0.0101049 -0.00848475 0.270051 0.204543
          0.271852 0.251511 0.198539 0.296192 0.260232 0.290993
          -0.0270274 -0.0292533 -0.00896293 -0.0347885 0.24719 0.27145
          0.260233 0.181436 0.32407 0.251511 0.243538 0.23391
          0.128141 0.11452 0.131645 0.177392 -0.0228156 0.0119736
          0.0249799 -0.0113336 0.153439 0.145903 0.141182 0.0987851
          0.0817732 0.0970682 0.0871718 0.117983 0.0608181 0.0508684
          0.0910404 0.0623433 0.0337951 0.0535114 0.0647985 0.0270565
          0.0737005 0.0825549 0.0975373 0.0450636 0.122016 0.118476
          0.0998571 0.118801 0.109724 0.101268 0.0987473 0.0836865
          0.0819398 0.0808666 0.0982553 0.0853375 0.0116505 0.026183
          0.0377969 0.0657571 0.0159457 0.0275312 0.0176904 0.0418506
          0.216196 0.217678 0.167438 0.153439 0.153746 0.130566
          0.135136 0.138138 0.148758 0.115205 0.15053 0.143039
          0.115205 0.149803 0.148758 0.174536 0.268008 0.251644
          0.216996 0.204595 0.0832282 0.0657571 0.0638506 0.0116505
          0.160203 0.162928 0.165496 0.120859 0.133529 0.0943749
          0.120268 0.11878 0.341624 0.337395 0.308147 0.282294
          0.0647985 0.0510099 0.0937691 0.0670694 0.0754448 0.0615568
          0.0343041 0.0424382 0.246225 0.200648 0.215632 0.187876
          0.114469 0.109254 0.106885 0.112637 0.0896834 0.0943749
          0.049198 0.0769836 0.197509 0.145549 0.171264 0.180281
          -0.00151333 0.0716709 0.0808134 0.0754783 0.336045 0.262572
          0.289143 0.298929 0.251013 0.23391 0.306307 0.199466
          0 0 0.0274571 0 0.332017 0.26761
          0.330875 0.289143 0.0483354 0.0801628 0.0764351 0.0843502
          0.0715661 0.0605018 0.0423499 0.0863681 -0.0211321 -0.0201014
          -0.0227859 0 0.0679743 0.0927891 0.118528 0.102925
          0.0927891 0.118528 0.113901 0.152768 0.137117 0.175406
          0.115975 0.155675 0.100967 0.168288 0.161268 0.163842
          0.285631 0.216692 0.279438 0.287792 0.211651 0.256007
          0.256621 0.222064 0.139728 0.0983677 0.130472 0.145402
          0.302232 0.196146 0.186567 0.268238 0.282707 0.185822
          0.293499 0.237126 0.132813 0.049462 0.045572 0.0640031
          0.101268 0.109724 0.111468 0.112241 0.0389648 0.0418506
          0.0245713 0.0176904 0.153914 0.198685 0.156753 0.200281
          0.106363 0.111468 0.119576 0.104248 0.00069831 -0.00895024
          0.00182056 0.0150799 0.147899 0.128281 0.152257 0.130675
          0.100937 0.127105 0.196146 0.13533 0.165257 0.109382
          0.108162 0.100789 0.086844 0.0437957 0.0692071 0.0991005
          0.0188405 0.0508293 0.0695339 0.0389648 0.196146 0.100789
          0.186567 0.127105 0.0638506 0.0919653 0.115975 0.0598204
          0.0995078 0.102143 0.0998671 0.112614 -0.0160427 -0.0117722
          0.0595115 0.0590932 0.337395 0.298929 0.31334 0.282294
          -0.0150094 0.00727071 0.0157321 0.0213185 0.0391397 0.0654843
          0.0240896 0.0423568 0.0882954 0.000458692 0.0619518 0.0638506
          0.0467083 -0.0171148 -0.0209697 -0.0155251 0.0982553 0.0987473
          0.104386 0.107318 0.15796 0.179831 0.209017 0.17999
          0.239777 0.116016 0.185828 0.165688 0.0266702 0.0419592
          0.0242242 0.0608181 0.130862 0.112396 0.145549 0.120205
          0.270051 0.23391 0.185795 0.204543 0.0865935 0.0648896
          0.0796746 0.0715879 0.219222 0.337898 0.262343 0.25535
          0.121678 0.113639 0.130132 0.0896834 0.00156437 0.00906148
          0.0210138 0.00765602 0.0918535 0.0608994 0.0502169 0.0962148
          0.185822 0.102322 0.179831 0.15877 0.0242242 0.0608181
          0.0508684 0.0266702 0.0108895 0.00562483 0.00765602 0.0182165
          0.0345143 0.0188405 0.0695339 0.0389648 0.0984941 0.0770825
          0.0987772 0.0974886 0.172727 0.28714 0.238454 0.239744
          0.121678 0.133529 0.157734 0.11878 0.104946 0.158421
          0.163459 0.0583242 0.0437957 -0.0163625 -0.0209827 -0.0152553
          -0.0268066 0.0519335 -0.0213389 -0.0272993 -0.0227431 0.0467083
          0.0939533 0.0583242 0.013461 0.0105776 0.0303638 0.0159097
          0.239664 0.173823 0.229906 0.213557 0.069771 0.101199
          0.121041 0.0858781 0.039149 -0.00804499 0.111056 0.0640984
          0.130047 0.110055 0.120859 0.0834431 0.215481 0.161268
          0.126597 0.158421 0.0203376 0.0364287 0.0826533 0.0638506
          0.108992 0.0998671 0.107431 0.114543 0.102322 0.0590932
          0.11408 0.179831 0.137741 0.125961 0.138658 0.118368
          0.165241 0.165688 0.27609 0.239744 0.214788 0.166592
          0.148946 0.149803 0.200648 0.132813 0.135582 0.123789
          0.27145 0.252053 0.290993 0.316074 0 0.0105776
          0 0.013461 0.00553736 0.0256855 0.0341126 0.0188405
          0.0720016 0.0359137 0.126597 0.0887729 0.130047 0.120859
          0.120603 0.0834431 0.0994822 0.0359137 0.0720016 0.0887729
          0.0410239 0.0518296 0.0782603 0.0894282 0.260232 0.198539
          0.217441 0.13533 0.0887729 0.0540385 -0.0258321 -0.0199145
          0.248309 0.17999 0.276815 0.209017 0.0819398 0.0512157
          0.0808666 0.0853375 0.0490511 0.0157321 0.0556986 0.0679743
          0.198685 0.156753 0.200281 0.201574 0.267607 0.15796
          0.240365 0.179831 0.379682 0.300097 0.386422 0.378097
          0.289816 0.282294 0.292096 0.339454 0.379682 0.300097
          0.387982 0.386422 0.086844 0.137108 0.132813 0.135582
          0.11472 0.11977 0.145529 0.124799 0.217678 0.165257
          0.224695 0.167438 0.198685 0.200281 0.209922 0.24564
          -0.00694388 -0.00751634 0.0326146 0.0228868 0.32407 0.243538
          0.332187 0.324155 0.116016 0.060929 0.0799235 0.019031
          0.16095 0.199466 0.137752 0.230788 0.290993 0.384595
          0.260232 0.389693 0.26761 0.22275 0.250416 0.260994
          0.106363 0.0975384 0.104664 0.104248 0.17999 0.11408
          0.171272 0.156872 0.107566 0.114294 0.106077 0.104713
          0.152841 0.130792 0.18131 0.135703 0.117833 0.178795
          0.0594662 0.116441 0.0608181 0.0508684 0.0623433 0.0242242
          0.132813 0.0640031 0.135582 0.123789 0.272272 0.216196
          0.27271 0.217678 0.0595115 0.11408 0.171272 0.0808134
          0.219222 0.274803 0.337898 0.243538 0.0558022 0.0801865
          0.049198 0.0769836 0.0998671 0.0859557 0.0796746 0.0948582
          0.0853375 0.0836865 0.073082 0.0653537 0.113901 0.101176
          0.120603 0.0829969 0.0419592 0.0608181 0.0623433 0.0242242
          0.197509 0.179763 0.15353 0.163709 -0.0335928 -0.0280384
          -0.0102802 -0.029149 0.0615418 0.0864608 0.0311669 0.0406751
          0.211651 0.15053 0.201861 0.174536 0.0176904 0.0275312
          0.00965275 0.0418506 0.109208 0.039149 0.111056 0.0635172
          -0.0386929 -0.010015 -0.042216 -0.0152809 0.298929 0.315064
          0.335042 0.288612 0.249124 0.177759 0.18131 0.231423
          -0.0352411 -0.00895024 0.00069831 -0.0264292 0.189171 0.190515
          0.23316 0.19211 -0.0309792 -0.0308071 0.00691554 0.0327647
          0.332879 0.264721 0.294293 0.330412 0.0228868 0.0311669
          0.0101504 0.00138579 0.0640031 0.0202828 0.00474097 0.0734512
          0.104664 0.104386 0.111468 0.107318 0.209054 0.222148
          0.214788 0.264721 0.137361 0.109555 0.1297 0.13511
          0.341816 0.272881 0.289994 0.341479 0.0439374 0.0715879
          0.0683278 0.0648896 0.182741 0.193616 0.247533 0.262653
          0.25535 0.337898 0.344346 0.332187 0.227329 0.190515
          0.23316 0.189171 0.111468 0.125346 0.119576 0.106077
          0.0863681 0.073345 0.0605018 0.0423499 0.16095 0.230788
          0.137752 0.240943 0.125961 0.1297 0.120129 0.130862
          0.182105 0.200648 0.287691 0.230788 0.0527092 0.0816163
          0.0548873 0.0932756 0.222064 0.220738 0.161148 0.174536
          0.0444074 0.0349748 0.0559069 0.0271315 0.262343 0.337898
          0.313974 0.35358 0.0483354 0.0801628 0.0843502 0.076987
          0.310355 0.246247 0.313974 0.262343 0.0615568 0.0419592
          0.0623433 0.0242242 0.336675 0.254201 0.332879 0.330412
          0.0919653 0.125164 0.128141 0.0945674 0.0368281 -0.0126592
          0.030685 0.0249799 0.0359137 0.0449238 -0.0240479 0.0583242
          0.115975 0.0598204 0.0944564 0.0882954 0.0796746 0.085481
          0.10082 0.109555 0.0407461 0.0514059 0.0811874 0.0452555
          0.359488 0.293523 0.267607 0.297489 0.238454 0.35358
          0.293523 0.358776 0.335373 0.258775 0.262572 0.282294
          -0.0139035 0.0508163 0.01461 -0.0055242 0.199466 0.243931
          0.230788 0.240943 0.0689865 -0.0152553 0.0437957 0.0692071
          0.0276634 0.0327647 0.0689447 0.073581 0.330875 0.260994
          0.26761 0.284176 0.19211 0.189171 0.134062 0.177759
          0.196146 0.252053 0.198539 0.290993 0.217678 0.224695
          0.268238 0.272272 0.31334 0.336045 0.335042 0.298929
          -0.0211321 0 -0.00441511 0 0.114044 0.137233
          0.130132 0.126251 0.117073 0.0992329 0.119123 0.129355
          0.118476 0.109724 0.0998571 0.118801 0.0689865 0.100967
          0.0611862 -0.00934244 0.0217851 0.0689865 0.0611862 -0.00934244
          0.0341126 0.0603776 0.0732646 0.073345 0.214788 0.148946
          0.169989 0.149803 0.0836865 0.0647985 0.102221 0.0715879
          0.169989 0.148946 0.0967532 0.149803 0.0829969 0.0910404
          0.101176 0.0623433 0.185682 0.14323 0.239664 0.204548
          0.130792 0.110675 0.0817732 0.0970682 0.239664 0.173823
          0.240943 0.204548 0.145529 0.154929 0.147899 0.128281
          0.00270117 -0.00603925 -0.0255505 0.00706416 0.101199 0.0490511
          0.0679743 0.0386203 0.0764351 0.0801628 0.109413 0.0843502
          0.199036 0.124138 0.122749 0.155675 0.0801628 0.109413
          0.0843502 0.0992329 0.216196 0.217678 0.141876 0.209525
          0.073345 0.110093 0.0732646 0.108133 0.0720016 0.0359137
          -0.0153192 0.0443352 0.163842 0.0692071 0.168288 0.0991005
          0.00553736 0.0341126 0.00182056 0.0345143 0.22275 0.214788
          0.169989 0.222148 0.268238 0.317504 0.224695 0.302232
          0.114044 0.10645 0.0894282 0.0878253 0.331863 0.262492
          0.319563 0.303862 0.118768 0.125346 0.121685 0.136736
          0.227293 0.214788 0.22275 0.26761 0.303862 0.34366
          0.331863 0.272704 0.10082 0.085481 0.0923287 0.0965191
          0.135405 0.111699 0.172295 0.148946 0.0444503 0.0252408
          0.0491411 0.00022389 0.0252408 -0.00603925 0.00472803 -0.000402004
          -0.0386929 -0.0075844 -0.0014031 -0.0357635 0.124448 0.108289
          0.126251 0.0894282 0.00753595 0.0101504 -0.0273646 0.0311669
          0.251644 0.282294 0.268008 0.216996 0.104713 0.1081
          0.107566 0.113746 -0.000402004 0.00472803 0.0252408 0.00022389
          0.0423499 0.0303649 0.0605018 0.0381607 0.240943 0.243931
          0.31346 0.204548 0.0220256 0.0182165 0.045819 0.0385235
          0.289994 0.246243 0.294293 0.264721 0.0129194 0.0270565
          0.0510099 0.0135894 0.0987772 0.0770825 0.073427 0.0974886
          -0.0014031 0.0188405 0.0176904 0.0165473 0.258085 0.216483
          0.217678 0.179768 0.0508293 0.0863681 0.0931616 0.0567513
          0.0975373 0.121216 0.126891 0.134593 0.297489 0.212417
          0.276815 0.279083 0.114299 0.130971 0.118476 0.122016
          0.260232 0.196146 0.217441 0.198539 0.186567 0.27145
          0.248601 0.204122 0.0171833 -0.0272993 0.0519335 -0.0268066
          0.000362789 0.030685 -0.0104375 0.0257655 0.130472 0.11946
          0.126891 0.0825549 0.172295 0.148946 0.169989 0.214788
          0.182741 0.251511 0.262653 0.271852 0.0746714 0.181436
          0.100937 0.12824 0.10517 0.0974886 0.114469 0.09246
          0.127146 0.114469 0.130862 0.127413 0.262803 0.209269
          0.256253 0.214788 0.127413 0.116074 0.120205 0.0974886
          0.172295 0.148946 0.185509 0.169989 0.104946 0.100178
          0.0640984 0.0583242 0.0603935 0.0421184 0.0970682 0.0480306
          0.336675 0.254201 0.330412 0.284969 0.192396 0.158421
          0.163459 0.104946 0.0782603 0.0518296 0.0326146 0.0228868
          0.0275312 0.0247822 0.0418506 0.0452555 0.0686171 0.102126
          0.0732646 0.110093 0.110097 0.1297 0.114543 0.125961
          0.185682 0.14323 0.227347 0.239664 -0.0383281 -0.0014031
          -0.0152809 -0.0096781 -0.0386929 -0.0152809 -0.0383281 -0.0014031
          0.0801628 0.0973108 0.0998489 0.0890549 0.197509 0.203477
          0.176831 0.163709 0.0345143 0.0338639 0.0450636 0.0125049
          0.0769836 0.0834431 0.130047 0.084756 0.332017 0.26761
          0.329085 0.330875 0.247261 0.246243 0.294293 0.289994
          0.185682 0.130885 0.227347 0.14323 0.254201 0.207948
          0.285884 0.272881 0.0481888 0.00880291 0.0444074 0.0510099
          0.198539 0.12867 0.120286 0.189954 0.0820273 0.117288
          0.145903 0.0987851 0.119565 0.10517 0.114469 0.127146
          0.254682 0.165241 0.267528 0.185124 0.152841 0.117073
          0.134573 0.129355 0.174536 0.211651 0.15053 0.1552
          0.104713 0.0925816 0.0875997 0.106885 0.132813 0.137108
          0.049462 0.0994822 -0.0117722 -0.0118951 0.0876554 -0.0161031
          0.116074 0.115624 0.112396 0.109254 0.11452 0.16371
          0.135405 0.139514 0.165257 0.153439 0.141876 0.109382
          0.0826533 0.137117 0.124138 0.167838 0.35898 0.35012
          0.289816 0.272272 0.126597 0.0583242 0.0939533 0.158421
          0.0608181 0.0689447 0.0679743 0.0331346 0.227293 0.185509
          0.18707 0.214788 -0.00458031 0.000458692 0.0638506 0.00441796
          -0.00441511 0 0 0 0.0689865 0.100967
          0.168288 0.159365 0.0157321 -0.0360913 -0.0355365 0.00727071
          0.216692 0.285631 0.280167 0.292862 0.166124 0.124448
          0.164278 0.16614 0.254645 0.189171 0.249124 0.239077
          0.0859557 0.0480688 0.0683278 0.073082 0.160387 0.227329
          0.175681 0.176831 0.192396 0.25535 0.163459 0.158421
          0.0337951 0.0647985 0.0653537 0.0480688 0.0594662 0.120286
          0.0716709 -0.00848475 0.198498 0.262343 0.192396 0.159365
          0.176831 0.227329 0.175681 0.203477 0.102143 0.112614
          0.1144 0.118368 0.0407461 0.0368505 0.0114538 0.0165473
          -0.0227859 -0.00310213 0.00020316 -0.00441511 0.207948 0.198685
          0.209922 0.272881 0.00069831 0.0290398 0.0347523 0.0303649
          0.102322 0.15796 0.0590932 0.179831 0.25679 0.274803
          0.262343 0.198498 0.247533 0.267528 0.344461 0.254682
          0.130792 0.147387 0.135703 0.110675 0.0742199 0.0937691
          0.0979294 0.0670694 0.0878253 0.0908379 0.0894282 0.114044
          0.0769836 0.130047 0.120268 0.084756 0.251013 0.185795
          0.23391 0.199466 0.126597 0.0939533 0.0799235 0.165241
          0.133475 0.0668794 0.102717 0.101095 0.107034 0.0792191
          0.117288 0.137992 0.351348 0.299471 0.341816 0.272881
          0.112637 0.113746 0.106885 0.112644 0.204548 0.163842
          0.16095 0.243931 0.0338639 0.0608994 0.0698431 0.0502169
          0.0974821 0.106885 0.0875997 0.0984941 0.0875997 0.0770825
          0.073427 0.0984941 0.00156437 -0.0184737 -0.00354797 -0.00310213
          0.10517 0.106885 0.114469 0.0984941 0.0987473 0.101268
          0.0995078 0.0836865 0.0995078 0.0987473 0.107318 0.101268
          0.0259847 0.0623433 0.0491411 0.0444503 0.16095 0.163842
          0.199466 0.243931 0.179763 0.163709 0.147387 0.15353
          0.118528 0.113705 0.150518 0.114861 0.111776 0.0819398
          0.107518 0.0864786 0.100508 0.1144 0.0995078 0.0864786
          0.0603935 0.0728637 0.0554554 0.0885485 0.0746342 0.0864608
          0.116094 0.0782603 0.258085 0.179768 0.217678 0.209525
          0.101199 0.0679743 0.118528 0.0858781 0.111468 0.118476
          0.119576 0.125346 0.0159097 0.00322887 0.0105776 0.0062396
          0.049462 0.0540385 -0.0273946 0.023489 0.0615568 0.0242242
          0.0259847 0.00691554 0.0615568 0.0327647 0.00691554 0.0343041
          0.196146 0.27145 0.302232 0.186567 0.135136 0.100508
          0.1144 0.118368 -0.0388781 -0.0116154 -0.0398427 0.00182056
          0.190515 0.227329 0.175681 0.160387 0.282707 0.15877
          0.185822 0.240365 0.127146 0.10517 0.114469 0.10914
          -0.0405949 -0.0425719 -0.0417754 0.0125049 0.104946 0.163459
          0.100178 0.0583242 0.303862 0.260232 0.319563 0.316173
          0.00182056 -0.00895024 -0.0129988 0.0150799 0.133529 0.165145
          0.11878 0.120268 0.280246 0.185828 0.282707 0.240365
          0.0732646 0.105846 0.11946 0.0825549 0.137108 0.0887729
          0.0692071 0.0540385 0 0.0105776 0.013461 0.0159097
          0.0982553 0.0914105 0.103987 0.0987473 0.0742199 0.0865935
          0.0925113 0.0715879 0.0825549 0.0667859 0.0698431 0.0345143
          0.0982553 0.103987 0.104386 0.0987473 0.15796 0.17999
          0.0876554 0.11408 -0.0211321 -0.0227859 -0.00310213 0
          0.168513 0.216196 0.207948 0.153439 0.121685 0.136736
          0.134646 0.11977 0.101199 0.0798418 0.113705 0.0679743
          0.109413 0.0998489 0.120205 0.119123 0.243538 0.163842
          0.243931 0.23391 0.0688902 0.0250181 0.0619518 0.000458692
          0.0611862 0.134692 0.141569 0.159365 0.0275312 0.0418506
          0.0540152 0.0452555 0.0410239 0.0118425 0.0172693 0.049659
          0.222148 0.166592 0.149803 0.216313 0.24751 0.282707
          0.293499 0.376057 0.110055 0.126251 0.132605 0.0896834
          0.216196 0.217678 0.153439 0.141876 0.0150799 0.0341126
          0.00182056 0.0347523 0.262565 0.205526 0.215632 0.272434
          0.227347 0.130885 0.167838 0.173823 0.384031 0.34366
          0.331863 0.303862 0.384031 0.380329 0.371492 0.303862
          0.268238 0.272704 0.303862 0.217441 0.0608181 0.102925
          0.0927891 0.0679743 0.124138 0.0832282 0.122749 0.0919653
          0.073581 0.0689447 0.102925 0.120859 0.0603935 0.0885485
          0.0554554 0.073427 -0.0388781 -0.0129988 -0.0116154 0.00182056
          0.108992 0.0995078 0.101268 0.0998671 0.108992 0.101268
          0.107431 0.0998671 0.0105776 0.0255033 0.0514059 0.0311991
          0.260232 0.271522 0.171272 0.199691 0.0559069 0.0349748
          0.0758985 0.0741411 -0.0036987 0.0595115 0.0846141 -0.00991763
          0.102221 0.0979294 0.11472 0.105112 0.11472 0.0979294
          0.103554 0.105112 0.10517 0.106885 0.102214 0.112472
          0.288612 0.239193 0.222064 0.262572 0.153746 0.137741
          0.130566 0.137254 0.107566 0.121685 0.114294 0.104713
          0.0165473 0.0407461 0.0567513 0.0389648 0.269623 0.300097
          0.222461 0.221318 -0.00714448 0.039149 0.060043 0.0635172
          0.123047 0.162928 0.120603 0.130047 0.248309 0.17999
          0.222461 0.276815 0.125164 0.0919653 0.122749 0.0657571
          0.300097 0.248309 0.271522 0.222461 0.0261287 0.0664855
          0.0352309 0.0948104 0.0784527 0.0514059 0.0811874 0.0407461
          0.191072 0.261623 0.277362 0.214694 0.110055 0.132605
          0.0801865 0.0896834 0.0954823 0.0784527 0.0811874 0.0567513
          -0.0184737 -0.0218483 -0.00310213 -0.0227859 0.0954823 0.0695339
          0.0567513 0.0680056 0.0654843 0.0877043 0.0764351 0.128315
          0.0907144 0.127105 0.0201388 0.0754783 0.272881 0.198685
          0.254201 0.207948 0.130862 0.137741 0.145549 0.112396
          0.0816163 0.0654843 0.0696074 0.0975595 0.0966303 0.101464
          0.0755101 0.10478 0.0991005 0.168288 0.14323 0.120774
          0.185822 0.179831 0.189954 0.240365 0.243931 0.324155
          0.31346 0.257162 0.336045 0.315064 0.335042 0.298929
          0.156081 0.1544 0.1297 0.13511 0.118728 0.102925
          0.160203 0.118528 0.000458692 0.0203376 0.0619518 0.0638506
          0.158421 0.172727 0.185124 0.25535 0.106363 0.104386
          0.114299 0.111468 0.106363 0.114299 0.119576 0.111468
          0.107566 0.106885 0.0875997 0.0974821 0.00213241 0.00402628
          0.0242242 -0.0364058 0 0 -0.00441511 0
          0.0254341 0.00880291 0.0444074 0.0271315 0.102221 0.11977
          0.124799 0.109724 0.160002 0.131259 0.137233 0.154852
          0 0.0316418 0.0220256 0.0303958 0.199036 0.277362
          0.249315 0.214694 0.0863681 0.0423499 0.0619345 0.0784527
          0.258085 0.217678 0.27271 0.209525 -0.0417754 0.0125049
          -0.0048344 -0.0405949 0 0 0 -0.00700115
          0.359488 0.358776 0.293523 0.297489 0.163842 0.0692071
          0.100967 0.168288 0.218704 0.261623 0.214694 0.249124
          0.0341126 0.0508293 0.0732646 0.0345143 0.100789 0.100937
          0.00350164 0.0137284 0.341624 0.337395 0.282294 0.339454
          0.168513 0.141182 0.207948 0.216313 0.0150799 0.0425612
          0.0341126 0.0347523 0.155927 0.137741 0.162 0.145549
          0.110675 0.147387 0.134062 0.124809 0.0425612 0.0347523
          0.0686171 0.0341126 0.300097 0.221318 0.269623 0.276815
          0.10517 0.0984941 0.114469 0.0974886 0.114469 0.0984941
          0.109254 0.0974886 0.0125049 0.0450636 0.0508684 0.0444503
          0.154929 0.132045 0.130132 0.12387 0.0688902 0.14323
          0.0991005 0.109294 0.12824 0.100789 0.186567 0.100937
          0.332879 0.289994 0.294293 0.264721 0.0567513 0.0784527
          0.0931616 0.0954823 0.0927891 0.0508684 0.0556986 0.0983677
          0.152841 0.134573 0.166017 0.129355 0.00562483 0.013461
          0.0182165 0.0159097 -0.0158773 0.0508163 0.0202828 -0.0139035
          0.249124 0.177759 0.218704 0.18131 -0.00934244 0.0689865
          -0.00559399 0.0217851 0 0 0.013461 0.0159097
          0.00562483 0 0.013461 0.0159097 0.0875997 0.0770825
          0.0984941 0.0925816 0.204548 0.16095 0.137752 0.240943
          0.0449238 0.0583242 0.0611862 -0.0157458 0.0994822 0.185795
          0.132813 0.137108 0.110675 0.124809 0.0948104 0.0696074
          0.204543 0.23391 0.185795 0.137108 0.271522 0.248309
          0.301397 0.298245 0.0979294 0.0908379 0.113639 0.0670694
          0.0598204 0.0919653 0.128141 0.0688967 0.0894282 0.0896834
          0.126251 0.0908379 0.0908379 0.0665471 0.0937691 0.0821186
          0.316173 0.199691 0.237426 0.271522 0.0801865 0.0896834
          0.0943749 0.110055 0.146166 0.0992901 0.15053 0.148758
          0.0998489 0.106057 0.0974821 0.112396 0.0689865 0.168288
          0.120774 0.159365 -0.0386929 -0.010015 -0.0152809 -0.0014031
          0.0157321 0.00727071 0.00213241 0.0331346 0.0171833 0.0519335
          0.060929 -0.0268066 0.00069831 0.0126215 0.0290398 0.0303649
          0.120286 0.181436 0.100937 0.0746714 0.0746714 0.0594662
          -0.00848475 0.120286 -0.011625 0.0679001 -0.00848475 0.0746714
          0.00322887 0.00220275 0.0062396 0.0161469 0.162928 0.161751
          0.158708 0.130047 0.125961 0.110097 0.112614 0.114543
          0.0525426 0.0647625 0.0820273 0.109382 0.165257 0.100789
          0.108162 0.127105 0.121685 0.11977 0.113746 0.112241
          0.109382 0.0612522 0.0896431 0.0525426 0.12824 0.181436
          0.204122 0.149244 0.181436 0.24719 0.204122 0.149244
          0.229061 0.323171 0.331839 0.257162 0.0615568 0.00691554
          0.0259847 0.0343041 0.125961 0.1297 0.114543 0.120129
          0.238454 0.209017 0.267607 0.297489 0.30514 0.292862
          0.229906 0.280167 0.119042 0.132045 0.118801 0.102378
          0.203901 0.211651 0.222064 0.1552 0.107318 0.111468
          0.112241 0.108992 -0.00102808 -0.0118951 0.0851486 -0.0117722
          0.134646 0.11977 0.145529 0.12041 0.11977 0.118768
          0.121685 0.136736 0.0803818 0.101095 0.133475 0.149244
          0.0689865 0.0692071 0.100967 -0.0143431 0.0801865 0.0896834
          0.0769836 0.0943749 0.302232 0.317504 0.367966 0.380329
          0.125164 0.153324 0.191072 0.177759 0.0882954 0.0944564
          0.137752 0.109294 0.0337169 0.0594662 -0.0211191 -0.0169867
          0.109294 0.0882954 0.115975 0.137752 0.0732646 0.0695339
          0.105846 0.0825549 0.0345143 -0.000871435 0.0338639 0.0125049
          0.0345143 0.00270117 0.0338639 -0.000871435 0.0881059 0.0770825
          0.0984941 0.09246 0.0647625 0.0987851 0.153439 0.0838931
          0.0820273 0.0987851 0.145903 0.153439 0.0647625 0.0820273
          0.153439 0.0987851 0.146451 0.128315 0.160387 0.124087
          0.146451 0.124087 0.109413 0.128315 0.369769 0.297489
          0.378097 0.368693 0.135582 0.0734512 0.135072 0.123789
          0.319563 0.260232 0.262492 0.316173 0.117833 0.201989
          0.178795 0.116441 0.109617 0.122207 0.0677674 0.0932756
          0.139514 0.122207 0.109617 0.0932756 -0.0124161 -0.00630596
          0.0445276 -0.00773479 0.112637 0.113683 0.112644 0.112472
          0.122207 0.109617 0.151141 0.139514 0.160387 0.124809
          0.128315 0.122207 0.16095 0.199466 0.135582 0.137752
          0.00182056 -0.0116154 0.0171834 0.0150799 -0.0438624 -0.0255505
          -0.0295031 -0.0152809 0.155675 0.177759 0.214694 0.171681
          0.069771 0.0858781 0.121041 0.0864608 0.104713 0.106077
          0.0974821 0.0910021 0.104713 0.0910021 0.0974821 0.0875997
          0.191072 0.277362 0.199036 0.214694 0.0742199 0.0559069
          0.0741411 0.0659989 -0.038764 0.0213185 -0.00275804 4.09269e-05
          0.189171 0.124809 0.131645 0.134062 0.141147 0.143039
          0.124962 0.107308 0.0490511 0.0556986 0.0798418 0.0679743
          0.163956 0.237712 0.25679 0.229061 0.163956 0.229061
          0.25679 0.162043 0.076987 0.0801628 0.0843502 0.0992329
          0.272881 0.24564 0.299471 0.247261 0.120603 0.101176
          0.102812 0.0615568 0.380329 0.378687 0.290993 0.384595
          0.196146 0.204122 0.186567 0.12824 0.132188 0.147637
          0.134593 0.0962148 0.196146 0.12824 0.186567 0.100937
          0.0423499 0.0385235 0.0182165 0.021377 0.0135894 0.0481888
          0.0665471 0.0510099 -0.0357635 -0.0102802 -0.0014031 -0.0383281
          -0.00102808 0.0851486 0.0700909 0.0595115 0.0410239 0.0481888
          0.0665471 0.0135894 -0.0357635 -0.0335928 -0.0102802 -0.0383281
          0.0829969 0.102925 0.0608181 0.0689447 0.118768 0.13808
          0.125346 0.136736 -0.0160427 0.0595115 0.11408 0.0590932
          0.0914105 0.064645 0.0821186 0.0653537 0.18707 0.14422
          0.190655 0.168881 0.0240896 0.0246036 0.0101279 0.0654843
          0.190968 0.199691 0.127105 0.0754783 0.0740235 0.0734512
          0.123789 0.135072 0.0754783 0.164032 0.190968 0.199691
          0.00965275 0.00322887 0.0247822 0.0161469 0.135072 0.0740235
          0.135405 0.123789 -0.0270274 -0.0292533 0.00020316 -0.00896293
          0.370712 0.27145 0.378687 0.368553 0.0510099 0.0254341
          0.0670694 0.0559069 0.0510099 0.0559069 0.0670694 0.0742199
          0.0640031 0.0202828 0.0734512 0.0740235 0.0983677 0.0508684
          0.0698431 0.0910404 0.0210138 0.016022 0.00765602 0.0292423
          0.0581534 0.0894282 0.0793457 0.0845509 0.0603935 0.0728637
          0.0885485 0.0970682 0.0751999 0.0680056 0.0667859 0.104426
          0.103987 0.0998571 0.0987473 0.0914105 0.0421184 0.0246036
          0.0696074 0.0237723 0.254201 0.201574 0.209054 0.198685
          0.293523 0.238454 0.267607 0.297489 0.131259 0.10645
          0.102378 0.119042 0.215632 0.135072 0.177392 0.187876
          0.228106 0.188102 0.246998 0.190515 0.0688902 0.0882954
          0.109294 0.0567087 0.0865935 0.0859557 0.0796746 0.0998671
          -0.00458031 0.0598204 0.0882954 0.0567087 0.109294 0.16095
          0.14323 0.0991005 0.00753595 0.00727071 -0.0312485 0.0101504
          -0.000402004 -0.0396832 0.00022389 -0.00778128 0.0746342 0.0228868
          0.0326146 0.0406751 0.107318 0.112241 0.106057 0.108992
          0.0834431 0.0424382 0.0769836 0.0558022 0.0974821 0.106077
          0.106057 0.104248 0.0674725 0.0772562 0.0769836 0.0943749
          0.0276634 0.0249799 0.0558022 0.049198 0.216483 0.298834
          0.272704 0.258085 0.237126 0.298245 0.189954 0.296192
          0.15053 0.0992901 0.146166 0.111359 0.166124 0.108289
          0.124448 0.16614 0.165688 0.172727 0.15796 0.239744
          0.0595115 -0.0117722 0.11408 0.0590932 0.064645 0.0283937
          0.0535114 0.0653537 0.0914105 0.0653537 0.0998571 0.0836865
          0.290993 0.217441 0.196146 0.268238 0.120286 0.181436
          0.178795 0.252053 0.0345143 0.0667859 0.0698431 0.0338639
          0.0970682 0.124087 0.0885485 0.120205 0.229906 0.213557
          0.216692 0.292862 0.0341126 0.073345 0.0732646 0.0508293
          0.228849 0.165688 0.239777 0.27609 0.149803 0.165145
          0.220738 0.174536 0.115205 0.0967532 0.165145 0.110551
          0.0979294 0.0742199 0.0855552 0.105112 0.0865935 0.0855552
          0.097403 0.0805224 0.0742199 0.0741411 0.0855552 0.0659989
          0.0203376 0.0364287 0.0638506 0.00441796 0.00441796 0.0638506
          -0.00458031 0.00379622 0.0689865 -0.00726708 0.0991005 0.0437957
          0.352832 0.326695 0.364544 0.27609 0.121298 0.126913
          0.110326 0.113746 0.133529 0.165818 0.158708 0.130047
          0.165688 0.0939533 0.172727 0.165241 0.0276634 0.0249799
          -0.0183776 -0.0228156 0.12041 0.107431 0.116001 0.113746
          -0.0161031 -0.0155251 0.0590932 0.0689063 0.169989 0.0967532
          0.148946 0.14422 0.16371 0.176877 0.135405 0.139514
          0.00379622 0.0638506 -0.00458031 0.0598204 0.177392 0.16371
          0.135405 0.11452 0.332017 0.330875 0.336045 0.289143
          0.00069831 0.0303649 0.0341126 -0.00895024 0.0995078 0.0982553
          0.1144 0.107318 0.0583685 0.0425707 0.0303638 0.0368505
          0.0583685 0.0303638 0.0407461 0.0368505 -0.0387419 -0.0396448
          -0.00895024 0.00182056 0.341479 0.285884 0.344688 0.349887
          0.0502169 0.0819989 0.0444503 0.0491411 0.0830577 0.179831
          0.189954 0.102322 0.185822 0.102322 0.189954 0.179831
          0.165688 0.240365 0.15796 0.179831 0.11452 0.122207
          0.139514 0.0932756 -0.00726708 0.000458692 0.0688902 -0.00458031
          0.387982 0.298245 0.271522 0.379682 -0.00559399 -0.0143431
          0.0689865 -0.00934244 -0.00559399 -0.0152553 0.0689865 -0.0143431
          0.158421 0.185124 0.215481 0.271213 0.298245 0.373022
          0.381656 0.376057 0.101199 0.113705 0.142066 0.118528
          0.104664 0.0975384 0.103294 0.104248 0.118476 0.130971
          0.13808 0.122016 0.216313 0.258775 0.251644 0.216996
          0.120859 0.118728 0.160203 0.162928 0.216313 0.222148
          0.258775 0.216996 0.213557 0.175406 0.216692 0.149133
          0.121216 0.0825549 0.126891 0.112393 0.1297 0.156081
          0.123019 0.127146 0.166592 0.148946 0.141182 0.117288
          0.00156437 0.016022 0.00765602 0.0210138 0.101199 0.142066
          0.121041 0.118528 0.298929 0.289143 0.315064 0.288612
          0.34366 0.371492 0.328598 0.298834 0.0845509 0.0894282
          0.0793457 0.10645 0.120286 0.181436 0.196146 0.100937
          0.100937 0.181436 0.196146 0.12824 0.102214 0.106885
          0.10517 0.0984941 0.0554554 0.0421184 0.0391397 0.0728637
          0.304914 0.324155 0.31346 0.243931 0.171272 0.150391
          0.0846141 0.164032 0.198539 0.237126 0.178795 0.12867
          0.133596 0.114991 0.130566 0.120838 0.178795 0.237126
          0.252053 0.293499 0.107318 0.106057 0.118662 0.115624
          0.182105 0.137752 0.199466 0.230788 0.129355 0.114991
          0.130566 0.133596 0.172727 0.25535 0.238454 0.28714
          0.103987 0.118476 0.0998571 0.122016 0.0998571 0.0821186
          0.0937691 0.0836865 0.109724 0.0987473 0.0998571 0.0836865
          0.0998571 0.118801 0.0937691 0.0821186 0.293523 0.279083
          0.297489 0.368693 0 0.0311991 0 0.0105776
          -0.02311 0.0327647 -0.0309792 0.00753595 0.113901 0.147637
          0.154866 0.101176 0.27609 0.228849 0.315243 0.239777
          0.122016 0.0998571 0.0994754 0.118801 0.0445276 -0.00630596
          0.0598204 0.000364435 -0.0129809 0.0640984 -0.0095751 0.0635172
          0.0887729 -0.0258321 0.0359137 -0.0199145 0 0
          0 0.0105776 0.0914105 0.064645 0.0994754 0.0821186
          0.0994754 0.064645 0.0828441 0.0821186 0.0270565 0.0129194
          0.0510099 0.0254341 0.0647985 0.0908379 0.0937691 0.0510099
          0.296192 0.381656 0.316074 0.252053 0.0274925 0.0105776
          0.0514059 0.0311991 0.0159097 0.00322887 0 0.0105776
          -0.00458031 -0.00630596 0.0567087 -0.0124161 0.00350164 -0.00151333
          0.0716709 -0.0101049 0.0137284 -0.00151333 0.0716709 0.00350164
          0.0808134 0.0716709 -0.0101049 0.0830577 0.109413 0.117073
          0.0843502 0.0992329 0.216313 0.284969 0.258775 0.222148
          0.0925816 0.1081 0.0881059 0.102214 0.0512157 0.0337951
          0.0653537 0.0480688 0.0732646 0.110093 0.12208 0.108133
          0.0732646 0.108133 0.12208 0.11946 0.130862 0.114469
          0.116074 0.127413 0.290993 0.260232 0.196146 0.217441
          0.0796746 0.0865935 0.0998671 0.10082 0.0732646 0.102126
          0.12208 0.110093 0.0732646 0.108133 0.11946 0.105846
          -0.0211321 -0.00441511 -0.0198786 0 -0.02912 -0.0270274
          -0.00896293 -0.0347885 -0.0123321 0.0583242 -0.0171148 -0.0157458
          0.102717 0.101095 0.0740493 0.154107 0.108992 0.112241
          0.106057 0.107566 0.101199 0.0679743 0.0858781 0.0386203
          0.156753 0.153914 0.102717 0.137992 0.164177 0.130132
          0.126251 0.121678 0.15796 0.0689063 0.165688 0.102322
          0.215632 0.200648 0.182105 0.187876 -0.0101049 -0.0211191
          -0.0160427 0.0830577 0.264155 0.246225 0.215632 0.187876
          0.107318 0.106057 0.115624 0.108992 0.105112 0.0855552
          0.103554 0.097403 0.00270117 0.0338639 0.0125049 -0.00603925
          0.104248 0.102285 0.0910021 0.106077 -0.0425719 -0.0442204
          -0.0417754 0.0125049 0.102221 0.0647985 0.0937691 0.0715879
          0.0896431 0.101095 0.0740493 0.0612522 0.129355 0.119123
          0.137254 0.114991 0.00441796 0.00379622 0.0116505 0.0638506
          0.0249799 0.0119736 0.0424382 -0.0113336 0 0.0303958
          0.0274571 0 0.384031 0.371492 0.298834 0.303862
          -0.00726708 -0.00458031 0.0567087 -0.0163625 0.24751 0.293499
          0.266947 0.376057 0.00562483 0 0.0182165 0.013461
          0.166592 0.148946 0.149803 0.141182 0.153439 0.168513
          0.141147 0.141182 0.168513 0.141182 0.216313 0.166592
          0.182702 0.179652 0.18131 0.152841 0.179652 0.152816
          0.15353 0.152841 -0.00710968 0.0611862 -0.00934244 0.0217851
          -0.00896293 -0.0292533 -0.0075844 -0.0347885 0.368553 0.293472
          0.299233 0.359992 0.216996 0.220738 0.262572 0.222064
          0.153746 0.133596 0.130566 0.138138 0.199691 0.164032
          0.237426 0.171272 0.302232 0.293221 0.317504 0.248601
          0.145529 0.128281 0.147899 0.11472 0.337395 0.336045
          0.31334 0.298929 0.240365 0.237126 0.189954 0.185822
          0.0559069 0.0349748 0.0659989 0.0398111 0.0927891 0.102925
          0.118728 0.118528 0.12962 0.11472 0.147899 0.128281
          0.145529 0.12387 0.128281 0.11472 0.0983677 0.0508684
          0.0556986 0.0737005 0.274099 0.239193 0.220738 0.233002
          0.0480306 0.0970682 0.0817732 0.0352309 0.0590884 0.0817732
          0.117983 0.106478 0.0590884 0.0817732 0.0821075 0.117983
          0.35414 0.359488 0.267607 0.361653 0.247533 0.344461
          0.319326 0.254682 -0.00275804 0.0213185 0.0441608 0.0475774
          0.101095 0.0803818 0.12824 0.149244 0.254682 0.344461
          0.319326 0.330856 0.254682 0.344461 0.330856 0.344346
          0.337395 0.336045 0.298929 0.282294 0.352832 0.35414
          0.27609 0.361653 0.107566 0.106057 0.109254 0.0974821
          -0.0396448 -0.0421975 -0.010015 -0.000871435 0.204548 0.137752
          0.173823 0.213557 0.0689865 -0.0143431 0.100967 -0.00934244
          0.0508163 0.0548873 0.01461 -0.0055242 0.0754783 0.13533
          0.100937 0.0716709 0.109724 0.108096 0.102221 0.11977
          0.227293 0.18707 0.22275 0.214788 0.0245713 0.00486514
          0.0176904 0.0159457 -0.0384657 -0.0352411 -0.0112473 -0.0347885
          0.0327647 0.0424382 0.0834431 0.0558022 0.177759 0.135703
          0.18131 0.147387 0.0820273 0.117288 0.117288 0.145903
          0.049462 0.045572 0.0540385 0.086844 0.135582 0.0640031
          0.0734512 0.123789 0.135582 0.199466 0.182105 0.137752
          0.18131 0.210773 0.179652 0.236316 0.209308 0.210773
          0.179652 0.18131 0.158421 0.271213 0.161268 0.25535
          0.177759 0.135703 0.182702 0.18131 0.25535 0.161268
          0.219222 0.271213 0.209308 0.210773 0.18131 0.236316
          0.168513 0.153439 0.207948 0.145903 0.0638506 0.0364287
          0.0116505 0.00441796 0.0150799 0.00069831 0.0347523 0.00182056
          0.0715661 0.0605018 0.0463084 0.0423499 0.045819 0.0368505
          0.0425707 0.0583685 -0.0123321 -0.00710968 0.0611862 -0.0157458
          0.0338639 0.0334735 0.0502169 0.00706416 0.063013 0.0385235
          0.046611 0.045819 0.155675 0.214694 0.175406 0.171681
          0.0746342 0.0615418 0.0782603 0.0406751 -0.0387419 -0.0396448
          0.00182056 -0.0398427 0.197509 0.15353 0.171264 0.145549
          0.0603935 0.0871718 0.0885485 0.0974886 0.0249799 0.0276634
          0.0327647 -0.0228156 0.0918535 0.120583 0.0862894 0.132188
          0.0463084 0.0292423 0.0385235 0.021377 0.0233769 0.0150799
          0.0425612 0.0171834 0.0233769 0.0150799 0.0458732 0.0425612
          0.0345143 0.0695339 0.0732646 0.0825549 0.0603776 0.0977345
          0.110093 0.073345 0.0423568 0.0843502 0.0764351 0.0877043
          0.00474097 -0.0206594 0.045572 -0.0158773 0.1297 0.13511
          0.123019 0.156081 0.109555 0.10082 0.1297 0.123019
          0.0444503 0.0698431 0.0508684 0.0910404 0.149133 0.137752
          0.182105 0.213557 0.106478 0.125164 0.122749 0.0850406
          0.15353 0.120205 0.124087 0.130792 0.0173037 0.100937
          0.00350164 0.0337389 0.200648 0.135582 0.182105 0.123789
          0.0746342 0.069771 0.0864608 0.0406751 0.0548873 0.11452
          0.0764155 0.0932756 0.0548873 0.0816163 0.11452 0.0932756
          0.112637 0.112644 0.106885 0.112472 0.060929 0.0443352
          0.0799235 0.019031 0.116016 0.060929 0.165688 0.165241
          0.0423568 0.0654843 0.0240896 0.0677674 0.0877043 0.0654843
          0.0677674 0.109617 -0.0055242 0.0101279 0.000364435 0.0548873
          0.0548873 0.0816163 0.0688967 0.11452 0.312824 0.296649
          0.27145 0.368553 0.214694 0.261623 0.277362 0.249124
          0.214694 0.249124 0.277362 0.254645 0.214694 0.277362
          0.280167 0.254645 0.0689865 0.0500145 -0.00559399 0.0217851
          -0.0228156 -0.0308071 0.0119736 -0.0113336 0.0275312 0.0274925
          0.0247822 0.0452555 0.0101279 0.0170272 0.00962742 0.0688967
          0.0948509 0.11452 0.128141 0.177392 0.0173037 0.12824
          0.100789 0.0337389 0.256253 0.209269 0.172295 0.214788
          0.137752 0.0567087 0.086844 0.16095 0.344688 0.35665
          0.285884 0.35012 0.220738 0.289143 0.274099 0.233002
          0.16549 0.126251 0.132605 0.121678 0.114469 0.120129
          0.119565 0.127146 0.216692 0.272434 0.267948 0.285631
          0.120286 0.198539 0.189954 0.0830577 0.112637 0.107566
          0.115624 0.109254 0.11452 0.0688967 0.131645 0.0816163
          0.0948509 0.135072 0.11452 0.177392 0.0126215 0.0423499
          0.0165473 0.021377 0.267948 0.216692 0.214694 0.171681
          0.168288 0.0692071 0.100967 0.0991005 0.131259 0.10645
          0.114044 0.0878253 0.0647985 0.0510099 0.0670694 0.0742199
          0.0647985 0.0670694 0.0937691 0.0742199 0.16371 0.190515
          0.139514 0.122207 0.289143 0.260994 0.330875 0.274099
          0.0864608 0.069771 0.0487007 0.0406751 0.148758 0.149803
          0.168513 0.174536 0.216483 0.158504 0.186477 0.179768
          0.211651 0.222064 0.256621 0.203901 0.163709 0.166017
          0.146451 0.137254 0.125164 0.106478 0.122749 0.153324
          0.122749 0.153324 0.191072 0.125164 0.216996 0.148758
          0.168513 0.174536 0.113901 0.0910404 0.0829969 0.0608181
          0.0571961 0.0603935 0.0970682 0.0480306 -0.0386929 -0.0396448
          -0.010015 -0.0384657 0.222064 0.239193 0.161148 0.220738
          0.00402628 0.0444503 0.0242242 -0.000402004 0.175681 0.160387
          0.146451 0.128315 0.335373 0.284969 0.330412 0.332017
          0.284969 0.26761 0.330412 0.332017 0.0450636 0.0508684
          0.0698431 0.0983677 0.252053 0.296192 0.237126 0.198539
          0.0527092 0.0654843 0.0101279 0.0816163 0.148895 0.260233
          0.201989 0.181436 0.269623 0.237426 0.222461 0.271522
          -0.0104375 -0.0126592 -0.0183776 0.049198 0.101176 0.0989644
          0.102812 0.0638979 0.0948104 0.106478 0.125164 0.135703
          0.0259847 0.0444503 0.0491411 -0.000402004 0.15796 0.0467083
          0.0689063 0.0876554 0.26761 0.220738 0.289143 0.222148
          0.174536 0.0992901 0.146166 0.148758 0.152841 0.152816
          0.130792 0.129565 0.0862894 0.132188 0.134593 0.0962148
          0.0862894 0.121216 0.134593 0.132188 -0.0396448 -0.0431464
          -0.042216 -0.010015 0.261294 0.205526 0.262565 0.272434
          0.204543 0.149682 0.182741 0.251511 0.190515 0.151141
          0.122207 0.160387 0.257162 0.168288 0.204548 0.163842
          0.0623433 0.0638979 0.101176 0.0615568 0.219222 0.168288
          0.257162 0.163842 -0.0421975 -0.00603925 -0.0431464 -0.000871435
          0.0590932 -0.0155251 0.0876554 0.0689063 0.0277829 0.0556986
          0.0508684 0.0450636 0.174536 0.165145 0.220738 0.161148
          0.0966303 0.0755101 0.0475774 0.10478 0.207948 0.154107
          0.167438 0.224695 0.124138 0.137117 0.0919653 0.155675
          0.0821186 0.0665471 0.0937691 0.0647985 0.00069831 -0.00484605
          0.0290398 -0.0112473 -0.0143431 0.0692071 0.0449238 -0.0199145
          0.0449238 0.0692071 0.0887729 -0.0199145 0.0583242 0.0449238
          -0.0240479 -0.0157458 0.0647985 0.0254341 0.0742199 0.0439374
          0.0270565 0.0254341 0.0647985 0.0439374 0.0480688 0.0270565
          0.0647985 0.0439374 0.216313 0.284969 0.292096 0.258775
          -0.0157458 -0.0143431 0.0449238 -0.0199145 0.0449238 -0.0199145
          -0.0240479 -0.0157458 0.0647985 0.0742199 0.0937691 0.0715879
          -0.011625 0.0594662 -0.00848475 0.0679001 -0.011625 0.116441
          0.0594662 0.0679001 0.130862 0.118662 0.112396 0.115624
          0.114543 0.113683 0.107431 0.112637 0.271522 0.300097
          0.379682 0.301397 0.379682 0.271522 0.387982 0.300097
          0.154929 0.159245 0.159944 0.130132 0.12387 0.130132
          0.128281 0.113639 0.121678 0.130132 0.126251 0.0896834
          0.12387 0.114044 0.130132 0.0908379 0.135136 0.137741
          0.138658 0.118368 -0.0209697 -0.0276234 0.0939533 0.0689063
          0.24564 0.198685 0.200281 0.247261 0.0668794 0.101095
          0.0091938 0.0612522 0.0391397 0.0421184 0.0246036 0.0728637
          0.126251 0.163383 0.130132 0.164177 0.260232 0.217441
          0.303862 0.262492 0.384031 0.380329 0.303862 0.389693
          0.0611862 -0.00934244 0.100967 0.0449238 0.0647985 0.0665471
          0.0937691 0.0908379 0.0873117 0.0670694 0.0964633 0.0758985
          0.110032 0.0979294 0.0964633 0.0873117 0.163842 0.137108
          0.0692071 0.086844 0.163842 0.0887729 0.0692071 0.137108
          0.116016 0.0799235 0.165241 0.161857 0.228849 0.165688
          0.27609 0.165241 0.171272 0.13533 0.0846141 0.0808134
          0.116016 0.161857 0.165241 0.228849 0.0327647 0.0424382
          0.0558022 0.0249799 0.127146 0.114469 0.127413 0.10914
          0 0 0 0.013461 0.290993 0.316074
          0.384595 0.378687 0.0737005 0.101464 0.0825549 0.0732646
          0.0894282 0.0896834 0.108289 0.126251 0.12387 0.114044
          0.0908379 0.0937691 0.359488 0.267607 0.369769 0.297489
          -0.0129101 -0.0183776 -0.02311 0.0276634 0.102378 0.0878253
          0.0821186 0.0828441 0.254201 0.284969 0.264721 0.330412
          0.122055 0.102925 0.133888 0.163356 0.11452 0.131645
          0.177392 0.16371 0.200281 0.194109 0.209922 0.24564
          0.0261287 0.0170272 0.0664855 0.0657571 0.192891 0.212417
          0.209017 0.279083 0.0830577 0.120286 0.0716709 0.0594662
          0.0137284 0.0716709 0.100937 0.00350164 0.251644 0.231761
          0.289816 0.216196 0.272272 0.216196 0.289816 0.27271
          0.289816 0.285884 0.251644 0.216196 0.341624 0.35012
          0.289816 0.351746 0.184437 0.156081 0.171264 0.150403
          0.272272 0.285884 0.289816 0.216196 0.256007 0.298929
          0.256621 0.262572 0.341624 0.289816 0.2938 0.351746
          0.112614 0.107318 0.115624 0.108992 0.264721 0.222148
          0.26761 0.284969 0.000458692 0.0203376 0.0638506 0.00441796
          0.0992329 0.110311 0.114991 0.103294 0.196146 0.252053
          0.290993 0.27145 -0.00165095 -0.00700115 -0.00608307 -0.00551033
          -0.0112473 -0.00896293 0.0126215 -0.0075844 0.0439374 0.0559069
          0.0659989 0.0398111 0.108289 0.133888 0.132605 0.122055
          -0.00726708 0.0688902 0.0567087 -0.00458031 -0.00726708 0.0688902
          0.0991005 0.0567087 0.0894282 0.124448 0.0793457 0.10645
          0.0688902 0.0882954 0.0567087 -0.00458031 0.0508293 0.0256855
          0.0423499 0.0567513 0.150518 0.113705 0.150465 0.114861
          0.0688902 0.0500145 0.109529 -0.000573831 0.189171 0.179763
          0.147387 0.18131 0.0987473 0.118476 0.111468 0.109724
          0.0987473 0.103987 0.111468 0.118476 0 0.0105776
          0 0 -0.00458031 0.000458692 0.0882954 0.0638506
          0.0692071 -0.0199145 0.0540385 0.0887729 0.256253 0.185509
          0.227293 0.214788 0.0540385 0.0887729 0.023489 0.0994822
          0.369769 0.301397 0.297489 0.267607 0.023489 -0.0273946
          -0.0258321 0.0540385 0.049659 0.0581534 0.0665471 0.0410239
          0.0410239 0.00408605 0.0172693 0.0118425 0.0640031 0.0269824
          0.045572 0.00474097 0.0937691 0.12387 0.0979294 0.113639
          0.00069831 -0.0112473 0.0290398 0.0126215 0.0937691 0.12387
          0.11472 0.0979294 0.185509 0.14422 0.190655 0.18707
          0.0303649 0.0381607 0.0423499 0.021377 -0.0163625 0.0437957
          0.0567087 -0.00726708 0.207948 0.154107 0.209922 0.198685
          0.352832 0.27609 0.364544 0.361653 0.0101279 0.0664855
          0.0170272 0.0688967 0.049198 0.030685 0.0368281 0.0674725
          0.115205 0.149803 0.174536 0.165145 0.149803 0.165145
          0.222148 0.220738 0.134646 0.136736 0.145529 0.11977
          0.0368281 0.030685 0.049198 0.0249799 0.0173037 0.100789
          0.100937 0.0337389 0.0674725 0.0442687 0.0368281 0.0772562
          -0.0211191 -0.0213389 -0.0160427 0.0590932 0.303862 0.317504
          0.371492 0.268238 0.298834 0.272272 0.27271 0.217678
          0.0381607 0.0292423 0.0463084 0.021377 0.0381607 0.0463084
          0.0423499 0.021377 0.258085 0.298834 0.27271 0.217678
          0.216483 0.217678 0.298834 0.258085 0.371492 0.317504
          0.298834 0.268238 0.1144 0.0982553 0.107518 0.107318
          0.0746342 0.0782603 0.0228868 0.0406751 0.0341126 0.0603776
          0.0686171 0.0732646 0.0347523 0.0603776 0.0686171 0.0341126
          0.102221 0.12387 0.11472 0.0937691 0.000362789 0.030685
          0.0257655 0.0481888 0.130472 0.101464 0.135107 0.12208
          0.213365 0.25535 0.238454 0.163459 0.164468 0.141147
          0.153439 0.216196 0.00270117 0.0245713 0.0338639 0.00706416
          0.282707 0.185828 0.24751 0.185822 0.0638506 0.00379622
          0.0116505 0.0919653 0.209525 0.141876 0.164468 0.179768
          0.141876 0.209525 0.164468 0.216196 0.0583965 0.141876
          0.11098 0.0838931 -0.038764 -0.0390216 -0.0410849 -0.00275804
          0.118528 0.0798418 0.113705 0.0927891 0.0679743 0.0798418
          0.118528 0.0927891 -0.0227859 -0.00441511 0.00020316 -0.0292533
          -0.0227859 -0.0211321 -0.00441511 -0.0292533 0.0679743 0.0556986
          0.0798418 0.0927891 -0.0390216 -0.0410849 -0.00275804 -0.0417754
          0.00765602 0.00906148 0 0 0 0.00765602
          0 0 0.11472 0.112709 0.103554 0.0979294
          0.0979294 0.112709 0.103554 0.0855552 0.00765602 0
          0 0.00562483 0.134573 0.119123 0.137254 0.129355
          0.0982553 0.0987473 0.107318 0.0995078 0.0825549 0.105846
          0.11946 0.112393 0.217441 0.196146 0.268238 0.186567
          0.217441 0.205824 0.262492 0.190968 0.217441 0.272704
          0.262492 0.205824 0.165557 0.16549 0.133529 0.121678
          0.165557 0.165818 0.133529 0.16549 0.0595115 0.11408
          0.0808134 -0.0160427 0.086844 0.0437957 0.0540385 0.0692071
          0.217441 0.196146 0.127105 0.13533 0.164468 0.141876
          0.11098 0.179768 0.100789 0.0137284 0.0433159 0.108162
          0.0615568 0.0834431 0.0689447 0.0327647 0.216196 0.285884
          0.251644 0.207948 0.089927 0.0830577 0.12867 0.102322
          0.182702 0.152841 0.18131 0.135703 -0.0036987 -0.00102808
          0.0700909 0.0595115 -0.0036987 0.0700909 0.0846141 0.0595115
          0.0171834 0.00182056 0.0345143 -0.000871435 0.00182056 -0.000871435
          -0.0398427 -0.0396448 -0.000871435 -0.0421975 -0.0398427 -0.0396448
          0.0135894 0.0481888 0.0129194 0.00408605 0.0937691 0.0742199
          0.0979294 0.102221 0.0937691 0.0979294 0.11472 0.102221
          0.0165473 -0.0102802 0.00965275 -0.0014031 0.133475 0.101095
          0.153914 0.154107 -0.000871435 0.00270117 0.0338639 0.0125049
          0.115205 0.0992901 0.148758 0.115205 0.0341126 0.0425612
          0.00182056 0.0345143 -0.00659978 -0.0228156 0.0249799 -0.0113336
          0.0657571 0.0948104 0.106478 0.125164 0.132605 0.122055
          0.165496 0.120859 0.110055 0.132605 0.122055 0.073581
          0.192891 0.209017 0.172426 0.279083 0.199017 0.279083
          0.192891 0.172426 0.0657571 0.00962742 0.0919653 0.0116505
          -0.000402004 -0.0396832 -0.00778128 0.0242242 0.165496 0.120859
          0.130047 0.132605 0.085481 0.0711245 0.0923287 0.0965191
          0.120859 0.0829969 0.120603 0.0834431 -0.0116991 -0.0102802
          -0.0254388 -0.00165095 0.109555 0.0965191 0.10082 0.123019
          0.120603 0.154866 0.160203 0.162928 0.154866 0.15653
          0.162928 0.120603 0.113901 0.143208 0.154866 0.147637
          0.134692 0.159365 0.198498 0.141569 0.113901 0.143208
          0.147637 0.0910404 0.162928 0.15653 0.161751 0.120603
          0.162928 0.161751 0.123047 0.120603 0.370712 0.368553
          0.359992 0.293472 0.0126215 0.0303649 0.0423499 0.021377
          0.106057 0.111468 0.106077 0.107566 0.0679001 0.116441
          0.0594662 0.0746714 0.0679001 0.0594662 -0.00848475 0.0746714
          0.0303649 0.0290398 0.0605018 0.0381607 0.194109 0.204122
          0.133475 0.209922 0.0261287 0.0664855 0.0948104 0.0657571
          0.204122 0.194109 0.293472 0.209922 0.153914 0.194109
          0.209922 0.200281 0.0368281 -0.00659978 0.0249799 -0.0113336
          -0.00804499 -0.0123321 0.0640984 -0.0129809 0.25679 0.262343
          0.313974 0.198498 0.268008 0.282294 0.254847 0.216996
          0.153439 0.145903 0.0820273 0.109382 0.132813 0.086844
          0.135582 0.045572 0.0119736 -0.0308071 0.0327647 0.00691554
          0.227347 0.167838 0.249315 0.229906 0.279336 0.227347
          0.249315 0.229906 0.229906 0.279336 0.280167 0.249315
          0.229906 0.277362 0.249315 0.280167 0.214694 0.277362
          0.229906 0.280167 0.214694 0.277362 0.249315 0.229906
          0.229906 0.199036 0.249315 0.214694 0.203901 0.239193
          0.161148 0.222064 0.0441608 0.0171834 0.0425612 0.0450636
          0.167838 0.199036 0.249315 0.229906 0.14323 0.173823
          0.227347 0.239664 0.198539 0.237126 0.12867 0.189954
          0.185822 0.237126 0.12867 0.178795 0.153439 0.141182
          0.141147 0.0987851 0.24751 0.178795 0.266947 0.293499
          0.24751 0.185822 0.178795 0.293499 -0.0421975 -0.0442204
          -0.00603925 0.0125049 0.0982184 0.0519335 0.15877 0.060929
          0.114469 0.130862 0.120129 0.127146 -0.00165095 0.00322887
          0.0114538 0.00965275 0.0801865 0.049198 0.0276634 0.0558022
          0.224695 0.186567 0.154107 0.167438 0.216196 0.224695
          0.207948 0.167438 0.302885 0.239664 0.292862 0.213557
          0.267948 0.214694 0.280167 0.254645 0.238454 0.25535
          0.358776 0.28714 0.159944 0.165557 0.134357 0.164177
          0.293875 0.239664 0.315148 0.314208 0.239664 0.229906
          0.292862 0.213557 0.159944 0.165557 0.157734 0.134357
          0.113746 0.107566 0.108992 0.112637 0.112637 0.108992
          0.113746 0.107431 0.216196 0.167438 0.207948 0.153439
          0.0101279 0.0246036 0.0664855 0.0816163 0.0737005 0.0425612
          0.0345143 0.0450636 0.0737005 0.0425612 0.0732646 0.0345143
          0.282707 0.373022 0.298245 0.376057 0.282707 0.366693
          0.373022 0.376057 0.113901 0.0508684 0.0983677 0.0910404
          0.113901 0.143208 0.0910404 0.0983677 -0.0360913 -0.0312485
          -0.0355365 0.00727071 0.152768 0.143208 0.154866 0.113901
          0.107034 0.141182 0.117288 0.166592 0.31334 0.298929
          0.291481 0.256007 0.173823 0.130885 0.167838 0.137117
          0.243538 0.337898 0.25535 0.332187 0.336045 0.289143
          0.315064 0.298929 0.163842 0.257162 0.219222 0.243538
          0.22275 0.18707 0.216442 0.19409 0.0277829 0.00402628
          0.0266702 0.0157321 0.181436 0.204122 0.196146 0.12824
          0.181436 0.27145 0.196146 0.204122 0.27145 0.24719
          0.204122 0.181436 0.0481888 0.049198 0.0801865 0.0896834
          0.204122 0.24719 0.194109 0.149244 0.194109 0.149244
          0.133475 0.204122 0.204122 0.101095 0.133475 0.154107
          -0.00694388 -0.00751634 0.0228868 -0.0180461 0.145549 0.118662
          0.137254 0.112396 0.0974821 0.106057 0.109254 0.112396
          0.158421 0.0583242 0.172727 0.100178 0.158421 0.0583242
          0.0939533 0.172727 0.0695339 0.0931616 0.105846 0.0954823
          0.0480306 0.0352309 0.0817732 0.0261287 0.172727 0.0583242
          0.0939533 0.100178 0.172727 0.15796 0.238454 0.209017
          0.172727 0.15796 0.267607 0.238454 0.24719 0.312824
          0.293472 0.368553 0.24719 0.312824 0.27145 0.293472
          -0.00608307 0 -0.0182313 -0.00700115 -0.00441511 -0.00700115
          -0.0198786 0 0.220738 0.19409 0.239193 0.161148
          0.303862 0.290993 0.260232 0.389693 0.303862 0.262492
          0.319563 0.260232 0.290993 0.217441 0.303862 0.260232
          0.149803 0.220738 0.222148 0.174536 0.290993 0.268238
          0.303862 0.217441 0.0249799 -0.0126592 -0.0183776 -0.0228156
          0.216996 0.222148 0.220738 0.174536 0.370712 0.368553
          0.293472 0.27145 0.0240896 0.0654843 0.0101279 0.0527092
          -0.00700115 -0.00441511 0 0 0.137233 0.164278
          0.124448 0.131259 0.161268 0.100967 0.0449238 0.104946
          0.0259847 0.0242242 0.0444503 -0.000402004 -0.000402004 0.0444503
          0.0491411 0.00022389 0.254571 0.204548 0.229061 0.168288
          -0.000402004 -0.043366 0.00472803 0.00022389 0.173823 0.115975
          0.175406 0.149133 0.173823 0.137117 0.175406 0.115975
          -0.0425719 -0.043366 0.00472803 -0.000402004 0.0715879 0.0742199
          0.0937691 0.102221 -0.0116154 0.0233769 0.0171834 0.0150799
          0.0948104 0.110675 0.134062 0.124809 0.12387 0.0908379
          0.113639 0.0937691 -0.0402609 -0.0116154 -0.0410849 -0.0398427
          0.214788 0.185509 0.18707 0.169989 -0.0143431 0.0692071
          0.100967 0.0449238 0.060043 0.0635172 0.109208 0.0876554
          0.215481 0.149682 0.193616 0.126597 0.0410239 -0.00694388
          0.0118425 0.0326146 0.199691 0.271522 0.171272 0.237426
          0.0273608 0.0240896 0.0101279 0.0527092 0.00553736 -0.0112473
          -0.0075844 -0.0384657 -0.0309792 0.0327647 0.00213241 0.00753595
          0.0583685 0.0425707 0.0255033 0.0303638 0.160387 0.128315
          0.151141 0.122207 0.0689865 0.159365 0.120774 0.103092
          0.176831 0.203477 0.175681 0.146451 0.109413 0.0877043
          0.117073 0.128315 0.128315 0.0877043 0.117073 0.138348
          0.128315 0.0877043 0.138348 0.109617 0.267948 0.19211
          0.214694 0.254645 0.180715 0.141147 0.124962 0.164468
          0.216692 0.177392 0.171681 0.19211 0.10517 0.114469
          0.10914 0.09246 0.359488 0.28714 0.267607 0.238454
          0.1144 0.107318 0.118662 0.112614 0.0170272 0.0237723
          0.0352309 0.0664855 0.0664855 0.0237723 0.0352309 0.0696074
          0.28714 0.25535 0.35358 0.344346 0.0664855 0.0696074
          0.0352309 0.0948104 0.0261287 0.0170272 0.0352309 0.0664855
          0.0101279 0.0664855 0.0688967 0.0816163 0.289143 0.274099
          0.330875 0.315064 0.289143 0.330875 0.336045 0.315064
          0.158504 0.145798 0.205824 0.186477 0.289143 0.262572
          0.336045 0.335373 0.289143 0.274099 0.315064 0.288612
          0.0450636 0.0825549 0.0698431 0.0345143 0.0345143 0.0338639
          0.0698431 0.0450636 0.0171834 -0.000871435 0.0345143 0.0450636
          0.0450636 0.0125049 0.0508684 0.00402628 0.103987 0.0998571
          0.118476 0.0987473 0.0667859 0.0695339 0.0825549 0.112393
          0.0695339 0.105846 0.0825549 0.112393 0.0695339 0.0954823
          0.105846 0.112393 0.371492 0.298834 0.35898 0.328598
          0.0925113 0.105112 0.0865935 0.097403 0.107431 0.0925113
          0.0865935 0.10082 0.315243 0.239777 0.326695 0.27609
          0.326695 0.27609 0.280246 0.364544 0.239777 0.185828
          0.280246 0.27609 0.107318 0.0987473 0.104386 0.111468
          0.0987473 0.103987 0.104386 0.111468 0.326695 0.239777
          0.280246 0.27609 -0.0198786 -0.0280384 -0.00700115 -0.0254388
          0.359488 0.238454 0.267607 0.293523 0.35414 0.239744
          0.267607 0.28714 0.254645 0.189171 0.19211 0.177759
          0.0638506 0.0882954 -0.00458031 0.0598204 -0.02311 0.0327647
          0.00753595 0.0276634 0.266947 0.178795 0.252053 0.293499
          0.160387 0.131645 0.16371 0.19211 0.146166 0.211651
          0.174536 0.1552 0.16371 0.131645 0.177392 0.19211
          0.146166 0.0992901 0.106761 0.111359 0.146166 0.174536
          0.0992901 0.0992901 0.1552 0.146166 0.106761 0.111359
          0.146166 0.0992901 0.0992901 0.111359 0.198539 0.189954
          0.171272 0.271522 0.198539 0.189954 0.13533 0.171272
          0.198539 0.13533 0.189954 0.0830577 0.198539 0.196146
          0.217441 0.13533 0.198539 0.100937 0.196146 0.13533
          0.243931 0.257162 0.31346 0.204548 0.204548 0.163842
          0.243931 0.257162 0.11472 0.11977 0.124799 0.102221
          0.0830577 0.11408 0.189954 0.179831 0.179831 0.189954
          0.171272 0.11408 0.173823 0.137117 0.229906 0.175406
          0.167838 0.155675 0.229906 0.137117 0.124138 0.137117
          0.155675 0.167838 0.272434 0.215632 0.279438 0.216692
          0.15796 0.248309 0.209017 0.179831 0.109294 0.204548
          0.14323 0.16095 0.189954 0.248309 0.298245 0.179831
          0.189954 0.179831 0.298245 0.240365 0.161268 0.0449238
          0.0887729 0.104946 0.165496 0.132605 0.130047 0.110055
          0.0638979 0.0623433 0.0259847 0.0615568 0.135072 0.0944564
          0.0734512 0.149133 0.135072 0.0948509 0.0944564 0.149133
          0.106363 0.104664 0.111468 0.104248 0.158421 0.104946
          0.0887729 0.0583242 0.0817732 0.0970682 0.0696074 0.0352309
          0.257162 0.163842 0.243931 0.243538 0.109254 0.112637
          0.114469 0.120129 0.0975373 0.0910404 0.0698431 0.0962148
          -0.0158773 0.0445276 0.0508163 -0.0139035 -0.0014031 -0.0096781
          0.00965275 0.0176904 0.00156437 -0.00354797 0.00906148 -0.00310213
          0.2938 0.341624 0.308147 0.268008 0.1081 0.113746
          0.110326 0.106885 0.1081 0.106885 0.110326 0.102214
          0.102214 0.106885 0.110326 0.112472 0.167438 0.109382
          0.153439 0.165257 0.217678 0.165257 0.167438 0.153439
          0.106885 0.113746 0.112637 0.107566 0.106885 0.107566
          0.112637 0.109254 0.0746714 0.181436 0.12824 0.149244
          0.0653537 0.0283937 0.0535114 0.0337951 0.0653537 0.0535114
          0.064645 0.0821186 0.0410239 0.0326146 0.0228868 -0.00694388
          0.0836865 0.0653537 0.0808666 0.0914105 0.0334735 0.0751999
          0.0667859 0.0608994 0.31346 0.239664 0.314208 0.302885
          0.238454 0.25535 0.35358 0.358776 -0.0309792 0.00691554
          -0.0364058 0.00213241 -0.0355365 0.00402628 0.00213241 -0.0364058
          0.0715879 0.0859557 0.0796746 0.0865935 0.19211 0.227329
          0.189171 0.239077 0.073427 0.074161 0.0875997 0.0974821
          -0.0355365 -0.0309792 -0.0364058 0.00213241 0.0974821 0.074161
          0.0875997 0.0910021 0.0512157 0.0283937 0.064645 0.0653537
          0.0512157 0.0653537 0.073082 0.0480688 -0.0386929 -0.0384657
          -0.010015 -0.0075844 0.0746714 0.116441 0.0594662 0.120286
          0.0746714 0.116441 0.120286 0.181436 0.0746714 0.00350164
          -0.00848475 0.0173037 -0.00848475 0.0746714 0.0173037 0.0091938
          0.100937 0.00350164 0.0746714 0.0173037 0.282707 0.373022
          0.240365 0.301397 0.301397 0.267607 0.369769 0.361653
          0.373022 0.301397 0.369769 0.361653 0.0994822 0.0887729
          0.0720016 0.130585 0.130585 0.0887729 0.0720016 0.126597
          0.127413 0.114469 0.116074 0.0974886 -0.0276234 -0.0240479
          0.0443352 -0.0153192 0.019031 -0.0276234 0.0443352 -0.0153192
          0.019031 0.0443352 0.0799235 -0.0153192 0.0228868 -0.0180461
          -0.0202432 -0.0129101 0.130132 0.154929 0.128281 0.113639
          0.204122 0.12824 0.101095 0.154107 0.154107 0.12824
          0.101095 0.109382 0.0640031 0.045572 0.0734512 0.00474097
          0.154107 0.101095 0.0612522 0.109382 0.176831 0.124809
          0.160387 0.147387 0.112241 0.111468 0.106057 0.107566
          0.125961 0.118368 0.112614 0.110097 0.216692 0.177392
          0.175406 0.171681 0.19211 0.171681 0.214694 0.177759
          0.128141 0.125164 0.171681 0.131645 0.128141 0.125164
          0.155675 0.171681 0.197509 0.203477 0.21932 0.176831
          0.285884 0.216313 0.251644 0.207948 0.285884 0.254201
          0.216313 0.207948 0.254201 0.198685 0.216313 0.207948
          0.0979294 0.0873117 0.112709 0.0741411 0.216313 0.198685
          0.166592 0.207948 0.216313 0.145903 0.207948 0.166592
          0.216313 0.166592 0.149803 0.168513 0.168513 0.216313
          0.207948 0.216196 0.216313 0.251644 0.207948 0.216196
          0.0754783 0.0137284 0.0201388 -0.00151333 0.143039 0.115205
          0.15053 0.107308 0.120859 0.073581 0.0689447 0.0834431
          0.0615568 0.0834431 0.0829969 0.0689447 0.359992 0.293221
          0.272881 0.349887 0.0654843 0.0246036 0.0101279 0.0816163
          0.15353 0.124087 0.147387 0.130792 0.124087 0.124809
          0.160387 0.176831 0.285884 0.207948 0.272272 0.293221
          0.285884 0.207948 0.293221 0.272881 0.272881 0.285884
          0.349887 0.293221 0.344688 0.292096 0.339454 0.285884
          0.336675 0.292096 0.344688 0.285884 0.35012 0.344688
          0.339454 0.285884 0.336675 0.292096 0.339454 0.344688
          0.0882954 0.14323 0.130885 0.0688902 0.0882954 0.173823
          0.130885 0.14323 0.14323 0.130885 0.227347 0.173823
          0.124448 0.166124 0.126251 0.108289 0.124448 0.166124
          0.163383 0.126251 0.113639 0.134357 0.121768 0.0964633
          0.159944 0.134357 0.130132 0.164177 0.124448 0.146533
          0.164278 0.16614 0.146533 0.164278 0.131259 0.124448
          0.216692 0.149133 0.177392 0.182105 0.0567513 0.0695339
          0.0508293 0.0389648 0.0954823 0.0567513 0.0811874 0.0680056
          0.175406 0.213557 0.216692 0.229906 0.267948 0.216692
          0.280167 0.214694 0.229906 0.216692 0.280167 0.292862
          0.216692 0.175406 0.177392 0.149133 0.173823 0.0882954
          0.137117 0.115975 0.291481 0.298929 0.256621 0.256007
          -0.0116991 -0.0254388 -0.0198786 -0.00700115 0.171264 0.156081
          0.1544 0.150403 0.00765602 0 0 0.0182165
          0.145402 0.0983677 0.113901 0.0927891 0.102143 0.0995078
          0.1144 0.112614 0.0864786 0.0853375 0.0995078 0.0876484
          0.106057 0.0973108 0.0974821 0.0910021 0.35898 0.298834
          0.27271 0.328598 0.152768 0.145402 0.113901 0.0927891
          -0.00714448 -0.0095751 0.0635172 -0.0118951 -0.0118951 -0.00714448
          0.060043 0.0635172 0.073345 0.108133 0.0732646 0.105846
          0.0648896 0.0711245 0.0865935 0.085481 0.164468 0.153439
          0.11098 0.141876 0.115205 0.0992901 0.0992901 0.148758
          0.0925113 0.0836865 0.0715879 0.0859557 0.134062 0.131645
          0.125164 0.0945674 0.132813 0.049462 0.086844 0.045572
          0.165257 0.141876 0.108162 0.109382 0.0368281 -0.00345285
          -0.0126592 -0.00659978 0.0368281 0.00217083 -0.00345285 -0.00659978
          0.0442687 0.00217083 -0.00345285 0.0368281 0.0925113 0.0859557
          0.0998671 0.101268 0.0925113 0.0836865 0.0859557 0.101268
          0.013461 0.0105776 0.0255033 0.0303638 0.0255033 0.0105776
          0.0514059 0.0303638 0.0445276 0.0734512 0.0567087 -0.0124161
          -0.0158773 -0.0124161 0.0734512 0.0445276 -0.0158773 0.0445276
          0.0734512 0.0508163 0.112637 0.113683 0.107431 0.112644
          0.0548873 0.0101279 0.0688967 0.0816163 0.0548873 0.0101279
          0.000364435 0.0688967 0.163842 0.137108 0.086844 0.16095
          0.163842 0.086844 0.0692071 0.16095 0.163842 0.16095
          0.0692071 0.0991005 0.168288 0.0991005 0.16095 0.163842
          0.168288 0.16095 0.204548 0.163842 0.168288 0.0991005
          0.204548 0.16095 0.16095 0.204548 0.14323 0.0991005
          0.16095 0.086844 0.0692071 0.0991005 0.16095 0.0567087
          0.086844 0.0991005 -0.010015 0.00182056 -0.000871435 0.0345143
          0.118476 0.13808 0.124799 0.118801 -0.010015 0.00553736
          -0.0014031 -0.0075844 -0.0335928 -0.029149 -0.0102802 -0.0383281
          -0.0102802 -0.029149 -0.0096781 -0.0383281 -0.0014031 -0.0102802
          -0.0096781 -0.0383281 -0.0014031 -0.0102802 0.00965275 -0.0096781
          0.0615418 0.108289 0.073581 0.0864608 -0.0102802 -0.029149
          -0.00551033 -0.0096781 -0.0102802 -0.0280384 -0.00551033 -0.029149
          0.209525 0.217678 0.141876 0.179768 0.165557 0.165145
          0.133529 0.165818 0.133529 0.165145 0.157734 0.11878
          0.165818 0.158708 0.165145 0.133529 0.344461 0.35414
          0.267528 0.352832 0.35414 0.344461 0.267528 0.28714
          0.130792 0.0817732 0.117983 0.0970682 0.130792 0.135703
          0.117983 0.0817732 0.106478 0.117983 0.135703 0.0817732
          0.106478 0.0817732 0.135703 0.0948104 0.0590884 0.0480306
          0.0821075 0.0817732 0.167838 0.199036 0.229906 0.155675
          0.0974821 0.104248 0.106057 0.0910021 0.122749 0.191072
          0.199036 0.155675 0.122749 0.191072 0.155675 0.125164
          0.125164 0.191072 0.155675 0.177759 0.0567513 0.0165473
          0.0368505 0.0407461 0.0567513 0.0407461 0.0368505 0.0784527
          0.155675 0.191072 0.214694 0.177759 0.155675 0.191072
          0.199036 0.214694 0.155675 0.199036 0.229906 0.214694
          0.113901 0.0910404 0.0608181 0.0508684 0.0927891 0.113901
          0.0608181 0.0508684 0.0608181 0.0508684 0.0556986 0.0927891
          0.180281 0.172754 0.166017 0.137254 4.09269e-05 -0.00275804
          0.0233769 0.0441608 -0.00165095 0.00562483 0 -0.00441511
          0.00562483 0 0 -0.00441511 -0.00441511 0
          0.00765602 0.00562483 0.00020316 -0.00441511 0.00765602 0.00562483
          0.0679743 0.0798418 0.113705 0.118528 0.101199 0.0679743
          0.113705 0.118528 0.0108895 0.00765602 0.021377 0.0182165
          0.021377 0.0423499 0.0108895 0.0182165 0.021377 0.0423499
          0.0165473 0.0108895 0.0108895 0.0126215 0.0165473 0.021377
          0.148946 0.106311 0.0967532 0.117288 0.149803 0.148946
          0.0967532 0.117288 -0.0402609 4.09269e-05 -0.0116154 -0.0129988
          0.166592 0.148946 0.117288 0.107034 0.148946 0.107034
          0.166592 0.137992 0.148946 0.106311 0.117288 0.107034
          0.0979294 0.0937691 0.0908379 0.0670694 0.0979294 0.0937691
          0.113639 0.0908379 0.0896834 0.0481888 0.0670694 0.0908379
          0.0228868 0.0101504 -0.0180461 0.00138579 0.0425707 0.045819
          0.0274571 0.013461 -0.0158773 -0.0124161 0.0445276 -0.00773479
          0.00553736 0.0126215 -0.0075844 -0.0112473 0.0927891 0.0966303
          0.114861 0.150518 -0.0352411 -0.02912 -0.0112473 -0.0347885
          -0.0352411 -0.02912 -0.00484605 -0.0112473 -0.0112473 -0.00484605
          0.0290398 0.0126215 0.0217851 0.0689865 0.103092 0.0611862
          0.0713689 0.0217851 0.103092 0.0611862 0.120129 0.115624
          0.114543 0.125961 0.117833 0.089927 0.0594662 0.12867
          -0.00896293 0.016022 0.0126215 0.00020316 0.0410239 0.0518296
          0.0894282 0.0705408 -0.0184737 -0.02912 -0.0270274 -0.00896293
          0.089927 0.12867 0.185822 0.102322 -0.0095751 -0.00804499
          0.0640984 -0.0129809 0.0594662 0.120286 0.12867 0.0830577
          -0.0095751 -0.00804499 0.039149 0.0640984 0.185822 0.237126
          0.189954 0.12867 0.0713689 0.0640984 0.0611862 0.141569
          0.100178 0.0640984 0.172426 0.141569 0.100178 0.111056
          0.172426 0.0640984 0.116074 0.120129 0.114469 0.130862
          0.0755101 0.0458732 0.0686171 0.0425612 0.107431 0.0925113
          0.10082 0.0998671 0.107431 0.0998671 0.10082 0.114543
          0.0165473 0.0114538 0.00965275 -0.0102802 0.0114538 -0.00165095
          0.00965275 -0.0102802 0.00965275 0.00322887 0.0114538 0.0247822
          0.173823 0.167838 0.229906 0.137117 -0.0116991 -0.00165095
          -0.0254388 -0.00700115 0.134646 0.12962 0.126913 0.12041
          0.149803 0.169989 0.222148 0.165145 0.149803 0.0967532
          0.169989 0.165145 0.0967532 0.0967532 0.169989 0.165145
          0.0967532 0.0967532 0.165145 0.110551 0.169989 0.0967532
          0.168881 0.165145 0.19409 0.169989 0.168881 0.165145
          0.19409 0.165145 0.168881 0.131919 0.165145 0.0967532
          0.168881 0.131919 0.174536 0.146166 0.15053 0.148758
          0.165145 0.169989 0.222148 0.220738 0.165145 0.110551
          0.11299 0.161148 0.085481 0.0865935 0.0796746 0.10082
          0.106885 0.0925816 0.0875997 0.0984941 0.107518 0.0819398
          0.0982553 0.0864786 0.303862 0.268238 0.290993 0.380329
          0.380329 0.384595 0.290993 0.303862 0.380329 0.384595
          0.303862 0.389693 0.303862 0.384595 0.290993 0.389693
          0.175406 0.149133 0.213557 0.173823 0.130472 0.0975373
          0.126891 0.134593 0.12824 0.154107 0.186567 0.109382
          0.204122 0.12824 0.154107 0.186567 0.110097 0.125961
          0.118368 0.137361 0.00322887 -0.00608307 0.000235171 0.00220275
          0.169989 0.168881 0.18707 0.19409 0.196146 0.100937
          0.186567 0.100789 0.0801865 0.126251 0.108289 0.0896834
          0.0801865 0.108289 0.122055 0.073581 0.0277829 0.0266702
          0.0508684 0.0157321 0.0764351 0.0877043 0.109413 0.128315
          0.0975595 0.0764351 0.109413 0.128315 0.11452 0.131645
          0.16371 0.122207 0.0556279 0.0247822 0.0274925 0.0452555
          0.152519 0.145628 0.15653 0.0989644 0.134692 0.162043
          0.198498 0.159365 0.0274925 0.0247822 0.0514059 0.0105776
          0.0556279 0.0514059 0.0247822 0.0452555 0.0829969 0.0608181
          0.0910404 0.0623433 0.128315 0.0975595 0.0654843 0.122207
          0.124809 0.0975595 0.128315 0.122207 0.124809 0.0975595
          0.122207 0.0816163 0.120774 0.159365 0.163956 0.103092
          0.0161469 0.0247822 0.0274925 0.0062396 0.175681 0.227329
          0.199929 0.203477 0.120774 0.163956 0.185682 0.109529
          0.175681 0.160387 0.128315 0.151141 0.248601 0.224695
          0.272881 0.293221 -0.00608307 -0.00700115 -0.0182313 -0.00551033
          0.224695 0.186567 0.268238 0.248601 0.224695 0.248601
          0.154107 0.186567 0.00270117 0.00706416 -0.0255505 -0.0152809
          0.0864786 0.107518 0.0995078 0.0982553 0.224695 0.207948
          0.293221 0.272272 0.224695 0.207948 0.272881 0.293221
          0.120205 0.124087 0.109413 0.146451 0.0885485 0.124087
          0.109413 0.120205 0.130885 0.0688902 0.0619518 0.0882954
          0.124087 0.0975595 0.109413 0.128315 0.124087 0.0975595
          0.128315 0.124809 0.124087 0.128315 0.160387 0.124809
          0.0696074 0.0975595 0.124809 0.0816163 0.128315 0.109617
          0.151141 0.122207 0.16549 0.166124 0.132605 0.126251
          0.132605 0.16549 0.165496 0.166124 0.128315 0.0654843
          0.109617 0.122207 0.0062396 0.0159097 0.0247822 0.0105776
          0.215481 0.149682 0.182741 0.193616 0.0062396 0.0247822
          0.0274925 0.0105776 0.0161469 0.0159097 0.0247822 0.0062396
          0.0556279 0.0514059 0.0274925 0.0247822 0.0623433 0.0508684
          0.0444503 0.0242242 0.0638979 0.0623433 0.0491411 0.0259847
          0.0638979 0.0623433 0.0989644 0.0491411 0.0803818 0.0679001
          0.0746714 0.148895 0.0689865 0.100967 0.159365 0.103092
          0.0803818 0.148895 0.0746714 0.149244 0.0819989 0.0989644
          0.0910404 0.0623433 0.0819989 0.0623433 0.0910404 0.0491411
          0.0819989 0.0989644 0.0623433 0.0491411 0.24719 0.194109
          0.293472 0.204122 0.293472 0.248601 0.272881 0.293221
          0.293472 0.312824 0.27145 0.368553 0.135072 0.0764155
          0.135405 0.0740235 0.130885 0.0619518 0.0826533 0.0882954
          0.137992 0.141182 0.166592 0.145903 0.199466 0.243931
          0.306307 0.296722 0.29657 0.199466 0.306307 0.296722
          0.109567 0.107318 0.110311 0.1144 0.114469 0.112637
          0.106885 0.112472 -0.00895024 -0.0387419 0.00182056 -0.0388781
          0.00182056 -0.00895024 -0.0388781 -0.0129988 0.107318 0.106057
          0.110311 0.118662 -0.0309792 0.0327647 0.00691554 0.00213241
          0.0463084 0.0605018 0.0381607 0.0423499 0.209922 0.207948
          0.272881 0.224695 0.164468 0.180715 0.141147 0.204595
          0.0233769 -0.00275804 0.0171834 0.0441608 0.0159097 0.00322887
          0.0062396 0.0161469 0.279083 0.293523 0.310355 0.368693
          0.00965275 0.00405932 0.0161469 0.0048109 0.0048109 0.0161469
          0.00965275 0.0275312 0.164177 0.166124 0.16549 0.126251
          0.00322887 0 0.0159097 0 0 0
          0.00322887 0 0 0 0 0.00322887
          0 0.000235171 0 0.00322887 0 0
          0.000235171 0.00322887 0.109294 0.173823 0.0882954 0.14323
          0 0.00562483 -0.00165095 0.00322887 0 0
          0.00562483 0.00322887 0.00562483 0 0.0159097 0.00322887
          0.302232 0.186567 0.248601 0.268238 0.00322887 0
          0 0.0062396 -0.00345285 0.0444074 0.0442687 0.030685
          0.000362789 0.00880291 0.030685 0.0129194 0.030685 0.0442687
          -0.00345285 0.0368281 0.0858781 0.0864608 0.069771 0.0487007
          -0.00345285 0.00880291 0.0444074 0.030685 0.118476 0.13808
          0.119576 0.125346 0.118476 0.103987 0.111468 0.114299
          0.0583242 -0.0171148 0.0467083 0.100178 0.268008 0.289816
          0.282294 0.251644 0.251644 0.231761 0.268008 0.289816
          0.172727 0.100178 0.0467083 0.15796 0.0964633 0.0896834
          0.0943749 0.0674725 0.127105 0.0137284 0.108162 0.0201388
          0.108162 0.0137284 0.0433159 0.0201388 0.198498 0.262343
          0.313974 0.246247 0.0817732 0.0480306 0.0821075 0.0871718
          0.111468 0.118476 0.118768 0.109724 0.115205 0.0992901
          0.174536 0.148758 0.0689063 0.0590932 0.15796 0.0876554
          0.0830577 -0.0211191 0.0590932 0.102322 0.0590932 0.11408
          0.0830577 0.102322 0.0647985 0.0480688 0.0715879 0.0836865
          0.0480688 0.0439374 0.0647985 0.0715879 0.0480688 0.0439374
          0.0715879 0.0683278 0.0992901 0.0992901 0.174536 0.148758
          0.124799 0.132045 0.12387 0.118801 0.132045 0.114044
          0.118801 0.102378 0.1144 0.112614 0.118662 0.125961
          0.130047 0.162928 0.120603 0.120859 0.165496 0.162928
          0.130047 0.120859 0.0257655 0.000362789 0.0481888 0.00408605
          0.165496 0.130047 0.165818 0.110055 0.165496 0.162928
          0.165818 0.130047 0.217441 0.196146 0.186567 0.186477
          0.0865935 0.097403 0.104453 0.0923287 0.0680056 0.0811874
          0.0954823 0.104426 0.0680056 0.0954823 0.112393 0.104426
          0.0680056 0.0954823 0.0695339 0.112393 0.0865935 0.0923287
          0.10082 0.085481 0.0680056 0.0811874 0.104426 0.0809459
          0.217441 0.186567 0.268238 0.186477 0.0664855 0.0170272
          0.0688967 0.00962742 0.0914105 0.0821186 0.0994754 0.0998571
          0.27145 0.252053 0.316074 0.296649 0.198539 0.252053
          0.296192 0.316074 0.198539 0.316074 0.296192 0.290993
          0.316074 0.378063 0.381656 0.384595 0.0105776 0
          0 0.013461 0.0105776 0.00322887 0 0.0062396
          0.378687 0.27145 0.302232 0.290993 -0.00608307 0
          0.000235171 -0.0182313 0.282294 0.262572 0.254847 0.216996
          0.335373 0.336045 0.282294 0.262572 0.335373 0.336045
          0.337395 0.282294 0.141569 0.192396 0.163459 0.104946
          0.308147 0.337395 0.31334 0.282294 0.0974886 0.120205
          0.0987772 0.116074 0.0974886 0.0987772 0.109254 0.116074
          0.22275 0.169989 0.19409 0.165145 0.116074 0.0987772
          0.109254 0.112396 0.119042 0.118801 0.0994754 0.102378
          0.108096 0.105112 0.11472 0.12041 0.119042 0.102378
          0.0994754 0.0828441 0.26761 0.260994 0.289143 0.22275
          0.26761 0.289143 0.220738 0.22275 0.22275 0.289143
          0.220738 0.233002 0.289143 0.22275 0.274099 0.233002
          0.289143 0.260994 0.274099 0.22275 0.22275 0.260994
          0.274099 0.233002 0.22275 0.216442 0.260994 0.233002
          0.1544 0.1297 0.155927 0.150403 -0.010015 0.00270117
          -0.0014031 0.0188405 -0.010015 0.00270117 0.0188405 0.0345143
          0.0801865 0.0896834 0.049198 0.0769836 0.049198 0.0674725
          0.0368281 0.0769836 0.049198 0.0249799 0.0769836 0.0368281
          0.0249799 0.0424382 0.0769836 0.0368281 0.0769836 0.0424382
          0.084756 0.0368281 0.0772562 0.0769836 0.084756 0.0368281
          0.0769836 0.0674725 0.0368281 0.0772562 0.0948509 0.128141
          0.149133 0.177392 0.249124 0.236316 0.218704 0.261623
          0.110055 0.130047 0.120268 0.0769836 0.110055 0.0834431
          0.130047 0.0769836 0.100789 0.127105 0.100937 0.0137284
          0.127105 0.0137284 0.100789 0.108162 0.135072 0.149133
          0.0734512 0.182105 0.135072 0.149133 0.182105 0.177392
          0.135072 0.0948509 0.149133 0.177392 0.133529 0.0769836
          0.120268 0.0943749 0.15796 0.100178 0.0467083 0.0876554
          0.215481 0.193616 0.185124 0.158421 0.12867 0.120286
          0.189954 0.0830577 0.149133 0.135582 0.182105 0.137752
          0.297489 0.279083 0.345247 0.368693 0.0518296 0.0257655
          0.0276634 0.0801865 0.209017 0.212417 0.297489 0.279083
          0.35012 0.272272 0.285884 0.289816 0.35012 0.285884
          0.339454 0.289816 0.35012 0.339454 0.341624 0.289816
          0.341624 0.282294 0.289816 0.339454 0.104946 0.159365
          0.141569 0.192396 0.198498 0.192396 0.213365 0.141569
          0.216196 0.231761 0.289816 0.27271 0.289816 0.231761
          0.2938 0.27271 0.351746 0.289816 0.2938 0.27271
          0.386449 0.381656 0.384595 0.296192 0.386449 0.381656
          0.296192 0.381624 0.386449 0.296192 0.298245 0.381624
          0.386449 0.298245 0.296192 0.387982 0.0389648 0.0680056
          0.0540152 0.0418506 0.296192 0.298245 0.271522 0.387982
          0.298245 0.271522 0.189954 0.296192 0.296192 0.271522
          0.189954 0.198539 0.296192 0.381656 0.298245 0.381624
          0.260232 0.198539 0.199691 0.171272 0.0967532 0.111699
          0.14422 0.0967532 0.0334735 0.0540152 0.0245713 0.0667859
          0.0245713 0.0540152 0.0334735 0.0159457 0.00486514 0.0245713
          0.0334735 0.0159457 0.0245713 0.00706416 0.00486514 0.0334735
          0.0245713 0.0667859 0.0680056 0.0389648 0.0245713 0.0345143
          0.0667859 0.0389648 0.0389648 0.0345143 0.0188405 0.0245713
          0.137233 0.164278 0.163383 0.124448 0.0245713 0.0188405
          -0.0014031 0.00270117 0.0245713 0.0345143 0.0188405 0.00270117
          0.00270117 0.0345143 0.0338639 0.0245713 0.0338639 0.0345143
          0.0667859 0.0245713 0.0523025 0.0303958 0.046611 0.0220256
          0.0523025 0.0303958 0.0220256 0.0316418 0.172727 0.28714
          0.185124 0.25535 0.0292423 0.0316418 0.0220256 0.0210138
          0.0210138 0.00765602 0.0220256 0.0292423 0.0220256 0.00765602
          0.0210138 0 0 0.0220256 0.0210138 0
          0.0182165 0.00765602 0.0220256 0 0.00765602 0.021377
          0.0182165 0.0220256 0.00765602 0.021377 0.0220256 0.0292423
          -0.00165095 0.00405932 0.00322887 0.00965275 0.0615418 0.0311669
          0.0228868 0.0406751 0.0220256 0.0316418 0 0.0210138
          0.315148 0.239664 0.279336 0.30514 0.314208 0.239664
          0.315148 0.30514 0.314208 0.239664 0.30514 0.302885
          0.30514 0.239664 0.292862 0.302885 0.30514 0.229906
          0.292862 0.239664 0.30514 0.239664 0.279336 0.229906
          0.239664 0.227347 0.279336 0.229906 0.0334735 0.0608994
          0.0338639 0.0502169 -0.0309792 -0.0308071 -0.0364058 0.00691554
          -0.0308071 -0.0386367 -0.0364058 0.00691554 0.0882954 0.0944564
          0.115975 0.137752 0.394862 0.319563 0.324902 0.316173
          0.392529 0.324902 0.316173 0.394862 0.319563 0.316173
          0.237426 0.324902 0.392529 0.316173 0.387982 0.394862
          0.0425612 0.0171834 0.0345143 0.0450636 0.117833 0.185822
          0.089927 0.12867 0.109208 0.111056 0.199017 0.172426
          0.172426 0.111056 0.199017 0.141569 -0.00896293 0.00020316
          0.0126215 -0.0075844 -0.00310213 -0.0218483 -0.0201014 -0.0227859
          -0.0227859 -0.0201014 -0.00310213 0 0.100178 0.15796
          0.172727 0.172426 0.100178 0.15796 0.172426 0.0876554
          0.172426 0.15796 0.209017 0.0876554 0.172426 0.15796
          0.172727 0.209017 0.106057 0.118662 0.112396 0.110311
          0.0657571 0.0170272 0.0664855 0.00962742 0.073581 0.0327647
          0.0834431 0.0558022 0.073581 0.0558022 0.0834431 0.110055
          0.124962 0.153439 0.141147 0.11098 0.00965275 0.00405932
          0.00322887 0.0161469 -0.0384657 -0.0396448 -0.010015 0.00553736
          -0.0055242 0.0548873 0.000364435 0.0508163 0.0548873 0.0688967
          0.000364435 0.0508163 0.0548873 0.0688967 0.0508163 0.0948509
          0.0548873 0.0948509 0.0508163 0.11452 0.0548873 0.0508163
          0.0764155 0.11452 0.0764155 0.0508163 0.135072 0.11452
          0.0740235 0.0508163 0.135072 0.0764155 0.0740235 0.0764155
          0.01461 0.0508163 0.0202828 0.0740235 0.01461 0.0508163
          0.0202828 0.0508163 0.01461 -0.0139035 0.0734512 0.0740235
          0.0202828 0.0508163 0.0740235 0.0508163 0.0734512 0.135072
          0.0508163 0.0948509 0.0734512 0.135072 0.0508163 0.0948509
          0.135072 0.11452 0.0801865 0.0943749 0.0769836 0.110055
          0.106363 0.104386 0.111468 0.104664 0.0445276 -0.0124161
          0.0567087 -0.00630596 0.109617 0.0654843 0.0677674 0.122207
          0.122207 0.0654843 0.0677674 0.0816163 0.122207 0.0816163
          0.0677674 0.0932756 0.122207 0.0975595 0.0654843 0.0816163
          0.122207 0.131645 0.160387 0.124809 0.115205 0.115205
          0.141147 0.107308 0.0137284 0.0754783 0.127105 0.100937
          -0.0116154 4.09269e-05 -0.00275804 0.0171834 0.172727 0.100178
          0.163459 0.158421 0.115624 0.108992 0.112637 0.114543
          0.112637 0.107566 0.108992 0.115624 -0.0211321 -0.00441511
          -0.0254388 -0.0198786 0.127105 0.0137284 0.0201388 0.0754783
          0.115205 0.143039 0.141147 0.107308 0.134062 0.189171
          0.124809 0.147387 0.141147 0.153439 0.0838931 0.11098
          0.0608181 0.102925 0.0679743 0.0689447 0.102925 0.073581
          0.0864608 0.0689447 0.0311669 0.0276634 0.00753595 0.0689447
          0.0276634 0.0327647 0.00753595 0.0689447 0.137992 0.0896431
          0.0740493 0.117288 -0.0335928 -0.0280384 -0.0254388 -0.0102802
          -0.0254388 -0.0280384 -0.00700115 -0.0102802 0.056846 0.0480306
          0.0821075 0.0590884 0.0918535 0.0862894 0.0608994 0.0962148
          0.386422 0.300097 0.392529 0.345247 0.0948104 0.110675
          0.135703 0.134062 0.134062 0.124809 0.131645 0.0945674
          0.060929 0.102322 0.165688 0.0689063 0.0939533 0.0689063
          0.060929 0.165688 0.060929 0.0939533 0.165688 0.165241
          0.060929 0.0799235 0.0939533 0.165241 0.0939533 0.0443352
          0.0799235 0.060929 0.0939533 -0.0276234 0.0443352 0.060929
          0.0689063 -0.0276234 0.0939533 0.060929 -0.0209697 -0.0276234
          0.0689063 0.060929 -0.0209697 0.060929 0.0689063 -0.0268066
          -0.0209697 -0.0276234 0.060929 -0.0268066 0.126251 0.130132
          0.0908379 0.0896834 0.126251 0.130132 0.114044 0.0908379
          0.179763 0.209308 0.15353 0.179652 0.137741 0.1144
          0.125961 0.118368 0.0368505 0.013461 0.0159097 0.0182165
          0.27145 0.296649 0.316074 0.378687 0.182741 0.161857
          0.193616 0.126597 0.0423499 0.0619345 0.0784527 0.0368505
          0.120859 0.120603 0.118728 0.162928 0.107034 0.117288
          0.117288 0.141182 0.153439 0.168513 0.141182 0.145903
          0.134062 0.147387 0.135703 0.177759 -0.00151333 0.0716709
          -0.0101049 0.0808134 0.137254 0.130566 0.110311 0.118662
          0.209054 0.198685 0.166592 0.216313 0.00965275 0.0407461
          0.0165473 0.0176904 0.214788 0.209269 0.209054 0.264721
          0.1144 0.130566 0.118662 0.110311 0.1144 0.130566
          0.110311 0.109567 0.0125049 -0.00603925 0.0252408 -0.000402004
          0.0502169 0.0698431 0.0338639 0.0252408 0.0444503 0.0252408
          0.0502169 0.0491411 0.130566 0.114991 0.110311 0.109567
          0.28714 0.239744 0.267607 0.238454 0.0228868 0.0276634
          -0.0129101 0.0311669 0.0598204 0.0445276 0.0567087 -0.00630596
          0.0171834 -0.0048344 0.0450636 0.0277829 -0.00751634 0.00138579
          0.0228868 -0.0180461 -0.00751634 0.00138579 0.0326146 0.0228868
          0.0406751 0.0228868 0.0326146 0.00138579 0.0406751 0.0311669
          0.0228868 0.00138579 0.216996 0.258775 0.262572 0.220738
          0.272881 0.285884 0.341479 0.349887 0.0871718 0.0480306
          0.0571961 0.0970682 0.0444503 0.0962148 0.0698431 0.0910404
          0.0444503 0.0819989 0.0962148 0.0910404 0.0502169 0.0819989
          0.0962148 0.0444503 0.0502169 0.0962148 0.0698431 0.0444503
          0.190968 0.127105 0.145798 0.0754783 0.0918535 0.0962148
          0.0502169 0.0819989 0.0918535 0.128242 0.0962148 0.0819989
          0.0918535 0.128242 0.132188 0.0962148 0.107034 0.117288
          0.141182 0.137992 0.141147 0.168513 0.115205 0.141182
          0.107034 0.137992 0.141182 0.166592 0.128242 0.145628
          0.132188 0.0962148 0.128242 0.145628 0.0962148 0.0989644
          0.128242 0.0962148 0.0819989 0.0989644 0.0819989 0.0962148
          0.0910404 0.0989644 0.0962148 0.145628 0.0910404 0.0989644
          0.0962148 0.145628 0.147637 0.0910404 0.0962148 0.147637
          0.143208 0.0910404 0.216996 0.222148 0.258775 0.220738
          0.262343 0.219222 0.192396 0.159365 0.132188 0.145628
          0.147637 0.0962148 0.109555 0.10082 0.114543 0.1297
          0.1297 0.1544 0.137361 0.13511 0.204543 0.0994822
          0.130585 0.149682 0.204543 0.130585 0.182741 0.149682
          0.137108 0.149682 0.0540385 0.0994822 0.137108 0.0887729
          0.0540385 0.149682 0.149682 0.0887729 0.0540385 0.0994822
          0.149682 0.0887729 0.126597 0.161268 0.373022 0.298245
          0.381624 0.301397 0.373022 0.301397 0.381624 0.379682
          0.373022 0.301397 0.379682 0.369769 0.301397 0.298245
          0.381624 0.379682 0.179831 0.301397 0.298245 0.240365
          0.267607 0.179831 0.240365 0.301397 0.240365 0.27609
          0.267607 0.301397 0.240365 0.27609 0.301397 0.361653
          0.301397 0.27609 0.267607 0.361653 0.267607 0.179831
          0.301397 0.248309 0.301397 0.248309 0.297489 0.267607
          0.301397 0.248309 0.378097 0.297489 0.179831 0.248309
          0.298245 0.301397 -0.0442204 -0.043366 -0.0255505 -0.00603925
          -0.0425719 -0.0442204 -0.00603925 -0.043366 -0.0425719 -0.00603925
          0.00472803 -0.043366 -0.00603925 -0.0425719 0.00472803 -0.000402004
          0.274803 0.229061 0.257162 0.219222 0.0125049 -0.0425719
          -0.00603925 -0.000402004 0.0125049 -0.0442204 -0.00603925 -0.0425719
          -0.0116154 4.09269e-05 0.0171834 0.0233769 0.168288 0.185682
          0.229061 0.254571 -0.00603925 -0.0255505 0.00706416 0.00472803
          -0.00603925 -0.043366 -0.0255505 0.00472803 0.109724 0.0998571
          0.102221 0.0836865 0.109724 0.0836865 0.102221 0.101268
          0.102221 0.0998571 0.0937691 0.0836865 0.0836865 0.0647985
          0.0937691 0.102221 0.102221 0.118801 0.0937691 0.0998571
          0.102221 0.118801 0.12387 0.0937691 0.049198 0.030685
          0.0674725 0.0481888 0.0331346 0.0487007 0.0679743 0.00727071
          0.102221 0.0742199 0.0979294 0.0925113 0.0715879 0.0742199
          0.102221 0.0925113 0.222148 0.209054 0.216313 0.254201
          0.344461 0.267528 0.315243 0.352832 0.264721 0.209269
          0.209054 0.262803 0.254201 0.222148 0.209054 0.264721
          0.0418506 0.0407461 0.0176904 0.0389648 0.349887 0.272881
          0.341816 0.341479 0.0948104 0.0696074 0.124809 0.0664855
          0.064645 0.0535114 0.0828441 0.0821186 0.0535114 0.0135894
          0.0665471 0.0510099 0.0535114 0.0665471 0.0821186 0.0647985
          0.0720016 0.0443352 0.126597 0.0359137 0.216313 0.292096
          0.251644 0.258775 0.161268 0.100967 0.0887729 0.0449238
          0.109208 0.0876554 0.0635172 0.172426 0.049659 0.0410239
          0.0665471 0.0535114 0.0535114 0.0410239 0.0665471 0.0135894
          0.0826533 0.137117 0.0638506 0.124138 0.101268 0.0836865
          0.0859557 0.0995078 0.0129194 0.00880291 0.0510099 0.0254341
          0.0481888 0.00880291 0.0510099 0.0129194 0.115205 0.165145
          0.174536 0.0992901 0.0908379 0.0481888 0.0670694 0.0510099
          0.0510099 0.0908379 0.0937691 0.0670694 0.0908379 0.0481888
          0.0510099 0.0665471 -0.0118951 0.0635172 0.060043 0.0876554
          -0.0118951 0.0635172 0.0876554 -0.0155251 -0.0118951 -0.0095751
          0.0635172 -0.0155251 -0.00714448 0.039149 0.0635172 -0.0095751
          0.0987772 0.120205 0.0885485 0.0998489 0.116074 0.120205
          0.0987772 0.112396 0.137254 0.119123 0.112396 0.118662
          0.137254 0.119123 0.120205 0.112396 0.119123 0.0998489
          0.120205 0.112396 0.119123 0.0998489 0.112396 0.110311
          0.119123 0.110311 0.112396 0.118662 0.119123 0.0992329
          0.0998489 0.110311 0.119123 0.0992329 0.110311 0.114991
          0.119123 0.114991 0.110311 0.130566 0.0716709 0.100937
          0.198539 0.13533 0.0716709 0.13533 0.198539 0.0830577
          0.120286 0.0716709 0.198539 0.0830577 0.120286 0.100937
          0.198539 0.0716709 0.120286 0.0716709 0.0746714 0.100937
          0.120286 0.0716709 -0.00848475 0.0746714 0.0716709 0.00350164
          -0.00848475 0.0746714 0.0716709 0.00350164 0.0746714 0.100937
          0.107566 0.106057 0.115624 0.109254 0.112396 0.106057
          0.109254 0.115624 -0.0396832 -0.0386367 0.00022389 -0.00778128
          0.00402628 -0.000402004 0.0242242 -0.0396832 -0.0396832 -0.043366
          0.00022389 -0.0386367 0.0664855 0.0816163 0.131645 0.0688967
          0.0664855 0.124809 0.131645 0.0816163 0.0664855 0.0696074
          0.124809 0.0816163 0.0816163 0.0664855 0.0696074 0.0654843
          0.0816163 0.0246036 0.0664855 0.0654843 0.0664855 0.0246036
          0.0696074 0.0654843 0.0664855 0.0246036 0.0237723 0.0696074
          0.132605 0.126251 0.108289 0.0801865 0.132605 0.126251
          0.0801865 0.0896834 0.132605 0.166124 0.108289 0.126251
          0.108289 0.16614 0.166124 0.132605 0.302232 0.27145
          0.248601 0.186567 0.27145 0.302232 0.248601 0.293472
          0.27145 0.370712 0.302232 0.293472 0.370712 0.293472
          0.359992 0.302232 0.370712 0.302232 0.359992 0.367966
          0.370712 0.302232 0.367966 0.380329 0.100508 0.111776
          0.107518 0.0864786 0.367966 0.302232 0.359992 0.293221
          0.302232 0.293472 0.359992 0.293221 0.302232 0.248601
          0.293472 0.293221 0.107518 0.1144 0.0995078 0.0982553
          0 0 0.00322887 -0.00700115 0 -0.00700115
          0.00322887 -0.00165095 -0.00165095 -0.00441511 0 -0.00700115
          0.00322887 -0.00700115 -0.00608307 -0.00165095 0.00322887 -0.00700115
          0.000235171 -0.00608307 0.00322887 0 0.000235171 -0.00700115
          -0.00700115 0 0.000235171 -0.00608307 0 -0.0210681
          0 -0.00700115 0 -0.0210681 -0.00700115 -0.0198786
          -0.0198786 -0.0210681 -0.00700115 -0.0280384 -0.00700115 -0.0210681
          -0.0182313 -0.0280384 -0.00700115 -0.0280384 -0.0182313 -0.00551033
          -0.00700115 -0.0280384 -0.00551033 -0.0102802 0 -0.0210681
          -0.0182313 -0.00700115 0.159365 0.219222 0.192396 0.161268
          0.0410239 0.0257655 0.00408605 -0.00694388 0.0410239 0.0228868
          0.0257655 -0.00694388 0.0410239 0.0518296 0.0257655 0.0228868
          0.0518296 0.0481888 0.0410239 0.0257655 0.0518296 0.0257655
          0.0228868 0.0311669 0.0518296 0.0276634 0.0257655 0.0311669
          0.0257655 0.0276634 0.0228868 0.0311669 0.0257655 0.0276634
          -0.0129101 0.0228868 0.0257655 0.0228868 -0.0129101 -0.00694388
          0.00408605 0.0257655 -0.0129101 -0.00694388 0.0257655 -0.0129101
          0.000362789 0.00408605 0.120838 0.114991 0.130566 0.109567
          0.217678 0.165257 0.153439 0.141876 0.0567087 0.0437957
          0.0991005 -0.00726708 0.000362789 -0.0104375 -0.0129101 0.0257655
          0.000362789 -0.00345285 -0.0104375 0.030685 0.384031 0.371492
          0.34366 0.298834 0.34366 0.298834 0.328598 0.258085
          0.272704 0.298834 0.34366 0.258085 0.073345 0.0977345
          0.0605018 0.0603776 -0.0355365 0.0157321 0.0266702 0.00402628
          0.169989 0.18707 0.22275 0.19409 0.0894282 0.0801865
          0.0782603 0.108289 0.0894282 0.108289 0.0782603 0.124448
          0.0894282 0.0782603 0.0793457 0.124448 0.124448 0.116094
          0.0782603 0.0793457 0.124448 0.116094 0.108289 0.0782603
          0.0782603 0.0864608 0.116094 0.108289 0.0277829 0.00402628
          0.0508684 0.0266702 0.238454 0.163459 0.172426 0.213365
          0.158421 0.25535 0.163459 0.172727 0.134573 0.128315
          0.117073 0.138348 0.0819398 0.0853375 0.0864786 0.073082
          0.0853375 0.0808666 0.0914105 0.0836865 0.138348 0.134573
          0.152841 0.117073 0.146451 0.128315 0.134573 0.138348
          0.11977 0.108096 0.113746 0.112241 0.109724 0.101268
          0.102221 0.108096 0.109724 0.108096 0.11977 0.112241
          0.11977 0.108096 0.12041 0.113746 -0.0117722 0.0876554
          0.0595115 0.11408 -0.00102808 0.0851486 0.0595115 -0.0117722
          -0.0036987 -0.00102808 0.0595115 -0.00991763 0.0979294 0.0670694
          0.113639 0.0964633 0.0979294 0.0670694 0.0964633 0.0873117
          0.0964633 0.0908379 0.0896834 0.0670694 0.0670694 0.0896834
          0.0964633 0.0674725 0.246225 0.200648 0.256875 0.287691
          0.230788 0.200648 0.287691 0.256875 0.121768 0.121678
          0.11878 0.0964633 0.121768 0.0964633 0.11878 0.0758985
          0.0919653 0.125164 0.155675 0.128141 0.0737005 0.0975373
          0.130472 0.0983677 0.0863681 0.0567513 0.0423499 0.0784527
          -0.0276234 -0.0227431 0.0443352 -0.0240479 0.0567513 0.0368505
          0.0423499 0.0784527 0.0443352 -0.0227431 0.0583242 -0.0240479
          -0.0227431 -0.0171148 0.0583242 -0.0240479 -0.0209697 0.0467083
          0.0939533 -0.0276234 0.0689063 0.0939533 -0.0209697 0.0467083
          0.0467083 -0.0129809 0.100178 -0.0171148 -0.0155251 -0.0129809
          0.0467083 -0.0171148 0.12867 0.0830577 0.189954 0.102322
          0.101095 0.0173037 0.0091938 0.0612522 0.101095 0.0173037
          0.0612522 0.0337389 0.109382 0.101095 0.0612522 0.0337389
          0.101095 0.0337389 0.109382 0.100789 0.12824 0.101095
          0.109382 0.100789 0.12824 0.0337389 0.101095 0.100789
          0.12824 0.0173037 0.101095 0.0337389 0.0554554 0.0728637
          0.0391397 0.0764351 0.0554554 0.0885485 0.0728637 0.0801628
          0.107431 0.097403 0.105112 0.104453 0.105112 0.097403
          0.116001 0.104453 0.105112 0.103554 0.116001 0.097403
          0.0119736 0.0327647 0.0343041 0.00691554 0.00691554 -0.0144376
          0.0343041 0.0119736 0.163956 0.185682 0.237712 0.229061
          0.229061 0.168288 0.257162 0.219222 0.0277829 -0.0048344
          0.0450636 0.00402628 0.00402628 -0.00275804 0.0277829 -0.0048344
          -0.00275804 0.0277829 0.0157321 0.00402628 4.09269e-05 0.0441608
          0.0233769 0.0475774 0.229061 0.185682 0.237712 0.254571
          -0.00275804 0.0556986 0.0157321 0.0277829 0.069771 0.0386203
          0.0487007 0.0406751 0.0487007 0.0386203 0.0679743 0.00727071
          0.0444074 0.00217083 -0.00345285 0.0442687 0.0444074 0.00217083
          0.0442687 0.0349748 0.00880291 0.00217083 0.0444074 0.0349748
          0.0444074 0.00880291 0.0349748 0.0271315 0.0638506 0.0657571
          0.0919653 0.0116505 0.00880291 0.00217083 -0.00345285 0.0444074
          0.0674725 0.0444074 0.0442687 0.0758985 0.0674725 0.0670694
          0.0444074 0.0758985 0.0481888 0.0444074 0.0674725 0.0670694
          0.0670694 0.0758985 0.0873117 0.0444074 0.0830577 -0.0211191
          -0.0160427 0.0590932 -0.0160427 0.11408 0.0830577 0.0590932
          -0.0160427 -0.0117722 0.0590932 -0.0161031 -0.0117722 0.0876554
          0.0590932 -0.0161031 -0.0117722 0.0876554 0.11408 0.0590932
          0.0590932 0.11408 0.15796 0.0876554 0.0590932 0.15796
          0.11408 0.179831 -0.0161031 -0.0155251 0.0876554 0.0590932
          0.203901 0.222064 0.146166 0.1552 0.264155 0.215632
          0.279438 0.262565 0.264155 0.246225 0.279438 0.215632
          0.246225 0.182105 0.279438 0.215632 0.246225 0.200648
          0.182105 0.215632 0.182105 0.135072 0.177392 0.215632
          0.10082 0.0923287 0.113683 0.0965191 0.10082 0.0965191
          0.113683 0.123019 0.10082 0.0923287 0.104453 0.113683
          0.10082 0.104453 0.107431 0.113683 0.0407461 0.0247822
          0.00965275 0.0114538 0.213365 0.172426 0.199017 0.141569
          0.199017 0.198498 0.213365 0.141569 0.199017 0.198498
          0.246247 0.213365 0.1297 0.123019 0.120129 0.119565
          0.213365 0.246247 0.310355 0.262343 0.112472 0.114469
          0.120129 0.119565 0.262343 0.25535 0.35358 0.213365
          -0.0129809 0.0640984 0.100178 -0.0171148 -0.0129809 -0.0123321
          0.0640984 -0.0171148 0.198498 0.262343 0.246247 0.213365
          0.137361 0.138658 0.155927 0.125961 -0.00441511 -0.00310213
          0 0 -0.00310213 0 0 0
          -0.00310213 -0.0201014 0 0 -0.00310213 -0.0201014
          -0.00354797 0 -0.00310213 -0.00354797 0.00906148 0
          0.00765602 -0.00310213 0.00906148 0 -0.00310213 0.00765602
          0 0 -0.0218483 -0.0201014 -0.00354797 -0.00310213
          -0.0184737 -0.0218483 -0.00354797 -0.00310213 0.18704 0.166017
          0.152841 0.175681 0.159421 0.113705 0.150465 0.118528
          0.159421 0.118528 0.150465 0.150518 0.118528 0.113705
          0.150465 0.150518 0.0851486 0.11408 0.17999 0.156872
          0.0851486 0.17999 0.143321 0.156872 0.0851486 0.17999
          0.0876554 0.143321 0.0851486 0.11408 0.0876554 0.17999
          0.0876554 0.209017 0.143321 0.17999 0.143321 0.209017
          0.212417 0.17999 0.143321 0.17999 0.212417 0.156872
          0.17999 0.212417 0.276815 0.209017 0.00727071 0.00753595
          -0.0312485 0.0331346 0.0975373 0.0910404 0.0962148 0.143208
          0.121678 0.0943749 0.11878 0.0964633 0.130472 0.0825549
          0.126891 0.0975373 0.189171 0.177759 0.249124 0.231423
          0.0992329 0.0973108 0.110311 0.103294 0.0992329 0.0890549
          0.0973108 0.103294 0.0992329 0.0998489 0.0973108 0.0890549
          0.0992329 0.0998489 0.110311 0.0973108 0.110311 0.0973108
          0.0998489 0.106057 0.103294 0.0975384 0.0890549 0.0973108
          0.0975384 0.0890549 0.0973108 0.0845377 0.0975384 0.0973108
          0.0910021 0.0845377 0 0 0.0182165 0.013461
          0.013461 0.0182165 0.0220256 0 0.118476 0.13808
          0.118768 0.124799 0.0910021 0.0973108 0.074161 0.0845377
          0.0973108 0.074161 0.0974821 0.0910021 0.0973108 0.0890549
          0.074161 0.0845377 0.0973108 0.074161 0.0890549 0.076987
          0.0303649 -0.0112473 0.0126215 0.00553736 0.0657571 0.0664855
          0.0945674 0.00962742 0.0945674 0.124809 0.131645 0.0664855
          0.0664855 0.131645 0.0945674 0.0688967 0.0945674 0.125164
          0.128141 0.131645 0.128141 0.0945674 0.131645 0.0688967
          0.0948104 0.124809 0.0945674 0.0664855 0.0948104 0.0664855
          0.0945674 0.0657571 0.073345 0.0508293 0.0303649 0.0423499
          0.073345 0.0303649 0.0605018 0.0423499 0.0303649 0.073345
          0.0605018 0.0603776 0.0341126 0.0603776 0.073345 0.0303649
          0.0341126 0.0303649 0.073345 0.0508293 0.0303649 0.0603776
          0.0347523 0.0341126 0.0864786 0.1144 0.0995078 0.107518
          0.303862 0.371492 0.298834 0.268238 0.1144 0.107518
          0.109567 0.107318 0.303862 0.380329 0.371492 0.317504
          0.380329 0.367966 0.371492 0.317504 0.302232 0.317504
          0.224695 0.248601 0.0653537 0.0821186 0.0998571 0.0836865
          0.0653537 0.0821186 0.0836865 0.0647985 0.0653537 0.0647985
          0.0836865 0.0480688 0.0653537 0.0836865 0.073082 0.0480688
          0.0359137 -0.0240479 0.0443352 0.0583242 0.0359137 0.0443352
          0.126597 0.0583242 0.0443352 0.0359137 -0.0153192 -0.0240479
          0.0359137 -0.0249977 -0.0153192 -0.0240479 0.0359137 -0.0249977
          -0.0240479 -0.0258321 0.0359137 -0.0258321 -0.0240479 -0.0199145
          0.0359137 -0.0249977 -0.0258321 0.023489 0.023489 0.0540385
          -0.0258321 0.0359137 0.0987772 0.0885485 0.074161 0.0998489
          0.0998571 0.0994754 0.102378 0.0821186 0.0998571 0.0994754
          0.118801 0.102378 0.102378 0.0821186 0.0994754 0.0828441
          0.0535114 0.0135894 0.0510099 0.0270565 0.108096 0.107431
          0.105112 0.12041 0.11977 0.102221 0.11472 0.108096
          0.0535114 0.0172693 0.0135894 0.0270565 0.102378 0.0908379
          0.0937691 0.0821186 0.302885 0.239664 0.213557 0.240943
          0.191072 0.153324 0.218704 0.177759 0.218704 0.153324
          0.182702 0.177759 0.218704 0.177759 0.182702 0.18131
          0.16095 0.243931 0.199466 0.240943 0.191072 0.218704
          0.214694 0.177759 0.18131 0.236316 0.182702 0.218704
          0.231423 0.236316 0.18131 0.218704 0.304914 0.243931
          0.31346 0.240943 0.291481 0.288612 0.299437 0.256621
          0.0463084 0.0292423 0.0220256 0.0385235 0.176831 0.124087
          0.147387 0.163709 0.176831 0.146451 0.124087 0.163709
          0.163709 0.203477 0.176831 0.146451 0.282707 0.185828
          0.185822 0.15877 0.282707 0.185828 0.15877 0.240365
          0.117833 0.15877 0.185822 0.185828 0.180281 0.163709
          0.145549 0.137254 0.145549 0.163709 0.120205 0.137254
          0.15353 0.163709 0.120205 0.145549 0.15353 0.163709
          0.124087 0.120205 0.163709 0.124087 0.147387 0.15353
          0.163709 0.146451 0.124087 0.120205 0.163709 0.146451
          0.120205 0.137254 0.117833 0.0982184 0.15877 0.185828
          0.125164 0.177759 0.155675 0.171681 0.141569 0.0640984
          0.0611862 0.104946 0.0567513 0.0784527 0.0811874 0.0407461
          0.0567513 0.0407461 0.0811874 0.0680056 0.186477 0.272704
          0.217441 0.205824 0.0680056 0.0695339 0.0567513 0.0389648
          0.0863681 0.0508293 0.0423499 0.0567513 0.0948104 0.0945674
          0.125164 0.0657571 0.0567513 0.0165473 0.0423499 0.0368505
          0.107431 0.0865935 0.104453 0.10082 0.107431 0.097403
          0.104453 0.0865935 0.0865935 0.105112 0.107431 0.097403
          0.10082 0.0865935 0.0998671 0.0925113 0.0925113 0.0865935
          0.0998671 0.0859557 0.0925113 0.0715879 0.0865935 0.0859557
          0.145402 0.143208 0.113901 0.0983677 0.145402 0.0927891
          0.0966303 0.0983677 -0.0228156 0.0119736 0.0327647 0.0249799
          0.0865935 0.0711245 0.0805224 0.0923287 0.0865935 0.0711245
          0.0923287 0.085481 0.116074 0.115624 0.120129 0.130862
          0.25679 0.323171 0.229061 0.237712 0.0995078 0.0853375
          0.0987473 0.0836865 0.0836865 0.0853375 0.0859557 0.0995078
          0.0836865 0.073082 0.0859557 0.0853375 0.152768 0.143208
          0.113901 0.145402 0.0864786 0.0853375 0.0982553 0.0995078
          0.0982553 0.0853375 0.0987473 0.0995078 0.0982553 0.0853375
          0.0914105 0.0987473 0.0982553 0.0808666 0.0914105 0.0853375
          0.19211 0.124809 0.131645 0.189171 0.19211 0.160387
          0.124809 0.189171 0.0689865 0.120774 0.168288 0.0991005
          0.227329 0.189171 0.23316 0.19211 0.0689865 0.0688902
          0.120774 0.0991005 0.189171 0.227329 0.160387 0.176831
          0.160387 0.176831 0.147387 0.189171 0.189171 0.160387
          0.124809 0.147387 0.150403 0.155927 0.171264 0.145549
          0.141569 0.0640984 0.104946 0.100178 0.189171 0.227329
          0.176831 0.21932 0.189171 0.21932 0.18131 0.231423
          0.102925 0.0858781 0.0679743 0.0689447 0.102925 0.0864608
          0.0858781 0.0689447 0.133475 0.101095 0.102717 0.153914
          0.00727071 -0.000947842 -0.0273646 0.0101504 0.204122 0.209922
          0.293472 0.248601 0.204122 0.186567 0.209922 0.248601
          0.204122 0.186567 0.154107 0.209922 0.209922 0.204122
          0.133475 0.154107 0.209922 0.186567 0.154107 0.248601
          0.293472 0.248601 0.209922 0.272881 0.293472 0.209922
          0.24564 0.272881 0.209922 0.194109 0.293472 0.24564
          -0.0438624 -0.00603925 -0.0255505 0.00270117 -0.0152809 0.00706416
          -0.0255505 0.00486514 -0.0152809 -0.0255505 -0.0295031 0.00486514
          -0.0152809 0.00486514 -0.0295031 -0.0096781 0.160002 0.164278
          0.137233 0.131259 0.101199 0.0858781 0.069771 0.0386203
          0.118801 0.13808 0.124799 0.148566 0.130862 0.118662
          0.137741 0.112396 0.124799 0.118801 0.12387 0.102221
          0.124799 0.148566 0.145529 0.12387 0.136736 0.148566
          0.145529 0.124799 0.124799 0.13808 0.136736 0.148566
          0.030685 -0.0126592 0.049198 0.0249799 0.030685 0.00880291
          0.0481888 0.0129194 0.030685 0.00880291 0.0444074 0.0481888
          0.030685 0.0444074 0.0674725 0.0481888 0.030685 0.0444074
          0.0442687 0.0674725 0.030685 0.0442687 0.0368281 0.0674725
          0.0689865 -0.00726708 0.0437957 -0.0152553 0.0689865 0.0437957
          0.0991005 0.0692071 0.179768 0.141876 0.107324 0.158504
          0.179768 0.141876 0.11098 0.107324 0.107324 0.141876
          0.11098 0.0583965 0.107324 0.108162 0.141876 0.0583965
          0.141876 0.108162 0.107324 0.158504 0.049462 -0.0244421
          0.0540385 0.045572 0.0269824 0.045572 -0.0206594 -0.0244421
          0.109382 0.0337389 0.0525426 0.100789 0.109382 0.0612522
          0.0525426 0.0337389 0.141876 0.153439 0.11098 0.0838931
          0.268008 0.231761 0.2938 0.289816 0.146871 0.1297
          0.150403 0.127146 0.150403 0.1297 0.130862 0.127146
          0.156081 0.184437 0.171264 0.1544 0.0871718 0.0970682
          0.0885485 0.0974886 0.0974886 0.127413 0.0871718 0.0970682
          0.0974886 0.127413 0.10914 0.0871718 0.09246 0.0974886
          0.10914 0.0871718 0.09246 0.0871718 0.10914 0.0821075
          0.09246 0.0665122 0.0871718 0.0821075 0.0665122 0.0871718
          0.0821075 0.056846 0.0665122 0.0571961 0.0871718 0.056846
          0.056846 0.0571961 0.0871718 0.0480306 0.056846 0.0871718
          0.0821075 0.0480306 0.0871718 0.129565 0.10914 0.0821075
          0.129565 0.0871718 0.117983 0.0821075 0.129565 0.0970682
          0.117983 0.0871718 0.130792 0.129565 0.0871718 0.0970682
          0.127413 0.130792 0.0871718 0.0970682 0.127413 0.130792
          0.10914 0.0871718 0.130792 0.129565 0.10914 0.0871718
          0.154107 0.0896431 0.0740493 0.137992 0.154107 0.0896431
          0.145903 0.109382 0.154107 0.0896431 0.137992 0.145903
          0.154107 0.101095 0.0740493 0.0896431 0.154107 0.101095
          0.0896431 0.0612522 0.182702 0.152841 0.135703 0.117983
          0.0567087 0.045572 0.086844 0.0437957 0.324902 0.316173
          0.237426 0.271522 0.316173 0.324902 0.392529 0.271522
          0.0680056 0.0811874 0.0809459 0.0418506 0.0418506 0.0567513
          0.0407461 0.0389648 0.137233 0.124448 0.114044 0.10645
          0.358776 0.35358 0.293523 0.368693 0.131259 0.124448
          0.137233 0.10645 0.216483 0.186477 0.217678 0.179768
          0.217678 0.186477 0.141876 0.179768 0.217678 0.186477
          0.165257 0.141876 0.186477 0.108162 0.165257 0.141876
          0.186477 0.108162 0.141876 0.158504 0.179768 0.186477
          0.141876 0.158504 0.158504 0.127105 0.186477 0.108162
          0.256253 0.26761 0.227293 0.250416 0.186477 0.127105
          0.165257 0.108162 0.127105 0.196146 0.186477 0.165257
          0.186477 0.196146 0.186567 0.165257 0.186477 0.186567
          0.268238 0.165257 0.0647985 0.0559069 0.0510099 0.0742199
          0.266947 0.376057 0.293499 0.342939 0.293499 0.376057
          0.378063 0.342939 0.0647985 0.0254341 0.0510099 0.0559069
          0.293499 0.376057 0.381656 0.378063 0.293499 0.298245
          0.381656 0.376057 0.293499 0.381656 0.298245 0.296192
          0.0269824 -0.026268 -0.0206594 0.00474097 0.060043 0.109208
          0.143321 0.0876554 0.00474097 0.0202828 -0.0158773 0.0734512
          0.00474097 -0.0158773 0.0202828 -0.0139035 0.217441 0.127105
          0.190968 0.199691 0.217441 0.127105 0.199691 0.13533
          0.142066 0.159421 0.163356 0.118528 0.142066 0.163356
          0.121041 0.118528 0.142066 0.163356 0.148017 0.121041
          0.264155 0.187876 0.215632 0.205526 0.264155 0.205526
          0.215632 0.262565 0.122055 0.102925 0.163356 0.164565
          0.205526 0.177392 0.215632 0.272434 0.187876 0.177392
          0.215632 0.205526 0.118528 0.163356 0.121041 0.102925
          0.118528 0.159421 0.163356 0.102925 0.102925 0.159421
          0.163356 0.164565 0.137752 0.204548 0.173823 0.109294
          0.300097 0.269623 0.392529 0.345247 0.324902 0.269623
          0.392529 0.300097 0.324902 0.300097 0.392529 0.271522
          0.324902 0.269623 0.300097 0.271522 0.0882954 0.0944564
          0.109294 0.0567087 0.387982 0.271522 0.392529 0.300097
          0.387982 0.300097 0.392529 0.386422 0.300097 0.248309
          0.379682 0.301397 0.100967 0.159365 0.104946 0.192396
          0.113901 0.154866 0.160203 0.118728 0.113901 0.154866
          0.118728 0.120603 0.0829969 0.120603 0.113901 0.118728
          0.118728 0.154866 0.160203 0.120603 0.118728 0.120603
          0.160203 0.162928 0.122055 0.160203 0.118728 0.102925
          0.122055 0.118728 0.120859 0.102925 0.122055 0.160203
          0.120859 0.118728 0.199929 0.166017 0.172754 0.164091
          0.199929 0.203477 0.172754 0.166017 0.175681 0.203477
          0.199929 0.166017 0.164091 0.166017 0.172754 0.137254
          0.164091 0.166017 0.137254 0.129355 0.164091 0.152841
          0.166017 0.129355 0.119042 0.10645 0.0878253 0.0845509
          0.119042 0.10645 0.102378 0.0878253 0.102378 0.0878253
          0.0908379 0.0821186 0.0878253 0.10645 0.0894282 0.0845509
          0.0845509 0.0581534 0.0894282 0.0878253 0.116016 0.185828
          0.165688 0.15877 0.239777 0.165688 0.185828 0.15877
          0.239777 0.15877 0.185828 0.27609 0.239777 0.165688
          0.15877 0.27609 0.27609 0.165688 0.15877 0.240365
          0.27609 0.15877 0.185828 0.240365 0.165688 0.240365
          0.179831 0.15877 0.165688 0.15877 0.179831 0.102322
          0.152519 0.147637 0.145628 0.101176 0.152519 0.101176
          0.145628 0.0989644 0.152519 0.0989644 0.15653 0.101176
          0.120603 0.152519 0.15653 0.101176 0.120603 0.101176
          0.15653 0.102812 0.101176 0.0989644 0.15653 0.102812
          0.101176 0.0910404 0.145628 0.0989644 0.101176 0.147637
          0.145628 0.0910404 0.159365 0.168288 0.219222 0.161268
          0.282294 0.262572 0.256007 0.254847 0.336675 0.254201
          0.284969 0.292096 0.100967 0.168288 0.159365 0.161268
          0.0640984 -0.00710968 0.0611862 -0.0123321 0.0611862 0.0640984
          -0.0123321 0.0583242 0.336675 0.335373 0.292096 0.284969
          0.0640984 0.100178 -0.0171148 0.0583242 -0.0123321 0.0640984
          -0.0171148 0.0583242 0.0640984 0.111056 0.172426 0.141569
          -0.00896293 0.00156437 -0.00484605 0.016022 -0.00484605 0.016022
          0.0126215 -0.00896293 -0.0184737 -0.02912 -0.00896293 -0.00484605
          -0.02912 -0.00896293 -0.00484605 -0.0112473 0.130675 0.128281
          0.152257 0.143157 0.0311669 -0.0273646 0.00753595 -0.0202432
          0.161857 0.228849 0.267528 0.165241 0.130885 0.078365
          0.0619518 0.0688902 0.118528 0.113705 0.114861 0.0927891
          0.110055 0.133529 0.165496 0.132605 0.133529 0.132605
          0.110055 0.121678 0.29657 0.256875 0.199466 0.287691
          0.110055 0.0769836 0.120268 0.133529 0.16549 0.132605
          0.133529 0.121678 0.133529 0.16549 0.165496 0.132605
          0.16549 0.165818 0.133529 0.165496 0.133529 0.158708
          0.165145 0.120268 0.231423 0.236316 0.218704 0.249124
          0.216692 0.215632 0.279438 0.287792 0.295685 0.292862
          0.285631 0.213557 0.285631 0.213557 0.287792 0.295685
          0.28714 0.344346 0.35358 0.358776 0.358776 0.25535
          0.35358 0.28714 0.28714 0.344346 0.358776 0.359488
          0.279438 0.230788 0.287691 0.287792 0.287792 0.215632
          0.279438 0.230788 0.216692 0.215632 0.287792 0.230788
          0.216692 0.230788 0.287792 0.213557 0.216692 0.182105
          0.230788 0.213557 0.216692 0.215632 0.230788 0.182105
          0.230788 0.215632 0.279438 0.182105 0.182105 0.137752
          0.230788 0.213557 0.240943 0.230788 0.137752 0.213557
          0.213557 0.240943 0.230788 0.295685 0.213557 0.230788
          0.287792 0.295685 0.287792 0.230788 0.296722 0.295685
          0.287792 0.230788 0.287691 0.296722 0.29657 0.230788
          0.296722 0.287691 0.29657 0.199466 0.230788 0.287691
          0.29657 0.199466 0.296722 0.230788 0.199466 0.243931
          0.296722 0.230788 0.230788 0.243931 0.296722 0.304914
          0.230788 0.304914 0.296722 0.295685 0.240943 0.304914
          0.230788 0.295685 0.240943 0.243931 0.230788 0.304914
          0.108289 0.16614 0.132605 0.133888 0.116094 0.146533
          0.124448 0.133888 0.0864608 0.102925 0.133888 0.122055
          0.116094 0.0864608 0.121041 0.133888 0.116094 0.121041
          0.148017 0.133888 0.116094 0.133888 0.108289 0.0864608
          0.293499 0.342939 0.378063 0.296649 0.266947 0.342939
          0.293499 0.296649 0.252053 0.266947 0.293499 0.296649
          0.133888 0.122055 0.108289 0.0864608 0.201989 0.266947
          0.252053 0.296649 0.201989 0.266947 0.296649 0.260233
          0.266947 0.342939 0.296649 0.260233 0.296649 0.312824
          0.27145 0.24719 0.0559069 0.0758985 0.0873117 0.0741411
          0.0559069 0.0873117 0.0979294 0.0741411 0.0670694 0.0873117
          0.0979294 0.0559069 0.0670694 0.0444074 0.0873117 0.0559069
          0.0254341 0.0444074 0.0670694 0.0559069 0.0444074 0.0758985
          0.0873117 0.0559069 0.0444074 0.0349748 0.0758985 0.0559069
          0.0832282 0.0657571 0.0919653 0.0638506 0.0638506 0.0832282
          0.124138 0.0919653 0.0638506 0.137117 0.0919653 0.124138
          0.00727071 -0.0312485 0.00213241 0.0331346 0.0975373 0.0962148
          0.134593 0.143208 0.104248 0.111468 0.119576 0.106077
          0.104248 0.107318 0.111468 0.106057 0.0975384 0.102285
          0.0910021 0.104248 0.0975384 0.104248 0.0910021 0.0973108
          0.104248 0.0975384 0.103294 0.0973108 -0.0352411 -0.0387419
          -0.0112473 -0.00895024 0.106363 0.102285 0.0975384 0.104248
          0.00765602 0.00562483 0 0.0182165 0.00765602 0.00562483
          0 0 0.104713 0.121685 0.121298 0.113746
          0.254682 0.330856 0.319326 0.262653 0.262653 0.330856
          0.319326 0.271852 0.135405 0.120177 0.107034 0.137992
          0.0668794 0.0091938 0.101095 0.0803818 0.0668794 0.101095
          0.133475 0.0803818 0.00213241 0.0419592 0.00691554 0.0242242
          0.111468 0.125346 0.118768 0.118476 0.0803818 0.0746714
          0.12824 0.149244 0.0803818 0.0746714 0.0173037 0.12824
          0.0944564 0.0734512 0.137752 0.0567087 0.0970682 0.0975595
          0.0728637 0.124087 0.0970682 0.0728637 0.0885485 0.124087
          0.0885485 0.0728637 0.109413 0.124087 0.0728637 0.0885485
          0.109413 0.0801628 0.0764351 0.0728637 0.109413 0.0801628
          0.109413 0.0728637 0.0764351 0.0975595 0.0728637 0.0975595
          0.109413 0.124087 0.0728637 0.0654843 0.0764351 0.0975595
          0.0728637 0.0696074 0.0654843 0.0975595 0.0728637 0.0696074
          0.0246036 0.0654843 0.0728637 0.0421184 0.0246036 0.0696074
          0.0407461 0.0247822 0.0514059 0.0452555 0.0247822 0.0407461
          0.0418506 0.0452555 0.213365 0.262343 0.293523 0.35358
          0.213365 0.262343 0.310355 0.293523 0.293523 0.246247
          0.310355 0.213365 0.199017 0.246247 0.293523 0.213365
          0.293523 0.172426 0.199017 0.213365 0.199017 0.279083
          0.172426 0.293523 0.199017 0.293523 0.310355 0.279083
          0.199017 0.246247 0.310355 0.293523 0.172426 0.209017
          0.293523 0.279083 0.293523 0.279083 0.209017 0.297489
          0.293523 0.262343 0.310355 0.35358 0.293523 0.35358
          0.310355 0.368693 0.130862 0.115624 0.120129 0.125961
          0.130862 0.1297 0.120129 0.127146 0.1297 0.123019
          0.114543 0.120129 0.15877 0.0519335 0.165688 0.060929
          0.15877 0.102322 0.165688 0.0519335 0.0519335 0.102322
          0.165688 0.060929 0.102322 0.0519335 0.0689063 0.060929
          0.102322 0.0590932 0.0689063 0.0519335 0.102322 0.0590932
          0.0519335 -0.0213389 0.0519335 0.0590932 0.0689063 -0.0213389
          -0.0213389 0.0689063 0.0519335 -0.0268066 0.0519335 -0.0268066
          0.0689063 0.060929 0.108162 0.109382 0.0647625 0.0433159
          0.108162 0.109382 0.141876 0.0647625 0.153439 0.0647625
          0.141876 0.109382 0.153439 0.0820273 0.0647625 0.109382
          0.0751999 0.104426 0.0667859 0.0862894 0.0751999 0.104426
          0.0862894 0.120583 0.0862894 0.104426 0.121216 0.120583
          0.0862894 0.120583 0.121216 0.132188 0.289143 0.220738
          0.262572 0.258775 0.289143 0.258775 0.262572 0.335373
          0.0862894 0.0825549 0.126891 0.121216 0.121216 0.0862894
          0.0825549 0.112393 0.0862894 0.104426 0.112393 0.121216
          0.0667859 0.104426 0.112393 0.0862894 0.0862894 0.0667859
          0.0825549 0.112393 0.115205 0.117288 0.141182 0.117288
          0.117288 0.115205 0.141182 0.115205 0.117288 0.115205
          0.149803 0.141182 0.141182 0.148946 0.149803 0.117288
          0.115205 0.149803 0.141182 0.148758 0.115205 0.148758
          0.141182 0.115205 0.141182 0.148758 0.168513 0.115205
          0.141182 0.149803 0.168513 0.148758 0.141182 0.145903
          0.207948 0.216313 0.141182 0.145903 0.216313 0.166592
          0.171272 0.11408 0.0595115 0.156872 0.0595115 0.0851486
          0.156872 0.11408 0.0595115 0.0876554 0.0851486 0.11408
          -0.0117722 0.0876554 0.0851486 0.0595115 0.0700909 0.0851486
          0.156872 0.0595115 0.0595115 0.0700909 0.150391 0.156872
          0.0700909 0.150391 0.0808134 0.0595115 0.0700909 0.0808134
          0.0846141 0.0595115 0.1081 0.126913 0.110326 0.121298
          -0.0276234 0.0467083 0.0939533 -0.0227431 0.0443352 -0.0227431
          0.0939533 0.0583242 0.315675 0.324155 0.243931 0.243538
          0.270051 0.23391 0.314985 0.306368 0.251013 0.306368
          0.23391 0.270051 0.251013 0.306368 0.29657 0.306307
          0.251013 0.306307 0.23391 0.306368 0.306368 0.23391
          0.315675 0.306307 0.306368 0.23391 0.314985 0.315675
          0.0274571 0.0182165 0.045819 0.0220256 0.0619345 0.0368505
          0.045819 0.0583685 0.0715661 0.0423499 0.063013 0.0863681
          -0.00165095 -0.00551033 -0.00608307 0.00405932 0.0746342 0.0864608
          0.0615418 0.0406751 -0.0048344 0.0125049 0.00402628 -0.000402004
          -0.0405949 -0.0048344 0.00402628 -0.000402004 -0.0405949 0.0125049
          -0.0048344 -0.000402004 -0.0048344 -0.0442204 -0.0421975 0.0125049
          -0.0155251 -0.0129809 0.0635172 0.0467083 0.0510099 0.0481888
          0.0129194 0.0135894 0.102221 0.0925113 0.105112 0.108096
          0.102221 0.0925113 0.108096 0.101268 0.108096 0.0925113
          0.107431 0.101268 0.108096 0.101268 0.107431 0.108992
          0.108096 0.107431 0.113746 0.108992 0.112241 0.108096
          0.113746 0.108992 0.112241 0.101268 0.108096 0.108992
          0.108096 0.107431 0.12041 0.113746 0.153914 0.154107
          0.102717 0.137992 0.198685 0.137992 0.154107 0.153914
          0.194109 0.209922 0.133475 0.153914 0.204548 0.31346
          0.254571 0.257162 0.31346 0.204548 0.254571 0.240943
          0.31346 0.254571 0.239664 0.240943 0.31346 0.254571
          0.314208 0.239664 0.254571 0.314208 0.323171 0.31346
          0.254571 0.31346 0.323171 0.257162 0.148895 0.116441
          0.0746714 0.181436 0.254571 0.293875 0.323171 0.314208
          0.293875 0.239664 0.314208 0.254571 0.239664 0.293875
          0.227347 0.254571 0.239664 0.254571 0.227347 0.185682
          0.185682 0.239664 0.254571 0.204548 0.254571 0.204548
          0.239664 0.240943 0.254571 0.293875 0.227347 0.185682
          0.185682 0.293875 0.237712 0.254571 0.160387 0.151141
          0.175681 0.190515 0.190515 0.151141 0.139514 0.122207
          0.188102 0.16371 0.176877 0.190515 0.188102 0.190515
          0.139514 0.16371 0.258775 0.262572 0.282294 0.216996
          0.0548873 0.0527092 0.0101279 0.0816163 0.113746 0.107431
          0.116001 0.112644 0.107431 0.105112 0.116001 0.112644
          0.107431 0.105112 0.112644 0.104453 0.113683 0.104453
          0.107431 0.112644 0.112644 0.105112 0.116001 0.104453
          0.207948 0.154107 0.145903 0.167438 0.207948 0.145903
          0.153439 0.167438 0.167438 0.145903 0.153439 0.109382
          0.167438 0.154107 0.145903 0.109382 0.186567 0.154107
          0.167438 0.109382 0.186567 0.167438 0.165257 0.109382
          0.0998671 0.10082 0.114543 0.110097 0.0948582 0.10082
          0.0998671 0.110097 0.0948582 0.10082 0.110097 0.109555
          0.110097 0.10082 0.114543 0.109555 0.110097 0.109555
          0.114543 0.1297 0.137361 0.109555 0.110097 0.1297
          0.0705408 0.0481888 0.0665471 0.0410239 0.210773 0.184437
          0.209308 0.177732 0.184437 0.156081 0.146871 0.177732
          0.184437 0.146871 0.150403 0.177732 0.184437 0.150403
          0.15353 0.177732 0.177732 0.184437 0.209308 0.15353
          0.254682 0.267528 0.239744 0.185124 0.165241 0.228849
          0.267528 0.239744 0.161857 0.228849 0.247533 0.267528
          0.111468 0.118768 0.114294 0.112241 0.111468 0.125346
          0.114294 0.118768 0.289994 0.198685 0.254201 0.272881
          0.254201 0.285884 0.289994 0.272881 0.254201 0.285884
          0.336675 0.289994 0.013461 0 0.0220256 0.0274571
          0 0 0.0220256 0.0274571 0 0.0303958
          0.0220256 0.0274571 0.0220256 0.0303958 0.046611 0.0274571
          0.130472 0.101464 0.12208 0.11946 0.185124 0.239744
          0.254682 0.28714 0.185124 0.0939533 0.158421 0.126597
          0.0863681 0.108133 0.073345 0.0931616 0.0567513 0.0863681
          0.0931616 0.0784527 0.0467083 -0.0171148 0.0583242 -0.0227431
          0.182741 0.161857 0.247533 0.193616 0.193616 0.130585
          0.182741 0.126597 0.182741 0.193616 0.262653 0.251511
          0.215481 0.193616 0.254682 0.185124 0.013461 0.0255033
          0 0.0425707 0.013461 0 0 0.0255033
          0.0255033 0 0 0.0425707 0.296649 0.293499
          0.316074 0.378063 0.252053 0.293499 0.316074 0.296649
          0.252053 0.293499 0.381656 0.316074 0.316074 0.293499
          0.381656 0.378063 0.133888 0.16614 0.132605 0.122055
          0.133888 0.146533 0.124448 0.16614 0.133888 0.148017
          0.146533 0.16614 0.16614 0.148017 0.163356 0.133888
          0.16614 0.133888 0.163356 0.164565 0.133888 0.121041
          0.148017 0.163356 0.133888 0.102925 0.121041 0.163356
          0.0500145 0.0689865 0.120774 0.103092 0.188102 0.176877
          0.246998 0.205526 0.246998 0.176877 0.264155 0.205526
          0.205526 0.176877 0.264155 0.187876 0.187876 0.135405
          0.205526 0.176877 0.187876 0.135405 0.177392 0.205526
          0.177392 0.205526 0.135405 0.16371 0.205526 0.176877
          0.135405 0.16371 0.145882 0.146166 0.106761 0.1552
          0.145882 0.161148 0.106761 0.146166 0.11299 0.146166
          0.106761 0.161148 0.11299 0.110551 0.146166 0.161148
          0.11299 0.110551 0.0992901 0.146166 0.11299 0.0992901
          0.106761 0.146166 0.0992901 0.110551 0.165145 0.146166
          0.174536 0.0992901 0.165145 0.146166 0.146166 0.110551
          0.165145 0.161148 0.132045 0.118801 0.148566 0.154852
          0.159245 0.132045 0.148566 0.154852 0.148566 0.159245
          0.154929 0.132045 0.132045 0.119042 0.118801 0.154852
          0.197509 0.209308 0.15353 0.179763 0.172754 0.137254
          0.137741 0.153746 0.172754 0.137741 0.162 0.153746
          0.172754 0.137254 0.162 0.137741 0.145549 0.137741
          0.162 0.137254 0.145549 0.118662 0.137741 0.137254
          0.137741 0.118662 0.145549 0.112396 0.137741 0.118662
          0.130566 0.137254 0.130566 0.1144 0.118662 0.137741
          0.153746 0.162 0.135136 0.137741 0.137741 0.162
          0.135136 0.138658 0.171264 0.1544 0.155927 0.150403
          0.209269 0.209054 0.172295 0.214788 0.209054 0.148946
          0.172295 0.214788 0.209054 0.166592 0.148946 0.214788
          0.240365 0.298245 0.189954 0.237126 0.282707 0.298245
          0.240365 0.237126 0.239744 0.267528 0.254682 0.28714
          0.112709 0.103554 0.12962 0.12041 0.11472 0.112709
          0.12962 0.12041 0.11472 0.112709 0.12041 0.105112
          0.11472 0.103554 0.112709 0.105112 0.112709 0.103554
          0.12041 0.105112 0.045572 0.0734512 0.0567087 0.086844
          0.135582 0.086844 0.0734512 0.045572 0.135582 0.045572
          0.0734512 0.0640031 0.086844 0.045572 -0.0209827 0.0437957
          0.045572 -0.0209827 0.0540385 0.086844 -0.0244421 -0.0209827
          0.0540385 0.045572 0.045572 -0.0163625 -0.0244421 -0.0209827
          0.045572 -0.0163625 -0.0209827 0.0437957 0.045572 -0.0163625
          -0.0206594 -0.0244421 0.152841 0.129565 0.130792 0.117983
          0.0126215 0.00020316 0.0108895 -0.0075844 0.0126215 0.0108895
          0.0165473 -0.0075844 -0.0118951 0.060043 0.0851486 0.0876554
          0.0619518 0.0203376 0.0826533 0.0638506 0.114861 0.0966303
          0.144869 0.150518 0.0108895 0.00562483 -0.00165095 -0.00441511
          0.0882954 0.0619518 0.0826533 0.0638506 0.0423499 0.0165473
          0.0108895 0.0368505 0.0423499 0.0108895 0.0182165 0.0368505
          0.0368505 0.0182165 0.0159097 0.0108895 -0.00726708 -0.000573831
          0.0250181 0.000458692 -0.00726708 0.0250181 0.0688902 0.000458692
          0.078365 0.0250181 0.0619518 0.0688902 0.0689447 0.0829969
          0.0419592 0.0608181 0.0441608 0.0213185 0.0556986 0.0475774
          0.0331346 0.0689447 0.0419592 0.0608181 0.0615568 0.0327647
          0.0419592 0.00691554 0.135405 0.137992 0.166592 0.158825
          0.135405 0.148946 0.158825 0.166592 0.135405 0.148946
          0.172295 0.158825 0.158825 0.148946 0.172295 0.209054
          0.209269 0.158825 0.172295 0.209054 0.209269 0.158825
          0.209054 0.201574 0.209054 0.201574 0.158825 0.198685
          0.209054 0.158825 0.166592 0.198685 0.158825 0.148946
          0.209054 0.166592 0.158825 0.166592 0.198685 0.137992
          0.158825 0.137992 0.198685 0.156753 0.201574 0.158825
          0.198685 0.156753 0.251511 0.149682 0.182741 0.215481
          0.251511 0.149682 0.215481 0.23391 0.270051 0.23391
          0.251511 0.314985 0.315675 0.23391 0.251511 0.32407
          0.251511 0.215481 0.243538 0.23391 0.0256855 0.0567513
          0.0508293 0.0389648 0.0256855 0.0165473 0.0423499 0.0567513
          0.0165473 0.0567513 0.0256855 0.0389648 0.0615568 0.0419592
          0.0242242 0.00691554 0.317504 0.293221 0.224695 0.248601
          0.317504 0.367966 0.35665 0.293221 0.371492 0.367966
          0.35665 0.317504 0.317504 0.371492 0.35898 0.35665
          0.107318 0.0982553 0.107518 0.104386 0.107318 0.107518
          0.109567 0.104386 0.00691554 -0.0144376 -0.00778128 0.0343041
          0.00691554 -0.00778128 0.0259847 0.0343041 -0.0144376 -0.0386367
          0.00691554 -0.00778128 0.0674725 0.0943749 0.0964633 0.0758985
          0.104664 0.104248 0.103294 0.106057 0.0674725 0.0772562
          0.0943749 0.0758985 -0.0124161 0.0734512 0.0567087 0.045572
          -0.0163625 -0.0124161 0.0567087 0.045572 0.045572 -0.0206594
          -0.0163625 -0.0124161 0.32407 0.271213 0.330856 0.332187
          0.1081 0.121298 0.110326 0.113746 0.215481 0.254682
          0.330856 0.271213 0.185124 0.254682 0.215481 0.271213
          0.185124 0.254682 0.271213 0.25535 0.25535 0.28714
          0.254682 0.271213 0.25535 0.28714 0.271213 0.344346
          0.271213 0.28714 0.254682 0.344346 0.254682 0.344346
          0.330856 0.271213 0.271213 0.344346 0.330856 0.332187
          0.298929 0.288612 0.335042 0.299437 0.291481 0.298929
          0.335042 0.299437 0.291481 0.288612 0.298929 0.299437
          0.291481 0.288612 0.256621 0.298929 0.0487702 0.0385235
          0.046611 0.063013 0.298929 0.222064 0.256621 0.262572
          0.288612 0.222064 0.298929 0.262572 0.262572 0.274099
          0.298929 0.288612 0.262572 0.274099 0.289143 0.298929
          0.298929 0.274099 0.289143 0.288612 0.288612 0.222064
          0.256621 0.298929 0.145798 0.127105 0.0907144 0.0754783
          0.145798 0.0754783 0.0907144 0.0558778 0.0558778 0.164032
          0.145798 0.0754783 0.22275 0.216442 0.227293 0.250416
          0.227293 0.216442 0.24468 0.250416 0.110675 0.147387
          0.124809 0.124087 0.110675 0.124087 0.124809 0.0975595
          0.110675 0.124809 0.0696074 0.0975595 0.110675 0.0696074
          0.0728637 0.0975595 0.0970682 0.110675 0.0728637 0.0975595
          0.0970682 0.124087 0.110675 0.0975595 0.0970682 0.0696074
          0.0728637 0.110675 0.0734512 0.135582 0.149133 0.0944564
          0.0734512 0.135582 0.0944564 0.137752 0.0944564 0.135582
          0.149133 0.137752 0.0975373 0.0825549 0.126891 0.0862894
          0.0698431 0.0825549 0.0975373 0.0862894 0.00553736 -0.0396448
          -0.010015 -0.00895024 0.00553736 -0.00895024 -0.010015 0.00182056
          0.107318 0.106057 0.104664 0.110311 0.104664 0.107318
          0.104248 0.106057 0.109567 0.107318 0.104664 0.110311
          0.104664 0.106057 0.103294 0.110311 0.109567 0.104664
          0.103294 0.110311 0.109567 0.104386 0.104664 0.107318
          0.0896834 0.0943749 0.110055 0.121678 0.121678 0.0943749
          0.110055 0.133529 0.0943749 0.0769836 0.110055 0.133529
          0.0896834 0.0674725 0.049198 0.0943749 0.0943749 0.0772562
          0.11878 0.0758985 0.0964633 0.0943749 0.11878 0.0758985
          0.0943749 0.0772562 0.120268 0.11878 0.230788 0.256875
          0.287691 0.199466 0.230788 0.200648 0.256875 0.199466
          0.0701937 0.0948104 0.0817732 0.106478 0.0817732 0.0261287
          0.0948104 0.0701937 0.0701937 0.0657571 0.0850406 0.0377969
          0.204543 0.149682 0.251511 0.23391 0.148895 0.181436
          0.0746714 0.149244 0.257162 0.331839 0.274803 0.324155
          0.243538 0.257162 0.274803 0.324155 0.243538 0.274803
          0.337898 0.324155 0.274803 0.331839 0.337898 0.324155
          0.274803 0.331839 0.313974 0.337898 0.262343 0.274803
          0.313974 0.337898 0.274803 0.219222 0.262343 0.198498
          -0.0421975 -0.0442204 -0.0431464 -0.00603925 0.249159 0.205526
          0.262565 0.261294 0.249159 0.205526 0.261294 0.19211
          0.249159 0.19211 0.261294 0.254645 -0.0431464 -0.0442204
          -0.0438624 -0.00603925 -0.0431464 -0.00603925 -0.0438624 0.00270117
          0.134357 0.159944 0.152257 0.143157 0.128281 0.134357
          0.152257 0.143157 0.134357 0.128281 0.130675 0.143157
          0.110032 0.134357 0.130675 0.143157 0.110032 0.134357
          0.143157 0.121768 0.110032 0.113639 0.134357 0.121768
          0.110032 0.113639 0.128281 0.134357 0.110032 0.128281
          0.130675 0.134357 0.113639 0.159944 0.128281 0.134357
          0.128281 0.159944 0.152257 0.134357 0.143157 0.134357
          0.157734 0.121768 0.121768 0.134357 0.157734 0.11878
          0.121768 0.121678 0.134357 0.11878 0.134357 0.121678
          0.121768 0.0964633 0.134357 0.121678 0.157734 0.11878
          0.134357 0.165557 0.157734 0.121678 0.134357 0.165557
          0.121678 0.164177 0.134357 0.121678 0.130132 0.164177
          -0.0202432 0.0276634 -0.02311 0.00753595 0.00753595 -0.0273646
          -0.02311 -0.0202432 0.0598204 0.0688967 0.0948509 0.0445276
          0.0948509 0.0944564 0.0598204 0.0445276 0.0948509 0.0734512
          0.0944564 0.0445276 0.0948509 0.0734512 0.0445276 0.0508163
          0.0508163 0.0688967 0.0445276 0.0948509 0.0508163 0.0688967
          0.000364435 0.0445276 -0.00773479 0.0508163 0.000364435 0.0445276
          -0.00773479 -0.00630596 0.0445276 0.000364435 0.0445276 -0.00773479
          0.0508163 -0.0139035 0.0944564 0.0734512 0.0567087 0.0445276
          0.0598204 0.0944564 0.0567087 0.0445276 -0.0396448 -0.00895024
          0.00553736 -0.0384657 -0.0396448 -0.0387419 -0.00895024 -0.0384657
          -0.0384657 -0.0387419 -0.00895024 -0.0112473 -0.0384657 -0.00895024
          0.00553736 -0.0112473 -0.00895024 -0.0112473 0.0303649 0.00553736
          -0.00895024 0.0303649 0.0341126 0.00553736 -0.00895024 -0.0396448
          -0.010015 0.00182056 0.00182056 0.00069831 0.0347523 -0.00895024
          -0.0264292 -0.0387419 -0.00895024 -0.0388781 -0.00895024 -0.0264292
          -0.0388781 -0.0129988 -0.00895024 -0.0264292 -0.0129988 0.0150799
          0.0983677 0.139728 0.130472 0.101464 0.0983677 0.130472
          0.0737005 0.101464 0.0983677 0.101464 0.0737005 0.0966303
          0.0983677 0.139728 0.101464 0.0966303 0.101464 0.10478
          0.135107 0.102126 0.101464 0.10478 0.102126 0.0755101
          0.102126 0.101464 0.0755101 0.0686171 0.102126 0.0732646
          0.101464 0.0686171 0.102126 0.12208 0.101464 0.0732646
          0.101464 0.0732646 0.12208 0.11946 0.101464 0.11946
          0.0825549 0.0732646 0.101464 0.0425612 0.0686171 0.0732646
          0.0755101 0.0425612 0.0686171 0.101464 0.0558022 0.0249799
          0.0769836 0.049198 0.0558022 0.0424382 0.0769836 0.0249799
          0.00553736 0.0126215 0.0303649 0.0256855 -0.0014031 0.0256855
          0.0165473 -0.0075844 0.351348 0.272881 0.341816 0.349887
          0.359992 0.272881 0.351348 0.349887 0.359992 0.299233
          0.351348 0.272881 0.368553 0.299233 0.351348 0.359992
          0.0126215 0.0423499 0.0303649 0.0256855 0.0126215 0.0423499
          0.0256855 0.0165473 0.0256855 0.0126215 0.0165473 -0.0075844
          0.1144 0.111776 0.120838 0.107518 0.1144 0.120838
          0.109567 0.107518 -0.00603925 0.00706416 0.0338639 0.0252408
          0.0125049 -0.00603925 0.0338639 0.0252408 0.0338639 0.0698431
          0.0125049 0.0252408 -0.00603925 0.00706416 0.0252408 0.00472803
          0.0252408 0.00706416 0.0502169 0.00472803 0.0252408 0.00472803
          0.0502169 0.0491411 0.0252408 0.00472803 0.0491411 0.00022389
          0.237712 0.323171 0.229061 0.254571 4.09269e-05 -0.00275804
          0.0171834 0.0233769 0.238454 0.172727 0.172426 0.163459
          0.172727 0.100178 0.172426 0.163459 0.172426 0.100178
          0.141569 0.163459 0.336675 0.254201 0.292096 0.285884
          0.292096 0.254201 0.216313 0.285884 0.163459 0.158421
          0.100178 0.0583242 0.0165473 0.0114538 -0.0102802 -0.0075844
          0.0165473 -0.0116991 0.0114538 -0.0075844 -0.0116991 0.0114538
          0.0108895 0.0165473 -0.0116991 -0.00165095 0.0108895 0.0114538
          0.0114538 -0.00165095 -0.0102802 -0.0116991 0.0114538 -0.0116991
          -0.0102802 -0.0075844 -0.00165095 0.0108895 0.0114538 0.00562483
          0.00322887 0.00562483 -0.00165095 0.0114538 0.00322887 0.00562483
          0.0114538 0.0159097 0.0114538 0.00322887 0.0159097 0.0247822
          0.0114538 0.0108895 0.0159097 0.00562483 0.0368505 0.0108895
          0.0159097 0.0114538 0.0368505 0.0108895 0.0114538 0.0165473
          0.0688902 -0.000573831 0.109529 0.078365 0.0688902 -0.000573831
          0.078365 0.0250181 -0.000573831 0.0500145 0.109529 0.078365
          0.078365 0.14323 0.130885 0.109529 0.0927891 0.0798418
          0.113705 0.114861 0.0927891 0.0798418 0.114861 0.0966303
          0.0798418 0.10478 0.114861 0.0966303 0.0966303 0.10478
          0.114861 0.144869 0.146451 0.134573 0.137254 0.166017
          0.146451 0.134573 0.109413 0.137254 0.146451 0.109413
          0.134573 0.128315 0.134573 0.109413 0.117073 0.128315
          0.134573 0.117073 0.109413 0.119123 0.134573 0.119123
          0.109413 0.137254 0.166017 0.134573 0.152841 0.138348
          0.102378 0.0845509 0.0878253 0.0828441 0.049659 0.0845509
          0.0828441 0.0878253 0.0535114 0.049659 0.0828441 0.0878253
          0.0821186 0.0535114 0.0828441 0.0878253 0.0821186 0.0535114
          0.0878253 0.0665471 0.0878253 0.0665471 0.0908379 0.0821186
          0.0665471 0.0908379 0.0894282 0.0878253 0.0878253 0.0410239
          0.0894282 0.0665471 0.0581534 0.0410239 0.0878253 0.0665471
          0.049659 0.0581534 0.0878253 0.0665471 0.0535114 0.049659
          0.0878253 0.0665471 0.049659 0.0581534 0.0845509 0.0878253
          0.0581534 0.0410239 0.0894282 0.0878253 0.0876554 0.0635172
          0.0467083 -0.0155251 0.0876554 0.100178 0.0467083 0.0635172
          0.0635172 0.0876554 0.100178 0.172426 0.0635172 0.111056
          0.172426 0.100178 0.0635172 0.0640984 0.111056 0.100178
          -0.0129809 0.0640984 0.0635172 0.100178 0.0635172 -0.0129809
          0.100178 0.0467083 0.0635172 0.039149 0.111056 0.0640984
          0.060043 0.039149 0.109208 0.0635172 0.272881 0.299233
          0.299471 0.24564 0.00402628 -0.0405949 -0.0396832 -0.0364058
          0.00402628 -0.0405949 -0.000402004 -0.0396832 -0.0405949 -0.0425719
          -0.000402004 -0.0396832 -0.0425719 -0.043366 -0.000402004 -0.0396832
          -0.000402004 -0.043366 0.00022389 -0.0396832 0.00691554 -0.0396832
          -0.0364058 0.0242242 -0.00778128 -0.0396832 0.00691554 0.0242242
          -0.00778128 -0.0386367 0.00691554 -0.0396832 0.00691554 -0.0386367
          -0.0364058 -0.0396832 0.128141 0.0948509 0.149133 0.115975
          0.128141 0.0948509 0.115975 0.0598204 0.0919653 0.0598204
          0.128141 0.115975 0.0919653 0.155675 0.115975 0.128141
          0.115975 0.0948509 0.0944564 0.0598204 0.115975 0.0948509
          0.149133 0.0944564 0.115975 0.0944564 0.149133 0.137752
          0.0983677 0.0910404 0.0698431 0.0975373 0.0975373 0.0450636
          0.0698431 0.0983677 0.0975373 0.0825549 0.0698431 0.0450636
          0.228106 0.190515 0.249159 0.23316 0.228106 0.23316
          0.175681 0.190515 0.228106 0.175681 0.18704 0.190515
          0.228106 0.190515 0.18704 0.188102 0.190515 0.151141
          0.18704 0.188102 0.188102 0.151141 0.139514 0.190515
          0.175681 0.151141 0.18704 0.190515 0.23316 0.227329
          0.175681 0.190515 0.23316 0.19211 0.190515 0.249159
          0.19211 0.205526 0.190515 0.249159 0.19211 0.205526
          0.16371 0.190515 0.190515 0.16371 0.176877 0.205526
          0.190515 0.205526 0.246998 0.249159 0.125164 0.134062
          0.171681 0.131645 0.125164 0.177759 0.171681 0.134062
          0.134062 0.177759 0.171681 0.131645 0.0611862 0.104946
          0.0640984 0.0583242 0.104946 0.0583242 0.0611862 0.0449238
          0.104946 0.0449238 0.0887729 0.0583242 0.150403 0.1297
          0.155927 0.130862 0.150403 0.130862 0.155927 0.145549
          0.100967 0.159365 0.141569 0.104946 0.289816 0.285884
          0.339454 0.292096 0.337395 0.339454 0.292096 0.282294
          0.337395 0.292096 0.335373 0.282294 0.337395 0.339454
          0.335373 0.292096 0.258775 0.335373 0.292096 0.282294
          0.284969 0.335373 0.292096 0.258775 0.262343 0.192396
          0.25535 0.213365 0.262343 0.219222 0.25535 0.192396
          0.192396 0.161268 0.219222 0.25535 0.213365 0.25535
          0.163459 0.192396 0.213365 0.163459 0.141569 0.192396
          0.104946 0.161268 0.192396 0.158421 0.138658 0.137741
          0.162 0.155927 0.138658 0.137741 0.155927 0.125961
          0.130862 0.137741 0.125961 0.155927 0.155927 0.1297
          0.125961 0.130862 0.130862 0.137741 0.155927 0.145549
          0.216996 0.211651 0.222064 0.256007 0.216996 0.256007
          0.222064 0.262572 0.216996 0.256007 0.262572 0.254847
          0.216996 0.211651 0.256007 0.254847 0.0385235 0.0423499
          0.0182165 0.0368505 0.0385235 0.0182165 0.045819 0.0368505
          0.0619345 0.0385235 0.045819 0.0368505 0.0619345 0.0423499
          0.0385235 0.0368505 0.0385235 0.0220256 0.0182165 0.021377
          0.0385235 0.0292423 0.0220256 0.021377 0.0864608 0.0615418
          0.0311669 0.0487007 -0.00608307 0.00405932 0.00220275 0.00322887
          0.0176904 0.0048109 0.00965275 0.0159457 0.0176904 -0.0096781
          0.00965275 0.0048109 0.00965275 -0.0102802 0.0048109 -0.0096781
          0.00965275 -0.0102802 -0.00551033 0.0048109 0.0048109 -0.0102802
          -0.00551033 -0.0096781 0.0518296 0.0615418 0.0311669 0.0228868
          0.0518296 0.0276634 0.0311669 0.0615418 0.0518296 0.0801865
          0.0276634 0.0615418 0.0518296 0.0782603 0.0801865 0.0615418
          0.0782603 0.108289 0.0801865 0.0615418 0.0801865 0.108289
          0.073581 0.0615418 0.0615418 0.0801865 0.0276634 0.073581
          0.0615418 0.0276634 0.0311669 0.073581 0.0615418 0.073581
          0.0311669 0.0689447 0.0487007 0.0615418 0.0311669 0.0689447
          0.00213241 0.0266702 0.0242242 0.00402628 0.0266702 0.00402628
          0.0444503 0.0242242 0.00213241 0.0331346 0.0419592 0.0266702
          0.0441608 0.0556986 0.0450636 0.0737005 0.0277829 0.0556986
          0.0450636 0.0441608 0.0171834 0.0277829 0.0450636 0.0441608
          -0.00275804 0.0277829 0.0171834 0.0441608 -0.00275804 0.0556986
          0.0277829 0.0441608 -0.00275804 0.0213185 0.0556986 0.0441608
          0.0441608 0.0425612 0.0755101 0.0737005 0.0441608 0.0737005
          0.0755101 0.0966303 0.0441608 0.0755101 0.0475774 0.0966303
          0.0475774 0.0441608 0.0458732 0.0755101 0.0475774 0.0233769
          0.0458732 0.0441608 0.0441608 0.0233769 0.0458732 0.0425612
          0.0441608 0.0425612 0.0458732 0.0755101 0.254571 0.323171
          0.229061 0.257162 0.254571 0.204548 0.257162 0.229061
          0.229061 0.204548 0.257162 0.168288 0.229061 0.159365
          0.25679 0.162043 0.314985 0.251511 0.271852 0.330856
          0.314985 0.32407 0.251511 0.330856 0.32407 0.251511
          0.330856 0.271213 0.32407 0.215481 0.251511 0.271213
          0.32407 0.215481 0.243538 0.251511 0.251511 0.215481
          0.330856 0.271213 0.215481 0.330856 0.254682 0.251511
          0.215481 0.251511 0.254682 0.262653 0.251511 0.330856
          0.254682 0.262653 0.251511 0.330856 0.262653 0.271852
          0.248309 0.189954 0.271522 0.222461 0.222461 0.189954
          0.271522 0.171272 0.222461 0.237426 0.171272 0.271522
          0.222461 0.237426 0.150391 0.171272 0.222461 0.171272
          0.150391 0.156872 0.221318 0.222461 0.150391 0.156872
          0.221318 0.17999 0.222461 0.156872 0.222461 0.17999
          0.221318 0.276815 0.222461 0.17999 0.171272 0.156872
          0.17999 0.222461 0.171272 0.11408 0.17999 0.179831
          0.222461 0.11408 0.222461 0.179831 0.171272 0.11408
          0.222461 0.189954 0.171272 0.179831 0.109294 0.0944564
          0.137752 0.0567087 0.293221 0.285884 0.349887 0.344688
          0.293221 0.344688 0.349887 0.35665 0.293221 0.285884
          0.344688 0.35665 0.0896834 0.0481888 0.0908379 0.0705408
          0.0481888 0.0801865 0.0705408 0.0896834 0.0481888 0.049198
          0.0705408 0.0801865 0.0481888 0.049198 0.0257655 0.0705408
          0.0481888 0.0257655 0.0518296 0.0705408 0.0705408 0.0257655
          0.0518296 0.0801865 0.0705408 0.0801865 0.0518296 0.0782603
          0.0894282 0.0705408 0.0518296 0.0782603 0.0894282 0.0801865
          0.0705408 0.0782603 0.0894282 0.0705408 0.0801865 0.108289
          0.0894282 0.0896834 0.0705408 0.108289 0.0705408 0.0896834
          0.0801865 0.108289 0.0705408 0.049198 0.0257655 0.0801865
          0.18707 0.168881 0.190655 0.216442 0.18707 0.190655
          0.227293 0.216442 0.227293 0.18707 0.216442 0.22275
          0.18707 0.168881 0.216442 0.19409 0.18707 0.14422
          0.168881 0.0967532 0.0984941 0.0974886 0.0987772 0.109254
          0.0984941 0.0987772 0.0974821 0.109254 0.0875997 0.0984941
          0.0987772 0.0974821 0.0875997 0.0987772 0.073427 0.0974821
          0.0875997 0.0984941 0.073427 0.0987772 0.0984941 0.0770825
          0.073427 0.0987772 0.073427 0.074161 0.0974821 0.0987772
          0.073427 0.0885485 0.074161 0.0987772 0.0987772 0.0974821
          0.109254 0.112396 0.0796746 0.0648896 0.0683278 0.0715879
          0.0715879 0.0859557 0.0683278 0.0796746 0.145402 0.0927891
          0.150518 0.0966303 0.0983677 0.0966303 0.145402 0.139728
          0.102143 0.0948582 0.0998671 0.112614 0.112614 0.0948582
          0.110097 0.102143 0.0853375 0.0876484 0.0859557 0.0995078
          0.0998671 0.0995078 0.0859557 0.0876484 0.0998671 0.0876484
          0.0859557 0.0948582 0.0876484 0.0948582 0.0998671 0.102143
          0.0995078 0.0876484 0.0998671 0.102143 0.0859557 0.0876484
          0.0683278 0.0948582 0.0859557 0.073082 0.0683278 0.0876484
          0.145402 0.0983677 0.0975373 0.143208 0.145402 0.0975373
          0.134593 0.143208 0.130472 0.0975373 0.134593 0.145402
          0.130472 0.0983677 0.0975373 0.145402 0.00753595 0.00213241
          -0.0309792 -0.0312485 0.0368505 0.013461 0.0303638 0.0159097
          0.0368505 0.0303638 0.0407461 0.0159097 0.0159097 0.0247822
          0.0303638 0.0407461 0.0247822 0.0159097 0.0303638 0.0105776
          0.0247822 0.0303638 0.0514059 0.0105776 0.0303638 0.0247822
          0.0514059 0.0407461 0.0303638 0.0425707 0.013461 0.0368505
          0.149682 0.130585 0.193616 0.126597 0.149682 0.130585
          0.182741 0.193616 0.126597 0.161857 0.193616 0.165241
          0.126597 0.193616 0.185124 0.165241 0.193616 0.126597
          0.185124 0.158421 0.185124 0.193616 0.254682 0.165241
          0.193616 0.165241 0.267528 0.254682 0.193616 0.267528
          0.247533 0.254682 0.193616 0.254682 0.247533 0.262653
          0.193616 0.215481 0.254682 0.262653 0.193616 0.215481
          0.262653 0.251511 0.161857 0.267528 0.247533 0.193616
          0.161857 0.165241 0.267528 0.193616 0.124799 0.118768
          0.11977 0.136736 0.118768 0.13808 0.136736 0.124799
          0.0858781 0.118528 0.121041 0.102925 0.0858781 0.102925
          0.121041 0.133888 0.0858781 0.0679743 0.118528 0.102925
          0.0858781 0.0386203 0.0679743 0.0487007
        </DataArray>
        <DataArray type="Float64" Name="u1" format="ascii" RangeMin="-0.0270881" RangeMax="0.115343">
          0.07594 0.0802136 0.0760461 0.0680971 0.000471272 0.00478053
          5.29779e-05 -2.51321e-05 -0.0128015 -0.0166778 -0.012431 -0.0117923
          -0.00286856 -0.00508143 0.00623301 -0.00546711 0.026316 0.0376856
          0.0375999 0.0290619 -0.0100434 -0.00529419 -0.00829571 -0.00839467
          0.0509021 0.0478604 0.0538991 0.0535705 0.111304 0.10293
          0.107383 0.10492 0.092674 0.0734616 0.0809897 0.0824418
          -0.010768 -0.00994981 -0.00821885 -0.00747016 0.00841701 0.00741455
          0.00723765 0.00331069 -0.0064143 -0.0112065 -0.0104381 -0.0145331
          -0.0136001 -0.0163672 -0.0147507 -0.0178131 0.101271 0.0945086
          0.103492 0.106625 0.0290619 0.026316 0.0376856 0.0290328
          -0.00500875 -0.00864801 -0.00719991 -0.00353163 0.0968458 0.0968129
          0.0953534 0.0982259 0.0125122 0.00584569 0.0083212 0.013872
          0.027128 0.030637 0.0349137 0.0267247 -0.00880874 -0.0116166
          -0.00701453 -0.0128731 0.0778847 0.0684555 0.0833251 0.0757261
          -0.0175449 -0.015471 -0.0179976 -0.0167399 0.0121727 0.00944826
          0.00696049 0.0159505 0.0128998 0.013872 0.0171797 0.0092244
          0.0908914 0.0870027 0.0880509 0.0866501 0.018373 0.027128
          0.0183968 0.0267247 -0.0123134 -0.00953216 -0.00659314 -0.0115173
          -0.0196739 -0.0179976 -0.0175449 -0.0150505 -0.0145598 -0.00998447
          -0.0104976 -0.0103711 0.0034827 0.0119667 0.00664006 0.00867015
          0.0822369 0.0827915 0.0849973 0.0805968 0.0230983 0.0206599
          0.0125122 0.013872 0.00963681 0.00478053 0.0118168 0.0101018
          -0.0161269 -0.0159403 -0.00834925 -0.00951325 -0.00930884 -0.00927245
          -0.00669444 -0.00761653 0.0983866 0.104812 0.0988924 0.100112
          -0.00694747 0.00140284 -0.00934427 -0.00151987 0.00963681 0.0114892
          0.00418987 0.00822017 0.0922335 0.0983216 0.0931621 0.0897619
          0.100371 0.0902565 0.101212 0.0961257 0.00252499 -0.00492085
          -0.0011597 -0.00500875 0.00998128 0.00577853 0.00173919 -0.000960639
          0.0376856 0.0435662 0.0391504 0.0339339 0.0793398 0.067363
          0.0768006 0.0759489 0.00523286 0.00222036 -0.00173324 0.00331069
          -0.0119697 -0.0136552 -0.0118386 -0.012766 -0.0128604 -0.015471
          -0.016142 -0.0139518 -0.0136001 -0.0144426 -0.0137283 -0.0147507
          0.0639772 0.0607576 0.0626744 0.0561299 -0.0145928 -0.015396
          -0.0137818 -0.0131376 -0.0130793 -0.00952224 -0.0126734 -0.0132095
          -0.0084688 -0.00871553 -0.0122022 -0.00832996 -0.0141855 -0.0140065
          -0.0131014 -0.0131649 0.0365633 0.045937 0.0430777 0.0468155
          -0.0110417 -0.0132542 -0.0127112 -0.0132636 -0.0131649 -0.0137598
          -0.0150762 -0.0122415 -0.0115173 -0.0152705 -0.0136582 -0.0156323
          -0.00448618 -0.00953853 -0.00944941 -0.00889233 -0.00843312 -0.00930884
          -0.00669444 -0.00761653 0.10803 0.104812 0.0983866 0.100112
          -0.0152156 -0.0166441 -0.0168699 -0.015154 -0.0132619 -0.0141968
          -0.01342 -0.0116014 -0.0180549 -0.0172167 -0.016901 -0.0198767
          9.87133e-05 0.00231494 -0.00358364 -0.00193784 0.00594671 0.00584569
          0.00789755 2.43316e-05 -0.0101426 -0.00820863 -0.0108439 -0.00843312
          -0.00903024 -0.00749906 -0.00688212 -0.00783675 -0.0111888 -0.0111273
          -0.0101269 -0.0101035 0.0485009 0.0506082 0.0610013 0.0456868
          0.0787728 0.0787728 0.0988924 0.0787728 -0.0163887 -0.0146054
          -0.0132619 -0.0142512 -0.0105095 -0.00864801 -0.0100554 -0.00610029
          -0.000798352 0.000333111 0 0.00061746 -0.00903642 -0.00842294
          -0.00951806 -0.0141182 0.0339339 0.0266212 0.0376856 0.0252607
          0.00509314 0.00963681 0.00900184 0.0121727 0.0597525 0.0694311
          0.0672179 0.0664747 0.0938932 0.101082 0.103038 0.0906953
          -0.00348063 0 -0.00635234 0 -0.0110197 -0.0108072
          -0.012431 -0.00965086 0.0626744 0.0506828 0.0612821 0.0561299
          0.0376856 0.0485009 0.0391504 0.0435662 0.0961512 0.0957216
          0.0919498 0.0976954 0.00963681 0.00185887 0.00478053 5.29779e-05
          -0.00127327 0.00142762 -0.00369529 -0.0011845 0.0145785 0.00210831
          0.00623301 0.000570539 0.00527735 0.00484992 -0.00533943 -0.00193784
          0.0485009 0.0456868 0.0610013 0.0519682 -0.0176947 -0.0151294
          -0.0149003 -0.018128 -0.0116704 -0.0101035 -0.00882003 -0.0122154
          0.00686604 0.00474989 0.00841701 0.00327003 0.0908349 0.0935405
          0.0937414 0.0911611 0.0722704 0.0775013 0.0787166 0.0778226
          0.0982259 0.0992951 0.103169 0.100629 0.0297779 0.0365633
          0.0320141 0.0395448 0.0987585 0.101482 0.0933328 0.0985842
          -0.000798352 0 0.00749469 0.00061746 0.067363 0.0645819
          0.0722326 0.0654663 -0.0131109 -0.0121278 -0.0120173 -0.0127901
          -0.00822036 -0.00492085 -0.00948852 -0.00400199 0.0392555 0.0401873
          0.0506082 0.0457958 0.0929403 0.0880509 0.0997503 0.0965394
          -0.0145598 -0.0166017 -0.0128015 -0.0169045 0.100371 0.0943187
          0.0961512 0.0957216 -0.0161269 -0.0159403 -0.0141443 -0.00834925
          0.0092244 0.0161199 0.0171797 0.0128998 -0.00316609 0.00594786
          -0.00597124 -0.00197492 -0.0117775 -0.0135718 -0.0132896 -0.0116642
          -0.00127327 -0.00400199 -0.00593256 -0.00369529 -0.0117923 -0.00953853
          -0.00615696 -0.00889233 0.0933791 0.0937414 0.0916535 0.0946005
          -0.0127238 -0.0132648 -0.0132896 -0.0143225 -0.0031679 0.00212618
          0.00584569 -0.00493176 0.0572903 0.0599948 0.0610013 0.0664681
          -0.0101269 -0.0107902 -0.0077584 -0.00834344 -0.0117784 -0.0107372
          -0.0124395 -0.0109875 -0.0140032 -0.0133311 -0.0123134 -0.0122948
          -0.00504081 -0.00403773 -0.0108072 -0.00382754 -0.00181342 0.00527735
          -0.000960639 -0.00533943 -0.0150233 -0.0166081 -0.0130007 -0.0209682
          0.0684276 0.0700373 0.0731584 0.0762001 -0.0109702 -0.012833
          -0.00899144 -0.0119604 0.0935166 0.0973971 0.0952604 0.0940771
          0.000570539 0.00210831 0.00623301 -0.00508143 -0.00400199 -0.0034695
          -0.00861598 -0.00974557 0.0824418 0.0824418 0.0824418 0.0902565
          0.0897648 0.0884996 0.0911611 0.0849973 -0.00731356 -0.00753719
          -0.00965086 -0.00951806 -0.0132091 -0.0137818 -0.0174151 -0.0152337
          0.0597525 0.0540566 0.0607576 0.0639772 0.0759489 0.0817436
          0.088585 0.0904408 -0.0155189 -0.0136174 -0.0131762 -0.0182206
          -0.0142188 -0.0162388 -0.0152705 -0.0189928 -0.0132542 -0.0140178
          -0.0131109 -0.0127112 -0.0146101 -0.0111707 -0.0123134 -0.011639
          -0.00949131 -0.0119405 -0.0125083 -0.00877047 0.0922475 0.0994953
          0.0963202 0.0875869 -0.0141714 -0.0125329 -0.0128252 -0.0122154
          -0.0111888 -0.00822036 -0.0116704 -0.00882003 0.0600215 0.0538991
          0.0552688 0.0535705 0.0572523 0.0627337 0.05297 0.0650225
          -0.0128604 -0.016142 -0.0153294 -0.0139518 -0.00403773 -0.00504081
          -0.00822523 -0.00753719 0.10803 0.112338 0.113884 0.10922
          -0.0130793 -0.00779109 -0.00674395 -0.00952224 0.100112 0.10492
          0.0988924 0.0947307 -0.0112982 -0.0115306 -0.0112966 -0.00839904
          0.0241004 0.0320141 0.0211458 0.0297779 -0.0172467 -0.0143337
          -0.0148368 -0.0120732 0.0951903 0.0872084 0.10293 0.101679
          0.0961351 0.0986556 0.0960197 0.0961512 -0.00281992 -0.0027958
          -0.00339795 -0.00182166 -0.00504482 -0.00193359 -0.00563442 -0.00466195
          -0.00911502 -0.00591698 -0.00495655 -0.00783516 -0.00339795 -0.00182166
          -0.00834367 -0.00421154 -0.0131649 -0.0110955 -0.0122415 -0.011999
          0.0190544 0.0194951 0.0276488 0.0225269 -0.0143898 -0.0139518
          -0.0125329 -0.012833 0.0442869 0.0449968 0.0541389 0.0486119
          -0.0111273 -0.0115306 -0.0095234 -0.00839904 -0.00779776 -0.00563442
          -0.00783516 -0.00911502 -0.00934427 -0.00428175 -0.0107643 -0.00151987
          -0.0152337 -0.0189734 -0.0174963 -0.0160632 -0.012766 -0.0109596
          -0.0109937 -0.0124395 0.0628785 0.0684555 0.0694075 0.0701436
          0.0552688 0.0545551 0.0612821 0.0575983 -0.0171154 -0.0155281
          -0.0137173 -0.0137518 0.018373 0.027128 0.0226921 0.0183968
          0.00484992 0.0102825 9.87133e-05 -0.00193784 0.0330087 0.0297779
          0.0396681 0.0342262 -0.0137039 -0.0135258 -0.0171154 -0.0137173
          0.0933791 0.0946005 0.0916535 0.0940187 -0.00443768 -0.00413169
          5.82853e-05 -0.00343188 0.0375999 0.0390901 0.0349137 0.030637
          0.113175 0.10803 0.107082 0.113406 -0.00470133 -0.00822036
          -0.0079659 -0.00882003 0.060776 0.0575983 0.0628785 0.0684555
          0.0552688 0.0648493 0.0654663 0.0600215 0.00509314 0.00478569
          -0.00871553 -0.00370727 -0.0217264 -0.0209799 -0.0221425 -0.0166778
          0.067363 0.0600215 0.0645819 0.0654663 0.0831428 0.0802136
          0.0849373 0.0760461 -0.0221425 -0.0166778 -0.0173699 -0.0217264
          0.0961512 0.0946768 0.0942488 0.0919498 -0.0100672 -0.00604505
          -0.00460077 -0.00428175 -0.010768 -0.00821885 -0.00790277 -0.00747016
          -0.0202491 -0.0205887 -0.0182685 -0.0180549 0.0114892 0.00478053
          0.0092244 0.0118168 0.057476 0.0656273 0.0549191 0.0577736
          2.43316e-05 0.00789755 0.00720486 0.0047323 0.0386142 0.0324135
          0.0362804 0.0297041 -0.0074673 0.000570539 -0.00448618 -0.00533943
          -0.00640648 -0.00563442 -0.00504482 -0.00495655 0.100371 0.101212
          0.0957216 0.100997 -0.0209682 -0.0166081 -0.0133081 -0.0189245
          0.103705 0.100371 0.105929 0.102285 -0.00938039 -0.0130007
          -0.00942437 -0.0181342 0.111551 0.10803 0.107082 0.113175
          -0.0119405 -0.0107902 -0.0125083 -0.00877047 -0.0103616 -0.00998593
          -0.00994981 -0.00790873 0.00418987 0.00478053 0.00185887 0.000471272
          0.057476 0.0549191 0.0486119 0.045937 0.0330087 0.0395448
          0.0311586 0.0400479 -0.00834925 -0.0159403 -0.0118541 -0.00727612
          0.0627337 0.0572523 0.0706221 0.0638716 0.09271 0.0883189
          0.0798208 0.0945086 -0.0136552 -0.0146771 -0.0138481 -0.0133876
          -0.0153733 -0.0179139 -0.0175464 -0.0177062 0.0897619 0.0923967
          0.0938932 0.0938949 -0.00222472 -0.0064143 0 -0.00244935
          -0.0137818 -0.0131376 -0.0115354 -0.0101269 0.0311586 0.0247032
          0.0297779 0.0214733 -0.00442074 -0.00822523 -0.00499197 -0.00495617
          -0.0119697 -0.012766 -0.0118386 -0.0103708 -0.0142188 -0.00953216
          -0.0115173 -0.0103725 0.0976263 0.100371 0.0943187 0.0961512
          -0.00197492 0.0034827 -0.0011597 0.000676097 0.025394 0.0161199
          0.0189193 0.0194951 -0.00539303 -0.0077584 -0.00492085 -0.0011597
          -0.00316609 0.00090171 0.00594786 -0.00158471 0.0638716 0.0599948
          0.0709724 0.058239 -0.0166441 -0.0186037 -0.0159958 -0.0180922
          -0.00443768 5.82853e-05 -0.00364772 -0.000798352 -0.0095234 -0.00839904
          -0.00864801 -0.00719991 0.0916535 0.0897648 0.0849973 0.086149
          -0.00719991 -0.00834344 -0.00617679 -0.00877047 0.0650225 0.0656273
          0.0709775 0.0653814 0.00185887 0.00185096 -0.00370727 -0.00498123
          -0.00949131 -0.0095234 -0.00719991 -0.00834344 0.0908914 0.0734616
          0.092674 0.0897636 -0.0137518 -0.0137283 -0.0155281 -0.0137173
          -0.0139909 -0.0153411 -0.0104381 -0.0112065 -0.00354039 -0.00214796
          -0.00708235 0.00126769 -0.0129857 -0.0109937 -0.0124395 -0.012766
          0.0660669 0.0667901 0.0722704 0.0608877 -0.0139847 -0.0091699
          -0.0101082 -0.0137518 0.0823455 0.0846894 0.0768006 0.0794021
          0.0600215 0.0584848 0.0538991 0.0535705 0.0246422 0.0128998
          0.0161199 0.021662 -0.00443768 -0.00345964 -0.00413169 -0.00591698
          0.101271 0.0945086 0.106625 0.101595 -0.0101472 -0.00821885
          -0.00790277 -0.010768 -0.00719991 -0.00834344 -0.00877047 -0.00783516
          -0.0138764 -0.0109596 -0.0119604 -0.0128604 -0.0182243 -0.0176787
          -0.0159618 -0.0150371 0.0549191 0.0468155 0.0430777 0.045937
          0.0778847 0.0780598 0.0833251 0.0719055 -0.0074673 -0.00533943
          -0.0130007 -0.00880874 0.103482 0.0993376 0.0983216 0.0983866
          0.0741555 0.0722704 0.0672179 0.0660669 0.0234903 0.0183116
          0.0190862 0.0178141 -0.0109937 -0.0129857 -0.0103014 -0.0119697
          0.00749469 0.00504842 0.0101144 0.0147318 0.0464779 0.0450642
          0.0475958 0.0527487 -0.00498123 -0.00731356 -0.0074673 -0.010044
          0.112732 0.106625 0.110603 0.110851 -0.0106223 -0.0100434
          -0.0116014 -0.00839467 -0.0196446 -0.0187996 -0.018359 -0.0129255
          -0.00613969 -0.0102839 -0.00597124 -0.00316609 -0.0147393 -0.0128252
          -0.01305 -0.0141714 0.100629 0.0982259 0.101867 0.103169
          -0.00353163 -0.00834344 -0.00719991 -0.00500875 0.0961793 0.0968458
          0.0948321 0.0937414 -0.0221583 -0.0250899 -0.018359 -0.0196446
          0.00523286 0.00331069 0.00741455 0.00212624 0.0101018 0.00696049
          0.00401747 0.00173919 0.090798 0.0827915 0.0892035 0.0822369
          0.0667901 0.0775013 0.0722704 0.0778226 0.0996718 0.0927309
          0.0929403 0.0965394 0.0391504 0.0266212 0.0339339 0.0323379
          0.0988924 0.1075 0.100418 0.0787728 0.0340728 0.0331244
          0.021662 0.025394 -0.0203243 -0.0170253 -0.0224445 -0.0145598
          0 0 -0.00348063 0 0.111304 0.10492
          0.112242 0.10803 0.0943187 0.0961512 0.0984366 0.0956329
          0.0805968 0.0762057 0.0694311 0.0722704 0.021662 0.0340728
          0.0209412 0.0298942 -0.00732795 -0.00867774 -0.0122989 -0.0104179
          -0.0175614 -0.0186037 -0.0159958 -0.0166441 -0.0079659 -0.00822036
          -0.0101035 -0.00882003 -0.0132619 -0.01342 -0.0131649 -0.0116014
          0.111304 0.10803 0.112338 0.113884 0.00212618 -0.0026124
          0.00260366 -0.00493176 0.0960197 0.0961512 0.0942488 0.0919498
          0.0199927 0.0267211 0.0198814 0.0290328 -0.0095234 -0.00839904
          -0.0112982 -0.00864801 -0.0149003 -0.0132091 -0.0145928 -0.0151294
          0.0101018 0.00401747 0.0053151 0.0025933 -0.0184729 -0.018359
          -0.022248 -0.0155189 -0.01385 -0.0147054 -0.0119435 -0.0149838
          -0.0124198 -0.00493176 -0.0031679 -0.0055628 0.0992951 0.104195
          0.100629 0.0971933 0.0178233 0.0117361 0.0151683 0.014183
          0.0638716 0.058239 0.0709724 0.070367 -0.00882003 -0.00422975
          -0.00871713 -0.00599707 0.00140284 0.00679275 -0.000891983 -0.00428175
          -0.0101949 -0.0122415 -0.0108474 -0.0108439 -0.0111273 -0.0121278
          -0.0101035 -0.0120173 0.00720486 0.0047323 0.00789755 0.0165835
          0.0787728 0.101679 0.0843161 0.0872084 -0.0128015 -0.0126718
          -0.0145598 -0.0122948 -0.00221483 -0.00400199 -0.00470133 -0.00593256
          0.0119667 0.00594786 0.0147318 0.0101144 0.0387796 0.0320141
          0.0367918 0.0365633 0.0833918 0.0782877 0.0775013 0.0782606
          0.0833251 0.0719055 0.0779443 0.0757261 0.0741555 0.0822369
          0.0722704 0.0787166 -0.00694747 -0.00812965 -0.00708235 -0.00354039
          0.025394 0.0269602 0.0171797 0.0246422 -0.0055628 -0.0140618
          -0.0031679 -0.0124198 0.0387796 0.0367918 0.0390306 0.045842
          -0.0116458 -0.00944941 -0.00965086 -0.011447 0.0953534 0.0935405
          0.0908349 0.0935983 0.0375999 0.0349137 0.0422139 0.0340728
          -0.0157642 -0.0105734 -0.00779774 -0.0102839 0.0868215 0.0949824
          0.0901879 0.0906245 0.105429 0.105508 0.10035 0.10664
          -0.0152337 -0.0121716 -0.0123001 -0.00948852 0.00998128 0.00577853
          0.000570539 0.0134379 0.105508 0.103492 0.0984366 0.102758
          -0.0132542 -0.0152156 -0.0140178 -0.015154 -0.0115354 -0.0104179
          -0.014953 -0.0125083 -0.0202973 -0.0184435 -0.0194334 -0.0147362
          0.0092244 0.00260366 0.00478053 0.00584169 -0.0107902 -0.0152032
          -0.0102429 -0.0105415 -0.0209799 -0.0145598 -0.0166778 -0.0128015
          0.0971933 0.0953534 0.0992951 0.099153 0.0114892 0.00478053
          0.0118168 0.00963681 -0.0166441 -0.0180922 -0.0159958 -0.0168699
          -0.0170253 -0.0109623 -0.0152121 -0.00998447 -0.015154 -0.0140178
          -0.0145928 -0.0167668 0.00105064 0.00252499 -0.00492085 -0.0011597
          0.107082 0.100802 0.10426 0.108299 -0.0132091 -0.0135404
          -0.00948852 -0.0101269 0.0535705 0.0592017 0.0600215 0.0584848
          -0.00367405 0.0025933 -0.00910394 -0.00236865 -0.0145598 -0.0224445
          -0.021099 -0.0152121 0.0541389 0.0449968 0.0569946 0.0452472
          0.105261 0.10922 0.112426 0.107581 0.060776 0.0653814
          0.0561024 0.0650225 -0.00533943 0.00527735 -0.00193784 -0.00942437
          -0.0146452 -0.0151294 -0.0174963 -0.0152337 -0.00442074 -0.00499197
          -0.000690955 -0.00495617 -0.01385 -0.0147054 -0.0133876 -0.0119435
          0.0794021 0.0841291 0.0824615 0.0875151 0 0
          0 -0.00348063 0.111551 0.110603 0.113468 0.107082
          0.0960197 0.0946768 0.0942488 0.0961512 -0.0112966 -0.0113241
          -0.00966033 -0.00921344 -0.00357756 -0.00577718 -0.00071185 -0.00767366
          -0.0156323 -0.0184729 -0.0189928 -0.0155189 0.0982259 0.0968458
          0.0992951 0.0953534 -0.0132091 -0.0137818 -0.0152337 -0.0135404
          0.0972136 0.10169 0.0960197 0.0991194 -0.00822523 -0.0108072
          -0.00965086 -0.00874778 -0.00495655 -0.00443768 -0.00222472 -0.00504482
          0.0875151 0.0837749 0.0823455 0.0884996 0.0627337 0.0575983
          0.060776 0.0684555 0.0627337 0.0709775 0.060776 0.0650225
          0.0241004 0.0211458 0.0151683 0.021662 0.067363 0.0722326
          0.0712302 0.0768006 0.07594 0.069947 0.0782877 0.0712148
          -0.0146452 -0.018128 -0.0174963 -0.0151294 0.0320141 0.0311586
          0.0247032 0.0297779 0.0485009 0.0542829 0.0521232 0.0435662
          -0.00635234 -0.00779774 -0.0127395 -0.0109318 -0.0221583 -0.0184729
          -0.0182206 -0.018359 -0.0095234 -0.0111273 -0.00839904 -0.0101269
          0.0943187 0.100112 0.0946768 0.092526 0.0933328 0.0985842
          0.0931621 0.0922335 0.0241004 0.0297779 0.0211458 0.0298942
          -0.0188984 -0.0180922 -0.0167399 -0.0186037 0.0627337 0.0709775
          0.0706221 0.0757261 -0.00617679 -0.00353163 -0.00719991 -0.00343188
          0.0759489 0.0722326 0.0841291 0.0780598 -0.0189928 -0.0163022
          -0.0152705 -0.018359 -0.0105095 -0.0100554 -0.00963848 -0.00610029
          -0.00903024 -0.00783675 -0.00930884 -0.0112095 0.0822369 0.0805968
          0.0876495 0.0804062 0.00720486 0.00998805 0.0165835 0.013976
          0.045842 0.0428983 0.0506828 0.0419076 -0.0156323 -0.0152705
          -0.0155189 -0.0189928 0.0171797 0.0186287 0.0269602 0.0189193
          -0.012833 -0.0117847 -0.0109702 -0.0112095 -0.00934427 -0.000891983
          -0.00428175 0.00140284 0.0996718 0.0929403 0.0997503 0.0965394
          0.0246422 0.0209412 0.0128998 0.021662 -0.0155281 -0.0163887
          -0.0184525 -0.014775 0.0290619 0.0376856 0.0367894 0.0391504
          0.113175 0.113884 0.10803 0.113406 -0.0116895 -0.0137173
          -0.0137039 -0.014775 0.0667901 0.0722704 0.0787166 0.0660669
          -0.0133311 -0.0131762 -0.00980449 -0.0148368 -0.0150505 -0.0124395
          -0.0154642 -0.015471 -0.0119697 -0.0129857 -0.0129756 -0.012766
          0.00222036 -0.000179497 -2.51321e-05 0.00212624 -0.0145598 -0.0157609
          -0.0141714 -0.0143898 -0.00222472 -0.00495655 -0.00456851 -0.00345964
          -0.0139518 -0.0167399 -0.0138764 -0.015471 -0.00370727 -0.00339795
          -0.00834367 -0.00421154 -0.00792453 -0.0031679 -0.00164808 -0.000287921
          0.0290619 0.0199927 0.0290328 0.0252607 0.0945086 0.092674
          0.0972424 0.0883189 -0.00370727 -0.00832996 -0.0122022 -0.00834367
          0.0225269 0.0194951 0.0276488 0.0275463 -0.0145598 -0.0152121
          -0.021099 -0.0104976 -0.0163887 -0.0146054 -0.0150762 -0.016824
          0.00584169 0.00418987 0.000511914 0.000471272 -0.012833 -0.0143898
          -0.0116704 -0.0125329 -0.00927245 -0.0109702 -0.0119604 -0.0109596
          -0.0153847 -0.0163881 -0.0146903 -0.0175449 -0.0140065 -0.0157141
          -0.0144426 -0.0143225 -0.0155531 -0.016142 -0.0153294 -0.0128604
          0.0919498 0.0894452 0.0946768 0.0942488 0.104122 0.0906245
          0.103915 0.0994953 -0.0175449 -0.0154642 -0.015471 -0.0150505
          -0.0166081 -0.0130007 -0.0107869 -0.0150233 -0.00934427 -0.0116895
          -0.00604505 -0.00504061 -0.0120173 -0.0101035 -0.0111888 -0.0122154
          0.021662 0.0165835 0.0298942 0.0209412 0.0908914 0.0734616
          0.0897636 0.0870027 -0.018657 -0.0141182 -0.010044 -0.0181632
          -0.0202491 -0.0240072 -0.0180549 -0.0222241 -0.00504482 -0.00357756
          -0.00577718 -0.00222472 0.0202761 0.0249025 0.0149956 0.0145488
          -0.0117923 -0.00615696 -0.00938039 -0.00889233 -0.0118386 -0.0128604
          -0.0109702 -0.0103708 0.0961793 0.0946005 0.0933791 0.0940187
          -0.0133371 -0.0117784 -0.0124395 -0.0109875 0.0386142 0.045842
          0.0462954 0.0498687 -0.00499197 -0.00281992 -0.00495617 -0.00800935
          0.0464779 0.0518298 0.0396681 0.0382422 0.0395448 0.0464779
          0.0396681 0.0382422 -0.0188984 -0.0186037 -0.0167399 -0.0197199
          0.00594671 0.0128998 0.00584569 0.0163716 0.0793398 0.0768006
          0.0832243 0.0759489 -0.0159618 -0.0154864 -0.0142383 -0.0146771
          -0.0138988 -0.0117847 -0.012833 -0.0112095 -0.00480447 -0.0064143
          -0.00504482 -0.00244935 -0.0148368 -0.0133311 -0.0140032 -0.0122948
          0.0704512 0.0641616 0.0683723 0.0809897 0.0115894 0.014183
          0.0214733 0.0194951 0.0137501 0.0129794 0.000570539 0.0134379
          -0.012766 -0.01385 -0.0136552 -0.0118386 0.0127976 0.0156658
          0.0225269 0.0195054 -0.0120173 -0.0111273 -0.0111888 -0.0101035
          -0.0135258 -0.0137518 -0.0137283 -0.0139847 0.0543238 0.0493815
          0.0561299 0.0473978 0.0956329 0.0961351 0.0964002 0.0981286
          0.0911611 0.0849973 0.0892035 0.086149 0.10803 0.104812
          0.112242 0.112338 0.00224888 -0.00197492 -0.00343188 0.000676097
          -0.0129756 -0.0140065 -0.0119697 -0.0131649 -0.0196446 -0.014071
          -0.0129255 -0.0136174 0.0442869 0.0541389 0.0519682 0.0486119
          -0.0155909 -0.0142383 -0.0143225 -0.0159618 -0.0142188 -0.0152705
          -0.0162388 -0.0103725 -0.0180549 -0.0196739 -0.0172167 -0.0240072
          -0.00343188 -0.00413169 5.82853e-05 -0.00256661 -0.0180549 -0.0205887
          -0.0163881 -0.0153847 0.10492 0.1075 0.104812 0.0988924
          -0.0270881 -0.0217264 -0.0173699 -0.0209682 -0.0155189 -0.0107643
          -0.0132634 -0.0100672 0.027128 0.0349137 0.0226921 0.0267247
          -0.0133876 -0.0129756 -0.012174 -0.0132648 -0.0143898 -0.0159958
          -0.0141714 -0.0128252 0.0298942 0.0320141 0.0241004 0.0297779
          -0.00500875 -0.00864801 -0.00353163 -0.00518339 -0.0112982 -0.0112966
          -0.00864801 -0.00839904 0.0946768 0.0983866 0.0922335 0.092526
          0.0101018 0.0204591 0.0186287 0.0175491 -0.0119491 -0.0151294
          -0.0153733 -0.0146452 -0.0173093 -0.0174144 -0.0109318 -0.0105734
          0.0025933 -0.00164808 0.0053151 0.009434 0.0780598 0.0779443
          0.0719055 0.0824615 0.0528332 0.0493815 0.0583691 0.0543238
          0.00584169 -2.51321e-05 0.000471272 0.00212624 -0.00822036 -0.00400199
          -0.00974557 -0.00593256 -0.0123134 -0.0136582 -0.0128463 -0.0126718
          -0.0157609 -0.016129 -0.0147393 -0.0159958 -0.00908123 -0.0159049
          -0.00938039 -0.00358364 -0.0179958 -0.0170253 -0.0196971 -0.0184525
          -0.00164808 -0.00211367 0.009434 0.0025933 -0.000485042 9.87133e-05
          -0.00503266 -0.00727612 -0.0109875 -0.0086086 -0.0107372 -0.00927824
          -0.00222472 -0.00495655 -0.00563442 -0.00647699 0.018373 0.00569362
          0.0139789 0.00720486 0.0805968 0.0827915 0.0849973 0.0778226
          0.0943034 0.0935405 0.0935983 0.0927761 0.0550045 0.0592017
          0.0645819 0.0597525 0 0 0 -0.00357756
          0.0943187 0.0957216 0.100371 0.101212 0.07594 0.0782877
          0.0831428 0.0802136 0.112242 0.112281 0.114842 0.11019
          0.00822017 0.0114892 0.0163032 0.00963681 0.0708743 0.0583567
          0.0649467 0.070367 -0.00448618 -0.00889233 -0.0074673 -0.00533943
          0.0612821 0.0506828 0.0626744 0.0572523 -0.012015 -0.0132619
          -0.0132045 -0.0116014 -0.0127112 -0.0140178 -0.0131109 -0.0120173
          -0.0101949 -0.0108439 -0.0108474 -0.00843312 -0.0153847 -0.0126734
          -0.0141881 -0.0180549 0.0819169 0.0922475 0.0868215 0.0901879
          0.0149956 0.0145488 0.018373 0.0101551 -0.0132091 -0.00948852
          -0.0111888 -0.0101269 0.0780598 0.0794021 0.0719055 0.0722326
          -0.0084688 -0.00871553 -0.00832996 -0.00370727 0.00741455 0.0117331
          0.00710339 0.00584169 -0.00197492 0.0034827 0.000676097 0.00867015
          -0.0169045 -0.012431 -0.0128015 -0.0177313 0.0654663 0.0612821
          0.0552688 0.0538991 0.000676097 0.0034827 0.00664006 0.00867015
          -0.000960639 -0.00488907 0.00173919 -0.00367405 -0.00994833 -0.00800935
          -0.00495617 -0.00822523 0.0768006 0.0819169 0.0793398 0.0846894
          -0.0175449 -0.0179976 -0.015471 -0.0154642 -0.0150505 -0.0124395
          -0.0128779 -0.0154642 0.0183116 0.0140266 0.00998805 0.0100494
          -0.00927824 -0.0109596 -0.00742649 -0.00702655 -0.0011597 -0.00688996
          0.000676097 -0.00539303 0.0493815 0.041583 0.0449849 0.0515351
          0.0940771 0.0993376 0.0983866 0.0923967 0.0452472 0.0448283
          0.0510428 0.0518298 -0.0084688 -0.00370727 -0.0122022 -0.00834367
          -0.00783516 -0.00495655 -0.00577718 -0.00617679 -0.000758185 0.0035501
          -0.00343188 -0.00353163 -0.0138379 -0.0147507 -0.0144426 -0.0136001
          -0.00495655 -0.00222472 -0.00563442 -0.00504482 0.0759489 0.0817436
          0.0780598 0.088585 0.0778847 0.0780598 0.0817436 0.0833251
          -0.0133876 -0.0136552 -0.012174 -0.0129756 -0.0179506 -0.0200852
          -0.0135404 -0.0152032 0.0960197 0.0987585 0.0989408 0.0942488
          0.00789755 0.00260366 0.00929873 0.000322241 -0.00986348 -0.0112934
          -0.0115354 -0.0110417 -0.00173324 -0.00750152 -0.008019 -0.0026124
          -0.0133876 -0.0119435 -0.0118386 -0.0136552 0.00429118 0.0137501
          0.00577853 0.00944826 0.0943034 0.0968129 0.0953534 0.0968458
          0.0339339 0.0266212 0.0252607 0.0323379 0.0768006 0.0722326
          0.0794021 0.0841291 9.87133e-05 -0.00345068 -0.00627446 0.00231494
          0.0584848 0.0592017 0.0600215 0.0645819 0.0961257 0.0902565
          0.101212 0.0824418 -0.00910394 -0.00880874 -0.00367405 -0.00701453
          -0.0133876 -0.0119435 -0.012174 -0.0118386 -0.0136582 -0.0133311
          -0.0129574 -0.0126718 -0.0116014 -0.01342 -0.0131649 -0.0110955
          -0.0011597 -0.00688996 -0.00197492 0.000676097 0.0762001 0.0793398
          0.0768006 0.0819169 0.0943187 0.0947307 0.100112 0.092526
          -0.0179958 -0.0131223 -0.014775 -0.016316 -0.0138988 -0.01385
          -0.012833 -0.0117847 -0.00152772 -0.00977107 -0.00832996 -0.00286856
          -0.0116895 -0.0131223 -0.00604505 -0.00504061 0.0552688 0.0462954
          0.0538991 0.0545551 -0.0155281 -0.0136275 -0.0142512 -0.0137283
          -0.00428175 -0.000891983 -0.00460077 0.000732152 -0.012431 -0.0166778
          -0.0173699 -0.0117923 -0.00164808 0.0053151 -0.000287921 -0.0031679
          -0.00142277 -0.00734382 0.0038756 -0.0055628 0.00922241 -0.00142277
          0.0038756 0.00594671 -0.0103711 -0.00346981 -0.00908123 -0.00358364
          -0.0172467 -0.0148368 -0.0159403 -0.0120732 -0.00400199 -0.0034695
          -0.00974557 -0.00711215 0.00710339 0.00584169 0.000511914 0.00212624
          -0.010044 -0.0139796 -0.00951806 -0.0141443 -0.0221583 -0.018359
          -0.022248 -0.0184729 -0.00181342 0.00527735 -0.00533943 -0.00942437
          0.00723765 0.00331069 0.00523286 0.00327003 -0.0127901 -0.0113241
          -0.0121278 -0.0120173 0 0.0147318 0.00504842 0.00749469
          0.00628365 -0.000960639 0.0025933 -0.00211367 0.0639893 0.0684276
          0.0731584 0.0694965 0.0561299 0.0485772 0.0473978 0.0493815
          -0.00500875 -0.00317254 -0.00745357 -0.00670828 -0.0209682 -0.0189245
          -0.0133081 -0.024018 0.100112 0.100802 0.0943382 0.0984366
          -0.015154 -0.0168699 -0.0140178 -0.0167668 -0.00173324 -0.00641771
          -0.00750152 -0.0026124 -0.0196971 -0.0145272 -0.0203243 -0.0166017
          -0.0203243 -0.0145272 -0.0145598 -0.0166017 -0.0150371 -0.012766
          -0.0146903 -0.0128604 -0.00867774 -0.00732795 -0.0122989 -0.00787858
          0.0100494 0.00474989 0.00929873 0.00686604 -0.0132619 -0.0141968
          -0.0116014 -0.0106223 -0.0116642 -0.0138379 -0.0091699 -0.0117775
          0.0214812 0.0204591 0.0186287 0.0101018 0.105508 0.10803
          0.105429 0.100112 0.00577853 0.00944826 0.0159505 0.00998128
          0.0561299 0.0607576 0.0543238 0.0540566 0.0137501 0.00623301
          0.00429118 0.000570539 0.0967715 0.0927309 0.0876495 0.0929403
          -0.0270881 -0.0209682 -0.0181342 -0.024018 0.0919498 0.100997
          0.0976954 0.0957216 0.0876495 0.090798 0.0908349 0.0892035
          -0.00874778 -0.00774906 -0.0116458 -0.00998517 -0.0170253 -0.0102896
          -0.0152121 -0.0109623 0.0326024 0.0401873 0.0391504 0.0294766
          0.0943187 0.0947307 0.0902565 0.0943382 0.0928267 0.0875151
          0.0897648 0.0910084 -0.012431 -0.011639 -0.00998517 -0.00774906
          -0.00973485 -0.0095234 -0.00719991 -0.00783516 0.0824418 0.0824418
          0.0902565 0.092674 0.0945086 0.0798208 0.09271 0.0922869
          0.106625 0.101867 0.107926 0.110086 -0.0139909 -0.0119405
          -0.00998045 -0.0104381 -0.0170253 -0.0171154 -0.0196971 -0.0184525
          -0.0136582 -0.0139847 -0.0132634 -0.0152705 -0.0109875 -0.0107372
          -0.0124395 -0.00927824 0.0249025 0.018373 0.0267247 0.030637
          -0.0107902 -0.0147362 -0.0152032 -0.0105415 -0.00822523 -0.0108072
          -0.00874778 -0.00403773 -0.00451818 -0.00281992 -0.00495617 -0.00339795
          -0.0159403 -0.0109344 -0.00727612 -0.00951325 -0.0117784 -0.00674395
          -0.0086086 -0.00952224 0.00590663 0.0102825 9.87133e-05 0.00210831
          0.0982259 0.100297 0.10216 0.103169 -0.000485042 9.87133e-05
          -0.00727612 0.000251628 0.0121727 0.00478569 0.00696049 0.00944826
          -0.00370727 -0.00152772 -0.00832996 -0.00498123 -0.0152156 -0.0166441
          -0.0145598 -0.0140178 -0.0140178 -0.0168699 -0.0143898 -0.0149003
          0.0386142 0.0428983 0.0462954 0.045842 -0.012015 -0.0116014
          -0.0132045 -0.0085829 -0.0126816 -0.00740716 -0.0106223 -0.00812965
          0.000570539 -0.00448618 0.00210831 -0.00508143 0.0897648 0.0875151
          0.0884996 0.0837749 -0.00615696 -0.00346981 -0.0103711 -0.00358364
          0.0741555 0.0722704 0.0660669 0.0787166 0.0906245 0.0819169
          0.0762001 0.0766639 0.110851 0.103492 0.106625 0.107082
          0.0211458 0.0117331 0.0194951 0.014183 -0.0148368 -0.0122948
          -0.0109344 -0.00980449 -0.00152772 -0.00832996 -0.000792662 -0.00286856
          0.0922475 0.0917422 0.0932419 0.0993396 0.0903425 0.0786899
          0.0809897 0.0825092 -0.0155531 -0.0150371 -0.016142 -0.0128604
          -0.00747016 -0.010768 -0.0101472 -0.00790277 0.0922475 0.0872112
          0.0971933 0.0932419 -0.0127112 -0.0121278 -0.0131109 -0.0112934
          0.0895988 0.0908914 0.0931675 0.0866501 -0.0151294 -0.018128
          -0.0177062 -0.0146452 0.0209412 0.0165835 0.0298942 0.026316
          -0.0104179 -0.0122989 -0.014953 -0.0125083 -0.0140178 -0.0131109
          -0.0120173 -0.0127901 -0.00761653 -0.00927245 -0.00742649 -0.0103708
          -0.0173093 -0.00827242 -0.0109318 -0.0145331 -0.0172467 -0.020683
          -0.0148368 -0.0143337 0.0876495 0.0872112 0.0908349 0.0935983
          -0.0117847 -0.0149838 -0.0119435 -0.0128705 -0.0112095 -0.0149838
          -0.0117847 -0.0128705 0.0645819 0.0600215 0.0584848 0.0654663
          -0.00236865 0.00401747 0.0053151 0.00212618 -6.04137e-05 0.00659027
          0.00231494 0.00860607 0.00327003 0.00841701 0.000322241 0.00474989
          0.018373 0.0139789 0.027128 0.0209412 0.0614825 0.0568305
          0.064407 0.0528332 0.0993396 0.0922475 0.103799 0.0971933
          -0.00172237 0.00509314 -0.00871553 -0.00370727 0.102758 0.0984366
          0.0986556 0.101867 -0.0168699 -0.0149003 -0.0167668 -0.0176947
          0.0614825 0.0494386 0.0568305 0.0528332 0.103075 0.0961512
          0.100371 0.0956329 -0.0112982 -0.0112966 -0.0100554 -0.00864801
          0.0226921 0.0139789 0.00922241 0.0163716 0.0649001 0.0727373
          0.0749929 0.0672179 0.0540566 0.0543238 0.0561299 0.0473978
          -0.0074673 -0.000960639 -0.00533943 -0.00880874 -0.00783675 -0.0109702
          -0.00899144 -0.00927245 0.00140284 -0.00694747 -0.00118024 0.00126769
          -0.0109344 -0.0122948 -0.00953853 -0.00627446 0.0378947 0.025394
          0.0326986 0.0331866 -0.00222472 -0.00443768 -0.00495655 -0.00345964
          0.00327003 -0.00173324 0.00331069 0.00523286 -0.0103708 -0.00843312
          -0.0108439 -0.00847522 0.109344 0.10803 0.105429 0.105508
          -0.0137818 -0.0125083 -0.0179506 -0.0135404 -0.000690955 -0.00391901
          -0.00442074 -0.00495617 -0.0100672 -0.00934427 -0.00604505 -0.00428175
          0.00105064 0.00252499 -0.0011597 0.00262799 0.110851 0.103492
          0.107082 0.111551 0.057476 0.0549191 0.045937 0.0577736
          -0.0144426 -0.0141968 -0.0138029 -0.0147507 0.0953553 0.0895988
          0.0943679 0.0931675 0.0858855 0.0787166 0.0822369 0.0741555
          -0.0103708 -0.0109702 -0.00930884 -0.00927245 -0.0155189 -0.0163022
          -0.0138029 -0.0129255 0.0976263 0.0985264 0.103075 0.0956329
          0.00789755 0.0092244 0.00960777 0.00260366 0.0189193 0.0171797
          0.0186287 0.0118168 0.104195 0.100629 0.10765 0.106809
          0.0163032 0.0189193 0.021667 0.00963681 -0.0138764 -0.0119604
          -0.0128252 -0.0139518 -0.0166081 -0.0116166 -0.00994833 -0.00800935
          0.0868215 0.0901879 0.0922475 0.0906245 -0.0133311 -0.0100672
          -0.00998447 -0.00980449 0.0626744 0.0506828 0.0561299 0.0485772
          -0.00443768 -0.00647699 -0.00345964 -0.00591698 -0.0153294 -0.0180922
          -0.0173693 -0.0159958 0.106625 0.103492 0.10426 0.107082
          0.0961793 0.0937414 0.0933791 0.0946005 0.0757005 0.0804062
          0.0872112 0.0823455 0.0823455 0.0846894 0.0757005 0.0768006
          0.0392555 0.0326024 0.0457958 0.0364686 0.0825092 0.0704512
          0.0786899 0.0809897 0.0894653 0.0786899 0.0809897 0.0903425
          0.0940187 0.0897648 0.0910084 0.0946005 -0.0149838 -0.0147054
          -0.0119435 -0.0128705 -0.0149838 -0.0175004 -0.0162666 -0.0147054
          -0.00903024 -0.00688212 -0.00651799 -0.00930884 0.0993376 0.0940771
          0.0935166 0.0923967 -0.00927245 -0.0109596 -0.00708722 -0.00742649
          -0.0126816 -0.00779109 -0.00740716 -0.00812965 -0.00613969 -0.00779774
          -0.00348063 -0.00767366 -0.0103708 -0.012766 -0.0128604 -0.0109596
          -0.0179958 -0.0196971 -0.0224445 -0.0184525 -0.0141714 -0.0121653
          -0.0122154 -0.0121714 -0.00767366 -0.00357756 0 0
          0.0575983 0.0545551 0.0684555 0.0627337 0.0956329 0.0968129
          0.0953553 0.0943679 0.112732 0.10761 0.110603 0.106625
          0.000322241 -0.00173324 -0.00493176 0.00260366 0.0947307 0.0824418
          0.0787728 0.101212 -0.00911502 -0.00647699 -0.00495655 -0.00591698
          -0.00222472 -0.00647699 -0.00456851 -0.00495655 0.0660669 0.0667901
          0.0608877 0.0584996 -0.00627446 -0.00346981 -0.0103711 -0.00615696
          -0.00400199 0.00105064 -0.00221483 -0.00492085 0.0817436 0.0724522
          0.0759489 0.0780598 -0.0133371 -0.00952224 -0.0109875 -0.0126734
          -0.00783516 -0.00495655 -0.00504482 -0.00577718 -0.0122154 -0.0112706
          -0.010768 -0.0121714 0.0832243 0.0759489 0.088585 0.0904408
          -0.00938039 -0.0117923 -0.00889233 -0.0130007 0.0375999 0.027128
          0.0340728 0.026316 0.101212 0.0787728 0.0947307 0.0940771
          0.00922241 0.0139789 0.00594671 0.0163716 -0.00877047 -0.0107902
          -0.0125083 -0.00834344 0.112242 0.112338 0.114842 0.113884
          -0.0031679 0.0053151 0.00584569 0.00212618 -0.00973485 -0.00944187
          -0.00783516 -0.00911502 -0.0111888 -0.0149003 -0.0116704 -0.0132091
          0.0151683 0.0211458 0.0194951 0.0161199 0.101212 0.101212
          0.0957216 0.101212 -0.00899144 -0.010768 -0.00747016 -0.00927245
          0.0121727 0.00696049 0.0204591 0.0159505 -0.00151987 0.00679275
          0.00140284 -0.00428175 0.0801117 0.0779443 0.0859182 0.0840946
          -0.00927245 -0.0109702 -0.00899144 -0.0119604 -0.0116704 -0.0125329
          -0.00882003 -0.010768 -0.012766 -0.0129857 -0.0109937 -0.0119697
          -0.00317254 -0.00221483 -0.00492085 -0.00745357 -0.0167399 -0.0180922
          -0.0159958 -0.0186037 -0.0232528 -0.0201982 -0.0161269 -0.0247358
          0.0884996 0.0908349 0.0849973 0.0805968 -0.0188984 -0.0180922
          -0.016142 -0.0167399 -0.0138764 -0.0119604 -0.0139518 -0.0128604
          -0.0166778 -0.0145598 -0.021099 -0.0104976 -0.00965086 -0.0108072
          -0.012431 -0.00874778 0.0946768 0.0943187 0.0957216 0.0961512
          0.0340728 0.0382422 0.0298942 0.0331244 -0.0116458 -0.00965086
          -0.012431 -0.00874778 -0.0133876 -0.0118386 -0.012174 -0.0136552
          -0.0155281 -0.0142512 -0.0163887 -0.0132619 -0.00761653 -0.0103708
          -0.00742649 -0.00847522 0.109344 0.105508 0.105429 0.10664
          -0.00633565 -0.00927824 -0.00742649 -0.00627454 -0.0100672 -0.00934427
          -0.0109623 -0.00604505 0.0161199 0.0092244 0.0171797 0.0114892
          -0.0169045 -0.0166778 -0.0177313 -0.0128015 -0.0111273 -0.0121278
          -0.0095234 -0.0115306 0.111551 0.107082 0.113468 0.113175
          -0.0188984 -0.016142 -0.015471 -0.0167399 0.0951903 0.101679
          0.107383 0.0988924 0.00429118 0.00577853 0.00185096 0.00944826
          -0.00871553 -0.0122022 -0.00832996 -0.018657 0.0745767 0.0638716
          0.0709724 0.0740713 0.0840946 0.07594 0.0831428 0.0760461
          -0.012766 -0.0150371 -0.0142089 -0.0136552 0.0884996 0.0908349
          0.0911611 0.0849973 0.00331069 0.00960777 0.00584169 0.00260366
          0.0626744 0.069947 0.0712148 0.0677137 -0.0140178 -0.0166441
          -0.0145598 -0.0143898 0.10803 0.10492 0.104812 0.100112
          -0.0103708 -0.00927245 -0.00930884 -0.00761653 -0.0102092 -0.0121278
          -0.0115306 -0.0095234 -6.04137e-05 0.000932724 -0.00345068 0.00659027
          0.0496291 0.0468155 0.0430777 0.0549191 0.100371 0.0976263
          0.103705 0.103075 -0.00197492 -0.00613969 -0.00597124 -0.00316609
          0.0330849 0.0382422 0.0396681 0.0388482 -0.0144426 -0.0163672
          -0.0141968 -0.0147507 0.00998128 -0.000960639 0.00173919 0.0025933
          0.0778847 0.0719055 0.0833251 0.0684555 -0.0117923 -0.0103711
          -0.00615696 -0.00953853 -0.0140065 -0.0132648 -0.0132896 -0.0141855
          0.0805968 0.0762057 0.0722704 0.0778226 -0.0137173 -0.0137283
          -0.0142512 -0.0144426 -0.00480447 -0.00268011 -0.00640648 -0.00787858
          0.0234903 0.0190862 0.0183116 0.0178233 0.0987585 0.101482
          0.101594 0.0933328 0.0700438 0.0787166 0.0741555 0.0660669
          -0.00745357 -0.00670828 -0.00470133 -0.0079659 -0.0101546 -0.00510329
          -0.00345068 -6.04137e-05 -0.0157141 -0.0141968 -0.0140065 -0.0144426
          0.00224888 -0.000798352 -0.00071185 0.00429153 -0.0155909 -0.0159618
          -0.0143225 -0.0182685 -0.0137173 -0.0155281 -0.014775 -0.0142512
          0.0910084 0.0883173 0.0824615 0.0859182 0.0456868 0.0367894
          0.0441457 0.0442869 0.0986556 0.10035 0.0987585 0.0946768
          0.0763853 0.0646988 0.0641616 0.0739216 -0.0159049 -0.0173699
          -0.0130007 -0.0181342 -0.00711215 -0.00749906 -0.00900353 -0.00593256
          0.0684555 0.0724522 0.0780598 0.0719055 -0.0136582 -0.0115173
          -0.0128463 -0.0135258 -0.0135718 -0.0137283 -0.0136275 -0.0116642
          -0.0133081 -0.0166081 -0.00880874 -0.0189245 0.0946768 0.0957216
          0.0919498 0.0961512 -0.0084688 -0.00370727 -0.00834367 -0.00421154
          0.0583781 0.0664747 0.0597525 0.0649001 -0.0145598 -0.0140178
          -0.0143898 -0.0122154 0.0922335 0.092526 0.0923967 0.0938949
          -0.0153294 -0.0143898 -0.0149003 -0.012833 0.0977652 0.101595
          0.0945086 0.101271 -0.00428175 -0.00934427 -0.00604505 -0.000891983
          -0.000960639 -0.0074673 -0.00488907 -0.00880874 0.0916535 0.0897648
          0.0911611 0.0849973 -0.0176947 -0.0149003 -0.0167668 -0.018128
          -0.0180549 -0.0163881 -0.0182685 -0.0157141 0.0584848 0.0639772
          0.0540566 0.0597525 -0.0196971 -0.0145272 -0.0170253 -0.0203243
          -0.0107902 -0.00688996 -0.0105415 -0.0077584 9.87133e-05 0.000251628
          -0.000485042 0.00590663 -0.000758185 0.000676097 0.00252499 0.0035501
          0.0968129 0.0931675 0.0935983 0.0953534 0.0297779 0.0320141
          0.0311586 0.0395448 0.00249727 -0.00281992 0.00222036 -0.000179497
          0.0165835 0.013976 0.0183116 0.0214384 -0.00740716 -0.00529419
          -0.00839467 -0.00214796 -0.0175614 -0.016129 -0.0159958 -0.0186037
          -0.00910394 -0.00701453 -0.00236865 -0.0128731 -0.0173095 -0.0152032
          -0.0179506 -0.0135404 0.0401873 0.0456868 0.0506082 0.0485009
          0.0392555 0.0326024 0.0401873 0.0457958 -0.0138379 -0.0155909
          -0.0163672 -0.0147507 0.107926 0.10664 0.105555 0.102758
          0.0241004 0.0198814 0.0279604 0.0214384 0.0159505 0.0137501
          0.00998128 0.0246008 -0.0140178 -0.0166441 -0.0143898 -0.0168699
          0.0550045 0.0592017 0.0597525 0.0583781 -0.0184858 -0.0116166
          -0.00880874 -0.0128731 -0.0101035 -0.0079659 -0.00882003 -0.0101472
          0.0339339 0.0362804 0.0354399 0.0267211 -0.0174144 -0.0114026
          -0.0105734 -0.0157642 0.0937414 0.0968458 0.0948321 0.0935405
          0.014183 0.0117331 0.0194951 0.0115894 0.060776 0.0627337
          0.0684555 0.0709775 0.0178141 0.0198814 0.023484 0.0279604
          -0.00500875 -0.00839904 -0.00719991 -0.00864801 -0.0202491 -0.0180549
          -0.0182685 -0.0157141 0.0943187 0.0984366 0.0986556 0.0946768
          0.00963681 0.00696049 0.00478053 0.00401747 -0.00822523 -0.0107869
          -0.00731356 -0.00965086 -0.0169045 -0.0209799 -0.0166778 -0.0128015
          0.107082 0.100802 0.103492 0.10426 0.0202761 0.0149956
          0.0290619 0.0199927 0.0937414 0.0935405 0.0933791 0.0911611
          -0.0166346 -0.010044 -0.0141443 -0.0181632 -0.00998517 -0.0116458
          -0.0123134 -0.011639 0.013872 0.0118168 0.0171797 0.0092244
          0.0175491 0.0121727 0.00963681 0.00696049 0.000676097 -0.00197492
          -0.00343188 -0.00353163 0.00523286 0.00222036 0.00331069 0.00212624
          0.0195054 0.0114892 0.0156658 0.0189193 -0.00742649 -0.0109596
          -0.00708722 -0.00702655 -0.00911502 -0.00987119 -0.00647699 -0.00591698
          0.0367918 0.0362804 0.0339339 0.0267211 -0.00504482 -0.00480447
          -0.00640648 -0.0112065 0.0341367 0.0206599 0.0269602 0.0246422
          0.0249025 0.018373 0.030637 0.0290619 -0.00448618 -0.00953853
          -0.00727612 -0.0118541 0.103075 0.0976263 0.103705 0.103607
          -0.00127327 0.00105064 -0.00221483 -0.00400199 0.000570539 0.0129794
          0.00527735 0.0134379 0.0988924 0.101679 0.1075 0.0787728
          0.064407 0.0568305 0.0656661 0.0583691 0.0496291 0.0430777
          0.0367918 0.0435662 0.0608921 0.0731584 0.0649001 0.0639893
          0.0198814 0.0267211 0.023484 0.0279604 0.0442869 0.05184
          0.0519682 0.0541389 0.0778847 0.0724522 0.0780598 0.0684555
          0.0712148 0.073621 0.0782606 0.0802136 -0.00745357 -0.00492085
          -0.00317254 -0.00500875 0.0664747 0.0694311 0.0712302 0.0645819
          -0.00930884 -0.00651799 -0.00820863 -0.00669444 -0.0147362 -0.0202973
          -0.0152032 -0.015707 -0.012015 -0.0116895 -0.0132619 -0.0116014
          -0.0126734 -0.00740716 -0.0106223 -0.0126816 -0.00533943 -0.00938039
          -0.0130007 -0.00942437 -0.00980449 -0.0122948 -0.0109344 -0.00627446
          0.0638716 0.0709724 0.0680971 0.0760461 0.00484992 0.0102825
          0.00210831 9.87133e-05 -0.0173093 -0.0109318 -0.0127395 -0.0105734
          -0.0139518 -0.0159958 -0.0138764 -0.0167399 0.0137501 0.0188651
          0.0129794 0.0134379 -0.0147393 -0.0138764 -0.0128252 -0.0139518
          0.00696049 0.00185887 0.00181038 0.00963681 -0.00348063 0
          0 -0.0036721 0.0943382 0.092674 0.0945086 0.0809897
          -0.00839904 -0.00745357 -0.00921344 -0.00670828 -0.0141881 -0.01342
          -0.0157141 -0.0141968 0.0961257 0.092674 0.0902565 0.0824418
          0.0583781 0.0700373 0.0664747 0.0608921 0.107082 0.110603
          0.113468 0.108299 0.07594 0.0762057 0.0782877 0.069947
          0.0937414 0.0897648 0.0916535 0.0946005 0.0745767 0.0709775
          0.0706221 0.0650225 0.0468155 0.0387796 0.045842 0.0430777
          9.87133e-05 -6.04137e-05 0.00231494 0.00860607 0.057476 0.0608716
          0.070367 0.0656273 -0.0132091 -0.0145928 -0.0137818 -0.0111888
          -0.0180549 -0.0205887 -0.0182685 -0.0163881 0.0922335 0.0894452
          0.092526 0.0938949 0.10761 0.101271 0.110603 0.106625
          0.0943187 0.0946768 0.0986556 0.0961512 -0.0128604 -0.0109702
          -0.0117847 -0.0118386 -0.0128252 -0.0109596 -0.00994981 -0.0119604
          0.0664747 0.0645819 0.0597525 0.0694311 0.0778226 0.0827915
          0.0787166 0.0805968 -0.0140032 -0.0156323 -0.0123134 -0.0133311
          2.43316e-05 -0.00493176 0.00789755 0.00260366 0.00789755 -0.00493176
          0.00584569 0.00260366 0.0945086 0.0977652 0.09271 0.101595
          -0.00172237 0.00181038 0.00343406 0.00900184 0.0793398 0.0768006
          0.0846894 0.0832243 -0.00152772 -0.00286856 -0.000792662 0.00429118
          -0.00965086 -0.00731356 -0.00822523 -0.00753719 0.0297779 0.0395448
          0.0396681 0.0382422 0.0932419 0.0872112 0.0971933 0.0953534
          -0.00719991 -0.00353163 -0.00864801 -0.00610029 0.0794948 0.0866501
          0.0727373 0.080901 -0.00236865 5.29779e-05 0.00401747 0.00212618
          0.00429153 0.0101144 0.00224888 0.0035501 0.0946005 0.0928267
          0.0956412 0.0875151 0.0901879 0.0904408 0.0956028 0.0949824
          -0.0180549 -0.0126734 -0.016901 -0.0172167 -0.0111273 -0.00921344
          -0.00839904 -0.0101035 0.0378947 0.0388482 0.0331244 0.0331866
          0.100371 0.0961257 0.101212 0.102285 0.0953534 0.0971933
          0.0953553 0.0963202 0.045937 0.0518298 0.0382422 0.0452472
          -0.00694747 -0.00934427 -0.0107643 -0.00151987 0.10803 0.113884
          0.111304 0.113406 -0.0141714 -0.0145598 -0.0122154 -0.0121653
          0.0960197 0.0961512 0.0919498 0.0976954 0.101271 0.10426
          0.106625 0.103492 -0.0144426 -0.0136001 -0.0137283 -0.0135718
          0.00478569 0.00185887 0.00181038 0.00696049 0.0992951 0.100629
          0.0982259 0.0953553 -0.0132636 -0.015396 -0.0127112 -0.0144693
          0.0137501 0.00944826 0.0159505 0.00577853 0.0875151 0.0917422
          0.0956412 0.0932419 0.0759489 0.067363 0.0722326 0.0648493
          0.0722326 0.0645819 0.0639772 0.0654663 0.0441457 0.0367894
          0.0390901 0.0442869 0.0519682 0.0486119 0.0583567 0.0442869
          -0.0127901 -0.0120173 -0.0122154 -0.0121653 -0.000960639 0.00527735
          0.000570539 -0.00533943 -0.0222241 -0.0180549 -0.0187996 -0.0198767
          0.0326024 0.0266212 0.0391504 0.0323379 -0.0137039 -0.014775
          -0.0131223 -0.0116895 -0.010044 -0.011447 -0.00951806 -0.0118541
          0.0163032 0.0114892 0.0189193 0.00963681 -0.0144426 -0.0135718
          -0.0137283 -0.0142512 -0.00792453 -0.0124198 -0.0031679 -0.0140618
          0.0840946 0.0831428 0.0887192 0.0849373 -0.0122989 -0.0119405
          -0.014953 -0.0125083 -0.0135718 -0.0132896 -0.0136275 -0.0142512
          0.0819169 0.0922475 0.0901879 0.0846894 0.0664747 0.0757005
          0.0768006 0.0712302 0.0456925 0.0468155 0.0487549 0.0450642
          0.0951257 0.0968458 0.0964002 0.0955726 -0.000758185 -0.00256661
          -0.00343188 0.0035501 -0.00694747 -0.00354039 -0.00708235 0.00126769
          0.0572903 0.0583691 0.0599948 0.0656661 0.0599948 0.0656661
          0.0680971 0.0664681 0.0599948 0.0583691 0.0680971 0.0656661
          -0.0132091 -0.00948852 -0.0123001 -0.00974557 0.045937 0.0518298
          0.0608716 0.0577736 -0.0127112 -0.0140178 -0.0120173 -0.0131376
          0.0572903 0.0656661 0.0599948 0.0664681 -0.0101035 -0.00822036
          -0.0111888 -0.00882003 0.0194951 0.0214733 0.0275463 0.0297779
          0.0226921 0.0163716 0.00922241 0.0206599 0.112732 0.110086
          0.106625 0.110851 -0.00747016 -0.0101472 -0.00599707 -0.00790277
          0.0705525 0.0775013 0.0787166 0.0722704 -0.0147393 -0.0159958
          -0.016129 -0.0167399 -0.00244935 -0.00193359 -0.00504482 -0.00466195
          0.0922475 0.0906245 0.0994953 0.0875869 0.0448283 0.0331244
          0.0342104 0.0378947 0 0 0 0.000333111
          -0.0152705 -0.0147507 -0.0139847 -0.0163022 0.00252499 -0.0011597
          0.00262799 0.00664006 -0.00640648 -0.00563442 -0.00495655 -0.00783516
          -0.0139826 -0.00792453 -0.00910394 -0.00164808 -0.00345068 -0.00428175
          -0.00438932 0.000732152 -0.0132542 -0.0152156 -0.0131109 -0.0140178
          0.100112 0.10492 0.0943382 0.100802 0.0872112 0.0804062
          0.0866501 0.0876495 0.104812 0.11019 0.112338 0.10922
          0.0365633 0.0430777 0.0376856 0.0290328 -0.0139847 -0.0137283
          -0.0137173 -0.0138029 -0.0105415 -0.015707 -0.0152032 -0.0102429
          0.018373 0.0149956 0.026316 0.0290619 0.00418987 0.00181038
          0.000471272 0.00185887 -0.00533943 0.00484992 0.00210831 -0.00193784
          0.0745767 0.0760461 0.0801117 0.0796129 -0.00834344 -0.0107902
          -0.0125083 -0.0101269 0.0680971 0.0706221 0.0626744 0.0638716
          -0.00504482 -0.0112065 -0.0104381 -0.0064143 0.0953534 0.0935405
          0.0935983 0.0943034 0.0778226 0.0667901 0.0775013 0.0725458
          -0.0136582 -0.0128463 -0.0145272 -0.0135258 0.0901879 0.0956028
          0.0917422 0.0993396 -0.0132091 -0.0152337 -0.0123001 -0.00948852
          0.0858855 0.0822369 0.0872946 0.0741555 5.82853e-05 0.00061746
          -0.000798352 0.00429153 -0.0139909 -0.0104381 -0.00998045 -0.0112065
          0.0145785 0.0102825 0.00210831 0.00484992 0.10426 0.108299
          0.110603 0.107082 -0.0151294 -0.0132091 -0.0174151 -0.0152337
          0.103075 0.0961512 0.0956329 0.0961351 -0.016142 -0.0180922
          -0.0159958 -0.0167399 -0.0150233 -0.00994833 -0.0108072 -0.0107869
          0.00527735 0.00484992 0.00210831 -0.00533943 0.0664747 0.0768006
          0.0757005 0.0700373 -0.00719991 -0.00949131 -0.00834344 -0.00783516
          -0.00317254 0.00252499 -0.00492085 0.00105064 -0.0202491 -0.0180549
          -0.0240072 -0.0205887 -0.0121278 -0.00921344 -0.0111273 -0.0101035
          0.0987585 0.105767 0.101482 0.0985842 -0.00640648 -0.00783516
          -0.00867774 -0.00779776 0.0117331 0.00710339 0.00584169 0.0114892
          -0.00227591 -0.00222472 -0.00563442 -0.00647699 0.0910084 0.0928267
          0.0824615 0.0883173 -0.000960639 0.0025933 -0.00910394 -0.00367405
          -0.0130007 -0.0074673 -0.0107869 -0.0110197 0.0722326 0.0712302
          0.0762057 0.0639772 -0.00147667 0.00822017 0.00343406 0.00181038
          0.0866501 0.0794948 0.0880509 0.080901 0.0937414 0.0884996
          0.0897648 0.0946005 0.0550045 0.0584848 0.0540566 0.0597525
          0.0241004 0.0298942 0.0211458 0.021662 -0.0128252 -0.00994981
          -0.0121714 -0.010768 -0.00930884 -0.00820863 -0.00843312 -0.00669444
          -0.0122989 -0.00867774 -0.00998045 -0.0119405 -0.00843312 -0.0103708
          -0.00761653 -0.00847522 0.0375999 0.030637 0.0349137 0.027128
          0.0991194 0.0987585 0.0986556 0.102758 0.10035 0.0987585
          0.102758 0.0986556 0.027128 0.0246422 0.0342104 0.0340728
          0.0367918 0.0362804 0.045842 0.0419076 0.0963202 0.09271
          0.101595 0.0953553 0.113175 0.113884 0.113406 0.115343
          -0.0149838 -0.0138988 -0.0153733 -0.0128705 0.0194951 0.0117331
          0.0156658 0.0115894 0.0038756 -0.000287921 0.0083212 -0.0031679
          0.0509021 0.0433722 0.0538991 0.0478604 0.00696049 0.00944826
          0.00577853 0.00998128 0.0827915 0.0775013 0.086149 0.0778226
          -0.00847588 -0.00555993 -0.00413169 -0.00963848 0.0592017 0.0645819
          0.0597525 0.0664747 0.0833918 0.086149 0.0775013 0.0782877
          0.0897619 0.0922335 0.0923967 0.0938949 -0.0163881 -0.0146903
          -0.0175449 -0.0188984 0.0151683 0.0183116 0.00998805 0.0100494
          -0.0139847 -0.0144426 -0.0137283 -0.0138029 -0.0138379 -0.0135718
          -0.0144426 -0.0155909 -0.0147362 -0.0107902 -0.0152032 -0.0114026
          0.0897648 0.0884996 0.0849973 0.0837749 -0.0184858 -0.00910394
          -0.0139826 -0.0124198 -0.0139909 -0.0153411 -0.0119405 -0.0104381
          -0.00680671 -0.00927245 -0.00747016 -0.00708722 0.0906245 0.0868215
          0.0762001 0.0819169 0.0837749 0.07594 0.0831428 0.0779443
          0.0943226 0.0938949 0.0906953 0.103038 -0.0232528 -0.0141443
          -0.0161269 -0.0201982 0.101508 0.0983216 0.0931621 0.0922335
          -0.00197492 -0.00343188 -0.00617679 -0.00385626 -0.0128779 -0.0103616
          -0.01305 -0.0109596 0.0976263 0.100371 0.0961512 0.0956329
          0.103075 0.0976954 0.0961512 0.0961351 0.0787728 0.100418
          0.0843161 0.101679 0.0129794 0.00484992 0.00210831 0.00527735
          -0.0147054 -0.0149838 -0.0153733 -0.0128705 -0.0179958 -0.0137039
          -0.0170253 -0.0184525 -0.0147362 -0.0202973 -0.0184435 -0.0152032
          -0.0155281 -0.0163887 -0.014775 -0.0132619 0.10765 0.0994953
          0.103915 0.101595 -0.0184525 -0.0163887 -0.0186162 -0.014775
          0.0195054 0.0114892 0.0189193 0.0163032 0.0195054 0.0189193
          0.021667 0.0163032 0.0163032 0.00963681 0.021667 0.0175491
          0.0535705 0.0592017 0.0584848 0.0550045 -0.00834344 -0.00949131
          -0.00877047 -0.00783516 -0.0135404 -0.0107902 -0.0102429 -0.0077584
          0.0117331 0.00960777 0.0151683 0.0146023 0.111304 0.112338
          0.112242 0.113884 -0.0110955 -0.0100434 -0.0109875 -0.0103014
          -0.0166017 -0.0126718 -0.0145598 -0.0128015 0.0719055 0.0627337
          0.0706221 0.0684555 -0.00980449 -0.00503266 -0.00627446 -0.0109344
          -0.0270881 -0.0221425 -0.0173699 -0.0217264 -0.0129255 -0.0159942
          -0.0141968 -0.0126816 0.0700438 0.0787166 0.0858855 0.0741555
          0.0833251 0.0824615 0.0918153 0.0883173 0.0846894 0.0918153
          0.0841291 0.0875151 0.00822017 0.0114892 0.0195054 0.0163032
          0.057476 0.0608716 0.0583567 0.070367 -0.0144426 -0.0138029
          -0.0139847 -0.0147507 0.0946005 0.0928267 0.0875151 0.0897648
          -0.00812965 -0.00740716 -0.00708235 -0.00354039 0.0163716 0.0128998
          0.00584569 0.013872 -0.0142512 -0.0132619 -0.0141968 -0.01342
          -0.0169444 -0.0176947 -0.0153294 -0.0173693 0.0529727 0.0575983
          0.0628785 0.060776 0.0957216 0.101212 0.100371 0.101212
          -0.00927245 -0.0109596 -0.00742649 -0.0103708 0.0247032 0.0183116
          0.0211458 0.0178233 -0.0115306 -0.00921344 -0.00839904 -0.0111273
          -0.0116895 -0.0137173 -0.014775 -0.0132619 -0.00910394 -0.0184858
          -0.0133081 -0.00880874 0.00090171 0 0.00504842 -0.00348063
          0.0639893 0.0731584 0.072694 0.0694965 -0.0110417 -0.0132542
          -0.0112934 -0.0127112 0.0395448 0.0387796 0.0468155 0.0365633
          0.0706221 0.0745767 0.0801117 0.0757261 -0.00418842 -0.00998517
          -0.00659314 -0.011639 0.00789755 0.0047323 2.43316e-05 0.000322241
          0.0433722 0.040404 0.0506828 0.0428983 -0.0135258 -0.0137518
          -0.0137173 -0.0137283 -0.00498123 -0.00488907 0.00185887 0.00185096
          -0.0166441 -0.0159958 -0.0157609 -0.0143898 0.0940187 0.0916535
          0.0897648 0.0946005 0.0849973 0.0827915 0.0892035 0.086149
          -0.0103014 -0.00829571 -0.00847522 -0.0101949 0.106625 0.103492
          0.110851 0.107926 -0.00910394 -0.0124198 -0.0128731 -0.00236865
          -0.0130007 -0.00880874 -0.0107869 -0.0074673 0.0983866 0.104812
          0.0993376 0.0940771 0.0779443 0.07594 0.0859182 0.0840946
          0.0968129 0.0956329 0.0964002 0.0981286 -0.0150371 -0.016142
          -0.015471 -0.0188984 -0.00974557 -0.00400199 -0.00711215 -0.00593256
          -0.0050596 -0.00640648 -0.00867774 -0.00779776 0.0583781 0.0664747
          0.0649001 0.0608921 -0.015471 -0.0138764 -0.0139518 -0.0128604
          0.0101018 0.00696049 0.00173919 0.00998128 2.43316e-05 0.00260366
          0.00789755 0.000322241 0.0786899 0.0704512 0.0683723 0.0809897
          -0.00480447 -0.00244935 -0.00396656 -0.0064143 0.0175491 0.0101018
          0.0204591 0.00696049 -0.0169045 -0.011639 -0.0128015 -0.012431
          -0.0112095 -0.00749906 -0.00783675 -0.00871713 0.0486119 0.0452472
          0.0541389 0.045937 0.0680971 0.0656661 0.073621 0.0664681
          -0.0163881 -0.0142089 -0.0146903 -0.0150371 -0.00822523 -0.00874778
          -0.00504081 -0.00403773 -0.0167399 -0.016129 -0.0179976 -0.0197199
          0.0801117 0.0779443 0.0840946 0.0760461 -0.0169045 -0.0209799
          -0.0217264 -0.0166778 -0.0137818 -0.0125083 -0.0135404 -0.0101269
          0.0943187 0.100112 0.0984366 0.0946768 -0.00839904 -0.00670828
          -0.00864801 -0.00518339 0.0991194 0.0982259 0.0964002 0.100297
          -0.00442074 -0.00994833 -0.00499197 -0.00822523 -0.00921044 -0.0103616
          -0.0109596 -0.00702655 -0.0146771 -0.0143225 -0.0142089 -0.0138481
          0.0946005 0.0875151 0.0884996 0.0897648 0.0183116 0.0190862
          0.0140266 0.0139395 0.0279604 0.0241004 0.0290328 0.0320141
          -0.0173693 -0.0168699 -0.0176947 -0.0149003 -0.0085829 -0.0116014
          -0.0132045 -0.00839467 -0.00448618 -0.00944941 -0.0074673 -0.00889233
          0.0894653 0.0951903 0.0943382 0.0809897 0.105508 0.105429
          0.10035 0.100112 -0.0103708 -0.00742649 -0.00847522 -0.0103014
          -0.00934427 -0.00708235 -0.0116895 -0.00504061 0.0794021 0.0875151
          0.0762057 0.0823455 -0.0129255 -0.00812965 -0.00708235 -0.00934427
          -0.00286856 -0.010044 -0.00508143 -0.00546711 0.0395448 0.0464779
          0.0382422 0.045937 -0.0101269 -0.0077584 -0.00492085 -0.00539303
          0.103492 0.0945086 0.100802 0.0984366 -0.0144693 -0.0137818
          -0.0115354 -0.0125083 0.0038756 -0.0031679 0.0083212 0.00584569
          0.0983866 0.0988924 0.104812 0.0940771 0.100802 0.102614
          0.10426 0.108299 0.0940771 0.0787728 0.0935166 0.0973971
          -0.00418842 -0.00382754 -0.0068226 -0.00774906 -0.0145598 -0.0140178
          -0.0122154 -0.0120173 -0.0132634 -0.0116895 -0.0109623 -0.0100672
          0.000932724 -0.00151987 -0.00510329 -0.00428175 -0.0166346 -0.0181632
          -0.0232528 -0.018657 -0.0107869 -0.00822523 -0.0108072 -0.00965086
          0.0823455 0.0768006 0.0757005 0.0712302 0.0858855 0.0787166
          0.0827915 0.0822369 0.021667 0.0118168 0.0186287 0.00963681
          0.0383668 0.0329572 0.0387796 0.0320141 0.0824418 0.0902565
          0.0809897 0.092674 0.00429118 -0.000792662 0.000570539 -0.00508143
          0.112426 0.113884 0.113175 0.115343 0.0249025 0.0267247
          0.0390901 0.030637 0.0376856 0.0511354 0.0435662 0.0430777
          0.00569362 0.0101551 0.0109529 0.00322875 -0.00533943 -0.00181342
          -0.00942437 -0.000960639 -0.0209682 -0.0133081 -0.0181342 -0.024018
          -0.0133178 -0.0143898 -0.0116704 -0.0149003 0.0599948 0.0680971
          0.0638716 0.0709724 -0.00694747 -0.00812965 -0.00934427 -0.00708235
          0.0884996 0.0823455 0.0778226 0.0837749 -0.0122154 -0.0101035
          -0.00882003 -0.0101472 0.090798 0.0927761 0.0908349 0.0892035
          0.0365633 0.0387796 0.0468155 0.0430777 0.0994953 0.0876825
          0.103915 0.0977652 0.0798208 0.0763853 0.0704512 0.0883189
          0.0165835 0.0151683 0.021662 0.0241004 -0.0130007 -0.0110197
          -0.0107869 -0.0150233 0.0985842 0.0983216 0.105261 0.101508
          0.0584996 0.0528332 0.064407 0.0583691 0.103492 0.105508
          0.0984366 0.100112 0.0982259 0.0992951 0.100297 0.103169
          0.0680971 0.07594 0.0626744 0.0706221 0.00584169 0.00478053
          0.000471272 -2.51321e-05 0.0722704 0.0677137 0.0694311 0.0608877
          0.0390306 0.0329572 0.0367918 0.0387796 0.00212618 0.00260366
          0.00584569 -0.00493176 0.0943034 0.0953534 0.0935405 0.0968458
          -0.0145272 -0.0129574 -0.0137039 -0.0170253 0.0768006 0.067363
          0.0722326 0.0759489 2.43316e-05 -0.00493176 0.00584569 0.00789755
          -0.00367405 0.00173919 0.0025933 0.00401747 0.0722704 0.0805968
          0.0749929 0.0694311 -0.0148368 -0.0140032 -0.0109344 -0.0122948
          0.0706221 0.0626744 0.069947 0.07594 -0.0127901 -0.0113241
          -0.0120173 -0.0101035 -0.0179958 -0.014775 -0.0184525 -0.016316
          -0.0115942 -0.00871713 -0.00974557 -0.00900353 0.0740713 0.0709724
          0.0760461 0.0796129 -0.0135718 -0.0138379 -0.0144426 -0.0136001
          -0.0138988 -0.0117847 -0.0112095 -0.0149838 -0.0188984 -0.0167399
          -0.015471 -0.0197199 0.05184 0.0449968 0.0569946 0.0541389
          0.0943187 0.092674 0.0972424 0.0902565 -0.00680671 -0.00927245
          -0.00708722 -0.00761653 -0.0201982 -0.0141443 -0.0161269 -0.0159403
          -0.0201982 -0.0159403 -0.0161269 -0.0247358 -0.0141443 -0.0177132
          -0.0159403 -0.0201982 -0.0150505 -0.0117784 -0.0107372 -0.0124395
          -0.0150505 -0.0133371 -0.0117784 -0.0124395 -0.0133371 -0.00952224
          -0.0117784 -0.0109875 -0.00197492 -0.00613969 -0.00071185 -0.00385626
          0.0390901 0.0442869 0.0449968 0.0441457 0.0929403 0.0985264
          0.0997503 0.0955917 0.0786899 0.0683723 0.0785431 0.0809897
          0.00963681 0.0101018 0.0186287 0.0175491 -0.0101269 -0.0077584
          -0.00948852 -0.00492085 0.0527487 0.0464779 0.045937 0.0518298
          -0.00953216 -0.00659314 -0.0115173 -0.00575554 -0.00504482 -0.00577718
          -0.00443768 -0.00222472 0.0994953 0.0977652 0.103915 0.101595
          -0.00779774 -0.00767366 -0.00635234 -0.00348063 0.0919498 0.0957216
          0.0946768 0.092526 0.05297 0.0650225 0.0561024 0.057476
          -0.0182243 -0.0163881 -0.0205887 -0.0175449 -0.0169444 -0.0149838
          -0.0164017 -0.0155531 0.0391504 0.0367894 0.0442869 0.0376856
          0.018373 0.0209412 0.026316 0.0165835 0.10293 0.101679
          0.107383 0.0951903 -0.00783675 -0.00439551 -0.00899144 -0.00871713
          -0.0150371 -0.0146903 -0.016142 -0.0128604 -0.0153733 -0.0151294
          -0.0177062 -0.0146452 -0.0159942 -0.0141881 -0.0157141 -0.0141968
          0.0684555 0.0648493 0.0724522 0.0719055 -0.00495655 -0.00443768
          -0.00504482 -0.00577718 0.0802136 0.073621 0.0760461 0.0680971
          -0.0146452 -0.0152337 -0.0174963 -0.0123001 -0.00930884 -0.0109702
          -0.00783675 -0.00927245 -0.0169045 -0.0203243 -0.0209799 -0.0145598
          -0.0170253 -0.0152121 -0.0224445 -0.0145598 0.104195 0.100629
          0.106809 0.103169 -0.0176947 -0.0138988 -0.0149003 -0.0151294
          0.0365633 0.0395448 0.045937 0.0468155 -0.0124395 -0.0107372
          -0.0128779 -0.00921044 0.0883189 0.0739216 0.0734616 0.0908914
          -0.0143898 -0.0116704 -0.0149003 -0.012833 -0.00903024 -0.00783675
          -0.00688212 -0.00930884 0.0249025 0.030637 0.0390901 0.0367894
          -0.0139909 -0.0173095 -0.014953 -0.0119405 -0.011447 -0.0177132
          -0.0139796 -0.00986613 0.0211458 0.0320141 0.0247032 0.0297779
          0.0546587 0.0529727 0.0628785 0.0653814 -0.0138764 -0.0109596
          -0.0128252 -0.0119604 -0.0116895 -0.00604505 -0.0102896 -0.0109623
          0.00577853 0.000570539 0.00173919 -0.000960639 -0.0157642 -0.0114026
          -0.0105734 -0.0102839 0.0901879 0.0956028 0.0993396 0.104122
          -0.0159618 -0.0143225 -0.0142089 -0.0146771 -0.00488907 5.29779e-05
          0.00185096 0.00173919 0.0608921 0.0684276 0.0731584 0.0639893
          0.00960777 0.00260366 0.0092244 0.00584169 -0.00949131 -0.0115354
          -0.0095234 -0.0101269 -0.00986348 -0.00732795 -0.00867774 -0.00944187
          -0.0111888 -0.00745357 -0.00822036 -0.0101035 0.0375999 0.0349137
          0.0340728 0.027128 0.0365633 0.0320141 0.0298942 0.0297779
          0.0922335 0.0983216 0.0983866 0.0985842 0.111304 0.112242
          0.114842 0.113884 0.101271 0.0974581 0.10426 0.103492
          0.0038756 -0.00734382 -0.0031679 -0.0055628 -0.00495617 -0.00281992
          -0.000690955 -0.0027958 -0.0159958 -0.0180922 -0.0173693 -0.0168699
          0.00185887 0.00963681 0.00418987 0.00181038 0.0849973 0.0823455
          0.0805968 0.0778226 -0.0074673 0.000570539 -0.00533943 -0.000960639
          0.072694 0.0807888 0.0804062 0.0866501 -0.00197492 0.00224888
          -0.00385626 -0.00071185 -0.00908123 -0.00938039 -0.0103711 -0.00615696
          0.0185475 0.0282334 0.0186287 0.0214812 -0.00640648 -0.00244935
          -0.00504482 -0.00466195 0.0868215 0.0904408 0.0901879 0.0949824
          -0.00227591 -0.00244935 -0.00222472 0 0.030637 0.027128
          0.018373 0.0267247 -0.0147507 -0.0138029 -0.0139847 -0.0163022
          0.0234903 0.0178141 0.023484 0.0279604 0.0660669 0.0722704
          0.0672179 0.0608877 0.107082 0.10492 0.111304 0.10803
          -0.0129574 -0.0132634 -0.0137039 -0.0109623 0.00922241 0.0038756
          0.0125122 0.00594671 0.108299 0.10492 0.111304 0.107082
          -0.016129 -0.0138764 -0.0128779 -0.01305 0.108299 0.111304
          0.113468 0.107082 -0.0270881 -0.0173699 -0.0159049 -0.0181342
          -0.00357756 0 0 0 -0.0100672 -0.00604505
          -0.0109623 -0.00460077 0.0987585 0.0933328 0.101594 0.0942488
          0.00478569 0.00944826 -0.00152772 0.00185096 0.0249025 0.0149956
          0.0290619 0.0202761 -0.0145598 -0.0120173 -0.0122154 -0.0127901
          -0.0119697 -0.0122415 -0.0101949 -0.0108439 -0.0137039 -0.0171154
          -0.0170253 -0.0184525 0.000676097 0.00252499 -0.00353163 -0.000758185
          0.0519682 0.0583567 0.058239 0.0511354 0.0612821 0.069947
          0.0626744 0.0639772 -0.00343188 0.00429153 0.00224888 0.0035501
          0.0400479 0.0450642 0.045926 0.0475958 0.0529727 0.0561024
          0.0546587 0.0500391 -0.00418842 -0.00870799 -0.00659314 -0.00998517
          0.0249025 0.0149956 0.018373 0.0290619 0.0464779 0.0395448
          0.0475958 0.0450642 0.067363 0.0712302 0.0664747 0.0768006
          0.0982259 0.0968458 0.100297 0.0992951 0.0968458 0.0993781
          0.100297 0.0992951 0.00696049 0.00944826 0.00185096 0.00577853
          -0.00499197 -0.00800935 -0.00641771 -0.00281992 0.0252607 0.0199927
          0.0290328 0.0267211 0.0519682 0.0442869 0.0511354 0.0485009
          -0.0132091 -0.0111888 -0.00974557 -0.0115942 -0.012431 -0.00944941
          -0.0110197 -0.00965086 -0.0115173 -0.00659314 -0.0101082 -0.00575554
          -0.00499197 -0.00641771 0.00249727 -0.00281992 0.00343406 0.00822017
          0.0132645 0.0127976 0.0787728 0.0872084 0.0951903 0.101679
          0.10492 0.100112 0.10803 0.107082 -0.0116895 -0.0085829
          -0.012015 -0.0131223 -0.0143225 -0.0157141 -0.0144426 -0.0155909
          -0.0141182 -0.00753719 -0.00951806 -0.0139796 0.0297041 0.0279604
          0.0362804 0.0367918 0.0823455 0.0846894 0.0917422 0.0932419
          2.43316e-05 -0.00493176 0.00260366 0.000322241 0.100112 0.0943382
          0.10492 0.0947307 0.0961512 0.0986556 0.0984366 0.0956329
          0.0976263 0.0961512 0.0943187 0.0956329 -0.000287921 0.0053151
          0.0083212 -0.0031679 -0.00731356 -0.00951806 -0.0074673 -0.010044
          -0.0196971 -0.0170253 -0.0224445 -0.0203243 0.10492 0.102614
          0.107082 0.108299 -0.0125329 -0.0139518 -0.0119604 -0.012833
          0.05184 0.0510428 0.0569946 0.0449968 -0.0182685 -0.0182243
          -0.0163881 -0.0205887 -0.0122989 -0.00867774 -0.0119405 -0.0104179
          0.0572523 0.0485772 0.0506828 0.0626744 -0.0116642 -0.0138379
          -0.0135718 -0.0136001 -0.0187996 -0.0159942 -0.0129255 -0.0126816
          0.0956329 0.0981286 0.103075 0.0961351 -0.0119697 -0.0131649
          -0.0140065 -0.01342 -0.0138988 -0.0116704 -0.0115942 -0.0112095
          0.0765293 0.0763853 0.0807888 0.0766639 -0.0126734 -0.0106223
          -0.0100434 -0.01342 -0.00832996 -0.00903642 -0.010044 -0.0141182
          -0.00880874 -0.0116166 -0.00800935 -0.00701453 0.0875869 0.0766639
          0.0765293 0.0807888 -0.00617679 -0.00783516 -0.00591698 -0.00719991
          -0.0095234 -0.0115306 -0.0112982 -0.00839904 0.0599948 0.0542829
          0.0485009 0.058239 0.0872112 0.0823455 0.0884996 0.0932419
          -0.0128015 -0.0116458 -0.0122948 -0.00953853 0.0946005 0.0875151
          0.0956412 0.0884996 -0.00843312 -0.0103708 -0.00930884 -0.00761653
          0.0189193 0.025394 0.0278946 0.0272575 -0.0209682 -0.0130007
          -0.0181342 -0.0133081 0.0684555 0.0719055 0.0833251 0.0757261
          -0.0194334 -0.0174144 -0.0173093 -0.0157642 0.0391504 0.0419076
          0.0364686 0.0323379 -0.0129756 -0.0138481 -0.0132648 -0.0133876
          0.05297 0.0545551 0.0627337 0.0572523 -0.0123134 -0.0146101
          -0.011639 -0.0128015 -0.00694747 -0.00118024 -0.00934427 0.00140284
          0.0538991 0.0433722 0.0428983 0.0478604 0.0600215 0.0654663
          0.0552688 0.0538991 -0.0173093 -0.0145331 -0.0109318 -0.0174144
          0.0527487 0.0468155 0.0549191 0.045937 -0.0126718 -0.0128463
          -0.0166017 -0.0145272 -0.0203243 -0.0145272 -0.0170253 -0.0145598
          -0.0170253 -0.0145272 -0.0171154 -0.0137039 -0.0146101 -0.0111707
          -0.0166017 -0.0128463 0.0545551 0.0506828 0.05297 0.045842
          0.0545551 0.0506828 0.0572523 0.05297 -0.0141881 -0.0126734
          -0.0141968 -0.0159942 0.0982259 0.0953553 0.0972424 0.0956329
          0.0919498 0.0943226 0.0957216 0.092526 0.0486119 0.0541389
          0.0583567 0.0608716 0.111747 0.103915 0.10761 0.101595
          -0.00370727 -0.00498123 -0.00903642 -0.00834367 -0.0137283 -0.0144426
          -0.0137173 -0.0138029 -0.0229194 -0.0250899 -0.0222241 -0.0187996
          -0.00980449 -0.0101546 -0.00503266 -0.0109344 0 -0.00357756
          0 0 0.00478569 0.00963681 0.00509314 0.0121727
          0.0837749 0.0779443 0.0859182 0.0824615 -0.0095234 -0.0102092
          -0.0111273 -0.0115354 -0.00973485 -0.0112982 -0.0105095 -0.00864801
          -0.0103725 -0.0101082 -0.0115173 -0.0139847 -0.0137039 -0.0135258
          -0.0137173 -0.0132634 -0.00977107 -0.010044 -0.0166346 -0.018657
          -0.0139826 -0.0124198 -0.00792453 -0.0140618 0.0953553 0.0883189
          0.0963202 0.09271 -0.0116642 -0.0136001 -0.0091699 -0.0138379
          0.00594671 0.0128998 0.0139789 0.00789755 -0.0064143 -0.00396656
          -0.00977568 0 0.0468155 0.045842 0.0487549 0.0496291
          -0.00864801 -0.0112966 -0.00966033 -0.00839904 0.0955917 0.0976263
          0.0985264 0.102285 0.0645819 0.0639772 0.0597525 0.0694311
          0.0906245 0.0876825 0.103915 0.0994953 0.0893821 0.0837749
          0.086149 0.0833918 0.0929403 0.0955917 0.0997503 0.0880509
          0.0342104 0.0341367 0.0269602 0.0246422 -0.015471 -0.016129
          -0.0154642 -0.0167399 0.0700373 0.0762001 0.0768006 0.0819169
          -0.0170253 -0.0102896 -0.0179958 -0.0152121 0.0386142 0.0324135
          0.0401373 0.0362804 -0.00508143 -0.00944941 -0.010044 -0.0074673
          0.0908914 0.0866501 0.0880509 0.0929403 0.0246422 0.0226921
          0.0163716 0.0139789 0.0038756 -0.00734382 -0.000287921 -0.0031679
          -0.00391901 -0.00731356 -0.00495617 -0.0027958 0.00527735 0.00210831
          0.000570539 -0.00533943 -0.0131376 -0.0111273 -0.0127112 -0.0115354
          -0.0149838 -0.0179139 -0.0153733 -0.0138988 -0.0133371 -0.0126734
          -0.0180549 -0.0172167 -0.00783675 -0.00680671 -0.00669444 -0.00927245
          0.101867 0.103169 0.0982259 0.10216 0.0970161 0.100297
          0.0964002 0.0951257 -0.00903024 -0.0128705 -0.0112095 -0.0119435
          -0.0184729 -0.0182206 -0.0131762 -0.0143337 -0.0111273 -0.0121278
          -0.0120173 -0.0127112 0 0 0 0.00749469
          -0.0176787 -0.0180922 -0.0155531 -0.016142 0.0945086 0.092674
          0.0883189 0.0809897 -0.0127112 -0.0111273 -0.0112934 -0.0115354
          0.0780598 0.0794021 0.0841291 0.0824615 0.0382422 0.0365633
          0.0297779 0.0395448 0.0722326 0.0654663 0.069947 0.0719055
          0.0919498 0.0894452 0.092526 0.0946768 0.0709775 0.0627337
          0.0684555 0.0757261 0.00252499 -0.00500875 -0.0011597 -0.00539303
          -0.0128604 -0.0109702 -0.01385 -0.0117847 0.0401873 0.0506082
          0.0457958 0.0485009 0.0496291 0.05297 0.0549191 0.057476
          -0.0101472 -0.0079659 -0.00882003 -0.00790277 0.030637 0.0375999
          0.0390901 0.0442869 0.109344 0.10803 0.111551 0.113175
          -0.0122989 -0.0092593 -0.0104179 -0.0144693 0.0627337 0.0612821
          0.0719055 0.0706221 0.0391504 0.0442869 0.0485009 0.0376856
          -0.0101546 -0.00510329 -0.00980449 -0.00345068 -0.00911502 -0.00647699
          -0.00563442 -0.00495655 -0.00480447 -0.00268011 -0.00244935 -0.00640648
          0.0874838 0.0872084 0.0951903 0.0787728 -0.0167399 -0.016142
          -0.0139518 -0.0159958 0.013976 0.0199927 0.0214384 0.0149956
          -0.0182685 -0.0159618 -0.0163881 -0.0182243 -0.0124395 -0.0109596
          -0.0109937 -0.00927824 0.069947 0.07594 0.0680971 0.0712148
          -0.00944187 -0.00949131 -0.0095234 -0.00783516 -0.0119405 -0.0114026
          -0.0107902 -0.00877047 0.00504842 0 0.00090171 0.0147318
          -0.00949131 -0.0095234 -0.00834344 -0.0101269 0.0114892 0.0092244
          0.0171797 0.0118168 0.0101018 0.009434 0.0147905 0.0025933
          0.0946005 0.0928267 0.0897648 0.0910084 0.0584848 0.0645819
          0.0639772 0.0597525 -0.00539303 0.00252499 -0.00500875 0.000676097
          0.0362804 0.0279604 0.0283266 0.0367918 -0.0135718 -0.0136001
          -0.0137283 -0.0116642 -0.0128779 -0.0103616 -0.0109596 -0.00921044
          0.0214384 0.0198814 0.0279604 0.0290328 -0.0133876 -0.0119435
          -0.0136552 -0.01385 0.00429118 -0.000792662 -0.00508143 -0.00286856
          0.0968129 0.0931675 0.0953534 0.0953553 0.0794948 0.0804062
          0.0727373 0.0866501 -0.0173093 -0.0174144 -0.0105734 -0.0157642
          -0.00627446 0.00231494 -0.00346981 -0.00615696 0.100371 0.0961512
          0.0976954 0.0957216 0.0195054 0.0189193 0.0225269 0.0272575
          -0.018359 -0.0229194 -0.022248 -0.0189928 0.0778847 0.0684555
          0.0780598 0.0719055 0.0819169 0.0901879 0.0793398 0.0846894
          0.00222036 -0.00281992 -2.51321e-05 -0.000179497 -0.0123134 -0.0142188
          -0.0161113 -0.00953216 -0.0141714 -0.0143898 -0.0128252 -0.0125329
          -0.0124198 -0.008019 -0.0031679 -0.00493176 0.0163716 0.013872
          0.0269602 0.0171797 0.103705 0.100371 0.102285 0.103607
          -0.00316609 0.00594786 -0.00197492 -0.00158471 0.0083212 0.0053151
          0.013872 0.00584569 0.0575983 0.0552688 0.0639908 0.0612821
          0.0100494 0.0151683 0.0114123 0.00841701 0.045842 0.0545551
          0.0462954 0.0498687 -0.0196446 -0.0250899 -0.0187996 -0.0198767
          -0.00635234 -0.00767366 -0.0109318 -0.00348063 -0.0179506 -0.0173095
          -0.0200852 -0.0152032 -0.00938039 -0.0166778 -0.0117923 -0.0173699
          0.0780598 0.0824615 0.0841291 0.088585 0.0840946 0.0760461
          0.0849373 0.0796129 0.0592017 0.067363 0.0664747 0.0583781
          -0.0166346 -0.00834925 -0.0161269 -0.0141443 -0.0145598 -0.0127901
          -0.0122154 -0.0121653 0.0927309 0.0876495 0.0929403 0.0872946
          -0.015471 -0.016142 -0.0139518 -0.0167399 0.0650225 0.0653814
          0.0561024 0.0656273 0.000676097 0.00252499 -0.00500875 -0.00353163
          -0.0105734 -0.0109318 -0.0127395 -0.00779774 0.060776 0.0545551
          0.0627337 0.05297 -0.0270881 -0.0221425 -0.0159049 -0.0173699
          -0.0105095 -0.0112982 -0.0100554 -0.00864801 -0.00286856 -0.00977107
          -0.010044 -0.00546711 -0.0100672 -0.0109623 -0.00998447 -0.00428175
          0.0190862 0.0140266 0.0158844 0.0178141 -0.0119697 -0.0136552
          -0.0129756 -0.0118386 -0.0142512 -0.0132896 -0.0136275 -0.0141855
          -0.0222241 -0.0240072 -0.0198767 -0.0250899 -0.00504081 -0.00965086
          -0.00822523 -0.00753719 -0.0187996 -0.0180549 -0.016901 -0.0198767
          -0.0151294 -0.018128 -0.0174963 -0.0152337 0.0400479 0.0383668
          0.0450642 0.0395448 -0.0107902 -0.0152032 -0.0135404 -0.0102429
          -0.0055628 -0.00493176 0.00584569 2.43316e-05 0.109344 0.105429
          0.105767 0.10664 -0.0122415 -0.0119508 -0.0119697 -0.012174
          -0.0119697 -0.0119508 -0.0122415 -0.0108439 0.0145785 0.00623301
          0.0137501 0.000570539 0.0035501 0.00224888 -0.00343188 0.000676097
          0.0874838 0.0787728 0.0951903 0.0787728 0.0956329 0.0961512
          0.0986556 0.0961351 0.0897619 0.0938949 0.0938932 0.0906953
          -0.0149003 -0.0151294 -0.0167668 -0.018128 -0.0260363 -0.0221583
          -0.0184729 -0.0182206 0.0937414 0.0953534 0.0968458 0.0935405
          -0.0107869 -0.0074673 -0.00731356 -0.00965086 0.10765 0.0994953
          0.101595 0.100629 -0.0260363 -0.0184729 -0.0211777 -0.020683
          -0.0126734 -0.0100434 -0.0109875 -0.01342 -0.0180549 -0.0141881
          -0.0157141 -0.0159942 0.0456464 0.0341367 0.0377699 0.0342104
          0.0982259 0.0968129 0.0953553 0.0956329 0.0935166 0.0940771
          0.0952604 0.0923967 0.112426 0.10803 0.113175 0.113884
          0.0395448 0.0320141 0.0387796 0.0365633 -0.0153294 -0.012833
          -0.0149003 -0.0138988 -0.0142383 -0.0143225 -0.0138379 -0.0155909
          0.0840946 0.0831428 0.0849373 0.0760461 0.00998128 0.000570539
          0.00577853 -0.000960639 -0.00613969 -0.0036721 -0.00348063 -0.00779774
          0.0991194 0.10169 0.0960197 0.0987585 -0.00147667 0.000511914
          0.00304432 0.00418987 0.00343406 0.00822017 0.0127976 0.00900184
          -0.0116895 -0.014775 -0.0131223 -0.012015 0.00252499 0.000676097
          0.00664006 0.00867015 0.0731584 0.0804062 0.072694 0.0807888
          -0.00281992 -0.000179497 -0.000690955 -0.0027958 0.05184 0.0569946
          0.0649467 0.0541389 0.0592017 0.0600215 0.0645819 0.067363
          -0.0112095 -0.00871713 -0.00783675 -0.0109702 0.0627337 0.0612821
          0.0706221 0.0626744 -0.0129756 -0.0142089 -0.0136552 -0.0129857
          0.00401747 -0.00236865 0.0053151 0.0025933 0.107926 0.105508
          0.111551 0.10664 0.0457958 0.0478322 0.0449849 0.0515351
          -0.0128604 -0.0109702 -0.0109596 -0.0119604 -0.00504482 -0.00357756
          -0.0064143 -0.00577718 0.0234903 0.0320141 0.0279604 0.0329572
          -0.0077584 -0.00688996 -0.0105415 -0.0039651 0.100371 0.101212
          0.105929 0.102285 0.104541 0.104541 0.101082 0.103038
          -0.015471 -0.0124395 -0.0154642 -0.0138764 0.0365633 0.0367918
          0.0387796 0.0430777 -0.0103616 -0.00790873 -0.00994981 -0.00702655
          0.0694311 0.0677137 0.069947 0.0639772 0.000570539 -0.0074673
          -0.00448618 -0.00508143 0.0831428 0.0782877 0.0782606 0.0802136
          -0.0139909 -0.0119405 -0.0184435 -0.0173095 -0.00533943 0.00210831
          0.000570539 -0.00448618 0.0367918 0.0339339 0.0362804 0.0419076
          -0.00934427 0.00140284 -0.00428175 -0.00151987 0.0953534 0.0992951
          0.0982259 0.0953553 -0.0179958 -0.0137039 -0.014775 -0.0131223
          0.00696049 0.00185096 0.00173919 0.00577853 -0.00640648 -0.00495655
          -0.00504482 -0.00783516 0.0550045 0.0592017 0.0584848 0.0645819
          0.0376856 0.0290328 0.0367918 0.0339339 -0.012164 -0.0140032
          -0.0123134 -0.00998517 -0.0141182 -0.0141443 -0.010044 -0.0181632
          -0.0141182 -0.0139796 -0.010044 -0.0141443 -0.00442074 -0.0108072
          -0.00822523 -0.00403773 -0.0240072 -0.0214847 -0.0205887 -0.0196739
          -0.0133311 -0.0155189 -0.0132634 -0.0100672 -0.00147667 0.00181038
          0.00304432 0.00822017 -0.0145598 -0.0140178 -0.0120173 -0.0127901
          0.0540566 0.0473978 0.0561299 0.0509021 -0.00492085 -0.00221483
          -0.00400199 -0.00745357 0.0993396 0.0932419 0.0971933 0.099153
          -0.00910394 -0.0133081 -0.013979 -0.00211367 0.0376856 0.0442869
          0.0511354 0.0430777 -0.0166778 -0.0104976 -0.021099 -0.00908123
          -0.0196446 -0.0198767 -0.0187996 -0.014071 0.0967715 0.0935983
          0.0927761 0.0943034 0.0149956 0.0249025 0.018373 0.0145488
          0.00594671 0.0139789 0.0128998 0.0163716 -0.0136001 -0.0178131
          -0.0147507 -0.0184706 0.0101018 0.00696049 0.00998128 0.0159505
          0.00723765 0.00741455 0.00523286 0.00331069 0.0101018 0.0025933
          0.0053151 0.009434 0.0983866 0.104812 0.103482 0.0993376
          0.104812 0.11019 0.103482 0.0993376 0.0189193 0.0114892
          0.0156658 0.0194951 -0.0107643 -0.0136174 -0.00911235 -0.0131762
          -0.00118024 -0.000891983 -0.00934427 0.00140284 -0.00910394 -0.00367405
          -0.00236865 -0.00701453 0.0452472 0.0510428 0.0569946 0.0518298
          -0.0109937 -0.0103014 -0.0103708 -0.0119697 0.0583691 0.0485772
          0.0561299 0.0493815 0.0390901 0.0349137 0.0449968 0.0375999
          0.0917422 0.0956028 0.0956412 0.0993396 -0.0143898 -0.0159958
          -0.0173693 -0.0168699 0.0846894 0.0841291 0.0794021 0.0875151
          -0.00948852 -0.0121716 -0.00861598 -0.0041933 0.0961351 0.0961512
          0.0960197 0.0976954 -0.0139518 -0.0153294 -0.012833 -0.0143898
          -0.00142277 0.0038756 0.00594671 -0.0055628 -0.0149003 -0.0115942
          -0.0132091 -0.0151294 -0.00908123 -0.00615696 -0.0103711 -0.00358364
          0.0627337 0.0626744 0.0706221 0.0572523 0.0386142 0.045842
          0.0498687 0.0456925 0.0390306 0.045842 0.0386142 0.0456925
          0.0198814 0.0267211 0.0279604 0.0290328 -0.00731356 -0.00842294
          -0.0027958 -0.00391901 -0.0144693 -0.0163192 -0.0137818 -0.014953
          0.0272575 0.0326986 0.0189193 0.025394 -0.0120173 -0.0121278
          -0.0131109 -0.0127112 0.0441457 0.05184 0.0519682 0.0442869
          -0.0133371 -0.0109875 -0.0124395 -0.0129857 0.0234903 0.0190862
          0.0158844 0.0178141 0.0991194 0.101867 0.102758 0.0986556
          0 0.00504842 0 0.00749469 -0.0172467 -0.0247358
          -0.0159403 -0.0214738 0.0993396 0.0971933 0.103799 0.099153
          0.0988924 0.0787728 0.101679 0.0787728 -0.00353163 -0.00610029
          -0.00256661 -0.000758185 -0.0131223 -0.014775 -0.016316 -0.012015
          -0.00615696 9.87133e-05 -0.00358364 -0.00193784 0.0323379 0.0419076
          0.0401223 0.0354399 0.0931675 0.0895988 0.0953534 0.0953553
          -0.0182243 -0.0150371 -0.0163881 -0.0146903 -0.00633565 -0.00503852
          -0.0086086 -0.00927824 -0.0166081 -0.00880874 -0.0107869 -0.0133081
          0.0241004 0.0165835 0.0214384 0.026316 -0.00899144 -0.00871713
          -0.00599707 -0.00882003 0.0724522 0.0648493 0.0759489 0.0780598
          0.0479188 0.0341367 0.0456464 0.0342104 0.0442869 0.0375999
          0.0449968 0.0486119 -0.00944187 -0.00867774 -0.00783516 -0.00779776
          -0.0132619 -0.0131649 -0.0146054 -0.0116014 -0.00934427 -0.0106223
          -0.0116895 -0.00708235 0.0214733 0.0211458 0.0297779 0.0194951
          -0.0153411 -0.0145331 -0.0104381 -0.0112065 -0.0126734 -0.0130793
          -0.0132095 -0.0172167 0.0473978 0.040404 0.0485772 0.0433722
          0.0802136 0.0833918 0.0831428 0.0849373 -0.00973485 -0.0102092
          -0.0112982 -0.0095234 0.0943187 0.0986556 0.0984366 0.0961512
          0.0945086 0.0922869 0.101271 0.0974581 0.0997503 0.0955917
          0.0985264 0.102285 -0.0139826 -0.0124198 -0.00910394 -0.00792453
          -0.00353163 -0.00834344 -0.00539303 -0.00617679 0.0527487 0.0549191
          0.0577736 0.045937 0.0549191 0.0430777 0.0486119 0.045937
          -0.0152156 -0.0166441 -0.0140178 -0.0168699 0.058239 0.057476
          0.070367 0.0638716 -0.0137598 -0.0141855 -0.0131014 -0.0131649
          -0.0146054 -0.0131649 -0.0132619 -0.0142512 -0.0175614 -0.0159958
          -0.0157609 -0.0166441 -0.0175614 -0.016129 -0.0157609 -0.0159958
          0 -0.0109318 0 0 -0.00986613 -0.00874778
          -0.011447 -0.0116458 0.101271 0.0974581 0.103492 0.0945086
          -0.0173093 -0.0114998 -0.0127395 -0.0109318 -0.0133178 -0.0140178
          -0.0131376 -0.0120173 -0.00400199 -0.00221483 -0.00822036 -0.00745357
          0.0833918 0.0831428 0.0837749 0.0782877 -0.0187996 -0.0163022
          -0.018359 -0.0129255 0.0945086 0.0809897 0.0798208 0.0825092
          -0.0136552 -0.0145944 -0.0146771 -0.0133876 0.0922475 0.0901879
          0.0993396 0.104122 0.0650225 0.0656273 0.0745767 0.0709775
          -0.00492085 -0.0011597 -0.0077584 -0.0041933 0.0778847 0.0724522
          0.0817436 0.0780598 -0.00842294 -0.00753719 -0.00731356 -0.00951806
          0.0819169 0.0868215 0.0793398 0.0901879 0.0430777 0.0367918
          0.0376856 0.0290328 0.10803 0.10922 0.112426 0.105429
          0.0386142 0.0401373 0.0462954 0.0428983 -0.00448618 -0.0118541
          -0.00727612 -0.00834925 0.0967715 0.0927309 0.0929403 0.0996718
          -0.0128252 -0.0119604 -0.010768 -0.0125329 0.0807888 0.0908914
          0.0895988 0.0866501 0.0189193 0.0186287 0.0269602 0.0290173
          0.0430777 0.0367918 0.045842 0.0496291 0.0910084 0.0897648
          0.0915396 0.0837749 0.0897648 0.0875151 0.0837749 0.0910084
          -0.0156323 -0.0136582 -0.0123134 -0.0133311 0.10492 0.10293
          0.107383 0.0988924 -0.00221483 -0.00822036 -0.00470133 -0.00400199
          -0.00353163 0.00252499 -0.00500875 -0.000758185 0.0870027 0.0794948
          0.0880509 0.0866501 0.0486119 0.0608716 0.057476 0.045937
          0.0391761 0.0377699 0.0290173 0.0269602 0.113884 0.114842
          0.111304 0.113406 0.107383 0.101679 0.1075 0.0988924
          0.0798208 0.09271 0.0765293 0.0883189 0.0943382 0.092674
          0.0972424 0.0945086 0.113175 0.107082 0.113468 0.113406
          -0.00127327 0.00105064 -0.00400199 0.00142762 0.0927309 0.0872946
          0.0929403 0.0965394 0.0929403 0.0872946 0.0880509 0.0965394
          -0.0103725 -0.00575554 -0.0101082 -0.0091699 0.092526 0.0938949
          0.0940771 0.0923967 -0.00911502 -0.00719991 -0.00591698 -0.00783516
          -0.0137598 -0.0139856 -0.0150762 -0.0122415 0.0092244 0.00584569
          0.00212618 0.00260366 -0.00949131 -0.00998045 -0.00877047 -0.00783516
          -0.0166081 -0.0116166 -0.00800935 -0.00880874 0.0875869 0.0807888
          0.0765293 0.0763853 -0.0103616 -0.00790873 -0.00702655 -0.00627454
          0.0937414 0.099153 0.0992951 0.0953534 0.0496291 0.0430777
          0.0511354 0.057476 -0.00944941 -0.0116458 -0.00953853 -0.0118541
          0.00429118 -0.000792662 0.00185096 0.00577853 -0.00181342 -0.000960639
          -0.00211367 -0.00880874 -0.0128731 -0.0116166 -0.00701453 -0.00750152
          0.0171797 0.013872 0.0269602 0.0186287 -0.0221583 -0.0229194
          -0.022248 -0.018359 0.060776 0.0709775 0.0684555 0.0701436
          -0.00400199 -0.00822036 -0.00470133 -0.00593256 -0.0128705 -0.0138988
          -0.0153733 -0.0119491 0.0448283 0.0388482 0.0331244 0.0378947
          -0.0132636 -0.015154 -0.0127112 -0.015396 0.0034827 0.00594786
          0.0119667 0.00867015 -0.00911502 -0.00495655 -0.00563442 -0.00783516
          0.0875151 0.0918153 0.0956412 0.0917422 0.0946768 0.0894452
          0.092526 0.0922335 -0.000960639 -0.00488907 -0.00367405 -0.00880874
          -0.00442074 -0.0108072 -0.00994833 -0.00822523 0.0211458 0.0151683
          0.0194951 0.0117331 -0.00503852 -0.00921044 -0.0086086 -0.00927824
          -0.00927245 -0.0128604 -0.0109702 -0.0109596 0.0298942 0.0297779
          0.0275463 0.0331244 -0.00834344 -0.00617679 -0.00877047 -0.00539303
          0.0147905 -0.00211367 0.0025933 0.009434 0.05184 0.0541389
          0.0649467 0.0583567 -0.0128015 -0.011639 -0.0116458 -0.012431
          0.10803 0.111304 0.107082 0.113406 -0.0140032 -0.0123134
          -0.0116458 -0.0126718 -0.0129756 -0.0129857 -0.0136552 -0.012766
          -0.00767366 -0.0109318 0 0 -0.00353163 -0.00518339
          -0.00864801 -0.00610029 0.110851 0.110603 0.113468 0.111551
          0.05184 0.0479188 0.0569946 0.0510428 0.0932419 0.0953534
          0.0971933 0.099153 -0.0173093 -0.0114998 -0.0109318 -0.00827242
          0.0919498 0.0943226 0.100997 0.0957216 -0.00227591 -0.00193359
          -0.00222472 -0.00244935 -0.0137173 -0.0142512 -0.0132619 -0.0141968
          -0.00152772 -0.00832996 -0.00498123 -0.000792662 -0.0116642 -0.0136001
          -0.0139847 -0.0091699 -0.00952224 -0.00674395 -0.0086086 -0.00633565
          0.0383668 0.0320141 0.0387796 0.0395448 -0.00499197 -0.00281992
          -0.000690955 -0.00495617 -0.00492085 -0.0011597 -0.0041933 0.00262799
          -0.0176787 -0.0164017 -0.0159618 -0.0150371 0.0822369 0.0805968
          0.0722704 0.0787166 0.0159505 0.0214812 0.00998128 0.0204591
          0.0970161 0.10216 0.0991194 0.100297 0.0849973 0.0805968
          0.0876495 0.0822369 0.100802 0.10426 0.0974581 0.103492
          0.100802 0.102614 0.0974581 0.10426 -0.0111273 -0.0121278
          -0.0127112 -0.0112934 0.0884996 0.0823455 0.0805968 0.0849973
          0.0916535 0.0849973 0.0911611 0.086149 0.0849973 0.0908349
          0.0911611 0.0892035 -0.00944941 -0.0074673 -0.0110197 -0.00965086
          0.101679 0.0843161 0.112281 0.100418 0.0935983 0.0876495
          0.090798 0.0908349 0.0214733 0.0247032 0.0297779 0.0211458
          0.0572523 0.0506828 0.0496291 0.05297 0.0684555 0.0627337
          0.0706221 0.0757261 0.0684555 0.0612821 0.0719055 0.0627337
          -0.0109702 -0.00930884 -0.0117847 -0.0118386 -0.00504482 -0.0064143
          -0.0104381 -0.00577718 -0.00504482 -0.00998045 -0.00577718 -0.0104381
          -0.00492085 -0.00400199 -0.00822036 -0.00745357 -0.00843312 -0.0108439
          -0.00930884 -0.0103708 -0.0112095 -0.0117847 -0.0119435 -0.0128705
          0.0870027 0.0880509 0.0955917 0.0908914 -0.0153294 -0.0159958
          -0.0173693 -0.0143898 0.0342104 0.0246422 0.025394 0.0331244
          0.105429 0.105261 0.0985842 0.0983866 0.0330087 0.0214733
          0.0297779 0.0270713 -0.00443768 -0.00591698 -0.00413169 -0.00343188
          0.0365633 0.0367918 0.0430777 0.0290328 0.0823455 0.0872112
          0.0819169 0.0846894 -0.0161269 -0.0247358 -0.0159403 -0.0172467
          -0.015471 -0.0124395 -0.0128604 -0.012766 -0.00286856 -0.00832996
          -0.000792662 -0.010044 0.0722704 0.0762057 0.0694311 0.0677137
          -0.012766 -0.01385 -0.0150371 -0.0136552 -0.0129255 -0.00694747
          -0.00934427 -0.0107643 -0.00370727 -0.00498123 -0.00834367 -0.00339795
          0.0757005 0.0823455 0.0819169 0.0846894 0.0938949 0.092526
          0.0943226 0.0906953 -0.0152156 -0.0157609 -0.0145598 -0.0166441
          -0.0180549 -0.0205887 -0.0153847 -0.0175449 0.0330087 0.0270713
          0.0297779 0.0342262 0.0989408 0.0987585 0.101594 0.0942488
          -0.000485042 -0.00951325 -0.00579803 -0.00727612 0.103705 0.100371
          0.0976954 0.100997 -0.0163192 -0.014953 -0.0179506 -0.0137818
          0.0367918 0.0419076 0.045842 0.0496291 0.0935983 0.090798
          0.0927761 0.0908349 0.080901 0.0822369 0.0804062 0.0749929
          0.101212 0.0940771 0.104541 0.0973971 -0.0133311 -0.0126718
          -0.0123134 -0.0122948 -0.0107869 -0.00994833 -0.0108072 -0.00822523
          0.0982259 0.101867 0.0956329 0.0972424 0.045842 0.0428983
          0.0462954 0.0506828 -0.00867774 -0.00640648 -0.00787858 -0.00998045
          0.0294766 0.0249025 0.0367894 0.0290619 -0.0103711 -0.0122948
          -0.00998447 -0.00627446 0.0704512 0.0646988 0.0641616 0.0763853
          -0.010044 -0.00951806 -0.011447 -0.0141443 0.07594 0.0680971
          0.0760461 0.0706221 0.0199927 0.0290328 0.0198814 0.0214384
          -0.0138379 -0.0163672 -0.0144426 -0.0147507 0.0419076 0.0485772
          0.0506828 0.0521232 -0.0109344 -0.0120732 -0.00503266 -0.00951325
          0.090798 0.0876495 0.0967715 0.0927309 0.0457958 0.0326024
          0.0401873 0.0391504 -0.0145272 -0.0134479 -0.0171154 -0.0135258
          -0.0209682 -0.0166081 -0.0130007 -0.0133081 0.0538991 0.0478604
          0.0552688 0.0535705 -0.0103725 -0.0091699 -0.0101082 -0.0139847
          -0.0103725 -0.0091699 -0.0139847 -0.0136001 -0.0172467 -0.0214738
          -0.0159403 -0.020683 -0.0117775 -0.0127238 -0.0132896 -0.0135718
          -0.0136582 -0.0139847 -0.0135258 -0.0132634 -0.00839904 -0.00670828
          -0.00518339 -0.00500875 0.0760461 0.0802136 0.0849373 0.0740901
          -0.0131376 -0.0111273 -0.0111888 -0.0120173 0.112732 0.10761
          0.106625 0.101595 0.05184 0.0479188 0.0510428 0.0442774
          0.00998128 0.0137501 0.00577853 0.0134379 0.0972424 0.0883189
          0.0953553 0.09271 -0.016129 -0.0138764 -0.01305 -0.0147393
          -0.0159958 -0.0147393 -0.0141714 -0.0128252 0.0572523 0.0521232
          0.0506828 0.0485772 0.110086 0.106625 0.110851 0.107926
          -0.00911502 -0.00973485 -0.0105095 -0.00719991 0.0757005 0.0872112
          0.0819169 0.0823455 -0.00500875 -0.00839904 -0.00864801 -0.00518339
          0.0822369 0.0787166 0.0827915 0.0805968 0.0949824 0.0956028
          0.0901879 0.104122 0.0700373 0.0768006 0.0757005 0.0819169
          0.0329572 0.0297041 0.0362804 0.0367918 -0.0187996 -0.0126816
          -0.0129255 -0.014071 0.0762057 0.07594 0.0837749 0.0824615
          0.0572903 0.0506082 0.0599948 0.0515351 -0.0129756 -0.0118386
          -0.0108439 -0.0119697 -0.0132542 -0.015154 -0.0140178 -0.0127112
          0.00741455 0.00584169 0.00710339 0.00212624 -0.0133178 -0.0111888
          -0.0116704 -0.0122154 -0.00834344 -0.00877047 -0.0107902 -0.00539303
          -0.0103014 -0.00829571 -0.0101949 -0.0110955 0.100112 0.0984366
          0.0947307 0.0943187 -0.00927245 -0.00680671 -0.00669444 -0.00761653
          0.07594 0.0802136 0.0831428 0.0760461 0.0550045 0.0645819
          0.0584848 0.0597525 -0.0107643 -0.0136174 -0.0131762 -0.0155189
          -0.011447 -0.0140032 -0.0118541 -0.0159403 -0.00533943 0.00210831
          -0.00448618 -0.00193784 0.0894653 0.0872084 0.0951903 0.0874838
          -0.0232528 -0.0181632 -0.0141443 -0.0201982 0.0209412 0.0340728
          0.0246422 0.027128 -0.0135718 -0.0132896 -0.0142512 -0.0140065
          -0.00370727 -0.00903642 -0.00832996 -0.00834367 0.0787728 0.0951903
          0.0988924 0.0787728 -0.0119508 -0.0101426 -0.0108474 -0.0108439
          -0.0108439 -0.00820863 -0.0108474 -0.00843312 -0.00172237 -0.00370727
          -0.00871553 -0.0084688 -0.0114026 -0.0174144 -0.0105734 -0.0104381
          -0.014071 -0.0126816 -0.0129255 -0.00812965 0.0763853 0.0639893
          0.072694 0.0694965 -0.0109344 -0.0140032 -0.0118541 -0.00953853
          -0.0149003 -0.0145928 -0.0167668 -0.0151294 -0.0103725 -0.0139847
          -0.0162388 -0.0136001 -0.0109596 -0.0124395 -0.0128779 -0.00921044
          -0.0115354 -0.0132636 -0.0127112 -0.0144693 0.0957216 0.104541
          0.0943226 0.101212 0.00628365 0.000570539 0.00998128 -0.000960639
          -0.0121653 -0.0101035 -0.0101472 -0.0113411 0.00998128 0.0134379
          0.0147905 0.0246008 0.00628365 0.00527735 0.000570539 -0.000960639
          0.0134379 0.000570539 0.00998128 0.00628365 0.00185096 -0.000792662
          0.00173919 0.00577853 0.014183 0.00710339 0.0117331 0.0115894
          0.0599948 0.0572523 0.0638716 0.0680971 -0.0109344 -0.00953853
          -0.0118541 -0.00727612 -0.00792453 -0.0031679 -0.00236865 -0.00164808
          -0.00792453 -0.0124198 -0.00236865 -0.0031679 0.021667 0.0189193
          0.0118168 0.00963681 -0.0136582 -0.0115173 -0.0135258 -0.0139847
          0.107383 0.112281 0.112242 0.1075 0.018373 0.0109529
          0.0139789 0.00569362 0.00963681 0.00401747 0.00478053 0.0101018
          -0.0109623 -0.0100672 -0.00998447 -0.0129574 0.0189193 0.021667
          0.0290173 0.0272575 -0.015471 -0.0154642 -0.0179976 -0.0167399
          0.0780598 0.0833251 0.0779443 0.0824615 -0.00504482 -0.0064143
          -0.00222472 -0.00244935 0.0745767 0.0740713 0.0760461 0.0796129
          -0.00615696 0.00231494 -0.00346981 -0.00358364 -0.00480447 -0.0112065
          -0.00504482 -0.0064143 0.0894653 0.0874838 0.0951903 0.0785431
          -0.0194334 -0.0174144 -0.0157642 -0.0114026 -0.0173699 -0.0209682
          -0.0130007 -0.0181342 -0.0138988 -0.0115942 -0.0149003 -0.0151294
          0.0401873 0.0456868 0.0485009 0.0391504 0.060776 0.0684555
          0.0628785 0.0701436 -0.0148368 -0.0140032 -0.0159403 -0.0109344
          0.0247032 0.0241004 0.0234903 0.0320141 -0.0171154 -0.0155281
          -0.014775 -0.0137173 -0.0132896 -0.0135718 -0.0136275 -0.0116642
          0.0529727 0.060776 0.0628785 0.0653814 -0.00504482 -0.0112065
          -0.00998045 -0.0104381 0.00090171 -0.0036721 -0.00348063 -0.00158471
          -0.0146452 -0.018128 -0.0177062 -0.0174963 -0.0101269 -0.0107902
          -0.0135404 -0.0077584 -0.0116895 -0.00934427 -0.0109623 -0.0100672
          -0.0128604 -0.0117847 -0.01385 -0.0118386 0.0922335 0.0894452
          0.0938949 0.0906953 0.0960197 0.10169 0.0989408 0.0987585
          0.101594 0.101482 0.104922 0.099271 0.0383668 0.0320141
          0.0311586 0.0329572 -0.0108439 -0.00843312 -0.0101949 -0.00847522
          0.0592017 0.0645819 0.0664747 0.067363 0.0390901 0.0375999
          0.0449968 0.0442869 0.0139395 0.0183116 0.0151683 0.0100494
          0.0943034 0.0968129 0.0935983 0.0953534 -0.00640648 -0.00268011
          -0.00244935 -0.00466195 -0.0136552 -0.0138481 -0.0129756 -0.0133876
          0.0527487 0.0395448 0.045937 0.0464779 0.0704512 0.0883189
          0.0641616 0.0809897 0.0330087 0.0311586 0.0297779 0.0214733
          -0.0141855 -0.0163887 -0.0136275 -0.0142512 -0.00708235 -0.00214796
          -0.00504061 -0.00118024 0.0542829 0.057476 0.0638716 0.0572523
          -0.00244935 -0.00268011 -0.00193359 -0.00466195 -0.00953853 -0.00627446
          -0.0103711 -0.00615696 0.0190544 0.0214733 0.0276488 0.0194951
          -0.0166017 -0.0126718 -0.0128015 -0.0146101 -0.0141714 -0.0145598
          -0.0143898 -0.0122154 -0.00822523 -0.00994833 -0.00499197 -0.00495617
          -0.0142383 -0.0127238 -0.0117775 -0.0138379 -0.0229194 -0.0222241
          -0.0184706 -0.0187996 0.0442869 0.05184 0.0541389 0.0449968
          0.0976263 0.0961257 0.100371 0.102285 0.0608877 0.0543238
          0.0607576 0.0540566 0.107082 0.111304 0.113468 0.113406
          0.103492 0.100112 0.107082 0.105508 0.0626744 0.0680971
          0.0583691 0.0712148 -0.0175004 -0.0175464 -0.0162666 -0.0147054
          -0.00370727 -0.00498123 -0.00832996 -0.00903642 -0.0140618 -0.0031679
          -0.00792453 -0.00734382 -0.0154642 -0.016129 -0.0179976 -0.0167399
          0.100371 0.0957216 0.0976954 0.100997 0.0778226 0.0762057
          0.0722704 0.0677137 0.0722704 0.0694311 0.0672179 0.0608877
          0.100297 0.0982259 0.0964002 0.0968458 0.0117331 0.00710339
          0.0114892 0.0115894 0.0121727 0.00963681 0.00900184 0.0175491
          -0.0146101 -0.0126718 -0.0128015 -0.0123134 0.0638716 0.0650225
          0.0740713 0.0745767 0.0442774 0.0479188 0.0510428 0.0422139
          0.026316 0.027128 0.018373 0.030637 0.0749929 0.0805968
          0.0722704 0.0822369 -0.0139518 -0.0159958 -0.0153294 -0.0143898
          0.0895988 0.0866501 0.0931675 0.0876495 0.0927309 0.0822369
          0.0872946 0.0858855 -0.0036721 -0.00348063 -0.00635234 0
          -0.00732795 -0.00986348 -0.0104179 -0.0092593 -0.0107902 -0.0105415
          -0.0102429 -0.0077584 -0.0132091 -0.0116704 -0.0111888 -0.0115942
          0.0378947 0.0331244 0.025394 0.0331866 0.105508 0.10803
          0.107082 0.111551 0.0782606 0.0712148 0.0725458 0.073621
          -0.00899144 -0.00439551 -0.00783675 -0.00680671 0.0234903 0.0241004
          0.0279604 0.0320141 0.0706221 0.0612821 0.0719055 0.0626744
          -0.0150371 -0.0155531 -0.0164017 -0.0146771 -0.0187996 -0.0250899
          -0.0222241 -0.0198767 0.105429 0.0983866 0.10035 0.100112
          0.0161199 0.021662 0.025394 0.0246422 -0.00480447 -0.00244935
          -0.00504482 -0.00640648 -0.00694747 -0.00934427 -0.00118024 -0.00708235
          -0.0143898 -0.0139518 -0.0128252 -0.0125329 0.0859182 0.07594
          0.0831428 0.0840946 0.0700373 0.0793398 0.0768006 0.0762001
          -0.0131376 -0.0111273 -0.0120173 -0.0127112 -0.0115173 -0.0101082
          -0.0111707 -0.0128463 -0.0146101 -0.0128463 -0.0166017 -0.0126718
          -0.00627446 -0.00345068 -0.00998447 -0.00346981 -0.00627446 -0.00345068
          -0.00346981 0.00231494 -0.0128463 -0.0136582 -0.0145272 -0.0126718
          -0.00747016 -0.010768 -0.00899144 -0.00882003 0.0894653 0.0785431
          0.0951903 0.0809897 -0.010044 -0.0181632 -0.0166346 -0.018657
          0.10761 0.101271 0.106625 0.101595 0.045926 0.0383668
          0.0456925 0.0450642 0.080901 0.0741555 0.0822369 0.0749929
          -0.0116895 -0.0132619 -0.014775 -0.012015 -0.00539303 -0.00834344
          -0.00353163 -0.00500875 0.0763853 0.0694965 0.072694 0.0807888
          -0.012833 -0.01385 -0.0109702 -0.0117847 0.0279604 0.023484
          0.0283266 0.0267211 -0.00998517 -0.00874778 -0.00986613 -0.0116458
          0.092674 0.0734616 0.0824418 0.0897636 0.0391504 0.0367894
          0.0456868 0.0442869 -0.00944187 -0.00779776 -0.00783516 -0.00911502
          0.0234903 0.0279604 0.0297041 0.0329572 -0.00510329 -0.0131762
          -0.00911235 -0.0101546 -0.0117784 -0.00952224 -0.0086086 -0.0109875
          0.0139789 0.00789755 0.0146023 0.0165835 -0.020683 -0.0184729
          -0.0143337 -0.0182206 0.110086 0.101867 0.107926 0.105742
          -0.0109344 -0.00627446 -0.00953853 -0.00727612 0.0137501 0.00577853
          0.0159505 0.00998128 0.0612821 0.0545551 0.0572523 0.0627337
          0.0473978 0.0401223 0.0485772 0.040404 -0.0145598 -0.0166441
          -0.0157609 -0.0143898 0.106625 0.101867 0.110086 0.101595
          -0.0167399 -0.0186037 -0.016129 -0.0197199 -0.00934427 -0.00118024
          -0.00604505 -0.000891983 -0.00508143 0.000251628 0.00623301 -0.00546711
          0.105261 0.0983216 0.0985842 0.0983866 -0.0131376 -0.0144693
          -0.0137818 -0.0115354 -0.00949131 -0.00834344 -0.0125083 -0.0101269
          -0.0138764 -0.0147393 -0.016129 -0.0167399 0.0809897 0.0641616
          0.0683723 0.0824418 0.0331244 0.0246422 0.025394 0.0340728
          0.0970161 0.0991194 0.0964002 0.100297 -0.0159049 -0.00938039
          -0.0166778 -0.00908123 0.0664747 0.0749929 0.0672179 0.0649001
          -0.0170253 -0.0179958 -0.0224445 -0.0152121 0.0430777 0.0375999
          0.0486119 0.0365633 0.0614825 0.0667901 0.0660669 0.0584996
          0.0645819 0.0584848 0.0639772 0.0654663 0.0694311 0.0749929
          0.0672179 0.0664747 -0.0157642 -0.0114026 -0.0102839 -0.0147362
          -0.0116642 -0.0139847 -0.0137518 -0.0091699 0.0365633 0.045937
          0.0486119 0.0430777 0.0401873 0.0367894 0.0456868 0.0391504
          0.0819169 0.0872112 0.0922475 0.0846894 0.0382422 0.0518298
          0.0396681 0.0388482 -0.0172467 -0.0120732 -0.0159403 -0.00951325
          0.0329572 0.0297041 0.0386142 0.0362804 0.0246422 0.0139789
          0.0128998 0.0209412 -0.0173693 -0.0168699 -0.0149003 -0.0143898
          -0.0143225 -0.0140065 -0.0132896 -0.0135718 -0.0143225 -0.0140065
          -0.0135718 -0.0144426 -0.00871713 -0.0116704 -0.00882003 -0.00899144
          0.0129794 0.00210831 0.000570539 0.00527735 0.0967715 0.0876495
          0.090798 0.0935983 -0.00787858 -0.0112065 -0.0139909 -0.00998045
          -0.0150371 -0.01385 -0.0155531 -0.0146771 -0.0152032 -0.0202973
          -0.0200852 -0.015707 -0.0115354 -0.0104179 -0.0125083 -0.00949131
          0.0583781 0.067363 0.0664747 0.0700373 0.00252499 -0.0011597
          0.00664006 0.000676097 -0.0137283 -0.0135718 -0.0136275 -0.0142512
          -0.00353163 -0.00197492 -0.00617679 -0.00539303 0.0872112 0.0922475
          0.0895988 0.0875869 -0.00353163 -0.00518339 -0.00610029 -0.000758185
          0.0884996 0.0875151 0.0956412 0.0932419 -0.0116704 -0.0122154
          -0.00882003 -0.0125329 0.0872112 0.0895988 0.0931675 0.0876495
          0.0597525 0.0664747 0.0672179 0.0649001 0.0400479 0.0383668
          0.045926 0.0450642 0.0823455 0.0875151 0.0884996 0.0932419
          -0.00466195 -0.00563442 -0.00640648 -0.00779776 0.0906245 0.0922475
          0.0868215 0.0819169 0.0527487 0.0450642 0.045937 0.0395448
          0.0092244 0.00584169 0.00478053 0.0114892 -0.00921044 -0.00702655
          -0.00927824 -0.00627454 0.0976263 0.092674 0.0902565 0.0961257
          -0.00910394 -0.00880874 -0.0133081 -0.00211367 -0.012833 -0.0116704
          -0.00871713 -0.00899144 -0.0196446 -0.0187996 -0.0129255 -0.014071
          -0.0132091 -0.00948852 -0.00974557 -0.0111888 -0.0103725 -0.0115173
          -0.0152705 -0.0139847 -0.0136582 -0.0133311 -0.0156323 -0.0155189
          -0.0260363 -0.022248 -0.0211777 -0.0184729 -0.0055628 -0.0140618
          -0.00734382 -0.0031679 -0.000758185 0.0035501 -0.00353163 0.000676097
          0.0956329 0.0968129 0.0943679 0.0976263 -0.0166346 -0.0141443
          -0.0161269 -0.0232528 0.0957216 0.101212 0.0943226 0.100997
          0.101212 0.0947307 0.0957216 0.092526 0.0960197 0.0986556
          0.0946768 0.0961512 0.0038756 -0.0031679 0.00594671 -0.0055628
          -0.0119435 -0.0101426 -0.012174 -0.0118386 -0.0122415 -0.0110955
          -0.0101949 -0.011999 0.10169 0.104296 0.0989408 0.0987585
          -0.0129255 -0.0126816 -0.0138029 -0.0106223 -0.00761653 -0.00927245
          -0.00708722 -0.00742649 0.0190544 0.0214733 0.0156658 0.0115894
          -0.00938039 -0.0117923 -0.0166778 -0.0103711 -0.01342 -0.0110955
          -0.0109875 -0.0103014 0.00429118 -0.00508143 0.00623301 -0.00286856
          0.0741555 0.0749929 0.0722704 0.0822369 0.105767 0.0985842
          0.105429 0.101482 0.0330087 0.0395448 0.0396681 0.0297779
          0 0 -0.00635234 0 0.109344 0.10803
          0.112426 0.105429 -0.00442074 -0.00822523 -0.00495617 -0.00391901
          -0.0194334 -0.0184435 -0.0114026 -0.0147362 -0.00227591 -0.000736465
          -0.00193359 0 -0.0153294 -0.0138988 -0.0149838 -0.01385
          -0.0138988 -0.0149838 -0.0112095 -0.0128705 0.0163716 0.0171797
          0.0128998 0.013872 0.0376856 0.0375999 0.0430777 0.0365633
          0.0272575 0.0189193 0.0225269 0.0278946 0.0894452 0.0933328
          0.0931621 0.0922335 -0.0146452 -0.0115942 -0.0123001 -0.0119491
          0.0971933 0.0872112 0.0895988 0.0953534 0.0780598 0.0722326
          0.0841291 0.0794021 0.0247032 0.0234903 0.0183116 0.0178233
          -0.0133311 -0.0136582 -0.0123134 -0.0126718 -0.00539303 0.000676097
          -0.00500875 -0.00353163 0.0798208 0.0945086 0.0825092 0.0922869
          -0.00870799 -0.0123134 -0.00659314 -0.00998517 -0.0122989 -0.0104179
          -0.0115354 -0.0144693 -0.0184525 -0.014775 -0.0186162 -0.016316
          0.0804062 0.0876495 0.0872112 0.0805968 0.0931675 0.0908914
          0.0929403 0.0866501 0.0241004 0.0214384 0.0290328 0.026316
          -0.00834344 -0.0107902 -0.0077584 -0.00539303 0.0872112 0.0866501
          0.0895988 0.0876495 0.00594671 0.00584569 0.0128998 0.00789755
          -0.0148368 -0.0120732 -0.00980449 -0.0109344 0.0608877 0.0584996
          0.0667901 0.0607576 0.104296 0.101482 0.101594 0.0987585
          -0.0166441 -0.0159958 -0.0143898 -0.0168699 -0.00499197 -0.00281992
          0.00249727 -0.000690955 0.0139789 0.00569362 0.0109529 0.00594671
          0.0485772 0.0401223 0.0473978 0.0493815 -0.0211777 -0.0156323
          -0.0161113 -0.0140032 0.0626744 0.069947 0.0680971 0.0712148
          0.0639908 0.0552688 0.0648493 0.0612821 -0.0125329 -0.0119604
          -0.010768 -0.012833 -0.00448618 -0.00944941 -0.00508143 -0.0074673
          0.0400479 0.0395448 0.0311586 0.0383668 -0.00428175 -0.00151987
          -0.00510329 -0.0107643 0.0486119 0.0608716 0.0583567 0.057476
          -0.0131649 -0.0132619 -0.0142512 -0.01342 -0.00480447 -0.00396656
          -0.00977568 -0.0064143 -0.00127327 -0.00221483 -0.00470133 -0.00593256
          0.0722326 0.0639772 0.069947 0.0654663 -0.010768 -0.012833
          -0.0116704 -0.0125329 -0.00577718 -0.00357756 -0.0064143 -0.00767366
          -0.0101269 -0.00834344 -0.0077584 -0.00539303 -0.0173699 -0.0209682
          -0.0110197 -0.0130007 0.0572523 0.0650225 0.0638716 0.0627337
          -0.0131649 -0.0122415 -0.0150762 -0.011999 0.0435662 0.0496291
          0.0542829 0.0419076 0.0214384 0.013976 0.0198814 0.0199927
          0.0509021 0.0584848 0.0540566 0.0550045 0.040404 0.0485772
          0.0506828 0.0419076 -0.00348063 0.00504842 -0.00158471 -0.00071185
          0.0342104 0.0246422 0.0269602 0.025394 -0.0176787 -0.0169444
          -0.0164017 -0.0155531 0.0478322 0.0392555 0.0506082 0.0457958
          -0.0108439 -0.0119697 -0.0118386 -0.0103708 0.0468155 0.0430777
          0.045842 0.0496291 0.00322875 -0.00142277 0.00922241 0.00594671
          -0.0122948 -0.00980449 -0.00998447 -0.00627446 0.0639772 0.0607576
          0.0677137 0.069947 -0.00834925 -0.00727612 -0.00579803 -0.00951325
          0.0545551 0.0612821 0.0684555 0.0627337 0.10492 0.0943382
          0.0951903 0.0947307 0.0214733 0.0247032 0.0211458 0.014183
          0.0922475 0.0846894 0.0932419 0.0917422 0 0.00504842
          0 -0.00348063 -0.00949131 -0.00877047 -0.0125083 -0.00834344
          0.0386142 0.0362804 0.045842 0.0367918 -0.0108439 -0.0118386
          -0.00930884 -0.0103708 0.0329572 0.0362804 0.0386142 0.0367918
          -0.0180549 -0.0153847 -0.0163881 -0.0157141 0.0884996 0.0823455
          0.0908349 0.0805968 0.0367918 0.0279604 0.0283266 0.0267211
          0.07594 0.0712148 0.0802136 0.0680971 -0.0260363 -0.0221583
          -0.022248 -0.0184729 -0.0173693 -0.0143898 -0.0149003 -0.0153294
          0.0945086 0.0825092 0.0922869 0.0974581 0.0706221 0.0626744
          0.0719055 0.069947 0.0859182 0.0831428 0.0887192 0.0840946
          0.0991194 0.0987585 0.102758 0.105555 0.0859182 0.0831428
          0.0910084 0.0887192 0.0241004 0.0320141 0.0247032 0.0211458
          -0.0137039 -0.0145272 -0.0171154 -0.0135258 0.0968129 0.0931675
          0.0953553 0.0943679 0.0945086 0.0922869 0.09271 0.0977652
          -0.0196739 -0.0214847 -0.0205887 -0.0175449 0.0527487 0.045937
          0.0577736 0.0518298 0.0552688 0.0538991 0.0462954 0.0478604
          0.0298942 0.0297779 0.021662 0.0275463 0.0932419 0.0956412
          0.0884996 0.0946005 0.10803 0.104812 0.112338 0.10922
          -0.00870799 -0.0068226 -0.012164 -0.00998517 0.0712148 0.0677137
          0.0778226 0.0725458 -0.0128015 -0.0146101 -0.011639 -0.0169045
          0.00628365 -0.000960639 0.00998128 0.0025933 0.067363 0.0768006
          0.0664747 0.0700373 -0.012833 -0.0116704 -0.00899144 -0.010768
          0.0247032 0.0178233 0.0211458 0.014183 0.0982259 0.0956329
          0.0964002 0.0968129 0.0667901 0.0677137 0.0778226 0.0722704
          0.0486119 0.0541389 0.0608716 0.045937 -0.0109937 -0.0129857
          -0.0109875 -0.0103014 -0.00980449 -0.0131762 -0.00510329 -0.0101546
          -0.0184729 -0.0155189 -0.0182206 -0.018359 -0.0112095 -0.00783675
          -0.00930884 -0.0109702 -0.0119604 -0.012833 -0.00899144 -0.010768
          0.00429118 0.00577853 0.000570539 -0.000792662 -0.00987119 -0.00847588
          -0.00591698 -0.00963848 -0.0146903 -0.0150371 -0.015471 -0.0188984
          0.0894452 0.0943226 0.0919498 0.092526 -0.00353163 0.0035501
          -0.00343188 0.000676097 0.0572903 0.0478322 0.0506082 0.0515351
          -0.00973485 -0.0095234 -0.0112982 -0.00864801 0.101482 0.107581
          0.104922 0.101508 0.0204591 0.0101018 0.00998128 0.0159505
          -0.00732795 -0.0104179 -0.0122989 -0.0092593 0.00696049 0.00181038
          0.00509314 0.00963681 -0.01305 -0.0103616 -0.00994981 -0.0109596
          0.110851 0.107082 0.110603 0.111551 -0.0175449 -0.015471
          -0.0167399 -0.0197199 0.0178233 0.0114123 0.0139395 0.0151683
          -0.012164 -0.0161113 -0.0123134 -0.0140032 0.100802 0.100112
          0.10492 0.107082 -0.000485042 -6.04137e-05 9.87133e-05 0.00860607
          0.112732 0.101595 0.106625 0.110086 -0.00694747 -0.0107643
          -0.00911235 -0.00151987 0.0456925 0.0487549 0.0529727 0.0500391
          0.057476 0.0608716 0.0656273 0.0577736 0.00478569 0.00181038
          0.00509314 0.00696049 -0.0123134 -0.0111707 -0.00659314 -0.011639
          -0.0147362 -0.0152032 -0.0184435 -0.0114026 0.0298942 0.0275463
          0.021662 0.0331244 -0.00727612 9.87133e-05 -0.00615696 -0.00448618
          0.0194951 0.0214733 0.0276488 0.0275463 0.00222036 -2.51321e-05
          0.00331069 0.00212624 0.0922335 0.0983866 0.0923967 0.092526
          -0.00740716 -0.00214796 -0.00708235 -0.00354039 0.0583567 0.0608716
          0.0649467 0.070367 -0.00442074 -0.00822523 -0.00391901 -0.00403773
          0.0708743 0.0617354 0.0649467 0.0583567 -0.00927245 -0.0119604
          -0.00899144 -0.010768 0.107926 0.103492 0.110851 0.111551
          0.00584569 0.0053151 0.0092244 0.00212618 -0.00633565 -0.0086086
          -0.00952224 -0.00927824 0.0362804 0.0339339 0.0354399 0.0419076
          0.0128998 0.00789755 0.0146023 0.0139789 -0.00510329 0.000932724
          -0.00345068 -6.04137e-05 -0.00197492 0.00594786 0.0034827 0.00867015
          0.0745767 0.0709724 0.0706221 0.0760461 0.0638716 0.070367
          0.0709724 0.0740713 0.10664 0.10035 0.0985842 0.0987585
          0.00686604 0.00841701 0.00723765 0.00327003 0.0297779 0.0382422
          0.0275463 0.0331244 0.0290619 0.0199927 0.0214384 0.0290328
          -0.0124395 -0.0109596 -0.0128604 -0.012766 0.112426 0.10922
          0.10803 0.113884 0.00963681 0.00696049 0.00401747 0.0101018
          0.0872112 0.0846894 0.0823455 0.0932419 0.0968129 0.0953553
          0.0953534 0.0982259 0.101594 0.105767 0.104922 0.101482
          -0.00227591 0 -0.00222472 0 -0.0144426 -0.0135718
          -0.0142512 -0.0140065 -0.00842294 -0.00753719 -0.00951806 -0.0141182
          -0.0115173 -0.0136582 -0.0152705 -0.0139847 0.0290619 0.0376856
          0.0391504 0.0266212 0.0294766 0.0290619 0.0391504 0.0266212
          -0.0125083 -0.0173095 -0.0135404 -0.0152032 0.10492 0.0951903
          0.0988924 0.0947307 -0.0155189 -0.0129255 -0.0132634 -0.0107643
          0.0988924 0.0951903 0.0787728 0.0947307 -0.0109702 -0.00871713
          -0.00783675 -0.00899144 0.0349137 0.027128 0.0342104 0.0340728
          -0.000960639 -0.00367405 -0.00910394 -0.00880874 0.0342104 0.0246422
          0.0331244 0.0340728 -0.0171154 -0.0155281 -0.0184525 -0.014775
          -0.00839904 -0.00921344 -0.00966033 -0.00670828 -0.0169444 -0.0173693
          -0.0153294 -0.0180922 -0.00495617 -0.00822523 -0.00731356 -0.00391901
          0.0230983 0.0125122 0.0083212 0.013872 -0.00822523 -0.00731356
          -0.00391901 -0.00753719 0.0956329 0.0968129 0.0985264 0.0981286
          -0.0152032 -0.0200852 -0.0135404 -0.015707 0.0386142 0.0362804
          0.0401373 0.0428983 0.0365633 0.0290328 0.0375999 0.026316
          -0.00949131 -0.0125083 -0.0115354 -0.0101269 0.104812 0.10492
          0.0988924 0.100112 0.0953534 0.0992951 0.0953553 0.0971933
          -0.0144426 -0.0155909 -0.0157141 -0.0163672 0.0933791 0.0911611
          0.0916535 0.0937414 -0.0128463 -0.0111707 -0.0166017 -0.0134479
          0.112242 0.10492 0.104812 0.10803 0.0937414 0.0948321
          0.0933791 0.0935405 -0.00345068 0.000932724 0.000732152 0.00659027
          0.0894653 0.0872084 0.10293 0.0951903 -0.00882003 -0.0079659
          -0.00599707 -0.00790277 -0.0079659 -0.00921344 -0.00759501 -0.0101472
          -0.00973485 -0.00783516 -0.00719991 -0.00911502 -0.0143225 -0.0142089
          -0.0140065 -0.0157141 -0.0138764 -0.0167399 -0.016129 -0.015471
          0.0986556 0.0987585 0.0960197 0.0946768 -0.0169045 -0.0209799
          -0.0128015 -0.0145598 -0.0101472 -0.00759501 -0.0079659 -0.00790277
          -0.0114026 -0.0119405 -0.0184435 -0.0153411 0.0331244 0.0382422
          0.0448283 0.0340728 -0.0109318 -0.00767366 -0.00779774 -0.0105734
          0.106625 0.10426 0.110603 0.107082 -0.0132095 -0.014071
          -0.0126816 -0.016901 -0.0110197 -0.0209682 -0.0150233 -0.0130007
          -0.00719991 -0.00834344 -0.00353163 -0.00617679 0.0955726 0.0943034
          0.0968129 0.0976013 -0.0107902 -0.0147362 -0.0105415 -0.00688996
          -0.00974557 -0.0034695 -0.00861598 -0.00711215 0.0760461 0.073621
          0.0802136 0.0740901 -0.00953216 -0.00575554 -0.0115173 -0.0103725
          0.0884996 0.0872112 0.0908349 0.0823455 0.0895988 0.0922475
          0.0963202 0.0875869 0.0535705 0.0550045 0.0584848 0.0509021
          -0.0130793 -0.00952224 -0.0117784 -0.0133371 -0.0123001 -0.0121716
          -0.00861598 -0.00948852 0.10293 0.0951903 0.0988924 0.10492
          0.0456925 0.0450642 0.0500391 0.045926 0.0731584 0.0819169
          0.0804062 0.0807888 -0.0159049 -0.0130007 -0.00938039 -0.0181342
          -0.00193784 -0.00938039 -0.00448618 -0.00533943 0.108299 0.102614
          0.111304 0.10492 -0.00533943 -0.00889233 -0.0074673 -0.0130007
          0.10293 0.0951903 0.107383 0.0988924 0.0435662 0.0521232
          0.0457958 0.0419076 -0.0166081 -0.0116166 -0.00880874 -0.0184858
          0.107926 0.103492 0.111551 0.105508 0.0511354 0.0496291
          0.0542829 0.0435662 -0.0163881 -0.0153847 -0.0205887 -0.0175449
          0.0035501 0.00224888 0.000676097 0.00867015 -0.0179506 -0.0189734
          -0.0135404 -0.0200852 -0.00503266 9.87133e-05 -0.00627446 -0.00727612
          0.0349137 0.027128 0.0341367 0.0342104 -0.0105095 -0.00719991
          -0.00864801 -0.00610029 -0.00973485 -0.00864801 -0.0105095 -0.00719991
          -0.00822523 -0.00874778 -0.00965086 -0.00504081 0.00429118 -0.00152772
          0.00185096 -0.000792662 -0.0101269 -0.00745357 -0.0111888 -0.0101035
          -0.0103014 -0.0103708 -0.0108439 -0.00847522 0.109344 0.10803
          0.113175 0.112426 0.101271 0.10426 0.110603 0.106625
          0.0349137 0.0226921 0.0341367 0.027128 0.103492 0.0972424
          0.101867 0.101595 -0.0126734 -0.00779109 -0.00740716 -0.0126816
          0.0823455 0.0712302 0.0757005 0.0762057 0.0897636 0.0824418
          0.092674 0.0961257 -0.00358364 -0.0159049 -0.00938039 -0.00193784
          0.0561024 0.0545551 0.060776 0.05297 -0.0122022 -0.00842294
          -0.00903642 -0.0141182 0.092526 0.0894452 0.0943226 0.0906953
          -0.0169045 -0.0217264 -0.0177313 -0.0166778 0.0247032 0.0320141
          0.0234903 0.0329572 0.0584996 0.0528332 0.0583691 0.0543238
          -0.00889233 -0.00953853 -0.00944941 -0.0117923 0.00584169 0.00418987
          0.00710339 0.000511914 0.0931675 0.0976263 0.0985264 0.0908914
          0.00922241 0.0163716 0.0125122 0.0206599 0.100297 0.10216
          0.0991194 0.0982259 0.045842 0.0419076 0.0506828 0.0496291
          -0.012833 -0.0128604 -0.0153294 -0.0139518 0.112242 0.107383
          0.1075 0.10492 0.00720486 0.00569362 0.00594671 -0.000796769
          -0.00222472 0 0 0 0.0290619 0.0376856
          0.0375999 0.0442869 -0.0143898 -0.0157609 -0.0141714 -0.0159958
          0.0189193 0.0272575 0.0290173 0.0326986 -0.0132648 -0.0143225
          -0.0127238 -0.0138481 0.0175491 0.00696049 0.0204591 0.0121727
          -0.0131762 -0.0136174 -0.00911235 -0.0182206 0.00185887 0.00478569
          -0.00370727 0.00185096 0.0511354 0.057476 0.0542829 0.0496291
          -0.0196446 -0.0129255 -0.018359 -0.0136174 0.0664747 0.0757005
          0.0749929 0.0649001 0.0519682 0.0583567 0.0511354 0.0442869
          0.00185096 0.00478569 -0.00370727 -0.00152772 -0.0120732 -0.0109344
          -0.0159403 -0.00951325 -0.00197492 -0.00613969 -0.00385626 -0.00617679
          -0.00193359 -0.00244935 -0.00504482 -0.00222472 0.0972424 0.0945086
          0.09271 0.101595 -0.0122989 -0.0139909 -0.014953 -0.0119405
          0.0639772 0.0626744 0.0607576 0.069947 0.05184 0.0541389
          0.0583567 0.0519682 0.0529727 0.060776 0.0653814 0.0561024
          -0.000960639 0.00173919 0.0025933 -0.00367405 -0.00934427 -0.0138029
          -0.0116895 -0.0106223 -0.0163672 -0.0141968 -0.0157141 -0.0144426
          -0.0103014 -0.0108439 -0.0101949 -0.00847522 0.0330087 0.0311586
          0.0395448 0.0297779 0.045842 0.0506828 0.0462954 0.0545551
          0.0765293 0.0646988 0.0704512 0.0763853 0.0785431 0.0683723
          0.0824418 0.0809897 0.111747 0.10761 0.112732 0.101595
          -0.0103711 -0.0145598 -0.0166778 -0.0104976 0.0340728 0.0365633
          0.0298942 0.0382422 -0.00745357 -0.00221483 -0.00822036 -0.00470133
          -0.012431 -0.0166778 -0.0177313 -0.0173699 -0.0177313 -0.0209682
          -0.0150233 -0.0173699 -0.00480447 -0.00268011 -0.000992811 -0.00244935
          -0.0159049 -0.0166778 -0.00938039 -0.0173699 -0.0156323 -0.0133311
          -0.0148368 -0.0155189 -0.0148368 -0.0156323 -0.0140032 -0.0133311
          -0.00747016 -0.00899144 -0.00599707 -0.00882003 0.0298942 0.0365633
          0.0297779 0.0382422 0.00577853 -0.000792662 0.00173919 0.000570539
          -0.0149838 -0.0175004 -0.0153733 -0.0179139 -0.0247358 -0.0260363
          -0.0214738 -0.020683 -0.0172467 -0.0159403 -0.0148368 -0.020683
          -0.0166081 -0.00800935 -0.00994833 -0.0107869 -0.0182243 -0.0150371
          -0.0159618 -0.0163881 0.0955726 0.0976013 0.0968129 0.0981286
          -0.0169444 -0.0153294 -0.0149838 -0.0155531 -0.0123134 -0.0115173
          -0.00659314 -0.0111707 -0.00071185 -0.000798352 0.00504842 0.00749469
          0.0234903 0.0279604 0.023484 0.0297041 -0.00927245 -0.010768
          -0.00747016 -0.00994981 -0.00927245 -0.0109596 -0.00994981 -0.00708722
          0.0872112 0.0922475 0.0971933 0.0895988 -0.0161269 -0.0172467
          -0.0159403 -0.00951325 -0.0110417 -0.0127112 -0.0112934 -0.0115354
          0.00181038 0.00478569 -0.00370727 0.00185887 0.0780598 0.0654663
          0.0722326 0.0719055 -0.00193784 -0.0159049 -0.00938039 -0.00942437
          -0.0121653 -0.0113411 -0.0127901 -0.0101035 0.0435662 0.0542829
          0.0521232 0.0419076 0.0937414 0.0884996 0.0916535 0.0897648
          -0.0115354 -0.0104179 -0.0132636 -0.0144693 -0.0122415 -0.0139856
          -0.011999 -0.0101949 0.0724522 0.0648493 0.0780598 0.0719055
          -0.0135404 -0.0102429 -0.0121716 -0.00948852 0.0320141 0.0367918
          0.0290328 0.0279604 0 0.00504842 -0.00348063 -0.00071185
          -0.0211777 -0.0189928 -0.0142188 -0.0156323 -0.00934427 -0.00428175
          -0.0100672 -0.0107643 -0.00948852 -0.00492085 -0.00822036 -0.0101269
          -0.0211777 -0.0142188 -0.0161113 -0.0156323 0.0626744 0.0712148
          0.0583691 0.0677137 -0.00227591 -0.00193359 -0.00244935 0
          0.0943187 0.0956329 0.0972424 0.0976263 -0.0166017 -0.0134479
          -0.0196971 -0.0145272 -0.0169444 -0.0176947 -0.0175004 -0.0153294
          -0.00731356 -0.00965086 -0.0074673 -0.00951806 0.045937 0.0365633
          0.0382422 0.0395448 0.018373 0.0101551 0.0109529 0.00569362
          0.0391504 0.0456868 0.0485009 0.0442869 0.0035501 0.000676097
          0.00252499 0.00867015 -0.0180549 -0.0240072 -0.0198767 -0.0222241
          0.100112 0.0943382 0.0947307 0.0984366 0.0759489 0.0780598
          0.0841291 0.088585 -0.0119697 -0.0140065 -0.0129756 -0.01342
          0.0956329 0.0968129 0.0976263 0.0985264 -0.0144693 -0.0125083
          -0.0115354 -0.014953 0.0127976 0.00822017 0.0156658 0.0195054
          0.0341367 0.0226921 0.0206599 0.0246422 0.0961793 0.0948321
          0.0933791 0.0937414 0.0961793 0.099153 0.0993781 0.0937414
          0.0953534 0.0935405 0.0937414 0.0908349 -0.012833 -0.01385
          -0.0138988 -0.0153294 0.0125122 0.0038756 0.0083212 0.00584569
          -0.012766 -0.0128604 -0.01385 -0.0118386 -0.0166081 -0.0107869
          -0.00994833 -0.0150233 -0.0110417 -0.0132636 -0.0127112 -0.0115354
          -0.0122948 -0.0148368 -0.0133311 -0.00980449 -0.0122948 -0.0133311
          -0.00998447 -0.00980449 0.00504842 0.00090171 0.00594786 0.0147318
          0.0884996 0.0837749 0.0778226 0.0849973 -0.00708235 -0.00214796
          -0.00839467 -0.00504061 0.0700438 0.0667901 0.0787166 0.0660669
          -0.0132634 -0.0116895 -0.0137039 -0.0109623 -0.0137039 -0.0116895
          -0.0102896 -0.0109623 -0.0159049 -0.0166778 -0.0221425 -0.00908123
          0.101508 0.0983216 0.0922335 0.0985842 -0.0166346 -0.00834925
          -0.0141443 -0.010044 -0.0128015 -0.0166017 -0.0146101 -0.0169045
          -0.00617679 -0.00197492 -0.00688996 -0.00539303 0.0833918 0.0831428
          0.0782877 0.0782606 0.0494386 0.0478322 0.0568305 0.0515351
          -0.00843312 -0.0101426 -0.00930884 -0.0108439 0.07594 0.0712148
          0.0782877 0.0802136 0.0053151 0.00584569 0.0083212 -0.0031679
          0.0831428 0.07594 0.0837749 0.0782877 -0.0124198 -0.0026124
          -0.0128731 -0.00236865 -0.00597124 0.00594786 0.0034827 -0.00197492
          0.0185475 0.0282334 0.0316763 0.0186287 -0.0119697 -0.0129756
          -0.0129857 -0.01342 -0.0039651 -0.00597124 0.0034827 -0.00688996
          -0.00268011 -0.00148098 -0.00244935 -0.00193359 -0.0039651 -0.0077584
          -0.00688996 -0.0011597 -0.00281992 -0.0027958 -0.00495617 -0.00339795
          0.0927309 0.0876495 0.0872946 0.0822369 0.101595 0.0945086
          0.103492 0.0972424 -0.00448618 -0.00834925 -0.00508143 -0.00944941
          -2.51321e-05 -0.00281992 -0.00701453 -0.00451818 -0.0151294 -0.0152337
          -0.0174151 -0.018128 0.026316 0.0375999 0.027128 0.030637
          0.0722326 0.069947 0.0762057 0.0719055 0.0382422 0.0518298
          0.0448283 0.0452472 0.105767 0.107581 0.104922 0.101482
          0.0102825 0.00590663 9.87133e-05 0.00860607 -0.0117847 -0.01385
          -0.0119435 -0.0149838 0.00569362 0.00322875 0.0109529 0.00594671
          0.0496291 0.0572523 0.05297 0.057476 -0.00870799 -0.0161113
          -0.00953216 -0.0123134 -0.00870799 -0.00953216 -0.00659314 -0.0123134
          -0.0128015 -0.0166778 -0.0177313 -0.012431 -0.0128252 -0.0122154
          -0.010768 -0.0121714 0 0 -0.00222472 0
          -0.00812965 -0.00779109 -0.00740716 -0.00354039 -0.0132634 -0.0145272
          -0.0135258 -0.0136582 -0.0117775 -0.0138379 -0.0135718 -0.0116642
          0 -0.00827242 -0.0109318 -0.0025765 0.0230983 0.0316763
          0.0320911 0.0186287 -0.0147362 -0.0114026 -0.0102839 -0.00597124
          0.0955726 0.0968129 0.0964002 0.0981286 -0.0127901 -0.0101035
          -0.0120173 -0.0121653 0 0 0 -0.00345964
          0.0745767 0.0740713 0.0709724 0.0760461 0.0365633 0.0290328
          0.0376856 0.0375999 0.0214812 0.0282334 0.0186287 0.0204591
          -0.0125083 -0.0107902 -0.0135404 -0.0101269 0.0866501 0.0804062
          0.0727373 0.080901 0.10169 0.104296 0.0987585 0.105555
          0.0943187 0.0902565 0.0972424 0.0984366 -0.0144693 -0.0137818
          -0.0125083 -0.014953 0.000251628 -0.00834925 -0.00546711 -0.00508143
          -0.00367405 0.00173919 0.00401747 5.29779e-05 -0.0137818 -0.014953
          -0.0179506 -0.0125083 0.0831428 0.0782606 0.0833918 0.0802136
          -0.0159049 -0.0173699 -0.00938039 -0.0130007 -0.00938039 -0.0173699
          -0.0117923 -0.0130007 -0.0101035 -0.0111888 -0.0116704 -0.00882003
          -0.0155281 -0.0137283 -0.0142512 -0.0137173 0.018373 0.027128
          0.026316 0.0209412 0.0807888 0.0866501 0.0895988 0.0804062
          0.110851 0.106625 0.110603 0.107082 -0.00688996 -0.00597124
          -0.0105415 -0.0039651 -0.0138988 -0.0116704 -0.0149003 -0.0115942
          -0.0122022 -0.00903642 -0.00832996 -0.0141182 -0.00357756 -0.00348063
          -0.00767366 -0.00071185 0.0100494 0.00841701 0.0114123 0.00686604
          0.0204591 0.0101018 0.0214812 0.00998128 0.0266212 0.0290619
          0.0202761 0.0294766 0 0 -0.00348063 -0.00071185
          -0.00357756 0 -0.00348063 -0.00071185 -0.0177313 -0.0209682
          -0.0173699 -0.0217264 0.0340728 0.0298942 0.021662 0.0331244
          0.0339339 0.0419076 0.0391504 0.0323379 0.0329572 0.0311586
          0.0247032 0.0320141 -0.00367405 5.29779e-05 -0.00236865 -0.00701453
          0.0383668 0.0395448 0.0311586 0.0320141 0.0837749 0.07594
          0.0779443 0.0824615 -0.0116895 -0.0141968 -0.0132619 -0.0106223
          0.00789755 0.00584569 0.0092244 0.00260366 -0.0157141 -0.01342
          -0.0140065 -0.0141968 -0.0141968 -0.0159942 -0.0138029 -0.0163022
          0.0897648 0.0849973 0.086149 0.0837749 -0.0129857 -0.01342
          -0.0110955 -0.0119697 0.0938949 0.104541 0.0943226 0.0957216
          -0.00965086 -0.0116458 -0.012431 -0.00944941 0.0290619 0.0375999
          0.030637 0.0442869 -0.00973485 -0.0095234 -0.00864801 -0.00719991
          -0.0143898 -0.0159958 -0.0128252 -0.0139518 0.0535705 0.0584848
          0.0538991 0.0509021 -0.0122989 -0.00998045 -0.0139909 -0.0119405
          0.0757005 0.0819169 0.0804062 0.0731584 0.0731584 0.0664747
          0.0649001 0.0757005 0.0608921 0.0684276 0.0649001 0.0731584
          -0.000798352 0.00061746 0.00749469 0.00429153 -0.0101426 -0.00820863
          -0.0108474 -0.0108439 -0.00727612 -0.00503266 -0.0109344 -0.00627446
          0.0870027 0.0955917 0.0897636 0.0908914 0.0931675 0.0866501
          0.0929403 0.0876495 -0.0166017 -0.0145272 -0.0145598 -0.0126718
          0.0908914 0.0739216 0.0734616 0.0870027 0.0807888 0.0819169
          0.0875869 0.0766639 0.0819169 0.0906245 0.0875869 0.0766639
          0.0449968 0.0510428 0.0569946 0.0452472 -0.00927245 -0.00994981
          -0.00747016 -0.00708722 -0.00727612 9.87133e-05 -0.00627446 -0.00615696
          0.0638716 0.0680971 0.0706221 0.0760461 0.0391761 0.0326986
          0.0269602 0.0290173 -0.0136001 -0.0137283 -0.0139847 -0.0147507
          0.0897619 0.0894452 0.0922335 0.0906953 -0.0140032 -0.0123134
          -0.0126718 -0.0122948 0.0614825 0.0528332 0.064407 0.0584996
          -0.0196971 -0.0145272 -0.0171154 -0.0170253 -0.0145272 -0.0128463
          -0.0166017 -0.0134479 0.0694965 0.0763853 0.0765293 0.0766639
          0.0290619 0.0290328 0.0376856 0.0252607 -0.0129857 -0.01342
          -0.0103014 -0.0110955 0.0971933 0.0992951 0.104195 0.099153
          0.0053151 0.009434 0.0185475 0.0101018 0.0139789 0.0146023
          0.021662 0.0209412 0.0592017 0.0664747 0.0597525 0.0583781
          0.0209412 0.0139789 0.0128998 0.021662 -0.0135404 -0.0077584
          -0.0102429 -0.00948852 -0.0101269 -0.0111273 -0.00745357 -0.0101035
          -0.0101269 -0.00839904 -0.00745357 -0.0111273 -0.0270881 -0.0209682
          -0.0173699 -0.0181342 0.0955917 0.0961257 0.0976263 0.102285
          0.0897636 0.0961257 0.092674 0.0976263 0.0955917 0.0897636
          0.0976263 0.0961257 -0.00498123 -0.00339795 0.00185887 -0.00488907
          -0.00498123 -0.00488907 -0.00731356 -0.00339795 0.0801117 0.0760461
          0.0840946 0.0796129 0.0211458 0.0151683 0.0117331 0.014183
          0.0916535 0.0884996 0.0911611 0.0897648 0.067363 0.0793398
          0.0768006 0.0700373 -0.00182166 0.000471272 -0.000179497 0.00212624
          0.000511914 0.000471272 -0.00182166 0.00212624 0.00998805 0.0047323
          0.00929873 0.00474989 -0.0103711 -0.00346981 -0.0104976 -0.00908123
          0.000471272 -0.00182166 -0.00421154 0.000511914 0.00185887 5.29779e-05
          -0.00339795 0.000471272 0.0298942 0.0297779 0.0211458 0.021662
          -0.0115354 -0.0127112 -0.0131376 -0.0144693 -0.0112966 -0.00966033
          -0.0100554 -0.00864801 0.013872 0.0101018 0.0186287 0.0118168
          -0.0176787 -0.0155531 -0.0164017 -0.0150371 -0.0169045 -0.011639
          -0.012431 -0.00774906 -0.0169045 -0.00774906 -0.012431 -0.0177313
          0.0185475 0.0316763 0.0230983 0.0186287 -0.00934427 -0.00708235
          -0.00504061 -0.00118024 -0.0152156 -0.0168699 -0.0140178 -0.015154
          0.00696049 5.29779e-05 0.00478053 0.00401747 0.100371 0.100997
          0.103705 0.105929 -0.0173693 -0.0149003 -0.0176947 -0.0153294
          0.0390901 0.0442774 0.05184 0.0449968 0.0390901 0.0449968
          0.05184 0.0441457 -0.00403773 -0.00822523 -0.00391901 -0.00753719
          0.101595 0.0977652 0.10761 0.101271 -0.00930884 -0.00783675
          -0.00669444 -0.00927245 0.099153 0.0993396 0.0932419 0.0956412
          0.0872112 0.0875869 0.0895988 0.0807888 -0.00369529 -0.00749906
          -0.00711215 -0.00593256 0.0872112 0.0807888 0.0895988 0.0804062
          -0.0114026 -0.0105734 -0.00767366 -0.0104381 -0.016901 -0.0126734
          -0.0159942 -0.0126816 -0.00911502 -0.00591698 -0.00719991 -0.0105095
          0.0614825 0.064407 0.0705525 0.0667901 -0.0180549 -0.0126734
          -0.0159942 -0.016901 -0.00911502 -0.00987119 -0.00591698 -0.0105095
          -0.0109702 -0.01385 -0.012833 -0.0128604 -0.0128463 -0.0101082
          -0.0111707 -0.0134479 0.0608877 0.0667901 0.0677137 0.0607576
          -0.0189928 -0.0229194 -0.0163022 -0.018359 0.1075 0.101679
          0.112281 0.100418 0.00249727 -0.00641771 -0.00173324 -0.00281992
          0.0892035 0.0849973 0.0876495 0.0822369 0.0117361 0.0151683
          0.014183 0.0117331 0.0822369 0.0827915 0.0892035 0.0849973
          -0.00343188 -0.000798352 0.00224888 0.00429153 0.0117331 0.0117361
          0.00710339 0.014183 -0.00466195 -0.00563442 -0.00504482 -0.00640648
          0.103799 0.0922475 0.0993396 0.104122 -0.0126816 -0.00812965
          -0.0106223 -0.00708235 -0.0126816 -0.00708235 -0.0106223 -0.00934427
          0.0178233 0.0114123 0.0151683 0.0117361 -0.0115942 -0.0116704
          -0.00822036 -0.00871713 -0.00977568 -0.0112065 -0.0064143 -0.0145331
          -0.0202491 -0.0157141 -0.0182685 -0.0178131 -0.0166081 -0.00800935
          -0.0107869 -0.00880874 0.00105064 -0.0011597 -0.00492085 0.00262799
          -0.0142188 -0.0152705 -0.0156323 -0.0189928 -0.0116166 -0.00641771
          -0.00701453 -0.00750152 0.103492 0.0974581 0.100802 0.0945086
          0.0709724 0.0638716 0.0706221 0.0760461 -0.0138379 -0.0155909
          -0.0147507 -0.0136001 0.0156658 0.0117331 0.0114892 0.0115894
          -0.00172237 -0.00147667 0.00343406 0.00181038 0.018373 0.0139789
          0.0209412 0.0165835 -0.00428175 -0.0131762 -0.00510329 -0.00980449
          0.00720486 0.00789755 0.0139789 0.0165835 0.0209412 0.0298942
          0.027128 0.026316 -0.0138764 -0.0159958 -0.0147393 -0.0167399
          -0.0101472 -0.0112706 -0.00790277 -0.00821885 -0.0182243 -0.0175449
          -0.0205887 -0.0188984 -0.0140032 -0.0126718 -0.0116458 -0.0122948
          -0.0103708 -0.00742649 -0.0103014 -0.0109937 -0.012431 -0.011639
          -0.0116458 -0.00998517 -0.0100434 -0.00829571 -0.0103014 -0.0110955
          -0.0124395 -0.00927824 -0.0109937 -0.0109875 0.0943034 0.0968458
          0.0935405 0.0955726 0.0794021 0.0824615 0.0762057 0.0875151
          0.0943226 0.104541 0.0938949 0.103038 -0.0132648 -0.0142089
          -0.0143225 -0.0138481 0.0612821 0.0572523 0.0626744 0.0627337
          0.0667901 0.0584996 0.0677137 0.0607576 -0.0229194 -0.0250899
          -0.0187996 -0.018359 -0.0189928 -0.018359 -0.0152705 -0.0155189
          0.0932419 0.0908349 0.0872112 0.0953534 0.0757005 0.0819169
          0.0768006 0.0846894 -0.0101269 -0.00492085 -0.00822036 -0.00745357
          -0.00880874 -0.00488907 -0.0107869 -0.0074673 0.0269602 0.025394
          0.0189193 0.0326986 -0.0125083 -0.0152032 -0.0135404 -0.0107902
          0.0575983 0.0612821 0.0639908 0.0684555 0.0947307 0.0940771
          0.0983866 0.092526 0.101212 0.0787728 0.0940771 0.0973971
          -0.0116895 -0.00934427 -0.00604505 -0.0109623 -0.00428175 -0.00604505
          -0.00460077 -0.000891983 -0.00934427 -0.00504061 -0.00604505 -0.00118024
          0.00322875 -0.00142277 0.00594671 -0.000796769 -0.000796769 0.00594671
          0.00720486 2.43316e-05 0.0290619 0.0149956 0.026316 0.0214384
          0.0701436 0.0694075 0.0778847 0.0684555 -0.0203243 -0.0224445
          -0.021099 -0.0145598 -0.0122415 -0.0119508 -0.0108474 -0.0108439
          0.0612821 0.0506828 0.0572523 0.0545551 -0.0124395 -0.00927824
          -0.0107372 -0.00921044 -0.0170253 -0.00998447 -0.0152121 -0.0145598
          0.0543238 0.0493815 0.0607576 0.0561299 0.0988924 0.0787728
          0.0951903 0.101679 0.00418987 0.00304432 0.00710339 0.000511914
          2.43316e-05 0.00594671 0.00720486 0.00789755 0.0114892 0.00418987
          0.00710339 0.00584169 0.109344 0.112426 0.105767 0.105429
          -0.0122989 -0.0119405 -0.0125083 -0.0104179 -0.0148368 -0.0211777
          -0.0159403 -0.0140032 -0.00316609 -0.0036721 -0.00158471 -0.00613969
          -0.00316609 -0.00158471 -0.00197492 -0.00613969 -0.00986348 -0.0102092
          -0.0104179 -0.0115354 0.110086 0.101867 0.105742 0.106809
          -0.00470133 -0.00422975 -0.00882003 -0.00599707 0.0694311 0.069947
          0.0762057 0.0639772 0.0722326 0.0639772 0.0762057 0.069947
          0.0612821 0.0719055 0.0626744 0.069947 0.00584169 0.000471272
          0.000511914 0.00212624 0.0149956 0.00569362 0.018373 0.00720486
          0.0910084 0.0824615 0.0837749 0.0859182 0.0202761 0.0252607
          0.0290619 0.0266212 0.0202761 0.0199927 0.0290619 0.0252607
          0.0496291 0.05297 0.0468155 0.0549191 0.0824615 0.0833251
          0.0918153 0.088585 -0.0169444 -0.0175004 -0.0162666 -0.0149838
          -0.012164 -0.0068226 -0.00986613 -0.00998517 -0.0115173 -0.00575554
          -0.0101082 -0.0103725 0.0984366 0.10035 0.0986556 0.0946768
          -0.0118386 -0.0117847 -0.0119435 -0.0101426 0.0984366 0.100112
          0.10035 0.0946768 0.025394 0.0171797 0.0189193 0.0161199
          -0.0034695 -0.00948852 -0.00861598 -0.0041933 9.87133e-05 0.0102825
          0.00231494 -0.00193784 0.0943382 0.0951903 0.0902565 0.0824418
          -0.00480447 -0.0112065 -0.0064143 -0.00977568 -0.0169444 -0.0162666
          -0.0164017 -0.0149838 0.101482 0.105429 0.107581 0.101508
          0.0948321 0.0993781 0.0951257 0.0968458 -0.0178131 -0.0157141
          -0.0182685 -0.0155909 0.0757005 0.0819169 0.0872112 0.0804062
          0.0804062 0.0819169 0.0872112 0.0807888 -0.0221425 -0.0166778
          -0.0159049 -0.0173699 -0.00994833 -0.0116166 -0.00499197 -0.00800935
          0.0388482 0.0518298 0.0448283 0.0382422 0.0778226 0.0775013
          0.0787166 0.0827915 0.0823455 0.0794021 0.0768006 0.0712302
          -0.0181632 -0.0139796 -0.0141443 -0.0201982 0.0768006 0.0794021
          0.0846894 0.0841291 -0.0140032 -0.0116458 -0.0118541 -0.00953853
          0.0194951 0.021662 0.0297779 0.0275463 -0.0141182 -0.0139796
          -0.0141443 -0.0181632 0.0572523 0.057476 0.0638716 0.0650225
          -0.0142188 -0.0115173 -0.0152705 -0.0103725 -0.0152705 -0.0163022
          -0.0138029 -0.0155189 -0.0136582 -0.0156323 -0.0152705 -0.0155189
          -0.0152705 -0.0139847 -0.0138029 -0.0163022 0.0709724 0.0740901
          0.0760461 0.0796129 0 0.0147318 0 0.00504842
          -0.0128779 -0.0109596 -0.01305 -0.0138764 -0.0112095 -0.00749906
          -0.00903024 -0.00783675 0.0684555 0.0575983 0.0628785 0.0639908
          -0.0103725 -0.0152705 -0.0162388 -0.0139847 0.00929873 0.0047323
          0.00789755 0.000322241 0.041583 0.0457958 0.0449849 0.0515351
          0.0367918 0.0283266 0.0362804 0.0267211 0 0
          0 0.00504842 -0.0189928 -0.0229194 -0.0162388 -0.0163022
          -0.0162388 -0.0229194 -0.0184706 -0.0163022 -0.014071 -0.0132095
          -0.0126816 -0.00812965 -0.0129255 -0.0141968 -0.0138029 -0.0126816
          0.0875151 0.0918153 0.0917422 0.0846894 0.0101144 0.00504842
          0.00594786 0.0147318 -0.00071185 -0.000798352 0 0.00504842
          0.00720486 0.0047323 0.0165835 0.00998805 0.0727373 0.0741555
          0.0749929 0.0672179 0.080901 0.0741555 0.0749929 0.0727373
          0.0722704 0.0749929 0.0672179 0.0694311 -0.00731356 -0.00842294
          -0.00391901 -0.00753719 0.0984366 0.105508 0.10035 0.100112
          -0.0217264 -0.0209799 -0.0270881 -0.0221425 -0.0221583 -0.0196446
          -0.018359 -0.0136174 -0.0135404 -0.0200852 -0.0160632 -0.015707
          -0.0135404 -0.015707 -0.0160632 -0.0121716 -0.00448618 -0.00938039
          -0.00889233 -0.00533943 0.0932419 0.0884996 0.0872112 0.0908349
          -0.00510329 -0.00428175 -0.00980449 -0.00345068 -0.0135404 -0.0189734
          -0.0160632 -0.0200852 -0.0135404 -0.015707 -0.0121716 -0.0102429
          -0.00227591 -0.00222472 -0.00456851 0 -0.0050596 -0.00466195
          -0.00640648 -0.00779776 0.0364686 0.0419076 0.0401223 0.0323379
          0.0704512 0.0763853 0.0641616 0.0883189 -0.0122948 -0.0126718
          -0.0116458 -0.0128015 -0.0169444 -0.0153294 -0.0155531 -0.0180922
          0.0825092 0.0798208 0.0704512 0.0809897 -0.0141855 -0.0142512
          -0.0140065 -0.0131649 0.0626744 0.0561299 0.0612821 0.0639772
          0.0156658 0.0214733 0.0194951 0.0115894 0.0672179 0.0597525
          0.0608877 0.0694311 0.0132645 0.0190544 0.0156658 0.0115894
          -0.0140032 -0.0116458 -0.00953853 -0.0122948 -0.0109623 -0.00604505
          -0.0102896 -0.00460077 -0.00839904 -0.00745357 -0.0101035 -0.00921344
          -0.00998517 -0.00418842 -0.00774906 -0.011639 -0.0113411 -0.0113241
          -0.0127901 -0.0101035 -0.0132634 -0.0129255 -0.0138029 -0.0107643
          0.0734616 0.0763853 0.0641616 0.0739216 -0.0141182 -0.00951806
          -0.010044 -0.0139796 -0.000796769 2.43316e-05 -0.0055628 0.00594671
          -0.00927824 -0.00702655 -0.00742649 -0.00627454 0 -0.0025765
          -0.00635234 0 0.0961793 0.0993781 0.0968458 0.0937414
          0.0149956 0.00720486 0.0165835 0.013976 0.0759489 0.0841291
          0.0832243 0.088585 -0.00357756 0 -0.00767366 -0.00348063
          0.0943382 0.0951903 0.0947307 0.0902565 0.0976263 0.0943187
          0.100371 0.0902565 0.0943187 0.0902565 0.0984366 0.0943382
          0.0147905 0.0134379 0.00998128 0.00628365 0.0134379 0.00527735
          0.000570539 0.00628365 0.0326024 0.0391504 0.0266212 0.0294766
          -0.00640648 -0.00563442 -0.00783516 -0.00779776 0.104122 0.0994953
          0.103915 0.10765 0.0946768 0.0983866 0.0985842 0.0922335
          -0.0166346 -0.0181632 -0.0141443 -0.0232528 0.0849973 0.0827915
          0.086149 0.0778226 0.0971933 0.100629 0.0992951 0.0963202
          -0.0171154 -0.014775 -0.0184525 -0.0137039 0.104296 0.105767
          0.101594 0.101482 0.0719055 0.0794021 0.0762057 0.0722326
          -0.00708235 -0.00214796 -0.00118024 0.00126769 -0.0138988 -0.01385
          -0.0117847 -0.0149838 -0.0179958 -0.0137039 -0.0184525 -0.014775
          -0.0171154 -0.0137173 -0.014775 -0.0137039 -0.0115942 -0.0116704
          -0.0149003 -0.0132091 0.105261 0.0983216 0.0983866 0.103482
          -0.0184858 -0.00880874 -0.00910394 -0.0128731 -0.0139826 -0.00910394
          -0.00211367 -0.00164808 -0.0139826 -0.00910394 -0.013979 -0.00211367
          0.0709775 0.0745767 0.0706221 0.0757261 0.0529727 0.0653814
          0.0546587 0.0561024 -0.0140178 -0.0168699 -0.0145928 -0.0167668
          0.0763853 0.0694965 0.0807888 0.0766639 0.0561024 0.0653814
          0.0546587 0.0570944 0.0561024 0.0653814 0.0570944 0.0656273
          0.104296 0.105767 0.101482 0.0987585 0.0701436 0.0709775
          0.0684555 0.0757261 -0.0128015 -0.0116458 -0.0117923 -0.012431
          -0.0102092 -0.0121278 -0.0095234 -0.0111273 0.0340728 0.021662
          0.0246422 0.025394 0.0290619 0.0252607 0.0376856 0.0266212
          0.00841701 0.00331069 0.00723765 0.00327003 0.0822369 0.0805968
          0.0804062 0.0749929 -0.0136582 -0.0129574 -0.0132634 -0.0145272
          0.112242 0.1075 0.104812 0.10492 -0.00500875 -0.00518339
          -0.00353163 -0.000758185 -0.00944187 -0.00732795 -0.00867774 -0.00779776
          -0.0109596 -0.00742649 -0.0103708 -0.0109937 0.0101018 0.0025933
          0.00998128 0.00173919 0.0897636 0.0824418 0.0824418 0.092674
          0.0234903 0.0183116 0.0279604 0.0241004 0.0211458 0.0178233
          0.0151683 0.014183 0.0211458 0.0297779 0.0194951 0.021662
          0.00998128 0.0188651 0.0134379 0.0246008 0.0137501 0.0188651
          0.0134379 0.00998128 0.0496291 0.0549191 0.0430777 0.057476
          0.0101018 0.0025933 0.0147905 0.00998128 0.057476 0.0430777
          0.0486119 0.0549191 0.0137501 0.0188651 0.00998128 0.0246008
          0.0943187 0.0976263 0.0972424 0.092674 0.00594671 -0.00142277
          -0.0055628 -0.000796769 -0.0144693 -0.0122989 -0.014953 -0.0115354
          -0.0194334 -0.0184435 -0.0174144 -0.0114026 -0.00779774 -0.00613969
          -0.0036721 -0.00316609 0.0364686 0.0326024 0.0391504 0.0323379
          -0.00745357 -0.00317254 -0.00470133 -0.00670828 -0.0157642 -0.0105734
          -0.0127395 -0.00779774 0.013872 0.0186287 0.0171797 0.0118168
          -0.0182243 -0.0146903 -0.0163881 -0.0188984 -0.00986348 -0.0102092
          -0.0115354 -0.0112934 0.00429118 0.000570539 0.00623301 -0.00508143
          -0.0166081 -0.0133081 -0.0107869 -0.0130007 -0.00927824 -0.0124395
          -0.0109596 -0.00921044 -0.00127327 0.00142762 -0.00400199 -0.00369529
          -0.0174144 -0.0145331 -0.0105734 -0.0104381 -0.015396 -0.0144693
          -0.0137818 -0.0131376 -0.015396 -0.0144693 -0.0163192 -0.0137818
          -0.0101269 -0.0077584 -0.0135404 -0.00948852 -0.0173095 -0.0202973
          -0.0200852 -0.0152032 -0.000690955 -0.00391901 -0.00495617 -0.0027958
          0.0139395 0.0140266 0.0183116 0.0100494 9.87133e-05 0.00860607
          0.00231494 0.0102825 -6.04137e-05 -0.00345068 9.87133e-05 0.00231494
          -0.00882003 -0.00822036 -0.0116704 -0.00871713 0.0161199 0.021662
          0.0194951 0.025394 -0.00164808 0.0053151 0.0083212 -0.000287921
          0.000570539 -0.0074673 -0.00488907 -0.000960639 0.072694 0.0804062
          0.0727373 0.0794948 0.0214733 0.0211458 0.0194951 0.014183
          -0.0182243 -0.0176787 -0.0150371 -0.0188984 0.00331069 0.00584169
          0.00741455 0.00212624 0.00331069 -2.51321e-05 0.00584169 0.00212624
          -0.0103711 -0.0104976 -0.0166778 -0.00908123 0.0538991 0.0428983
          0.0462954 0.0478604 0.0552688 0.0538991 0.0612821 0.0545551
          -0.000690955 -0.00281992 0.00249727 -0.000179497 -0.0027958 -0.00281992
          -0.000179497 -0.00182166 0.00327003 -0.00173324 0.000322241 0.00331069
          0.00331069 -2.51321e-05 0.00260366 0.00584169 0.0949824 0.0901879
          0.0922475 0.104122 0.0186287 0.0282334 0.0316763 0.0204591
          0.0186287 0.0204591 0.0316763 0.0175491 0.0186287 0.0316763
          0.0290173 0.0175491 0.0290619 0.0249025 0.0202761 0.0294766
          -0.00921044 -0.0103616 -0.00702655 -0.00627454 0.0035501 0.0101144
          0.00224888 0.00867015 -0.00173324 -0.008019 -0.00493176 0.00260366
          0.00960777 0.00584169 0.0092244 0.0114892 0.072694 0.0807888
          0.0866501 0.0794948 0.111304 0.102614 0.10293 0.10492
          0.021662 0.0165835 0.0241004 0.0298942 0.105742 0.103169
          0.101867 0.10216 0.0983866 0.105429 0.105261 0.103482
          -0.0131014 -0.0140065 -0.0129756 -0.0131649 -0.00938039 -0.00615696
          -0.00358364 -0.00193784 0.0189193 0.0195054 0.021667 0.0272575
          0.0757005 0.0823455 0.0762057 0.0694311 -0.0103711 -0.0128015
          -0.00953853 -0.0117923 0.00584169 0.00260366 0.00478053 -2.51321e-05
          0.00960777 0.0117331 0.00584169 0.0114892 -0.00998045 -0.0114026
          -0.00617679 -0.0104381 0.021667 0.0189193 0.0186287 0.0118168
          0.0375999 0.0290328 0.0376856 0.026316 -0.0138379 -0.0155909
          -0.0144426 -0.0163672 -0.0129255 -0.0126816 -0.0106223 -0.00934427
          -0.0129255 -0.0106223 -0.0138029 -0.00934427 0.00418987 0.00181038
          0.000511914 0.000471272 0.105429 0.10922 0.112426 0.105261
          -0.0150371 -0.0176787 -0.016142 -0.0188984 0.0957216 0.0947307
          0.0943187 0.092526 0.0943034 0.0967715 0.0935983 0.0976013
          0.0894452 0.0922335 0.0931621 0.0897619 -0.000792662 -0.00832996
          -0.00498123 -0.010044 0.0053151 -0.00164808 0.0083212 0.009434
          0.0083212 0.009434 0.0185475 0.0053151 0.0946768 0.0957216
          0.0943187 0.092526 -0.0112095 -0.00871713 -0.0109702 -0.012833
          -0.0189245 -0.0166081 -0.00880874 -0.0184858 -0.00973485 -0.0102092
          -0.0095234 -0.00944187 0.0922335 0.0983216 0.0923967 0.0983866
          -0.0122154 -0.00882003 -0.010768 -0.0101472 -0.00370727 0.00185887
          -0.00498123 -0.00339795 0.10664 0.105508 0.111551 0.109344
          0.105508 0.10803 0.111551 0.109344 -0.0111888 -0.0116704
          -0.00822036 -0.0115942 0.0846894 0.0875151 0.0794021 0.0823455
          0.00222036 -0.00281992 -0.00173324 -2.51321e-05 0.0762001 0.0868215
          0.0793398 0.0819169 0.0833918 0.086149 0.0782877 0.0837749
          -0.0117784 -0.0086086 -0.0107372 -0.0109875 -0.00783675 -0.00439551
          -0.00669444 -0.00680671 -0.00236865 -0.00164808 0.0053151 0.0025933
          -0.00747016 -0.00882003 -0.00599707 -0.0101472 0.0626744 0.0485772
          0.0561299 0.0583691 0.10803 0.0983866 0.105429 0.100112
          0.092526 0.104541 0.0938949 0.0957216 0.00628365 0.00527735
          -0.000960639 -0.00181342 -0.00400199 -0.00369529 -0.00711215 -0.00593256
          -0.00400199 -0.0034695 -0.00711215 -0.00369529 -0.0102092 -0.0115306
          -0.0112982 -0.0095234 0.0163032 0.00822017 0.0127976 0.0195054
          0.0383668 0.0387796 0.0456925 0.0450642 0.00181038 -0.00421154
          0.000471272 0.00185887 0.0452472 0.0375999 0.0340728 0.0365633
          -0.00899144 -0.00680671 -0.00783675 -0.00927245 0.0486119 0.0375999
          0.0452472 0.0365633 -0.0121278 -0.00921344 -0.0115306 -0.0111273
          0.0607576 0.0493815 0.0583691 0.0561299 -0.0133178 -0.0149003
          -0.0116704 -0.0111888 0.092526 0.0940771 0.0983866 0.0923967
          -0.0151294 -0.0174151 -0.0167668 -0.018128 0.0972424 0.0883189
          0.0943679 0.0953553 0.0125122 0.0163716 0.00584569 0.013872
          -0.0163022 -0.0159942 -0.0138029 -0.0129255 -0.0122989 -0.00787858
          -0.0139909 -0.00867774 0.0252607 0.0290328 0.0339339 0.0267211
          0.0339339 0.0290328 0.0367918 0.0267211 0.0419076 0.0339339
          0.0354399 0.0323379 -0.0129255 -0.00812965 -0.00934427 -0.00694747
          -0.014071 -0.00812965 -0.0129255 -0.00694747 -0.0136174 -0.014071
          -0.0129255 -0.00694747 0.0984366 0.105508 0.102758 0.10035
          0.0323379 0.0252607 0.0339339 0.0267211 0.0339339 0.0267211
          0.0354399 0.0323379 -0.0129255 -0.00934427 -0.0138029 -0.0107643
          0.0608921 0.0664747 0.0649001 0.0684276 0.0608921 0.0700373
          0.0664747 0.0684276 -0.00448618 -0.0118541 -0.00944941 -0.00953853
          -0.00627446 -0.00346981 -0.00998447 -0.0103711 0.0837749 0.0831428
          0.0859182 0.0779443 0.0859182 0.0837749 0.0910084 0.0831428
          -0.0155281 -0.0136275 -0.0163887 -0.0142512 -0.0137173 -0.0142512
          -0.014775 -0.0132619 -0.0131649 -0.0142512 -0.0140065 -0.01342
          -0.0137173 -0.0144426 -0.0142512 -0.0141968 -0.0161269 -0.00834925
          -0.00579803 -0.00951325 0.0473978 0.0433722 0.0506828 0.0561299
          0.0977652 0.0945086 0.0922869 0.101271 0.0646988 0.0763853
          0.0639893 0.0739216 -0.00499197 -0.0116166 -0.00641771 -0.00800935
          -0.0140065 -0.0132896 -0.0142512 -0.0141855 0.0884996 0.0908349
          0.0937414 0.0911611 0.0961793 0.099153 0.0937414 0.0946005
          0.0391504 0.0266212 0.0376856 0.0339339 -0.0129255 -0.0159942
          -0.0138029 -0.0141968 -0.0085829 -0.0106223 -0.0116014 -0.00839467
          -0.012015 -0.0116895 -0.0116014 -0.0085829 0.0365633 0.0320141
          0.0290328 0.0241004 0.0365633 0.0367918 0.0290328 0.0320141
          0.0552688 0.0462954 0.0545551 0.0498687 0.0575983 0.0612821
          0.0684555 0.0545551 0.0778226 0.0805968 0.0787166 0.0722704
          0.0552688 0.0498687 0.0545551 0.0575983 -0.0109596 -0.00742649
          -0.0109937 -0.00927824 -0.00193784 -0.00938039 -0.00533943 -0.00942437
          0 0 0 -0.00348063 0.0932419 0.0917422
          0.0956412 0.0993396 -0.0132091 -0.0152337 -0.00948852 -0.0135404
          -0.0157141 -0.01342 -0.0142089 -0.0140065 -0.0137173 -0.0144426
          -0.0141968 -0.0138029 0.0745767 0.0706221 0.0801117 0.0760461
          -0.0150505 -0.0107372 -0.0128779 -0.0124395 -0.0147507 -0.0163672
          -0.0163022 -0.0184706 0.103492 0.105508 0.107082 0.111551
          -0.0136552 -0.01385 -0.0146771 -0.0145944 0.00584169 0.00478053
          0.0114892 0.00418987 0.0922869 0.0876825 0.09271 0.0977652
          -0.0124198 -0.008019 -0.0026124 -0.0031679 0.0664681 0.073621
          0.0680971 0.0740901 0.0694311 0.0757005 0.0749929 0.0664747
          0.080901 0.0749929 0.0804062 0.0727373 0.0986556 0.0961351
          0.0991194 0.0956329 0.0982259 0.0956329 0.0991194 0.0964002
          0.0991194 0.101867 0.0986556 0.0956329 0.10169 0.10216
          0.0991194 0.0970161 0.0145785 0.0102825 0.00623301 0.00210831
          0.0982259 0.101867 0.0991194 0.0956329 0.0933328 0.101482
          0.0931621 0.0985842 0.10169 0.0991194 0.0972136 0.0970161
          -0.0109344 -0.0140032 -0.00953853 -0.0122948 0.107082 0.100112
          0.10803 0.105508 0.00569362 0.00322875 0.00594671 -0.000796769
          -0.00753719 -0.011447 -0.0139796 -0.00986613 0.0872112 0.0846894
          0.0932419 0.0922475 -0.00443768 -0.00345964 -0.00364772 -0.00413169
          -0.00867774 -0.00640648 -0.00998045 -0.00783516 -0.00694747 -0.00708235
          -0.00118024 0.00126769 -0.0142089 -0.0146771 -0.0129756 -0.0136552
          0.0149956 0.018373 0.0165835 0.00720486 0.0149956 0.018373
          0.026316 0.0165835 -0.0157141 -0.0143225 -0.0182685 -0.0155909
          0.018373 0.0139789 0.0165835 0.00720486 -0.0107902 -0.00877047
          -0.0114026 -0.00688996 -0.0153733 -0.0175004 -0.0175464 -0.0179139
          0.018373 0.0249025 0.0267247 0.0145488 0.00696049 0.00577853
          0.00173919 0.00998128 -0.0156323 -0.0115173 -0.0123134 -0.0136582
          -0.0156323 -0.0142188 -0.0123134 -0.0115173 0 0.00504842
          0 0 0.00720486 0.00569362 0.0139789 0.00594671
          0.0290328 0.0267211 0.0279604 0.0367918 0.111304 0.107383
          0.112242 0.10492 0.0279604 0.0367918 0.0297041 0.0329572
          0.0801117 0.0779443 0.0760461 0.0706221 0.0297041 0.023484
          0.0283266 0.0279604 -0.0222241 -0.0202491 -0.0159942 -0.0180549
          -0.0180549 -0.0172167 -0.0198767 -0.0240072 0.0178233 0.0190862
          0.0183116 0.0139395 -0.0138029 -0.0137173 -0.0116895 -0.0132619
          -0.0122989 -0.00867774 -0.0139909 -0.00998045 -0.0138029 -0.0137173
          -0.0137039 -0.0116895 0.107383 0.101679 0.112281 0.1075
          -0.0119405 -0.0153411 -0.0114026 -0.0104381 0.013976 0.0214384
          0.0165835 0.0149956 0.0972424 0.0883189 0.09271 0.0945086
          0.0701436 0.0684555 0.0778847 0.0757261 -0.00173324 -0.0026124
          -0.008019 0.00260366 -0.0109875 -0.00952224 -0.00633565 -0.0100434
          0.101212 0.0947307 0.092526 0.0940771 0.0947307 0.0940771
          0.100112 0.0983866 -0.0196971 -0.0134479 -0.0171154 -0.0145272
          -0.00633565 -0.00952224 -0.0109875 -0.00927824 0.072694 0.0866501
          0.0804062 0.0794948 -0.0100434 -0.00529419 -0.00633565 -0.00829571
          0.0597525 0.0540566 0.0608877 0.0607576 0.0937414 0.0992951
          0.0993781 0.0953534 0.0968458 0.0982259 0.0964002 0.0968129
          -0.0153411 -0.0145331 -0.0174144 -0.0104381 -0.0153411 -0.0174144
          -0.0114026 -0.0104381 0.0955726 0.0968458 0.0964002 0.0968129
          0.0943034 0.0968129 0.0968458 0.0955726 0.0993781 0.0992951
          0.0968458 0.0953534 -0.0159403 -0.0211777 -0.0214738 -0.0140032
          -0.0182243 -0.0163881 -0.0175449 -0.0188984 -0.0125083 -0.0173095
          -0.0179506 -0.0135404 -0.014953 -0.0173095 -0.0179506 -0.0125083
          -0.0132634 -0.0137173 -0.0137039 -0.0138029 -0.0130793 -0.00952224
          -0.0133371 -0.0126734 -0.0123001 -0.0152337 -0.0174963 -0.0160632
          0.058239 0.057476 0.0638716 0.0542829 0.103075 0.100371
          0.0976263 0.0956329 -0.00839904 -0.00500875 -0.00745357 -0.00670828
          0.0780598 0.0648493 0.0759489 0.0722326 0.00594671 2.43316e-05
          -0.0055628 0.00584569 0.0981286 0.0985264 0.103075 0.0976013
          0.0985264 0.0981286 0.103075 0.0956329 0.0997503 0.0985264
          0.103607 0.102285 -0.0152156 -0.0145598 -0.0131109 -0.0140178
          -0.0149838 -0.0176947 -0.0175004 -0.0138988 -0.0153294 -0.0176947
          -0.0149838 -0.0138988 -0.00193359 -0.00222472 -0.00504482 -0.00563442
          -0.00193359 -0.00227591 -0.00222472 -0.00563442 -0.0153294 -0.0149003
          -0.0176947 -0.0138988 -0.0145598 -0.0131109 -0.0140178 -0.0127901
          -0.0064143 -0.00396656 0 0 0 -0.0064143
          0 0 -0.0137039 -0.0131223 -0.0102896 -0.0116895
          -0.0116895 -0.0131223 -0.0102896 -0.00604505 -0.0064143 0
          0 -0.00357756 -0.00903642 -0.00951806 -0.010044 -0.0141182
          -0.0211777 -0.0156323 -0.0140032 -0.0148368 -0.00948852 -0.0102429
          -0.0121716 -0.0041933 0.0908349 0.0872112 0.0953534 0.0895988
          0.0908349 0.0927761 0.0911611 0.0892035 0.0908349 0.0935405
          0.0911611 0.0927761 -0.0137598 -0.0131014 -0.0122415 -0.0131649
          -0.0137598 -0.0119508 -0.0122415 -0.0131014 0.0667901 0.0677137
          0.0722704 0.0608877 0.0241004 0.0214384 0.0279604 0.0290328
          0.0908349 0.0872112 0.0876495 0.0805968 0.103075 0.0985264
          0.103607 0.0976013 0.0866501 0.080901 0.0880509 0.0929403
          -0.00927245 -0.0103708 -0.0128604 -0.0109596 0.0956329 0.101867
          0.0986556 0.0972424 0.0645819 0.0694311 0.0712302 0.0639772
          0.0147905 0.00628365 0.00998128 0.0025933 0.0700438 0.0614825
          0.0705525 0.0667901 0.0700438 0.0705525 0.0787166 0.0667901
          -0.0131376 -0.0115354 -0.0101269 -0.0111273 -0.0115354 -0.0111273
          -0.0112934 -0.0102092 -0.0111273 -0.0121278 -0.0112934 -0.0102092
          -0.016901 -0.0126734 -0.0132095 -0.0172167 -0.0138029 -0.00934427
          -0.0116895 -0.0132634 -0.0138029 -0.0116895 -0.0137039 -0.0132634
          -0.00617679 -0.00591698 -0.00343188 -0.00719991 0.0765293 0.0763853
          0.0798208 0.0883189 -0.0111273 -0.00839904 -0.00745357 -0.0101035
          0.101212 0.104541 0.0957216 0.101212 -0.0125083 -0.0137818
          -0.0115354 -0.0101269 -0.00503852 -0.00921044 -0.00927824 -0.00627454
          -0.0031679 -0.00236865 -0.00164808 0.0053151 -0.0129756 -0.0136552
          -0.012174 -0.0118386 -0.0119697 -0.0129756 -0.0136552 -0.012766
          0.0664681 0.0680971 0.0599948 0.0740901 0.0610013 0.0740901
          0.0664681 0.0599948 -0.0031679 -0.00493176 0.00584569 -0.0055628
          -0.0101472 -0.0112706 -0.00821885 -0.010768 -0.012174 -0.0118386
          -0.0108439 -0.0129756 0.000932724 0.00679275 0.000732152 0.00659027
          -0.0118386 -0.0109702 -0.00930884 -0.0103708 -0.00495655 -0.00591698
          -0.00647699 -0.00443768 -6.04137e-05 0.00659027 -0.00345068 0.00231494
          -0.00930884 -0.00903024 -0.0119435 -0.0101426 -0.00903024 -0.00651799
          -0.0101426 -0.00930884 -0.0112095 -0.00900353 -0.00903024 -0.00749906
          0.0456868 0.0442869 0.0519682 0.0485009 -0.0112095 -0.00900353
          -0.00749906 -0.00871713 -0.0101426 -0.00651799 -0.00820863 -0.00930884
          -0.0101426 -0.00820863 -0.00843312 -0.00930884 0.103799 0.104122
          0.10765 0.0994953 -0.00998045 -0.0119405 -0.0114026 -0.0104381
          -0.0116458 -0.0123134 -0.011639 -0.0128015 0.0684276 0.0700373
          0.0664747 0.0731584 0.0684276 0.0664747 0.0649001 0.0731584
          -0.0119405 -0.0139909 -0.0184435 -0.0153411 0.0876825 0.0875869
          0.0765293 0.09271 -0.0124198 -0.0026124 -0.00236865 -0.0031679
          0.0875869 0.0876825 0.0994953 0.09271 0.0798208 0.0876825
          0.09271 0.0922869 -0.00633565 -0.00503852 -0.00927824 -0.00627454
          0.0392555 0.0364686 0.0457958 0.041583 0.05184 0.0583567
          0.0649467 0.0519682 0.0960197 0.0987585 0.0942488 0.0946768
          0.0976263 0.092674 0.0897636 0.0908914 0.0247032 0.0241004
          0.0211458 0.0183116 -0.00702655 -0.0103616 -0.0109596 -0.00994981
          0.0341367 0.0206599 0.0320911 0.0269602 0.0377699 0.0341367
          0.0320911 0.0269602 0.0269602 0.0377699 0.0290173 0.0320911
          0.0269602 0.0316763 0.0320911 0.0290173 0.0186287 0.0316763
          0.0269602 0.0290173 0.0186287 0.0316763 0.0320911 0.0269602
          0.0269602 0.0230983 0.0320911 0.0186287 0.0897619 0.0983216
          0.0923967 0.0922335 -0.0145928 -0.0131376 -0.0137818 -0.0111888
          0.0206599 0.0230983 0.0320911 0.0269602 0.027128 0.0246422
          0.0341367 0.0342104 0.0823455 0.0794021 0.0712302 0.0762057
          0.0722326 0.0794021 0.0712302 0.0768006 0.0976263 0.0902565
          0.100371 0.0961257 0.0759489 0.0768006 0.0832243 0.0841291
          0.0759489 0.0722326 0.0768006 0.0841291 -0.0121278 -0.0113241
          -0.00921344 -0.0101035 0.0600215 0.0584848 0.0654663 0.0538991
          -0.00938039 -0.00448618 -0.00615696 -0.00193784 -0.00443768 -0.000798352
          -0.00385626 -0.00343188 -0.0129857 -0.0109875 -0.0124395 -0.0109937
          0.0953553 0.0895988 0.0883189 0.0943679 0.0956329 0.0953553
          0.0972424 0.0943679 0.0378947 0.0342104 0.0326986 0.025394
          0.021667 0.0186287 0.0290173 0.0175491 0.0638716 0.057476
          0.0740713 0.0650225 -0.0163887 -0.0137598 -0.0146054 -0.0141855
          0.0479188 0.0342104 0.0456464 0.0450521 0.0342104 0.0269602
          0.0326986 0.025394 -0.0163887 -0.0137598 -0.0150762 -0.0146054
          -0.0145598 -0.0128015 -0.0122948 -0.0103711 -0.0103711 -0.0122948
          -0.0145598 -0.00998447 0.0956329 0.0943679 0.0972424 0.0976263
          -0.00173324 -0.00641771 -0.0026124 -2.51321e-05 -0.0132091 -0.0137818
          -0.0101269 -0.0111888 -0.0132091 -0.0137818 -0.0135404 -0.0101269
          0.0780598 0.0833251 0.0824615 0.088585 0.0780598 0.0817436
          0.0833251 0.088585 -0.0112095 -0.0116704 -0.0115942 -0.00871713
          -0.0112095 -0.00900353 -0.00871713 -0.0115942 -0.0157609 -0.0147393
          -0.0141714 -0.0159958 -0.0128705 -0.00900353 -0.00903024 -0.0112095
          0.0785431 0.0902565 0.0824418 0.0943382 0.101594 0.101482
          0.099271 0.0933328 0.0246422 0.0226921 0.0206599 0.0163716
          0.045937 0.0608716 0.057476 0.0577736 0.105767 0.105429
          0.107581 0.101482 0.0365633 0.0452472 0.0486119 0.045937
          0.104812 0.1075 0.11019 0.0993376 -0.0133178 -0.0122154
          -0.0125329 -0.0143898 0.0819169 0.0875869 0.0872112 0.0807888
          0.0819169 0.0922475 0.0872112 0.0875869 0.0922475 0.0906245
          0.0875869 0.0819169 -0.0126734 -0.0109875 -0.0129857 -0.01342
          0.0875869 0.0906245 0.0876825 0.0766639 0.0876825 0.0766639
          0.0765293 0.0875869 0.0875869 0.0763853 0.0765293 0.0883189
          -0.0196739 -0.0214847 -0.0175449 -0.0179976 -0.00508143 -0.0118541
          -0.010044 -0.00944941 -0.012431 -0.0116458 -0.0117923 -0.00944941
          0.0496291 0.0419076 0.0572523 0.0521232 0.0496291 0.0419076
          0.0506828 0.0572523 -0.0077584 -0.0105415 -0.0102429 -0.0039651
          -0.0184858 -0.0128731 -0.00910394 -0.0124198 0.0572523 0.0419076
          0.0506828 0.0521232 0.0572523 0.0626744 0.0638716 0.0680971
          0.0572523 0.0626744 0.0706221 0.0638716 0.0906245 0.0949824
          0.0994953 0.104122 0.0906245 0.0949824 0.0922475 0.0994953
          -0.00364772 0 -0.00555993 -0.00345964 -0.00222472 -0.00345964
          -0.00456851 0 0.0983866 0.0993376 0.0983216 0.0923967
          0.0937414 0.0932419 0.0884996 0.0946005 0.0937414 0.0911611
          0.0916535 0.0884996 0.0932419 0.0908349 0.0937414 0.0884996
          0.0947307 0.0983866 0.100112 0.092526 0.0932419 0.0953534
          0.0937414 0.0908349 -0.00927824 -0.0086086 -0.0107372 -0.00921044
          0.0946768 0.100112 0.0983866 0.092526 0.103799 0.104122
          0.0994953 0.0922475 0.00249727 -0.00281992 -0.00173324 0.00222036
          -0.00345964 -0.00222472 0 0 -0.0135718 -0.0127238
          -0.0143225 -0.0138379 0.0430777 0.0376856 0.0339339 0.0435662
          -0.00747016 -0.010768 -0.00882003 -0.0101472 -0.0101472 -0.00882003
          -0.00599707 -0.00790277 0.0422139 0.0340728 0.0449968 0.0375999
          -0.0101472 -0.0100866 -0.00759501 -0.00790277 0.0246422 0.0128998
          0.0171797 0.0161199 0.0246422 0.0163716 0.0171797 0.0128998
          -0.0113411 -0.0100866 -0.00759501 -0.0101472 -0.0107643 -0.00934427
          -0.0138029 -0.0132634 -0.0127112 -0.015396 -0.0131376 -0.0144693
          -0.00236865 -0.00367405 0.00401747 5.29779e-05 -0.0137173 -0.0141968
          -0.0132619 -0.0138029 -0.0132542 -0.0127112 -0.0131109 -0.0112934
          0.10492 0.107383 0.1075 0.0988924 0.0252607 0.0290328
          0.0376856 0.0339339 0.0568305 0.0515351 0.0572903 0.0583691
          0.0468155 0.0387796 0.0487549 0.045842 -0.0180549 -0.0196739
          -0.0240072 -0.0205887 0.0849973 0.0837749 0.0778226 0.086149
          0.00523286 0.00249727 -0.00173324 0.00222036 -0.00949131 -0.00867774
          -0.00783516 -0.00944187 -0.01305 -0.0109596 -0.0128252 -0.0138764
          -0.00316609 -0.0036721 0.00090171 -0.00158471 0.00185887 -0.00339795
          -0.00421154 0.000471272 0.0290619 0.0442869 0.030637 0.0367894
          0.00185096 -0.00152772 -0.00370727 -0.00498123 -0.00731356 -0.0027958
          -0.00842294 -0.00339795 -0.00339795 -0.0027958 -0.00842294 -0.00834367
          -0.00339795 -0.0027958 -0.00834367 -0.00182166 0.021667 0.00963681
          0.0186287 0.0175491 0.0976954 0.100371 0.103705 0.103075
          0.0189193 0.0114892 0.0118168 0.00963681 -0.0159049 -0.00938039
          -0.00942437 -0.0181342 0.0745767 0.0650225 0.0706221 0.0638716
          -0.0159403 -0.0140032 -0.0118541 -0.0109344 -0.008019 -0.00750152
          -0.0128731 -0.0026124 -0.0026124 -0.00750152 -0.0128731 -0.00701453
          0.0650225 0.057476 0.070367 0.0656273 -0.0026124 -0.00701453
          -0.0128731 -0.00236865 -0.0124198 -0.008019 -0.0128731 -0.0026124
          -0.00173324 -0.0026124 0.00260366 -2.51321e-05 0.105429 0.105261
          0.112426 0.107581 0.105429 0.112426 0.105767 0.107581
          0.0967715 0.090798 0.0927761 0.0935983 0.105429 0.0985842
          0.105767 0.10664 0.105429 0.105261 0.107581 0.101508
          -0.0111888 -0.00948852 -0.00822036 -0.0101269 -0.0101269 -0.00745357
          -0.00822036 -0.0111888 -0.0131376 -0.0111273 -0.0101269 -0.0111888
          -0.0111888 -0.0101035 -0.0116704 -0.0122154 -0.0142188 -0.0152705
          -0.0115173 -0.0156323 -0.00492085 -0.0077584 -0.00948852 -0.0041933
          -0.0077584 -0.0102429 -0.00948852 -0.0041933 -0.0077584 -0.0039651
          -0.0102429 -0.0041933 0.0993781 0.0968458 0.100297 0.0951257
          -0.0100672 -0.0109623 -0.00428175 -0.00460077 -0.00998447 -0.0100672
          -0.00428175 -0.00345068 0.0628785 0.0639908 0.0694075 0.0684555
          0.0694075 0.0684555 0.0724522 0.0778847 0.0639908 0.0648493
          0.0724522 0.0684555 -0.0140032 -0.0156323 -0.0161113 -0.0123134
          -0.0156323 -0.0142188 -0.0161113 -0.0123134 0.0694075 0.0639908
          0.0724522 0.0684555 -0.00456851 -0.00847588 -0.00345964 -0.00647699
          0.0745767 0.0638716 0.0706221 0.0709724 0.0709775 0.0627337
          0.0706221 0.0650225 0.0175491 0.00696049 0.00963681 0.0101018
          0.00594671 0.0139789 0.00720486 0.00789755 -0.0128779 -0.0109596
          -0.0138764 -0.0124395 0.0832243 0.0768006 0.0846894 0.0841291
          0.00185887 0.00478053 0.00418987 0.00963681 0.0938949 0.0894452
          0.092526 0.0906953 0.00418987 0.00478053 0.0114892 0.00963681
          0.0938949 0.104541 0.101082 0.103038 0.0938949 0.092526
          0.104541 0.104541 0.0906953 0.0938949 0.101082 0.103038
          0.0938949 0.104541 0.104541 0.103038 0.0823455 0.0762057
          0.0778226 0.0837749 0.0823455 0.0762057 0.0805968 0.0778226
          0.0823455 0.0805968 0.0762057 0.0694311 0.0823455 0.0872112
          0.0908349 0.0805968 0.0823455 0.0804062 0.0872112 0.0805968
          0.0382422 0.0452472 0.0448283 0.0340728 0.0340728 0.0365633
          0.0382422 0.0452472 -0.0137039 -0.0145272 -0.0135258 -0.0132634
          0.0694311 0.0677137 0.0762057 0.069947 0.069947 0.0762057
          0.0778226 0.0677137 0.0246422 0.0163716 0.0269602 0.0171797
          0.0206599 0.013872 0.0269602 0.0163716 0.0125122 0.0163716
          0.013872 0.0206599 0.0195054 0.0156658 0.0225269 0.0189193
          0.0626744 0.07594 0.0680971 0.069947 0.0209412 0.0340728
          0.027128 0.0298942 0.0762057 0.07594 0.0824615 0.069947
          0.0762057 0.069947 0.0824615 0.0719055 0.0430777 0.0339339
          0.0367918 0.0435662 -0.012174 -0.0129756 -0.0108439 -0.0119697
          -0.00680671 -0.00899144 -0.00747016 -0.00927245 0.0117331 0.0146023
          0.0151683 0.0161199 0.0117331 0.00960777 0.0146023 0.0161199
          -0.00870799 -0.012164 -0.0123134 -0.00998517 0.0496291 0.0435662
          0.0367918 0.0419076 -0.00910394 -0.00880874 -0.00701453 -0.0128731
          0.0452472 0.0365633 0.0382422 0.045937 -0.0117923 -0.0103711
          -0.00938039 -0.00615696 -0.00974557 -0.00871713 -0.00822036 -0.00593256
          0.0100494 0.00929873 0.00841701 0.00686604 -0.00719991 -0.00610029
          -0.00343188 -0.00353163 -0.00480447 -0.000992811 -0.00396656 -0.00244935
          0.0972136 0.10169 0.0989408 0.0960197 -0.0209799 -0.0145598
          -0.021099 -0.0166778 -0.0209799 -0.0166778 -0.021099 -0.0221425
          -0.0221425 -0.0166778 -0.021099 -0.00908123 0.0943679 0.0908914
          0.0976263 0.0931675 0.0968129 0.0931675 0.0943679 0.0976263
          -0.0166778 -0.0145598 -0.0103711 -0.0128015 -0.0166778 -0.0128015
          -0.0103711 -0.0117923 0.0731584 0.0819169 0.0807888 0.0766639
          -0.018359 -0.0250899 -0.0187996 -0.0196446 -0.018359 -0.0187996
          -0.0229194 -0.0163022 -0.0180549 -0.0205887 -0.0175449 -0.0196739
          -0.0155189 -0.018359 -0.022248 -0.0189928 -0.00317254 0.00105064
          -0.00492085 -0.00221483 0.0448283 0.0342104 0.0450521 0.0378947
          0.0638716 0.057476 0.070367 0.0740713 -0.01305 -0.00994981
          -0.0121714 -0.0128252 -0.0141714 -0.0122154 -0.0128252 -0.0121714
          -0.0107643 -0.0131762 -0.00510329 -0.00428175 0.00963681 0.00478569
          0.00696049 0.0121727 -0.0150233 -0.0108072 -0.0177313 -0.012431
          -0.0141714 -0.01305 -0.0121714 -0.0128252 -0.012431 -0.0108072
          -0.0177313 -0.00774906 -0.0221583 -0.0250899 -0.0229194 -0.018359
          -0.0221583 -0.018359 -0.0182206 -0.0136174 -0.00973485 -0.00944187
          -0.0095234 -0.00783516 0.0731584 0.0700373 0.0664747 0.0757005
          0.0731584 0.0700373 0.0757005 0.0819169 0.0731584 0.0727373
          0.0649001 0.072694 0.0649001 0.0731584 0.072694 0.0639893
          0.0804062 0.0727373 0.0731584 0.072694 0.0780598 0.0833251
          0.0719055 0.0779443 0.0779443 0.0706221 0.0801117 0.0757261
          0.0833251 0.0779443 0.0801117 0.0757261 0.0329572 0.0367918
          0.0386142 0.0390306 0.0390306 0.0367918 0.0386142 0.045842
          -0.00533943 -0.00938039 -0.00889233 -0.0130007 0.0433722 0.0354399
          0.0428983 0.0401373 0.0478604 0.0433722 0.0428983 0.0401373
          0.0478604 0.0428983 0.0462954 0.0401373 -0.0175449 -0.0179976
          -0.0154642 -0.0150505 -0.0142512 -0.0155281 -0.014775 -0.0132619
          0.0875869 0.0807888 0.0763853 0.0883189 0.0883189 0.0807888
          0.0763853 0.0908914 0.0178233 0.0183116 0.0151683 0.0139395
          0.0883189 0.0763853 0.0739216 0.0908914 0.00185096 5.29779e-05
          0.00185887 0.00173919 -0.0126718 -0.0123134 -0.0116458 -0.0128015
          -0.00727612 -0.00951325 -0.0109344 -0.00503266 0.0189193 0.0114892
          0.0171797 0.0118168 0.00963681 0.0118168 0.0186287 0.0101018
          0.0092244 0.0053151 0.0118168 0.00478053 0.0092244 0.0053151
          0.013872 0.0118168 0.00429118 -0.00152772 0.00944826 0.00185096
          0.101867 0.0984366 0.0986556 0.0972424 0.101867 0.103492
          0.0984366 0.0972424 0.103492 0.0945086 0.0984366 0.0972424
          -0.0116895 -0.0085829 -0.0131223 -0.00504061 0.0984366 0.0945086
          0.0943382 0.0972424 0.0984366 0.092674 0.0972424 0.0943382
          0.0984366 0.0943382 0.0947307 0.0943187 0.0943187 0.0984366
          0.0972424 0.0956329 0.0984366 0.0986556 0.0972424 0.0956329
          0.0822369 0.080901 0.0872946 0.0741555 0.100997 0.101212
          0.0943226 0.105929 -0.0118386 -0.012766 -0.0128604 -0.0103708
          -0.00927245 -0.0103708 -0.0109702 -0.0128604 0.10765 0.100629
          0.101595 0.106809 -0.00281992 -0.00641771 -0.00173324 -2.51321e-05
          0.000570539 -0.00488907 0.00173919 -0.000960639 -0.00488907 5.29779e-05
          0.00185887 0.00185096 0.101867 0.0972424 0.0982259 0.100629
          0.101867 0.0972424 0.100629 0.101595 0.101595 0.101867
          0.106809 0.100629 0.105742 0.102758 0.105555 0.101867
          0.107926 0.102758 0.105742 0.101867 0.10216 0.105742
          0.105555 0.101867 0.107926 0.102758 0.105555 0.105742
          0.0139789 0.027128 0.0226921 0.018373 0.0139789 0.0246422
          0.0226921 0.027128 0.027128 0.0226921 0.0341367 0.0246422
          -0.0143225 -0.0132648 -0.0140065 -0.0142089 -0.0143225 -0.0132648
          -0.0132896 -0.0140065 -0.0132619 -0.0146054 -0.0132045 -0.0116014
          -0.0163887 -0.0146054 -0.0142512 -0.0141855 -0.0143225 -0.0142383
          -0.0127238 -0.0138481 -0.0142383 -0.0127238 -0.0138379 -0.0143225
          0.0189193 0.0161199 0.0114892 0.0194951 -0.00688996 -0.0077584
          -0.0107902 -0.00539303 -0.0039651 -0.00688996 0.0034827 -0.0011597
          0.0171797 0.025394 0.0189193 0.0269602 0.021667 0.0189193
          0.0290173 0.0186287 0.0269602 0.0189193 0.0290173 0.0326986
          0.0189193 0.0171797 0.0114892 0.0161199 0.0246422 0.0139789
          0.0163716 0.0128998 0.099271 0.101482 0.0931621 0.0933328
          -0.00495655 -0.00647699 -0.00456851 -0.00345964 0.00623301 0.0102825
          0.00590663 0.00210831 -0.0064143 0 0 -0.00767366
          -0.0119491 -0.0115942 -0.0112095 -0.0138988 -0.0120732 -0.0148368
          -0.0159403 -0.0109344 -0.020683 -0.0184729 -0.0148368 -0.0143337
          -0.0116458 -0.00874778 -0.012431 -0.00774906 0.100297 0.0968458
          0.0964002 0.0951257 -0.0128705 -0.0119491 -0.0112095 -0.0138988
          0.0494386 0.0449849 0.0515351 0.0528332 0.0528332 0.0494386
          0.0568305 0.0515351 -0.0152032 -0.015707 -0.0135404 -0.0102429
          -0.00151987 0.00679275 -0.00428175 0.000932724 0.103075 0.0976263
          0.103607 0.0985264 0.101212 0.104541 0.104541 0.0957216
          -0.0100672 -0.0155189 -0.0107643 -0.0131762 0.00401747 0.00478053
          0.0053151 0.00212618 0.0247032 0.0234903 0.0241004 0.0183116
          0.0931675 0.0985264 0.0929403 0.0908914 -0.00633565 -0.00674395
          -0.0086086 -0.00503852 -0.00633565 -0.00368403 -0.00674395 -0.00503852
          -0.00529419 -0.00368403 -0.00674395 -0.00633565 -0.0100672 -0.0131762
          -0.00980449 -0.0133311 -0.0100672 -0.0155189 -0.0131762 -0.0133311
          -0.00348063 0.00504842 0.00090171 -0.00158471 0.00090171 0.00504842
          0.00594786 -0.00158471 0.00929873 0.0151683 0.0165835 0.00998805
          0.0100494 0.00998805 0.0151683 0.00929873 0.0100494 0.00929873
          0.0151683 0.00841701 -0.0103711 -0.00346981 -0.00998447 -0.0104976
          0.00331069 -0.00173324 0.00260366 -2.51321e-05 0.00331069 -0.00173324
          0.000322241 0.00260366 0.0365633 0.0320141 0.0241004 0.0298942
          0.0365633 0.0241004 0.0290328 0.0298942 0.0365633 0.0298942
          0.0290328 0.026316 0.0375999 0.026316 0.0298942 0.0365633
          0.0375999 0.0298942 0.0340728 0.0365633 0.0375999 0.026316
          0.0340728 0.0298942 0.0298942 0.0340728 0.027128 0.026316
          0.0298942 0.0241004 0.0290328 0.026316 0.0298942 0.0165835
          0.0241004 0.026316 -0.0095234 -0.0115354 -0.0111273 -0.0101269
          -0.0115173 -0.0101082 -0.0135258 -0.0139847 -0.0095234 -0.00949131
          -0.00719991 -0.00783516 -0.00987119 -0.00963848 -0.00591698 -0.0105095
          -0.00591698 -0.00963848 -0.00610029 -0.0105095 -0.00719991 -0.00591698
          -0.00610029 -0.0105095 -0.00719991 -0.00591698 -0.00343188 -0.00610029
          -0.0146903 -0.0142089 -0.012766 -0.0150371 -0.00591698 -0.00963848
          -0.00413169 -0.00610029 -0.00591698 -0.00847588 -0.00413169 -0.00963848
          0.0981286 0.0968129 0.0985264 0.0976013 -0.0137598 -0.0139856
          -0.0122415 -0.0119508 -0.0122415 -0.0139856 -0.0150762 -0.011999
          -0.0119508 -0.0108474 -0.0139856 -0.0122415 0.0653814 0.0709775
          0.060776 0.0701436 0.0709775 0.0653814 0.060776 0.0650225
          -0.000960639 -0.00910394 -0.00211367 -0.00880874 -0.000960639 0.0025933
          -0.00211367 -0.00910394 -0.00164808 -0.00211367 0.0025933 -0.00910394
          -0.00164808 -0.00910394 0.0025933 -0.00236865 -0.0139826 -0.0184858
          -0.013979 -0.00910394 0.0206599 0.0230983 0.0269602 0.013872
          -0.012431 -0.00998517 -0.0116458 -0.00774906 0.0083212 0.0185475
          0.0230983 0.013872 0.0083212 0.0185475 0.013872 0.0053151
          0.0053151 0.0185475 0.013872 0.0101018 -0.00688996 -0.00617679
          -0.00613969 -0.00197492 -0.00688996 -0.00197492 -0.00613969 -0.00597124
          0.013872 0.0185475 0.0186287 0.0101018 0.013872 0.0185475
          0.0230983 0.0186287 0.013872 0.0230983 0.0269602 0.0186287
          -0.0112095 -0.00871713 -0.012833 -0.0116704 -0.0138988 -0.0112095
          -0.012833 -0.0116704 -0.012833 -0.0116704 -0.0149003 -0.0138988
          -0.00286856 -0.00977107 -0.00832996 -0.010044 -0.015154 -0.0140178
          -0.015396 -0.0145928 -0.00443768 -0.00357756 0 -0.00222472
          -0.00357756 0 0 -0.00222472 -0.00222472 0
          -0.0064143 -0.00357756 -0.00504482 -0.00222472 -0.0064143 -0.00357756
          -0.0153294 -0.0176947 -0.0175004 -0.0149838 -0.0169444 -0.0153294
          -0.0175004 -0.0149838 -0.00577718 -0.0064143 -0.0104381 -0.00767366
          -0.0104381 -0.0114026 -0.00577718 -0.00767366 -0.0104381 -0.0114026
          -0.00617679 -0.00577718 -0.00577718 -0.00998045 -0.00617679 -0.0104381
          0.0951903 0.0874838 0.0787728 0.0824418 0.0947307 0.0951903
          0.0787728 0.0824418 -0.0132542 -0.015154 -0.0127112 -0.0132636
          0.0943382 0.0951903 0.0824418 0.0785431 0.0951903 0.0785431
          0.0943382 0.0809897 0.0951903 0.0874838 0.0824418 0.0785431
          -0.0116895 -0.0138029 -0.0141968 -0.0106223 -0.0116895 -0.0138029
          -0.0132619 -0.0141968 -0.01342 -0.0126734 -0.0106223 -0.0141968
          -0.0175449 -0.0167399 -0.0179976 -0.0197199 -0.0036721 -0.00779774
          -0.00635234 -0.00348063 0.0100494 0.00998805 0.00929873 0.00474989
          -0.00949131 -0.00998045 -0.00783516 -0.00867774 -0.0138988 -0.0151294
          -0.0179139 -0.0153733 -0.00732795 -0.0050596 -0.00867774 -0.00779776
          -0.00732795 -0.0050596 -0.00787858 -0.00867774 -0.00867774 -0.00787858
          -0.0139909 -0.00998045 0.0294766 0.0290619 0.0367894 0.0391504
          0.0401873 0.0294766 0.0367894 0.0391504 -0.00615696 -0.00953853
          -0.00627446 -0.00727612 0.067363 0.0645819 0.0664747 0.0712302
          -0.00640648 -0.0112065 -0.00998045 -0.00504482 -0.0180549 -0.0153847
          -0.0157141 -0.0141881 -0.00268011 -0.0050596 -0.00466195 -0.00640648
          0.0645819 0.0712302 0.0722326 0.0639772 0.0449849 0.0392555
          0.0457958 0.041583 0.0664747 0.0757005 0.0712302 0.0694311
          0.0449849 0.0392555 0.0478322 0.0457958 0.0722326 0.0794021
          0.0762057 0.0712302 0.0401873 0.0457958 0.0391504 0.0485009
          0.0521232 0.0457958 0.0599948 0.0485009 0.0521232 0.0506082
          0.0599948 0.0457958 -0.00889233 -0.00615696 -0.00938039 -0.00448618
          -0.0174151 -0.0163192 -0.0179506 -0.0137818 -0.00998447 -0.0100672
          -0.00345068 -0.00980449 -0.00998447 -0.00980449 -0.00345068 -0.00627446
          -0.00617679 -0.00385626 -0.00343188 -0.00591698 -0.00385626 -0.00443768
          -0.00343188 -0.00591698 -0.00343188 -0.000798352 -0.00385626 0.00224888
          0.0246422 0.0206599 0.0269602 0.0163716 -0.00495655 -0.00443768
          -0.00647699 -0.00345964 -0.0196971 -0.0179958 -0.0224445 -0.0170253
          0.0947307 0.0988924 0.100112 0.0940771 0.0947307 0.0787728
          0.0988924 0.0940771 0.0787728 0.0787728 0.0988924 0.0940771
          0.0787728 0.0787728 0.0940771 0.0973971 0.0988924 0.0787728
          0.100418 0.0940771 0.0993376 0.0988924 0.100418 0.0940771
          0.0993376 0.0940771 0.100418 0.0935166 0.0940771 0.0787728
          0.100418 0.0935166 0.092526 0.0938949 0.0943226 0.0957216
          0.0940771 0.0988924 0.100112 0.0983866 0.0940771 0.0973971
          0.0952604 0.0923967 0.000932724 -0.00428175 -0.00510329 -0.00345068
          -0.0166778 -0.0217264 -0.0177313 -0.0173699 -0.0214738 -0.0260363
          -0.0211777 -0.020683 0.0937414 0.0953534 0.0932419 0.099153
          0.099153 0.0956412 0.0932419 0.0937414 0.099153 0.0956412
          0.0937414 0.0946005 0.0937414 0.0956412 0.0932419 0.0946005
          0.0171797 0.0161199 0.025394 0.0246422 -0.0123001 -0.00974557
          -0.00861598 -0.00711215 0.0807888 0.0883189 0.0895988 0.0908914
          0.0875869 0.0807888 0.0883189 0.0895988 -0.00503266 -0.00727612
          -0.00951325 -0.000485042 -0.000798352 -0.00364772 0.000333111 0.00061746
          0.0988924 0.100418 0.1075 0.0993376 0.0872112 0.0804062
          0.0895988 0.0866501 -0.0129857 -0.0140065 -0.0142089 -0.01342
          -0.0129857 -0.0142089 -0.0136552 -0.012766 -0.0133178 -0.0125329
          -0.0116704 -0.0143898 -0.00495617 -0.0027958 -0.00731356 -0.00339795
          -0.00451818 -0.00495617 -0.00731356 -0.00339795 0.00584169 0.00478053
          0.00418987 0.000471272 0.0119667 0.00224888 0.0101144 0.00867015
          -0.00688212 -0.00467209 -0.00651799 -0.00439551 0.0456868 0.0441457
          0.0519682 0.0442869 0.0101144 0.00224888 0.00594786 0.00504842
          0.0119667 0.00594786 0.00224888 0.00867015 -0.0109702 -0.012833
          -0.00871713 -0.00899144 -0.00339795 -0.00451818 -0.00281992 0.000471272
          5.29779e-05 -0.00451818 -0.00339795 0.000471272 5.29779e-05 -0.00451818
          0.000471272 -2.51321e-05 0.030637 0.0442869 0.0390901 0.0367894
          0.00429153 0.00224888 0.0101144 0.00749469 -0.00370727 0.00478569
          -0.00871553 -0.00152772 0.030637 0.0390901 0.0349137 0.0267247
          -0.00370727 0.00185887 -0.00339795 -0.00421154 0.0963202 0.0953553
          0.101595 0.100629 -0.00364772 -0.00345964 -0.00555993 -0.00413169
          0.0953553 0.0895988 0.0953534 0.0963202 0.0953553 0.0963202
          0.0883189 0.0895988 -0.00839904 -0.00670828 -0.00966033 -0.00864801
          -0.020683 -0.0214738 -0.0148368 -0.0211777 0.0953553 0.0972424
          0.100629 0.0982259 0.0953553 0.0972424 0.101595 0.100629
          -0.0074673 -0.00488907 -0.00731356 -0.00498123 -0.0107869 -0.00488907
          -0.00731356 -0.0074673 0.0226921 0.018373 0.0109529 0.0139789
          -0.00488907 -0.00451818 -0.00731356 -0.00339795 -0.00488907 -0.00451818
          -0.00339795 5.29779e-05 -0.00488907 -0.00339795 0.00185887 5.29779e-05
          -0.00701453 -0.00451818 5.29779e-05 -2.51321e-05 -0.00339795 -0.00182166
          -0.00421154 0.000471272 -0.0131014 -0.0132648 -0.0129756 -0.0140065
          -0.0129756 -0.0131014 -0.012174 -0.0132648 -0.00339795 -0.00281992
          -0.00182166 0.000471272 0.00749469 -0.00071185 0.00224888 0.00504842
          0.0468155 0.0387796 0.0456925 0.0487549 0.00749469 0.00224888
          0.0101144 0.00504842 0.00429153 -0.00071185 0.00224888 0.00749469
          0.0119667 0.00594786 0.0101144 0.00224888 -0.00899144 -0.0116704
          -0.00882003 -0.010768 -0.00680671 -0.00899144 -0.00599707 -0.00747016
          -0.00680671 -0.00899144 -0.00439551 -0.00599707 0.0694965 0.0684276
          0.0731584 0.0762001 0.0290619 0.0376856 0.0442869 0.0367894
          0.0694965 0.0762001 0.0731584 0.0766639 -0.00422975 -0.00439551
          -0.00871713 -0.00899144 -0.00422975 -0.00899144 -0.00871713 -0.00599707
          -0.00422975 -0.00439551 -0.00899144 -0.00599707 0.0906245 0.0876825
          0.0994953 0.0875869 0.0994953 0.0963202 0.101595 0.100629
          0.0994953 0.0949824 0.0922475 0.104122 0.0117331 0.00741455
          0.00710339 0.0117361 0.0226921 0.0109529 0.00922241 0.0139789
          0.0809897 0.0902565 0.0943382 0.092674 0.0297779 0.0382422
          0.0396681 0.0330849 0.0342262 0.0297779 0.0396681 0.0330849
          -0.0177132 -0.0140032 -0.011447 -0.0159403 -0.00938039 -0.0103711
          -0.0166778 -0.00908123 -0.0104179 -0.00986348 -0.0115354 -0.0110417
          -0.0115354 -0.0104179 -0.0110417 -0.0132636 -0.0140032 -0.0116458
          -0.011447 -0.0118541 -0.01305 -0.0109596 -0.00994981 -0.0128252
          -0.0174144 -0.0184435 -0.0153411 -0.0114026 0.09271 0.0972424
          0.101595 0.0953553 0.103075 0.0976954 0.100371 0.0961512
          -0.015396 -0.0140178 -0.0131376 -0.0145928 -0.00071185 -0.000798352
          0.00749469 0.00429153 0.0740901 0.0709724 0.0708743 0.0796129
          -0.00343188 5.82853e-05 0.00429153 -0.00256661 -0.00256661 0.00429153
          -0.00343188 0.0035501 -0.0141855 -0.0132648 -0.0131014 -0.0140065
          -0.000798352 0 -0.00071185 0 0 0
          -0.000798352 0 0 0 0 -0.000798352
          0 0.000333111 0 -0.000798352 0 0
          0.000333111 -0.000798352 0.0209412 0.0246422 0.0139789 0.027128
          0 -0.00357756 -0.00443768 -0.000798352 0 0
          -0.00357756 -0.000798352 -0.00357756 0 -0.00071185 -0.000798352
          0.0971933 0.0895988 0.0963202 0.0953534 -0.000798352 0
          0 0.00749469 -0.00674395 -0.00740716 -0.00529419 -0.00952224
          -0.0130793 -0.00779109 -0.00952224 -0.0132095 -0.00952224 -0.00529419
          -0.00674395 -0.00633565 -0.0155531 -0.0150371 -0.0176787 -0.016142
          -0.00674395 -0.00779109 -0.00740716 -0.00952224 -0.0115173 -0.0101082
          -0.00659314 -0.0111707 -0.0115173 -0.0142188 -0.0123134 -0.00953216
          0.0419076 0.0401223 0.0485772 0.0521232 0.0960197 0.0991194
          0.0987585 0.0986556 0.0986556 0.0961351 0.0960197 0.0991194
          0.0572523 0.0521232 0.0485772 0.0626744 -0.0116014 -0.01342
          -0.0110955 -0.0100434 0.0876495 0.080901 0.0929403 0.0872946
          0.0929403 0.080901 0.0880509 0.0872946 0.0519682 0.0583567
          0.0649467 0.0617354 -0.00910394 -0.0184858 -0.013979 -0.0133081
          -0.0123134 -0.0115173 -0.0128463 -0.0136582 0.101212 0.104541
          0.092526 0.0957216 0.0561299 0.0607576 0.0626744 0.0583691
          0.0694311 0.0597525 0.0607576 0.0639772 0.0607576 0.0677137
          0.0694311 0.0639772 -0.0129255 -0.0136174 -0.0107643 -0.0155189
          -0.0136174 -0.00694747 -0.0129255 -0.0107643 -0.0136174 -0.00694747
          -0.0107643 -0.00911235 0.104541 0.104541 0.092526 0.0957216
          -0.0135258 -0.0137283 -0.0137173 -0.0139847 -0.0137283 -0.0144426
          -0.0139847 -0.0147507 -0.0159403 -0.0109344 -0.0118541 -0.00727612
          -0.0108439 -0.0101426 -0.00930884 -0.0118386 -0.012174 -0.0101426
          -0.0108439 -0.0118386 -0.0133371 -0.0130793 -0.0126734 -0.0172167
          -0.012174 -0.0108439 -0.0119508 -0.0119697 -0.012174 -0.0101426
          -0.0119508 -0.0108439 0.0908349 0.0872112 0.0895988 0.0935983
          -0.00428175 -0.00460077 -0.00438932 0.000732152 -0.0011597 0.0034827
          -0.0039651 0.00262799 -0.0011597 -0.0039651 -0.0041933 0.00262799
          -0.0011597 -0.0039651 -0.0077584 -0.0041933 -0.00428175 0.000732152
          -0.00345068 0.000932724 -0.0011597 0.0034827 0.00262799 0.00664006
          0.0908349 0.0895988 0.0953534 0.0935983 -0.0026124 -0.008019
          0.00260366 -0.00493176 -0.0189928 -0.0163022 -0.0162388 -0.0152705
          0.0922475 0.0846894 0.0917422 0.0901879 0.0823455 0.0846894
          0.0875151 0.0917422 0.0823455 0.0917422 0.0875151 0.0932419
          0.0917422 0.0956028 0.0918153 0.0956412 0.00504842 0
          0 -0.00348063 0.00504842 -0.000798352 0 0.00749469
          0.0993396 0.0922475 0.0971933 0.0932419 -0.00364772 0
          0.000333111 -0.00555993 0.0987585 0.0985842 0.0942488 0.0946768
          0.10664 0.105767 0.0987585 0.0985842 0.10664 0.105767
          0.104296 0.0987585 0.0485009 0.0511354 0.0542829 0.0435662
          0.0989408 0.104296 0.101594 0.0987585 -0.0130007 -0.0074673
          -0.0110197 -0.00889233 -0.0130007 -0.0110197 -0.0117923 -0.00889233
          0.104812 0.0988924 0.0993376 0.0940771 -0.00889233 -0.0110197
          -0.0117923 -0.00944941 -0.0136001 -0.0139847 -0.0162388 -0.0147507
          -0.0129574 -0.0109623 -0.0137039 -0.0170253 -0.0136001 -0.0147507
          -0.0162388 -0.0184706 0.10803 0.10922 0.105429 0.104812
          0.10803 0.105429 0.0983866 0.104812 0.104812 0.105429
          0.0983866 0.103482 0.105429 0.104812 0.105261 0.103482
          0.105429 0.10922 0.105261 0.104812 0.104812 0.10922
          0.105261 0.103482 0.104812 0.11019 0.10922 0.103482
          0.00590663 9.87133e-05 0.000251628 0.00210831 -0.0095234 -0.00839904
          -0.00719991 -0.00834344 -0.0095234 -0.00839904 -0.00834344 -0.0101269
          -0.0129857 -0.01342 -0.0109875 -0.0103014 -0.0109875 -0.0100434
          -0.00633565 -0.0103014 -0.0109875 -0.00927824 -0.0103014 -0.00633565
          -0.00927824 -0.00742649 -0.0103014 -0.00633565 -0.0103014 -0.00742649
          -0.00847522 -0.00633565 -0.00829571 -0.0103014 -0.00847522 -0.00633565
          -0.0103014 -0.0100434 -0.00633565 -0.00829571 0.00960777 0.0092244
          0.0161199 0.0114892 0.0204591 0.0246008 0.0214812 0.0282334
          -0.0119697 -0.0108439 -0.0101949 -0.0103014 -0.0119697 -0.0103708
          -0.0108439 -0.0103014 0.0866501 0.0876495 0.0804062 0.080901
          0.0876495 0.080901 0.0866501 0.0929403 0.0117331 0.0161199
          0.0151683 0.0194951 0.0117331 0.0161199 0.0194951 0.0114892
          0.0117331 0.00960777 0.0161199 0.0114892 -0.0122415 -0.0103014
          -0.0101949 -0.0110955 0.0626744 0.0521232 0.0485772 0.0583691
          0.0468155 0.0487549 0.05297 0.0496291 0.0712302 0.0757005
          0.0762057 0.0694311 0.0161199 0.0211458 0.0194951 0.021662
          0.0760461 0.0740901 0.0849373 0.0796129 -0.0153847 -0.0133371
          -0.0124395 -0.0129857 0.0680971 0.073621 0.0760461 0.0740901
          0.10216 0.0982259 0.101867 0.0991194 0.10216 0.101867
          0.105555 0.0991194 0.10216 0.105555 0.10169 0.0991194
          0.10169 0.0987585 0.0991194 0.105555 0.0435662 0.0442869
          0.0485009 0.0511354 0.0519682 0.0511354 0.058239 0.0485009
          0.0956329 0.0961351 0.0991194 0.0964002 0.0991194 0.0961351
          0.0972136 0.0964002 0.0970161 0.0991194 0.0972136 0.0964002
          0.0928267 0.0918153 0.0956412 0.0875151 0.0928267 0.0918153
          0.0875151 0.0883173 0.0928267 0.0875151 0.0824615 0.0883173
          0.0928267 0.0824615 0.0875151 0.0910084 -0.00539303 -0.0011597
          0.00252499 0.000676097 0.0875151 0.0824615 0.0837749 0.0910084
          0.0824615 0.0837749 0.0762057 0.0875151 0.0875151 0.0837749
          0.0762057 0.0823455 0.0875151 0.0918153 0.0824615 0.0883173
          0.0884996 0.0823455 0.0849973 0.0778226 0.0787728 0.0872084
          0.101679 0.0787728 -0.00317254 0.00252499 -0.00500875 -0.00492085
          -0.00500875 0.00252499 -0.00317254 -0.000758185 -0.00518339 -0.00500875
          -0.00317254 -0.000758185 -0.00500875 -0.00670828 -0.00518339 -0.00317254
          -0.00500875 -0.00492085 -0.0011597 -0.00539303 -0.00500875 -0.0101269
          -0.00492085 -0.00539303 -0.00539303 -0.0101269 -0.00834344 -0.00500875
          -0.0135718 -0.0127238 -0.0132896 -0.0143225 -0.00500875 -0.00834344
          -0.00719991 -0.00839904 -0.00500875 -0.0101269 -0.00834344 -0.00839904
          -0.00839904 -0.0101269 -0.00745357 -0.00500875 -0.00745357 -0.0101269
          -0.00492085 -0.00500875 -0.0114998 -0.0025765 -0.0127395 -0.0109318
          -0.0114998 -0.0025765 -0.0109318 -0.00827242 0.0572523 0.0650225
          0.05297 0.057476 -0.0145331 -0.00827242 -0.0109318 -0.00977568
          -0.00977568 -0.0064143 -0.0109318 -0.0145331 -0.0109318 -0.0064143
          -0.00977568 0 0 -0.0109318 -0.00977568 0
          -0.00767366 -0.0064143 -0.0109318 0 -0.0064143 -0.0104381
          -0.00767366 -0.0109318 -0.0064143 -0.0104381 -0.0109318 -0.0145331
          -0.00443768 5.82853e-05 -0.000798352 -0.00343188 -0.0146903 -0.015471
          -0.0175449 -0.0188984 -0.0109318 -0.00827242 0 -0.00977568
          0.0456464 0.0342104 0.0377699 0.0391761 0.0450521 0.0342104
          0.0456464 0.0391761 0.0450521 0.0342104 0.0391761 0.0378947
          0.0391761 0.0342104 0.0326986 0.0378947 0.0391761 0.0269602
          0.0326986 0.0342104 0.0391761 0.0342104 0.0377699 0.0269602
          0.0342104 0.0341367 0.0377699 0.0269602 -0.00317254 -0.00221483
          -0.00745357 -0.00470133 -0.01305 -0.0103616 -0.0121714 -0.00994981
          -0.0103616 -0.00998593 -0.0121714 -0.00994981 0.0139789 0.0146023
          0.0128998 0.021662 0.0940187 0.0916535 0.0893821 0.0897648
          0.0915396 0.0893821 0.0897648 0.0940187 0.0916535 0.0897648
          0.086149 0.0893821 0.0915396 0.0897648 0.0910084 0.0940187
          -0.0137818 -0.0131376 -0.0101269 -0.0111888 0.067363 0.0722326
          0.0645819 0.0712302 0.0572903 0.0506082 0.0610013 0.0599948
          0.0599948 0.0506082 0.0610013 0.0485009 -0.00640648 -0.00504482
          -0.00998045 -0.00783516 -0.00244935 -0.00148098 -0.000736465 -0.00193359
          -0.00193359 -0.000736465 -0.00244935 0 0.0521232 0.0626744
          0.0572523 0.0599948 0.0521232 0.0626744 0.0599948 0.0583691
          0.0599948 0.0626744 0.0680971 0.0583691 0.0599948 0.0626744
          0.0572523 0.0680971 -0.0116458 -0.0118541 -0.00944941 -0.011447
          -0.0031679 -0.008019 -0.0026124 -0.00493176 -0.012766 -0.0109596
          -0.0103708 -0.0109937 -0.012766 -0.0109937 -0.0103708 -0.0119697
          0.103705 0.0976263 0.100371 0.103607 -0.00343188 5.82853e-05
          -0.000798352 0.00429153 -0.00944187 -0.0102092 -0.0095234 -0.00949131
          0.00327003 0.00331069 0.000322241 0.00841701 0.00331069 0.00260366
          0.000322241 0.00841701 0.00331069 0.00260366 0.00841701 0.00960777
          0.00331069 0.00960777 0.00841701 0.00584169 0.00331069 0.00841701
          0.00741455 0.00584169 0.00741455 0.00841701 0.0117331 0.00584169
          0.0117361 0.00841701 0.0117331 0.00741455 0.0117361 0.00741455
          0.00723765 0.00841701 0.0114123 0.0117361 0.00723765 0.00841701
          0.0114123 0.00841701 0.00723765 0.00686604 0.0151683 0.0117361
          0.0114123 0.00841701 0.0117361 0.00841701 0.0151683 0.0117331
          0.00841701 0.00960777 0.0151683 0.0117331 0.00841701 0.00960777
          0.0117331 0.00584169 -0.0129857 -0.0110955 -0.0103014 -0.0119697
          -0.00870799 -0.0161113 -0.0123134 -0.012164 0.00929873 0.00998805
          0.0165835 0.0047323 -0.00182166 -0.00281992 -0.000179497 0.000471272
          0.000471272 -0.00281992 -0.000179497 -2.51321e-05 0.000471272 -2.51321e-05
          -0.000179497 0.00212624 0.000471272 -0.00451818 -0.00281992 -2.51321e-05
          0.000471272 0.00478053 0.00185887 5.29779e-05 0.101212 0.101212
          0.100371 0.105929 0.080901 0.0822369 0.0876495 0.0804062
          -0.0127112 -0.015154 -0.0140178 -0.0131376 0.0572523 0.0521232
          0.0542829 0.0496291 -0.00953853 -0.0122948 -0.0103711 -0.00627446
          -0.0103711 -0.0128015 -0.0122948 -0.00953853 -0.00227591 -0.00222472
          -0.00647699 -0.00456851 0.0876495 0.080901 0.0872946 0.0822369
          0.101212 0.100997 0.100371 0.105929 0.00401747 0.00696049
          5.29779e-05 0.00173919 0.100371 0.0976263 0.102285 0.103607
          -0.012833 -0.01385 -0.0153294 -0.0128604 -0.01385 -0.012766
          -0.0150371 -0.0128604 -0.015471 -0.0124395 -0.0138764 -0.0128604
          -0.0124395 -0.0109596 -0.0138764 -0.0128604 0.0809897 0.0734616
          0.0641616 0.0824418 -0.00987119 -0.00847588 -0.00647699 -0.00591698
          -0.00647699 -0.00847588 -0.00345964 -0.00591698 -0.0207849 -0.0184858
          -0.013979 -0.0139826 -0.00127327 -0.00400199 -0.00221483 -0.00593256
          0.0887192 0.0831428 0.0915396 0.0849373 -0.00236865 -0.00367405
          0.0025933 0.00401747 0.00401747 5.29779e-05 0.00478053 0.00212618
          0.0538991 0.0639772 0.0612821 0.0561299 0.0506828 0.0561299
          0.0538991 0.0612821 0.0538991 0.0506828 0.0612821 0.0545551
          0.0538991 0.0462954 0.0506828 0.0545551 0.0506828 0.0428983
          0.0462954 0.0538991 0.0506828 0.0433722 0.0428983 0.0538991
          0.0561299 0.0433722 0.0506828 0.0538991 0.0473978 0.0433722
          0.0561299 0.0538991 0.0473978 0.0538991 0.0561299 0.0509021
          0.0473978 0.0433722 0.0538991 0.0509021 -0.0140065 -0.0142512
          -0.0141968 -0.01342 -0.0140065 -0.0142512 -0.0144426 -0.0141968
          0.00577853 0.0137501 0.000570539 0.0134379 -0.00834925 -0.0159403
          -0.00727612 -0.00951325 -0.00613969 -0.00348063 -0.00071185 -0.00767366
          0.0922475 0.0901879 0.0917422 0.0993396 0.0456925 0.0498687
          0.0487549 0.045842 -0.0114026 -0.0102839 -0.00597124 -0.00613969
          -0.0118386 -0.00930884 -0.0117847 -0.0101426 0.0785431 0.0824418
          0.0824418 0.0902565 0.0976263 0.0943187 0.0902565 0.092674
          0.00401747 0.00173919 0.0025933 0.0101018 0.0741555 0.0749929
          0.0672179 0.0722704 -0.010044 -0.0141443 -0.011447 -0.0118541
          0.100802 0.0945086 0.0943382 0.0984366 -0.00343188 -0.00197492
          -0.00617679 -0.00353163 0.10492 0.102614 0.100802 0.107082
          -0.0159403 -0.0141443 -0.0118541 -0.011447 -0.0159403 -0.0141443
          -0.011447 -0.0177132 -0.0101035 -0.00921344 -0.0079659 -0.0101472
          -0.00470133 -0.00822036 -0.00745357 -0.0079659 -0.00882003 -0.0079659
          -0.00470133 -0.00599707 -0.0141443 -0.0139796 -0.011447 -0.0177132
          0.0650225 0.0627337 0.0706221 0.0638716 -0.0175449 -0.0124395
          -0.0150505 -0.015471 0.00789755 0.00929873 0.0165835 0.0047323
          -0.0131376 -0.0120173 -0.0111888 -0.0133178 -0.0214847 -0.0197199
          -0.0175449 -0.0179976 -0.0214847 -0.0197199 -0.0205887 -0.0175449
          -0.0188984 -0.0175449 -0.0205887 -0.0197199 -0.0188984 -0.015471
          -0.0175449 -0.0197199 0.0946768 0.10035 0.0985842 0.0983866
          0.101595 0.101867 0.110086 0.106809 -0.0133081 -0.0184858
          -0.0189245 -0.00880874 -0.00882003 -0.00593256 -0.00822036 -0.00871713
          -0.00882003 -0.00422975 -0.00593256 -0.00871713 -0.00470133 -0.00422975
          -0.00593256 -0.00882003 -0.00470133 -0.00593256 -0.00822036 -0.00882003
          0.0892035 0.0876495 0.090798 0.0822369 -0.00127327 -0.00593256
          -0.00470133 -0.00422975 -0.00127327 -0.0011845 -0.00593256 -0.00422975
          -0.00127327 -0.0011845 -0.00369529 -0.00593256 0.0785431 0.0824418
          0.0902565 0.0809897 0.100371 0.0943187 0.101212 0.0902565
          0.0785431 0.0809897 0.0902565 0.0943382 -0.0011845 -0.00467209
          -0.00369529 -0.00593256 -0.0011845 -0.00467209 -0.00593256 -0.00439551
          -0.0011845 -0.00593256 -0.00422975 -0.00439551 -0.00422975 -0.00593256
          -0.00871713 -0.00439551 -0.00593256 -0.00467209 -0.00871713 -0.00439551
          -0.00593256 -0.00467209 -0.00749906 -0.00871713 -0.00593256 -0.00749906
          -0.00900353 -0.00871713 0.0946768 0.100112 0.10035 0.0983866
          0.0583567 0.0486119 0.0511354 0.0442869 -0.00369529 -0.00467209
          -0.00749906 -0.00593256 -6.04137e-05 -0.00345068 -0.00627446 9.87133e-05
          9.87133e-05 0.00590663 -0.000485042 0.00860607 0.0383668 0.0329572
          0.0390306 0.0387796 0.0383668 0.0390306 0.0456925 0.0387796
          0.0320141 0.0387796 0.0279604 0.0329572 0.0320141 0.0367918
          0.0279604 0.0387796 0.0387796 0.0367918 0.0279604 0.0329572
          0.0387796 0.0367918 0.045842 0.0430777 0.0833251 0.0824615
          0.0883173 0.0779443 0.0833251 0.0779443 0.0883173 0.0859182
          0.0833251 0.0779443 0.0859182 0.0801117 0.0779443 0.0824615
          0.0883173 0.0859182 0.069947 0.0779443 0.0824615 0.0719055
          0.0706221 0.069947 0.0719055 0.0779443 0.0719055 0.0684555
          0.0706221 0.0779443 0.0719055 0.0684555 0.0779443 0.0757261
          0.0779443 0.0684555 0.0706221 0.0757261 0.0706221 0.069947
          0.0779443 0.07594 0.0779443 0.07594 0.0760461 0.0706221
          0.0779443 0.07594 0.0840946 0.0760461 0.069947 0.07594
          0.0824615 0.0779443 -0.0113241 -0.0100866 -0.00966033 -0.00921344
          -0.0113411 -0.0113241 -0.00921344 -0.0100866 -0.0113411 -0.00921344
          -0.00759501 -0.0100866 -0.00921344 -0.0113411 -0.00759501 -0.0101472
          0.0541389 0.0449968 0.0452472 0.0486119 -0.0101035 -0.0113411
          -0.00921344 -0.0101472 -0.0101035 -0.0113241 -0.00921344 -0.0113411
          -0.0127112 -0.015154 -0.0131376 -0.015396 0.0375999 0.0349137
          0.0449968 0.0422139 -0.00921344 -0.00966033 -0.00670828 -0.00759501
          -0.00921344 -0.0100866 -0.00966033 -0.00759501 -0.0136582 -0.0152705
          -0.0132634 -0.0155189 -0.0136582 -0.0155189 -0.0132634 -0.0133311
          -0.0132634 -0.0152705 -0.0138029 -0.0155189 -0.0155189 -0.0129255
          -0.0138029 -0.0132634 -0.0132634 -0.0139847 -0.0138029 -0.0152705
          -0.0132634 -0.0139847 -0.0137173 -0.0138029 -0.0109875 -0.00952224
          -0.0100434 -0.0126734 -0.0139518 -0.016142 -0.0153294 -0.0159958
          -0.0132634 -0.00934427 -0.0116895 -0.0100672 -0.0107643 -0.00934427
          -0.0132634 -0.0100672 0.100112 0.100802 0.0984366 0.103492
          0.0653814 0.060776 0.0628785 0.0701436 0.107082 0.102614
          0.100802 0.108299 0.103492 0.100112 0.100802 0.107082
          0.000676097 -0.00197492 -0.00353163 -0.00539303 0.106809 0.101595
          0.112732 0.110086 -0.00236865 -0.00701453 5.29779e-05 -0.0026124
          -0.0229194 -0.0187996 -0.0184706 -0.0163022 -0.0187996 -0.016901
          -0.0159942 -0.0126816 -0.0187996 -0.0159942 -0.0163022 -0.0129255
          0.0386142 0.0428983 0.045842 0.0362804 0.0984366 0.102758
          0.0986556 0.10035 0.0430777 0.0376856 0.0367918 0.0339339
          0.0572903 0.0583691 0.0515351 0.0599948 -0.0222241 -0.0180549
          -0.0159942 -0.0187996 -0.0187996 -0.0180549 -0.0159942 -0.016901
          0.00922241 0.0163716 0.00594671 0.0125122 -0.0133311 -0.0155189
          -0.0131762 -0.0148368 -0.0132095 -0.00779109 -0.0126816 -0.00812965
          -0.0126734 -0.00779109 -0.0126816 -0.0132095 0.101212 0.0940771
          0.092526 0.104541 -0.0141968 -0.0126734 -0.0106223 -0.0126816
          -0.0126816 -0.0141968 -0.0138029 -0.0106223 -0.0141968 -0.0126734
          -0.0126816 -0.0159942 0.0528332 0.0515351 0.0568305 0.0583691
          0.0528332 0.0515351 0.0583691 0.0493815 0.0528332 0.0449849
          0.0515351 0.0493815 0.0494386 0.0478322 0.0515351 0.0449849
          -0.0110197 -0.0074673 -0.0107869 -0.00965086 -0.00889233 -0.0074673
          -0.0110197 -0.00944941 -0.010044 -0.00951806 -0.00944941 -0.0118541
          -0.010044 -0.00951806 -0.0074673 -0.00944941 -0.00951806 -0.00965086
          -0.0074673 -0.00944941 -0.00951806 -0.00965086 -0.00944941 -0.011447
          -0.00951806 -0.011447 -0.00944941 -0.0118541 -0.00951806 -0.00753719
          -0.00965086 -0.011447 -0.00951806 -0.00753719 -0.011447 -0.0139796
          -0.00951806 -0.0139796 -0.011447 -0.0141443 0.0749929 0.0804062
          0.0823455 0.0805968 0.0749929 0.0805968 0.0823455 0.0694311
          0.0757005 0.0749929 0.0823455 0.0694311 0.0757005 0.0804062
          0.0823455 0.0749929 0.0757005 0.0749929 0.0731584 0.0804062
          0.0757005 0.0749929 0.0649001 0.0731584 0.0749929 0.0727373
          0.0649001 0.0731584 0.0749929 0.0727373 0.0731584 0.0804062
          -0.0128015 -0.0116458 -0.00953853 -0.0117923 -0.00944941 -0.0116458
          -0.0117923 -0.00953853 -0.0112706 -0.00998593 -0.00790277 -0.00821885
          -0.0122154 -0.0101472 -0.010768 -0.0112706 -0.0112706 -0.0100866
          -0.00790277 -0.00998593 -0.0026124 -2.51321e-05 0.00478053 0.00260366
          -0.0026124 5.29779e-05 0.00478053 -2.51321e-05 -0.0026124 -0.00701453
          5.29779e-05 -2.51321e-05 -2.51321e-05 -0.0026124 -0.00701453 -0.00281992
          -2.51321e-05 -0.00641771 -0.0026124 -0.00281992 -0.0026124 -0.00641771
          -0.00701453 -0.00281992 -0.0026124 -0.00641771 -0.00750152 -0.00701453
          -0.0129756 -0.0140065 -0.0142089 -0.0129857 -0.0129756 -0.0140065
          -0.0129857 -0.01342 -0.0129756 -0.0132648 -0.0142089 -0.0140065
          -0.0142089 -0.0138481 -0.0132648 -0.0129756 0.0971933 0.0922475
          0.0963202 0.0895988 0.0922475 0.0971933 0.0963202 0.0994953
          0.0922475 0.103799 0.0971933 0.0994953 0.103799 0.0994953
          0.10765 0.0971933 0.103799 0.0971933 0.10765 0.104195
          0.103799 0.0971933 0.104195 0.099153 -0.0172467 -0.0247358
          -0.0214738 -0.020683 0.104195 0.0971933 0.10765 0.100629
          0.0971933 0.0994953 0.10765 0.100629 0.0971933 0.0963202
          0.0994953 0.100629 -0.0214738 -0.0159403 -0.0148368 -0.0211777
          0 0 -0.000798352 -0.00345964 0 -0.00345964
          -0.000798352 -0.00443768 -0.00443768 -0.00222472 0 -0.00345964
          -0.000798352 -0.00345964 -0.00364772 -0.00443768 -0.000798352 -0.00345964
          0.000333111 -0.00364772 -0.000798352 0 0.000333111 -0.00345964
          -0.00345964 0 0.000333111 -0.00364772 0 -0.00282366
          0 -0.00345964 0 -0.00282366 -0.00345964 -0.00456851
          -0.00456851 -0.00282366 -0.00345964 -0.00847588 -0.00345964 -0.00282366
          -0.00555993 -0.00847588 -0.00345964 -0.00847588 -0.00555993 -0.00413169
          -0.00345964 -0.00847588 -0.00413169 -0.00591698 0 -0.00282366
          -0.00555993 -0.00345964 0.0442869 0.0486119 0.0511354 0.0430777
          -0.0180549 -0.0133371 -0.0172167 -0.0196739 -0.0180549 -0.0175449
          -0.0133371 -0.0196739 -0.0180549 -0.0153847 -0.0133371 -0.0175449
          -0.0153847 -0.0126734 -0.0180549 -0.0133371 -0.0153847 -0.0133371
          -0.0175449 -0.015471 -0.0153847 -0.0124395 -0.0133371 -0.015471
          -0.0133371 -0.0124395 -0.0175449 -0.015471 -0.0133371 -0.0124395
          -0.0150505 -0.0175449 -0.0133371 -0.0175449 -0.0150505 -0.0196739
          -0.0172167 -0.0133371 -0.0150505 -0.0196739 -0.0133371 -0.0150505
          -0.0130793 -0.0172167 -0.0201982 -0.0139796 -0.0141443 -0.0177132
          0.0968129 0.0931675 0.0976263 0.0985264 0.0165835 0.0214384
          0.026316 0.0149956 -0.0130793 -0.0117784 -0.0150505 -0.0133371
          -0.0130793 -0.00674395 -0.0117784 -0.00952224 0.0961793 0.0993781
          0.0948321 0.0968458 0.0948321 0.0968458 0.0951257 0.0955726
          0.0935405 0.0968458 0.0948321 0.0955726 -0.0152032 -0.0202973
          -0.0184435 -0.0173095 -0.0141714 -0.0143898 -0.0125329 -0.0122154
          0.0988924 0.1075 0.104812 0.0993376 -0.0157141 -0.0129857
          -0.0163881 -0.0142089 -0.0157141 -0.0142089 -0.0163881 -0.0143225
          -0.0157141 -0.0163881 -0.0182685 -0.0143225 -0.0143225 -0.0159618
          -0.0163881 -0.0182685 -0.0143225 -0.0159618 -0.0142089 -0.0163881
          -0.0163881 -0.0150371 -0.0159618 -0.0142089 -0.0133178 -0.0122154
          -0.0116704 -0.0125329 0.0638716 0.0542829 0.0599948 0.058239
          0.0496291 0.057476 0.0542829 0.0572523 -0.00903642 -0.00339795
          -0.00842294 -0.00834367 -0.0260363 -0.0184729 -0.020683 -0.0182206
          -0.0184729 -0.022248 -0.0189928 -0.0155189 -0.00834367 -0.00903642
          -0.0122022 -0.00842294 -0.00498123 -0.00339795 -0.00903642 -0.00834367
          -0.0145272 -0.0129574 -0.0145598 -0.0126718 -0.0136582 -0.0133311
          -0.0132634 -0.0129574 -0.0136582 -0.0129574 -0.0145272 -0.0126718
          -0.0145272 -0.0129574 -0.0170253 -0.0145598 0.0584996 0.0583691
          0.0667901 0.0677137 0.0614825 0.064407 0.0667901 0.0584996
          0.0700438 0.0614825 0.0667901 0.0660669 -0.0116895 -0.0106223
          -0.0132619 -0.0116014 -0.0116895 -0.0106223 -0.0116014 -0.0085829
          -0.0116014 -0.0141968 -0.01342 -0.0106223 -0.0106223 -0.01342
          -0.0116014 -0.0100434 0.0190544 0.0214733 0.0270713 0.0276488
          0.0275463 0.0214733 0.0276488 0.0270713 -0.0132045 -0.0131649
          -0.011999 -0.0116014 -0.0132045 -0.0116014 -0.011999 -0.00839467
          0.00584569 0.0053151 0.013872 0.0092244 -0.0132091 -0.00974557
          -0.0123001 -0.0115942 -0.0147362 -0.00688996 -0.0114026 -0.00597124
          0.0433722 0.040404 0.0428983 0.0354399 -0.00688996 -0.00613969
          -0.0114026 -0.00597124 0.0428983 0.040404 0.0419076 0.0354399
          0.040404 0.0401223 0.0419076 0.0354399 0.0473978 0.0485772
          0.0506828 0.0433722 0.0561299 0.0506828 0.0473978 0.0485772
          0.0485772 0.041583 0.0521232 0.0401223 0.0493815 0.041583
          0.0485772 0.0401223 0.0712302 0.0694311 0.0762057 0.0639772
          0.0763853 0.072694 0.0639893 0.0739216 0.0763853 0.072694
          0.0739216 0.0794948 0.0908914 0.0763853 0.0739216 0.0794948
          0.0763853 0.0794948 0.0908914 0.0866501 0.0807888 0.0763853
          0.0908914 0.0866501 0.0807888 0.0794948 0.0763853 0.0866501
          0.0807888 0.072694 0.0763853 0.0794948 -0.00994833 -0.00800935
          -0.00499197 -0.00495617 -0.00994833 -0.0107869 -0.00800935 -0.00822523
          -0.00998447 -0.00460077 -0.0109623 -0.00438932 -0.0109623 -0.00460077
          -0.0152121 -0.00438932 -0.0109623 -0.0102896 -0.0152121 -0.00460077
          -0.00702655 -0.0109596 -0.00708722 -0.00994981 -0.00994981 -0.00790873
          -0.00708722 -0.00702655 0.0390901 0.0349137 0.0442774 0.0449968
          0.0449968 0.0375999 0.0452472 0.0486119 -0.0133178 -0.0120173
          -0.0111888 -0.0122154 -0.0122154 -0.0140178 -0.0133178 -0.0120173
          -0.0140178 -0.0133178 -0.0143898 -0.0122154 -0.015154 -0.0145928
          -0.015396 -0.0167668 0.0449968 0.0349137 0.0442774 0.0422139
          -0.0140178 -0.0149003 -0.0143898 -0.0133178 -0.0176787 -0.0180922
          -0.016142 -0.0188984 -0.016142 -0.0180922 -0.0153294 -0.0159958
          -0.00740716 -0.00368403 -0.00674395 -0.00529419 -0.00740716 -0.00368403
          -0.00529419 -0.00214796 -0.00779109 -0.00368403 -0.00740716 -0.00214796
          -0.00740716 -0.00779109 -0.00214796 -0.00354039 0.00594671 -0.0031679
          0.00584569 -0.0055628 -0.00779109 -0.00368403 -0.00674395 -0.00740716
          -0.0100434 -0.00740716 -0.00529419 -0.00839467 -0.0100434 -0.0106223
          -0.00740716 -0.00839467 -0.0126734 -0.00740716 -0.0100434 -0.0106223
          -0.0106223 -0.00839467 -0.0085829 -0.00740716 0.0694311 0.0597525
          0.0608877 0.0607576 0.0608877 0.0677137 0.0694311 0.0607576
          0.0608877 0.0584996 0.0607576 0.0543238 0.0584996 0.0583691
          0.0607576 0.0543238 0.0584996 0.0583691 0.0677137 0.0607576
          0.0607576 0.0677137 0.0626744 0.0583691 0.0607576 0.0626744
          0.0677137 0.069947 0.0543238 0.0493815 0.0583691 0.0607576
          0.0897619 0.0922335 0.0938949 0.0906953 0.0132645 0.0156658
          0.0225269 0.0127976 0.0132645 0.0190544 0.0225269 0.0156658
          0.0190544 0.0194951 0.0225269 0.0156658 0.0190544 0.0214733
          0.0194951 0.0156658 0.0194951 0.0117331 0.0114892 0.0156658
          -0.00345068 0.000732152 -0.00346981 0.00659027 -0.00345068 0.00659027
          -0.00346981 0.00231494 -0.00345068 0.000732152 -0.00438932 -0.00346981
          -0.00345068 -0.00438932 -0.00998447 -0.00346981 -0.00197492 0.00224888
          -0.00343188 -0.00385626 0.058239 0.0599948 0.0610013 0.0485009
          0.0610013 0.0519682 0.058239 0.0485009 0.0610013 0.0519682
          0.0617354 0.058239 9.87133e-05 0.00231494 -0.00615696 -0.00358364
          0.058239 0.0617354 0.0708743 0.0583567 -0.00908123 -0.00938039
          -0.00615696 -0.00358364 0.0583567 0.057476 0.070367 0.058239
          0.041583 0.0457958 0.0521232 0.0401223 0.041583 0.0364686
          0.0457958 0.0401223 0.0519682 0.0583567 0.0617354 0.058239
          -0.000485042 -0.00579803 0.000251628 -0.00727612 -0.00222472 -0.00244935
          0 0 -0.00244935 0 0 0
          -0.00244935 -0.000736465 0 0 -0.00244935 -0.000736465
          -0.000992811 0 -0.00244935 -0.000992811 -0.00396656 0
          -0.0064143 -0.00244935 -0.00396656 0 -0.00244935 -0.0064143
          0 0 -0.00148098 -0.000736465 -0.000992811 -0.00244935
          -0.00268011 -0.00148098 -0.000992811 -0.00244935 -0.0084688 -0.00832996
          -0.0122022 -0.00370727 -0.0147054 -0.0175004 -0.0175464 -0.0149838
          -0.0147054 -0.0149838 -0.0175464 -0.0153733 -0.0149838 -0.0175004
          -0.0175464 -0.0153733 0.064407 0.0677137 0.0712148 0.0725458
          0.064407 0.0712148 0.0656661 0.0725458 0.064407 0.0712148
          0.0583691 0.0656661 0.064407 0.0677137 0.0583691 0.0712148
          0.0583691 0.0680971 0.0656661 0.0712148 0.0656661 0.0680971
          0.073621 0.0712148 0.0656661 0.0712148 0.073621 0.0725458
          0.0712148 0.073621 0.0802136 0.0680971 -0.0159958 -0.0138764
          -0.0147393 -0.0139518 -0.00974557 -0.00871713 -0.00593256 -0.00900353
          -0.0131649 -0.0110955 -0.011999 -0.0116014 -0.0123001 -0.00948852
          -0.00861598 -0.00974557 0.00696049 0.0101018 0.0204591 0.0159505
          -0.00753719 -0.00874778 -0.011447 -0.00986613 -0.00753719 -0.00504081
          -0.00874778 -0.00986613 -0.00753719 -0.00965086 -0.00874778 -0.00504081
          -0.00753719 -0.00965086 -0.011447 -0.00874778 -0.011447 -0.00874778
          -0.00965086 -0.0116458 -0.00986613 -0.0068226 -0.00504081 -0.00874778
          -0.0068226 -0.00504081 -0.00874778 -0.00382754 -0.0068226 -0.00874778
          -0.00774906 -0.00382754 0 0 -0.00767366 -0.00348063
          -0.00348063 -0.00767366 -0.0109318 0 -0.0115173 -0.0101082
          -0.0128463 -0.0135258 -0.00774906 -0.00874778 -0.0108072 -0.00382754
          -0.00874778 -0.0108072 -0.012431 -0.00774906 -0.00874778 -0.00504081
          -0.0108072 -0.00382754 -0.00874778 -0.0108072 -0.00504081 -0.00403773
          -0.0119405 -0.00867774 -0.00998045 -0.00949131 -0.0031679 -0.0026124
          0.00212618 -0.00493176 0.00212618 5.29779e-05 0.00478053 -0.0026124
          -0.0026124 0.00478053 0.00212618 0.00260366 0.00212618 0.0053151
          0.0092244 0.00478053 0.0092244 0.00212618 0.00478053 0.00260366
          -0.00236865 5.29779e-05 0.00212618 -0.0026124 -0.00236865 -0.0026124
          0.00212618 -0.0031679 -0.0152032 -0.0107902 -0.0119405 -0.0114026
          -0.0152032 -0.0119405 -0.0184435 -0.0114026 -0.0119405 -0.0152032
          -0.0184435 -0.0173095 -0.0125083 -0.0173095 -0.0152032 -0.0119405
          -0.0125083 -0.0119405 -0.0152032 -0.0107902 -0.0119405 -0.0173095
          -0.014953 -0.0125083 -0.020683 -0.0159403 -0.0148368 -0.0214738
          0.0937414 0.0993781 0.0968458 0.0953534 -0.0159403 -0.0214738
          -0.0177132 -0.0140032 0.0937414 0.099153 0.0993781 0.0992951
          0.099153 0.104195 0.0993781 0.0992951 0.0971933 0.0992951
          0.0953553 0.0963202 -0.018359 -0.0163022 -0.0152705 -0.0155189
          -0.018359 -0.0163022 -0.0155189 -0.0129255 -0.018359 -0.0129255
          -0.0155189 -0.0136174 -0.018359 -0.0155189 -0.0182206 -0.0136174
          0.0362804 0.0354399 0.0428983 0.0419076 0.0362804 0.0428983
          0.045842 0.0419076 0.0428983 0.0362804 0.0401373 0.0354399
          0.0362804 0.0324135 0.0401373 0.0354399 0.0362804 0.0324135
          0.0354399 0.0283266 0.0362804 0.0283266 0.0354399 0.0267211
          0.0362804 0.0324135 0.0283266 0.0297041 0.0297041 0.0279604
          0.0283266 0.0362804 -0.0110197 -0.0107869 -0.0108072 -0.00965086
          -0.0152705 -0.0162388 -0.0147507 -0.0163022 -0.0152705 -0.0162388
          -0.0139847 -0.0147507 -0.0147507 -0.0163022 -0.0162388 -0.0184706
          -0.0187996 -0.016901 -0.0126816 -0.014071 -0.0129574 -0.00998447
          -0.0109623 -0.0170253 -0.0145272 -0.0132634 -0.0137039 -0.0129574
          -0.0187996 -0.0198767 -0.016901 -0.014071 -0.0147507 -0.0141968
          -0.0138029 -0.0163022 0.0378947 0.0342104 0.025394 0.0331244
          0.0185475 0.009434 0.0214812 0.0101018 0.0214812 0.009434
          0.0147905 0.0101018 0.0214812 0.0101018 0.0147905 0.00998128
          0.0298942 0.0382422 0.0297779 0.0331244 0.0185475 0.0214812
          0.0186287 0.0101018 0.00998128 0.0246008 0.0147905 0.0214812
          0.0159505 0.0246008 0.00998128 0.0214812 0.0388482 0.0382422
          0.0448283 0.0331244 0.099271 0.101508 0.101203 0.0931621
          -0.0174144 -0.0145331 -0.0109318 -0.0105734 0.00185096 -0.00488907
          0.00173919 -0.000792662 0.00185096 -0.00498123 -0.00488907 -0.000792662
          -0.000792662 -0.00152772 0.00185096 -0.00498123 0.0780598 0.0648493
          0.0722326 0.0654663 0.0780598 0.0648493 0.0654663 0.0719055
          0.067363 0.0654663 0.0722326 0.0648493 -0.00286856 -0.000792662
          -0.00508143 -0.010044 -0.00508143 -0.000792662 -0.0074673 -0.010044
          0.000570539 -0.000792662 -0.0074673 -0.00508143 0.000570539 -0.000792662
          -0.00488907 -0.0074673 -0.000792662 -0.00488907 0.00173919 0.000570539
          -0.000792662 -0.00498123 -0.00488907 -0.0074673 -0.000792662 -0.00498123
          -0.0074673 -0.010044 0.067363 0.0600215 0.0654663 0.0648493
          0.0053151 0.0101018 0.013872 0.0118168 0.0485009 0.0457958
          0.0391504 0.0435662 -0.00688996 -0.00597124 0.0034827 -0.00197492
          -0.00688996 -0.00197492 0.0034827 -0.0011597 0.0935983 0.0935405
          0.0908349 0.0927761 -0.0011597 -0.0077584 -0.00688996 -0.00539303
          -0.0147362 -0.0107902 -0.0114026 -0.00688996 -0.00236865 0.00212618
          0.0053151 -0.0031679 -0.00688996 -0.00617679 -0.0114026 -0.00613969
          -0.00998447 -0.00428175 -0.00438932 -0.00345068 -0.00998447 -0.00460077
          -0.00438932 -0.00428175 -0.00428175 -0.0109623 -0.00998447 -0.00460077
          -0.00345068 -0.00428175 -0.00980449 -0.0100672 -0.0100672 -0.00428175
          -0.00980449 -0.0131762 -0.0100672 -0.0107643 -0.00428175 -0.0131762
          -0.0119491 -0.00900353 -0.0112095 -0.0115942 -0.0119491 -0.0138988
          -0.0151294 -0.0115942 -0.00921044 -0.00702655 -0.0109596 -0.00927824
          -0.00428175 0.00679275 -0.000891983 0.000732152 -0.00428175 0.00679275
          0.000732152 0.000932724 -0.00889233 -0.00953853 -0.00615696 -0.00448618
          0.05184 0.0510428 0.0449968 0.0442774 -0.0148368 -0.0184729
          -0.0156323 -0.0155189 -0.0155189 -0.0184729 -0.0131762 -0.0148368
          -0.0155189 -0.0182206 -0.0131762 -0.0184729 -0.0128705 -0.00900353
          -0.0112095 -0.0119491 -0.020683 -0.0184729 -0.0211777 -0.0148368
          -0.0211777 -0.0184729 -0.0156323 -0.0148368 -0.0211777 -0.0184729
          -0.0189928 -0.0156323 -0.0211777 -0.022248 -0.0189928 -0.0184729
          0.00963681 5.29779e-05 0.00478053 0.00696049 0.00963681 0.00185887
          5.29779e-05 0.00696049 0.0290619 0.030637 0.0375999 0.026316
          0.00478569 0.00696049 0.00509314 0.00963681 0.0290619 0.018373
          0.030637 0.026316 0.00696049 0.00478569 0.00185887 0.00185096
          0.00185887 0.00185096 0.00173919 0.00696049 0.00696049 0.00185887
          5.29779e-05 0.00173919 0.00210831 0.000251628 0.00623301 -0.00508143
          0.0485009 0.0457958 0.0435662 0.0521232 0.00696049 0.00478569
          0.00185096 0.00944826 0.00696049 0.00944826 0.00998128 0.0159505
          -0.01385 -0.0155531 -0.0153294 -0.0128604 -0.01385 -0.0150371
          -0.0155531 -0.0128604 0.0765293 0.0763853 0.0704512 0.0798208
          -0.0159958 -0.0186037 -0.016129 -0.0167399 0.0875869 0.09271
          0.0994953 0.0963202 0.0875869 0.0895988 0.09271 0.0963202
          0.0875869 0.0895988 0.0883189 0.09271 0.09271 0.0875869
          0.0765293 0.0883189 0.09271 0.0895988 0.0883189 0.0963202
          0.0994953 0.0963202 0.09271 0.101595 0.0994953 0.09271
          0.0977652 0.101595 0.09271 0.0876825 0.0994953 0.0977652
          -0.0112966 -0.00921344 -0.00966033 -0.00839904 -0.00864801 -0.00670828
          -0.00966033 -0.00518339 -0.00864801 -0.00966033 -0.0100554 -0.00518339
          -0.00864801 -0.00518339 -0.0100554 -0.00610029 -0.0117775 -0.0127238
          -0.0135718 -0.0138379 -0.0169444 -0.0155531 -0.0176787 -0.0180922
          -0.0139847 -0.0101082 -0.0135258 -0.0137518 -0.00448618 -0.0118541
          -0.00834925 -0.00944941 -0.0135258 -0.0139847 -0.0137173 -0.0132634
          -0.0135258 -0.0137518 -0.0171154 -0.0137173 -0.0134479 -0.0137518
          -0.0171154 -0.0135258 -0.0135258 -0.0101082 -0.0134479 -0.0137518
          -0.00952224 -0.0086086 -0.0109875 -0.00927824 -0.00952224 -0.00779109
          -0.0126734 -0.0132095 -0.00952224 -0.00779109 -0.00740716 -0.0126734
          -0.00952224 -0.00740716 -0.0100434 -0.0126734 -0.00952224 -0.00740716
          -0.00529419 -0.0100434 -0.00952224 -0.00529419 -0.00633565 -0.0100434
          0.0290619 0.0149956 0.0214384 0.0199927 0.0290619 0.0214384
          0.026316 0.0290328 0.0976013 0.0985264 0.0996718 0.0967715
          0.0976013 0.0985264 0.103607 0.0996718 0.0996718 0.0985264
          0.103607 0.0997503 0.0996718 0.0929403 0.0985264 0.0997503
          0.0985264 0.0929403 0.0996718 0.0967715 0.0234903 0.0178141
          0.0279604 0.0183116 0.0190862 0.0183116 0.0140266 0.0178141
          0.0908914 0.0794948 0.0870027 0.0866501 0.0908914 0.0739216
          0.0870027 0.0794948 0.0985264 0.0976263 0.103607 0.102285
          0.0960197 0.0961351 0.0972136 0.0991194 0.00484992 9.87133e-05
          0.00210831 -0.00193784 0.00210831 9.87133e-05 -0.00448618 -0.00193784
          0.0102825 0.0145785 0.00623301 0.00590663 -0.0133081 -0.00880874
          -0.0107869 -0.0130007 -0.0130007 -0.00533943 -0.0133081 -0.00880874
          -0.0130007 -0.00533943 -0.00942437 -0.0133081 -0.0181342 -0.0130007
          -0.00942437 -0.0133081 -0.0181342 -0.0133081 -0.00942437 -0.013979
          -0.0181342 -0.024018 -0.0133081 -0.013979 -0.024018 -0.0133081
          -0.013979 -0.0207849 -0.024018 -0.0189245 -0.0133081 -0.0207849
          -0.0207849 -0.0189245 -0.0133081 -0.0184858 -0.0207849 -0.0133081
          -0.013979 -0.0184858 -0.0133081 -0.00181342 -0.00942437 -0.013979
          -0.00181342 -0.0133081 -0.00211367 -0.013979 -0.00181342 -0.00880874
          -0.00211367 -0.0133081 -0.000960639 -0.00181342 -0.0133081 -0.00880874
          -0.00533943 -0.000960639 -0.0133081 -0.00880874 -0.00533943 -0.000960639
          -0.00942437 -0.0133081 -0.000960639 -0.00181342 -0.00942437 -0.0133081
          0.0883189 0.0734616 0.0641616 0.0809897 0.0883189 0.0734616
          0.092674 0.0908914 0.0883189 0.0734616 0.0809897 0.092674
          0.0883189 0.0763853 0.0641616 0.0734616 0.0883189 0.0763853
          0.0734616 0.0739216 0.0147905 0.00628365 0.0025933 -0.00211367
          0.0165835 0.0183116 0.0241004 0.0214384 0.0893821 0.0897648
          0.086149 0.0837749 0.0897648 0.0893821 0.0915396 0.0837749
          -0.0011597 0.0034827 0.00664006 0.000676097 0.000676097 -0.00688996
          -0.00197492 -0.00539303 -0.0135718 -0.0143225 -0.0144426 -0.0155909
          0.0740713 0.070367 0.0709724 0.0796129 -0.0138379 -0.0143225
          -0.0135718 -0.0155909 0.0943034 0.0935983 0.0968129 0.0976013
          0.0968129 0.0935983 0.0985264 0.0976013 0.0968129 0.0935983
          0.0931675 0.0985264 0.0935983 0.0929403 0.0931675 0.0985264
          0.0935983 0.0929403 0.0985264 0.0967715 0.0976013 0.0935983
          0.0985264 0.0967715 0.0967715 0.0876495 0.0935983 0.0929403
          0.111304 0.10803 0.112242 0.112338 0.0935983 0.0876495
          0.0931675 0.0929403 0.0876495 0.0872112 0.0935983 0.0931675
          0.0935983 0.0872112 0.0895988 0.0931675 0.0935983 0.0895988
          0.0953534 0.0931675 -0.0129255 -0.00708235 -0.0126816 -0.00934427
          0.0832243 0.088585 0.0841291 0.0904408 0.0841291 0.088585
          0.0956028 0.0904408 -0.0129255 -0.00812965 -0.0126816 -0.00708235
          0.0841291 0.088585 0.0918153 0.0956028 0.0841291 0.0824615
          0.0918153 0.088585 0.0841291 0.0918153 0.0824615 0.0875151
          0.0190862 0.0158844 0.0140266 0.0139395 0.0568305 0.0572903
          0.0656661 0.0583691 0.0139395 0.0114123 0.0100494 0.0151683
          0.0139395 0.0100494 0.0114123 0.00686604 0.0908349 0.0876495
          0.0892035 0.0849973 0.0908349 0.0876495 0.0849973 0.0805968
          -0.0162666 -0.0147054 -0.0145944 -0.0149838 -0.0162666 -0.0145944
          -0.0164017 -0.0149838 -0.0162666 -0.0145944 -0.0154864 -0.0164017
          0.0132645 0.0115894 0.0156658 0.00822017 0.0132645 0.00822017
          0.0156658 0.0127976 -0.0136552 -0.01385 -0.0145944 -0.0133876
          0.00822017 0.0114892 0.0156658 0.0195054 0.0115894 0.0114892
          0.0156658 0.00822017 -0.0149838 -0.0145944 -0.0164017 -0.01385
          -0.0149838 -0.0147054 -0.0145944 -0.01385 -0.01385 -0.0147054
          -0.0145944 -0.0133876 0.021662 0.0340728 0.0246422 0.0209412
          0.0831428 0.0833918 0.0915396 0.0849373 0.0893821 0.0833918
          0.0915396 0.0831428 0.0893821 0.0831428 0.0915396 0.0837749
          0.0893821 0.0833918 0.0831428 0.0837749 0.0139789 0.0146023
          0.0209412 0.0165835 0.0910084 0.0837749 0.0915396 0.0831428
          0.0910084 0.0831428 0.0915396 0.0887192 0.0831428 0.07594
          0.0859182 0.0779443 0.0376856 0.0442869 0.0435662 0.0511354
          -0.0112095 -0.00903024 -0.0119435 -0.0117847 -0.0112095 -0.00903024
          -0.0117847 -0.00930884 -0.0109702 -0.00930884 -0.0112095 -0.0117847
          -0.0117847 -0.00903024 -0.0119435 -0.00930884 -0.0117847 -0.00930884
          -0.0119435 -0.0101426 -0.0136552 -0.0119435 -0.0117847 -0.01385
          -0.0136552 -0.0117847 -0.0118386 -0.01385 -0.0136552 -0.0119435
          -0.0118386 -0.0117847 -0.00871553 -0.00832996 -0.00977107 -0.018657
          -0.00871553 -0.00152772 -0.00977107 -0.00832996 -0.00370727 -0.00152772
          -0.00871553 -0.00832996 -0.018657 -0.00832996 -0.00977107 -0.010044
          -0.018657 -0.00832996 -0.010044 -0.0141182 -0.018657 -0.0122022
          -0.00832996 -0.0141182 -0.0136001 -0.0155909 -0.0163672 -0.0178131
          -0.0136001 -0.0155909 -0.0147507 -0.0163672 -0.0147507 -0.0163672
          -0.0141968 -0.0163022 -0.0163672 -0.0155909 -0.0157141 -0.0178131
          -0.0178131 -0.0202491 -0.0157141 -0.0163672 0.0552688 0.0648493
          0.0612821 0.0654663 0.0639908 0.0612821 0.0648493 0.0654663
          0.0639908 0.0654663 0.0648493 0.0684555 0.0639908 0.0612821
          0.0654663 0.0684555 0.0684555 0.0612821 0.0654663 0.0719055
          0.0684555 0.0654663 0.0648493 0.0719055 0.0612821 0.0719055
          0.069947 0.0654663 0.0612821 0.0654663 0.069947 0.0639772
          -0.00688212 -0.00749906 -0.00467209 -0.00783675 -0.00688212 -0.00783675
          -0.00467209 -0.00439551 -0.00688212 -0.00439551 -0.00651799 -0.00783675
          -0.00930884 -0.00688212 -0.00651799 -0.00783675 -0.00930884 -0.00783675
          -0.00651799 -0.00669444 -0.00783675 -0.00439551 -0.00651799 -0.00669444
          -0.00783675 -0.00871713 -0.00467209 -0.00439551 -0.00783675 -0.00749906
          -0.00467209 -0.00871713 0.0442869 0.0375999 0.0486119 0.0430777
          0.0987585 0.0985842 0.0933328 0.0942488 0.107926 0.103492
          0.105508 0.102758 0.0376856 0.0375999 0.0442869 0.0430777
          0.0457958 0.0326024 0.0391504 0.0364686 0.0391504 0.0457958
          0.0364686 0.0419076 0.107926 0.10664 0.102758 0.105508
          0.0457958 0.0521232 0.0401223 0.0419076 0.0364686 0.0457958
          0.0401223 0.0419076 0.0457958 0.0506082 0.0599948 0.0485009
          -0.00640648 -0.00480447 -0.00787858 -0.0112065 -0.00787858 -0.0112065
          -0.00998045 -0.00640648 -0.00268011 -0.0050596 -0.00640648 -0.00787858
          -0.0050596 -0.00640648 -0.00787858 -0.00867774 -0.016316 -0.014775
          -0.0186162 -0.016824 -0.015471 -0.016129 -0.0138764 -0.0154642
          0.0498687 0.0575983 0.060776 0.0545551 0.0226921 0.0183968
          0.0109529 0.018373 -0.0149838 -0.0175004 -0.0179139 -0.0138988
          -0.0119697 -0.0122415 -0.012174 -0.0129756 -0.0122415 -0.0129756
          -0.0119697 -0.0131649 0.0342262 0.0270713 0.0297779 0.0276488
          -0.0119697 -0.0103014 -0.0101949 -0.0122415 -0.0131014 -0.0129756
          -0.0122415 -0.0131649 -0.0122415 -0.0131014 -0.012174 -0.0129756
          -0.0131014 -0.0119508 -0.0122415 -0.012174 -0.0122415 -0.0108474
          -0.0139856 -0.0101949 0.0159505 0.0246008 0.0214812 0.0204591
          0.0189193 0.0156658 0.0225269 0.0278946 0.0331866 0.0326986
          0.0272575 0.025394 0.0272575 0.025394 0.0278946 0.0331866
          0.0650225 0.0656273 0.070367 0.0740713 0.0740713 0.057476
          0.070367 0.0650225 0.0650225 0.0656273 0.0740713 0.0745767
          0.0225269 0.0275463 0.0276488 0.0278946 0.0278946 0.0156658
          0.0225269 0.0275463 0.0189193 0.0156658 0.0278946 0.0275463
          0.0189193 0.0275463 0.0278946 0.025394 0.0189193 0.0194951
          0.0275463 0.025394 0.0189193 0.0156658 0.0275463 0.0194951
          0.0275463 0.0156658 0.0225269 0.0194951 0.0194951 0.021662
          0.0275463 0.025394 0.0331244 0.0275463 0.021662 0.025394
          0.025394 0.0331244 0.0275463 0.0331866 0.025394 0.0275463
          0.0278946 0.0331866 0.0278946 0.0275463 0.0330849 0.0331866
          0.0278946 0.0275463 0.0276488 0.0330849 0.0342262 0.0275463
          0.0330849 0.0276488 0.0342262 0.0297779 0.0275463 0.0276488
          0.0342262 0.0297779 0.0330849 0.0275463 0.0297779 0.0382422
          0.0330849 0.0275463 0.0275463 0.0382422 0.0330849 0.0388482
          0.0275463 0.0388482 0.0330849 0.0331866 0.0331244 0.0388482
          0.0275463 0.0331866 0.0331244 0.0382422 0.0275463 0.0388482
          -0.0142089 -0.0138481 -0.0129756 -0.0146771 -0.0159618 -0.0142383
          -0.0143225 -0.0146771 -0.0150371 -0.01385 -0.0146771 -0.0136552
          -0.0159618 -0.0150371 -0.0164017 -0.0146771 -0.0159618 -0.0164017
          -0.0154864 -0.0146771 -0.0159618 -0.0146771 -0.0142089 -0.0150371
          0.0841291 0.0904408 0.0956028 0.0901879 0.0832243 0.0904408
          0.0841291 0.0901879 0.0846894 0.0832243 0.0841291 0.0901879
          -0.0146771 -0.0136552 -0.0142089 -0.0150371 0.0793398 0.0832243
          0.0846894 0.0901879 0.0793398 0.0832243 0.0901879 0.0868215
          0.0832243 0.0904408 0.0901879 0.0868215 0.0901879 0.0949824
          0.0922475 0.0906245 -0.00708235 -0.00839467 -0.0085829 -0.00504061
          -0.00708235 -0.0085829 -0.0116895 -0.00504061 -0.0106223 -0.0085829
          -0.0116895 -0.00708235 -0.0106223 -0.00740716 -0.0085829 -0.00708235
          -0.00812965 -0.00740716 -0.0106223 -0.00708235 -0.00740716 -0.00839467
          -0.0085829 -0.00708235 -0.00740716 -0.00214796 -0.00839467 -0.00708235
          0.0038756 -0.0031679 0.00584569 0.00594671 0.00594671 0.0038756
          0.0125122 0.00584569 0.00594671 0.0163716 0.00584569 0.0125122
          -0.0159958 -0.0147393 -0.0128252 -0.0139518 -0.00974557 -0.00593256
          -0.00711215 -0.00900353 -0.00998517 -0.0123134 -0.00659314 -0.011639
          -0.00998517 -0.0140032 -0.0123134 -0.0116458 -0.0068226 -0.00418842
          -0.00774906 -0.00998517 -0.0068226 -0.00998517 -0.00774906 -0.00874778
          -0.00998517 -0.0068226 -0.00986613 -0.00874778 -0.00732795 -0.00986348
          -0.00867774 -0.0104179 -0.00870799 -0.00418842 -0.0068226 -0.00998517
          -0.0064143 -0.00357756 0 -0.00767366 -0.0064143 -0.00357756
          0 0 -0.0169045 -0.0166017 -0.0203243 -0.0145598
          0.0561024 0.0570944 0.0546587 0.0500391 0.0500391 0.0570944
          0.0546587 0.045926 0.0894653 0.0786899 0.0785431 0.0809897
          0.0646988 0.0639893 0.0763853 0.0694965 0.0646988 0.0763853
          0.0765293 0.0694965 -0.0128252 -0.0119604 -0.00994981 -0.010768
          -0.0123134 -0.0111707 -0.0128463 -0.0115173 0.0694965 0.0731584
          0.0807888 0.0766639 0.0694965 0.0731584 0.072694 0.0807888
          0.0146023 0.0151683 0.021662 0.0165835 -0.00880874 -0.00451818
          -0.00800935 -0.00488907 -0.00880874 -0.00800935 -0.0107869 -0.00488907
          -0.0107869 -0.00800935 -0.00731356 -0.00488907 -0.00800935 -0.0107869
          -0.00731356 -0.00822523 -0.00495617 -0.00800935 -0.00731356 -0.00822523
          -0.00731356 -0.00800935 -0.00495617 -0.00451818 -0.00800935 -0.00451818
          -0.00731356 -0.00488907 -0.00800935 -0.00281992 -0.00495617 -0.00451818
          -0.00800935 -0.00701453 -0.00281992 -0.00451818 -0.00800935 -0.00701453
          -0.00641771 -0.00281992 -0.00800935 -0.0116166 -0.00641771 -0.00701453
          -0.00197492 0.00224888 0.00594786 0.00867015 0.00224888 -0.00197492
          0.000676097 0.00867015 0.058239 0.0583567 0.0709724 0.070367
          0.058239 0.0583567 0.0708743 0.0709724 0.0709724 0.0617354
          0.0708743 0.058239 0.0610013 0.0617354 0.0709724 0.058239
          0.0709724 0.0599948 0.0610013 0.058239 0.0610013 0.0740901
          0.0599948 0.0709724 0.0610013 0.0709724 0.0708743 0.0740901
          0.0610013 0.0617354 0.0708743 0.0709724 0.0599948 0.0680971
          0.0709724 0.0740901 0.0709724 0.0740901 0.0680971 0.0760461
          0.0709724 0.0583567 0.0708743 0.070367 0.0709724 0.070367
          0.0708743 0.0796129 -0.00448618 -0.00953853 -0.00615696 -0.00727612
          -0.00448618 9.87133e-05 -0.00615696 -0.00193784 9.87133e-05 0.00231494
          -0.00627446 -0.00615696 0.0654663 0.0584848 0.0612821 0.0538991
          0.0654663 0.0639772 0.0612821 0.0584848 0.0584848 0.0639772
          0.0612821 0.0538991 0.0639772 0.0584848 0.0561299 0.0538991
          0.0639772 0.0607576 0.0561299 0.0584848 0.0639772 0.0607576
          0.0584848 0.0540566 0.0584848 0.0607576 0.0561299 0.0540566
          0.0540566 0.0561299 0.0584848 0.0509021 0.0584848 0.0509021
          0.0561299 0.0538991 0.0929403 0.0908914 0.0955917 0.0880509
          0.0929403 0.0908914 0.0985264 0.0955917 0.0976263 0.0955917
          0.0985264 0.0908914 0.0976263 0.0897636 0.0955917 0.0908914
          0.00105064 0.00262799 -0.00492085 -0.00400199 0.00105064 0.00262799
          -0.00400199 0.00142762 -0.00400199 0.00262799 -0.0034695 0.00142762
          -0.00400199 0.00142762 -0.0034695 -0.00369529 0.105429 0.0983866
          0.0985842 0.10035 0.105429 0.10035 0.0985842 0.10664
          -0.00400199 -0.00948852 -0.00861598 -0.0034695 -0.0034695 -0.00400199
          -0.00948852 -0.0041933 -0.00400199 0.00262799 -0.0041933 -0.0034695
          -0.00492085 0.00262799 -0.0041933 -0.00400199 -0.00400199 -0.00492085
          -0.00948852 -0.0041933 0.101212 0.0824418 0.0902565 0.0824418
          0.0824418 0.101212 0.0902565 0.101212 0.0824418 0.101212
          0.0947307 0.0902565 0.0902565 0.0951903 0.0947307 0.0824418
          0.101212 0.0947307 0.0902565 0.0957216 0.101212 0.0957216
          0.0902565 0.101212 0.0902565 0.0957216 0.0943187 0.101212
          0.0902565 0.0947307 0.0943187 0.0957216 0.0902565 0.092674
          0.0972424 0.0984366 0.0902565 0.092674 0.0984366 0.0943382
          0.0778226 0.0677137 0.0667901 0.0725458 0.0667901 0.064407
          0.0725458 0.0677137 0.0667901 0.0583691 0.064407 0.0677137
          0.0584996 0.0583691 0.064407 0.0667901 0.0705525 0.064407
          0.0725458 0.0667901 0.0667901 0.0705525 0.0775013 0.0725458
          0.0705525 0.0775013 0.0722704 0.0667901 0.0705525 0.0722704
          0.0787166 0.0667901 -0.0209799 -0.0224445 -0.021099 -0.0203243
          0.0433722 0.0485772 0.0506828 0.040404 0.0428983 0.040404
          0.0506828 0.0419076 0.0464779 0.0518298 0.0382422 0.045937
          0.0400479 0.0395448 0.0475958 0.0405689 0.0330087 0.0405689
          0.0395448 0.0400479 0.0330087 0.0405689 0.0342262 0.0396681
          0.0330087 0.0396681 0.0395448 0.0405689 0.0405689 0.0395448
          0.0464779 0.0396681 0.0405689 0.0395448 0.0475958 0.0464779
          -0.00635234 -0.00767366 -0.00779774 -0.0109318 -0.0102839 -0.00613969
          -0.00779774 -0.00316609 -0.0194334 -0.0114026 -0.0157642 -0.0147362
          -0.00443768 -0.00413169 -0.00364772 5.82853e-05 -0.0182243 -0.0150371
          -0.0146903 -0.0188984 -0.0120173 -0.0101035 -0.0122154 -0.0101472
          -0.0121653 -0.0120173 -0.0122154 -0.0101472 -0.0121653 -0.0101035
          -0.0120173 -0.0101472 -0.0120173 -0.0113241 -0.0121278 -0.0101035
          0.0493815 0.041583 0.0515351 0.0485772 -0.0126816 -0.0126734
          -0.0132095 -0.016901 -0.0132634 -0.0100672 -0.0109623 -0.0129574
          -0.0132634 -0.0100672 -0.0129574 -0.0133311 -0.0129574 -0.0100672
          -0.00998447 -0.0133311 -0.0129574 -0.0133311 -0.00998447 -0.0122948
          -0.0129574 -0.00998447 -0.0145598 -0.0122948 -0.0126718 -0.0129574
          -0.0145598 -0.0122948 -0.0126718 -0.0133311 -0.0129574 -0.0122948
          -0.0129574 -0.00998447 -0.0170253 -0.0145598 0.0798208 0.0883189
          0.0704512 0.0809897 0.0945086 0.0809897 0.0883189 0.0798208
          0.0876825 0.09271 0.0765293 0.0798208 0.0340728 0.0448283
          0.0422139 0.0452472 0.0448283 0.0340728 0.0422139 0.0331244
          0.0448283 0.0422139 0.0342104 0.0331244 0.0448283 0.0422139
          0.0450521 0.0342104 0.0422139 0.0450521 0.0510428 0.0448283
          0.0422139 0.0448283 0.0510428 0.0452472 0.0762001 0.0700373
          0.0731584 0.0819169 0.0422139 0.0479188 0.0510428 0.0450521
          0.0479188 0.0342104 0.0450521 0.0422139 0.0342104 0.0479188
          0.0341367 0.0422139 0.0342104 0.0422139 0.0341367 0.0349137
          0.0349137 0.0342104 0.0422139 0.0340728 0.0422139 0.0340728
          0.0342104 0.0331244 0.0422139 0.0479188 0.0341367 0.0349137
          0.0349137 0.0479188 0.0442774 0.0422139 0.00185887 -0.00421154
          -0.00370727 0.00181038 0.00181038 -0.00421154 0.000511914 0.000471272
          -0.00147667 0.00418987 0.00304432 0.00181038 -0.00147667 0.00181038
          0.000511914 0.00418987 0.10035 0.0985842 0.0987585 0.0946768
          0.00331069 0.00222036 -0.00173324 -2.51321e-05 -0.0145598 -0.00998447
          -0.0152121 -0.0104976 -0.00998447 -0.0109623 -0.0152121 -0.0104976
          -0.00998447 -0.0109623 -0.0104976 -0.00438932 -0.00346981 -0.00438932
          -0.00998447 -0.0104976 -0.0104976 -0.0109623 -0.0152121 -0.00438932
          0.0972424 0.0883189 0.092674 0.0943679 0.0972424 0.092674
          0.0976263 0.0943679 0.0943679 0.092674 0.0976263 0.0908914
          0.0943679 0.0883189 0.092674 0.0908914 0.0895988 0.0883189
          0.0943679 0.0908914 0.0895988 0.0943679 0.0931675 0.0908914
          -0.00980449 -0.00345068 -0.00627446 -0.00503266 -0.0101546 -0.00345068
          -0.00980449 -0.00503266 -0.0101546 -0.00345068 -0.00503266 -6.04137e-05
          -0.00503266 -0.00345068 -0.00627446 -6.04137e-05 -0.00503266 -6.04137e-05
          -0.00627446 9.87133e-05 -0.000485042 -6.04137e-05 -0.00503266 9.87133e-05
          -0.0141881 -0.0126734 -0.0159942 -0.0180549 0.0188651 0.0145785
          0.0137501 0.0129794 0.0145785 0.0102825 0.00484992 0.0129794
          0.0145785 0.00484992 0.00210831 0.0129794 0.0145785 0.00210831
          0.000570539 0.0129794 0.0129794 0.0145785 0.0137501 0.000570539
          0.0561024 0.060776 0.0627337 0.05297 0.0545551 0.0575983
          0.060776 0.0627337 0.0498687 0.0575983 0.0529727 0.060776
          -0.0123134 -0.0128463 -0.0146101 -0.0126718 -0.0123134 -0.0111707
          -0.0146101 -0.0128463 0.106625 0.0945086 0.103492 0.101595
          0.103492 0.101867 0.106625 0.101595 0.103492 0.101867
          0.107926 0.106625 -0.00348063 0 -0.0109318 -0.00635234
          0 0 -0.0109318 -0.00635234 0 -0.0025765
          -0.0109318 -0.00635234 -0.0109318 -0.0025765 -0.0127395 -0.00635234
          -0.0123001 -0.0152337 -0.0160632 -0.0121716 0.05297 0.0627337
          0.0561024 0.0650225 0.05297 0.0506828 0.0496291 0.045842
          -0.0147362 -0.015707 -0.0152032 -0.0105415 -0.00688996 -0.0147362
          -0.0105415 -0.00597124 0.0485772 0.0401223 0.0419076 0.040404
          0.0456925 0.0498687 0.0529727 0.0487549 0.0487549 0.0390306
          0.0456925 0.045842 0.0456925 0.0487549 0.0500391 0.0450642
          0.0468155 0.0487549 0.0561024 0.05297 -0.00348063 0.00090171
          0 -0.0036721 -0.00348063 0 0 0.00090171
          0.00090171 0 0 -0.0036721 0.0901879 0.0841291
          0.0917422 0.0956028 0.0846894 0.0841291 0.0917422 0.0901879
          0.0846894 0.0841291 0.0918153 0.0917422 0.0917422 0.0841291
          0.0918153 0.0956028 -0.0146771 -0.0138481 -0.0129756 -0.0136552
          -0.0146771 -0.0142383 -0.0143225 -0.0138481 -0.0146771 -0.0154864
          -0.0142383 -0.0138481 -0.0138481 -0.0154864 -0.0145944 -0.0146771
          -0.0138481 -0.0146771 -0.0145944 -0.0133876 -0.0146771 -0.0164017
          -0.0154864 -0.0145944 -0.0146771 -0.01385 -0.0164017 -0.0145944
          0.0249025 0.0290619 0.030637 0.0367894 -0.00147667 0.00304432
          0.00343406 0.00822017 0.00343406 0.00304432 0.0132645 0.00822017
          0.00822017 0.00304432 0.0132645 0.0115894 0.0115894 0.00710339
          0.00822017 0.00304432 0.0115894 0.00710339 0.0114892 0.00822017
          0.0114892 0.00822017 0.00710339 0.00418987 0.00822017 0.00304432
          0.00710339 0.00418987 0.0938932 0.0938949 0.101082 0.0906953
          0.0938932 0.0923967 0.101082 0.0938949 0.0952604 0.0938949
          0.101082 0.0923967 0.0952604 0.0973971 0.0938949 0.0923967
          0.0952604 0.0973971 0.104541 0.0938949 0.0952604 0.104541
          0.101082 0.0938949 0.104541 0.0973971 0.0940771 0.0938949
          0.092526 0.104541 0.0940771 0.0938949 0.0938949 0.0973971
          0.0940771 0.0923967 -0.0137283 -0.0139847 -0.0137518 -0.0116642
          -0.0136275 -0.0137283 -0.0137518 -0.0116642 -0.0137518 -0.0136275
          -0.0155281 -0.0137283 -0.0137283 -0.0136001 -0.0139847 -0.0116642
          0.00429118 0.0137501 0.000570539 0.00577853 -0.00977107 -0.010044
          -0.00834925 -0.0166346 -0.00977107 -0.00834925 -0.00546711 -0.0166346
          -0.00977107 -0.010044 -0.00546711 -0.00834925 -0.00508143 -0.00834925
          -0.00546711 -0.010044 -0.00508143 -0.0118541 -0.00834925 -0.010044
          -0.00834925 -0.0118541 -0.00508143 -0.00944941 -0.00834925 -0.0118541
          -0.0141443 -0.010044 -0.0141443 -0.0159403 -0.0118541 -0.00834925
          -0.0166346 -0.00546711 -0.0161269 -0.00834925 -0.00834925 -0.00546711
          -0.0161269 -0.00579803 0.00623301 0.00590663 0.000251628 0.00210831
          0.102614 0.100802 0.10293 0.10492 0.100802 0.0951903
          0.10293 0.10492 0.100802 0.0943382 0.0951903 0.10492
          0.0719055 0.0824615 0.0762057 0.0794021 0.0780598 0.0824615
          0.0719055 0.0794021 0.0627337 0.060776 0.0561024 0.0650225
          -0.0131223 -0.0102896 -0.0179958 -0.0170253 -0.0137039 -0.0131223
          -0.0179958 -0.0170253 -0.0137039 -0.0131223 -0.0170253 -0.0109623
          -0.0137039 -0.0102896 -0.0131223 -0.0109623 -0.0131223 -0.0102896
          -0.0170253 -0.0109623 0.0183116 0.0151683 0.0165835 0.0241004
          0.0211458 0.0241004 0.0151683 0.0183116 0.0211458 0.0183116
          0.0151683 0.0178233 0.0241004 0.0183116 0.0198814 0.0214384
          0.0183116 0.0198814 0.0279604 0.0241004 0.0178141 0.0198814
          0.0279604 0.0183116 0.0183116 0.013976 0.0178141 0.0198814
          0.0183116 0.013976 0.0198814 0.0214384 0.0183116 0.013976
          0.0140266 0.0178141 0.00628365 -0.00181342 -0.000960639 -0.00211367
          -0.00998045 -0.00504482 -0.00577718 -0.00783516 -0.00998045 -0.00577718
          -0.00617679 -0.00783516 0.0528332 0.0568305 0.064407 0.0583691
          0.0109529 0.00322875 0.00922241 0.00594671 -0.0179139 -0.0151294
          -0.0177062 -0.0153733 -0.00577718 -0.00357756 -0.00443768 -0.00222472
          0.0139789 0.0109529 0.00922241 0.00594671 -0.0114026 -0.00617679
          -0.00577718 -0.00613969 -0.0114026 -0.00577718 -0.00767366 -0.00613969
          -0.00613969 -0.00767366 -0.00071185 -0.00577718 0.0149956 0.0145488
          0.0101551 0.00569362 0.0149956 0.0101551 0.018373 0.00569362
          0.0183968 0.0101551 0.0109529 0.018373 -0.0128604 -0.0109702
          -0.0119604 -0.012833 -0.0145928 -0.0168699 -0.0149003 -0.0167668
          -0.0139518 -0.0128604 -0.0119604 -0.012833 -0.00927245 -0.0109596
          -0.0119604 -0.00994981 0.0894653 0.0809897 0.0943382 0.0903425
          0.0894653 0.0951903 0.0903425 0.0943382 0.0894653 0.0951903
          0.10293 0.0903425 0.0903425 0.0951903 0.10293 0.100802
          0.102614 0.0903425 0.10293 0.100802 0.102614 0.0903425
          0.100802 0.0974581 0.100802 0.0974581 0.0903425 0.0945086
          0.100802 0.0903425 0.0943382 0.0945086 0.0903425 0.0951903
          0.100802 0.0943382 0.0903425 0.0943382 0.0945086 0.0809897
          0.0903425 0.0809897 0.0945086 0.0825092 0.0974581 0.0903425
          0.0945086 0.0825092 0.0450642 0.0387796 0.0456925 0.0468155
          0.0450642 0.0387796 0.0468155 0.0395448 0.0400479 0.0395448
          0.0450642 0.0475958 0.0464779 0.0395448 0.0450642 0.0527487
          0.0450642 0.0468155 0.045937 0.0395448 -0.00877047 -0.00688996
          -0.0107902 -0.00539303 -0.00877047 -0.00617679 -0.0114026 -0.00688996
          -0.00617679 -0.00688996 -0.00877047 -0.00539303 -0.00927245 -0.0119604
          -0.010768 -0.00994981 0.0992951 0.100629 0.0953553 0.0963202
          0.0992951 0.104195 0.103169 0.100629 0.0993781 0.104195
          0.103169 0.0992951 0.0992951 0.0993781 0.100297 0.103169
          -0.0140032 -0.0211777 -0.0214738 -0.0161113 -0.0140032 -0.0214738
          -0.0177132 -0.0161113 -0.00994981 -0.00790873 -0.00821885 -0.00708722
          -0.00994981 -0.00821885 -0.00747016 -0.00708722 -0.00790873 -0.00998593
          -0.00994981 -0.00821885 -0.0100434 -0.0110955 -0.0116014 -0.00839467
          -0.012164 -0.00998517 -0.00986613 -0.0116458 -0.0100434 -0.00829571
          -0.0110955 -0.00839467 0.00998805 0.0151683 0.0165835 0.0183116
          0.013976 0.00998805 0.0165835 0.0183116 0.0183116 0.0140266
          0.013976 0.00998805 0.0527487 0.0549191 0.0570944 0.0577736
          -0.0209799 -0.0203243 -0.021099 -0.0145598 0.0468155 0.0561024
          0.0570944 0.0549191 0.05297 0.0561024 0.0468155 0.0549191
          0.05297 0.0561024 0.0549191 0.057476 0.057476 0.0650225
          0.0561024 0.0549191 0.057476 0.0650225 0.0549191 0.0656273
          0.0549191 0.0650225 0.0561024 0.0656273 0.0561024 0.0656273
          0.0570944 0.0549191 0.0549191 0.0656273 0.0570944 0.0577736
          0.101482 0.101508 0.104922 0.101203 0.099271 0.101482
          0.104922 0.101203 0.099271 0.101508 0.101482 0.101203
          0.099271 0.101508 0.0931621 0.101482 -0.0173093 -0.0105734
          -0.0127395 -0.0157642 0.101482 0.0922335 0.0931621 0.0985842
          0.101508 0.0922335 0.101482 0.0985842 0.0985842 0.105261
          0.101482 0.101508 0.0985842 0.105261 0.105429 0.101482
          0.101482 0.105261 0.105429 0.101508 0.101508 0.0922335
          0.0931621 0.101482 0.090798 0.0876495 0.0927309 0.0822369
          0.090798 0.0822369 0.0927309 0.0858855 0.0858855 0.0827915
          0.090798 0.0822369 0.104812 0.11019 0.112242 0.112338
          0.112242 0.11019 0.114842 0.112338 -0.00367405 0.00173919
          5.29779e-05 -0.00488907 -0.00367405 -0.00488907 5.29779e-05 -0.00451818
          -0.00367405 5.29779e-05 -0.00701453 -0.00451818 -0.00367405 -0.00701453
          -0.00800935 -0.00451818 -0.00880874 -0.00367405 -0.00800935 -0.00451818
          -0.00880874 -0.00488907 -0.00367405 -0.00451818 -0.00880874 -0.00701453
          -0.00800935 -0.00367405 0.0151683 0.0211458 0.0161199 0.0146023
          0.0151683 0.0211458 0.0146023 0.021662 0.0146023 0.0211458
          0.0161199 0.021662 -0.00974557 -0.00948852 -0.00861598 -0.00400199
          -0.00822036 -0.00948852 -0.00974557 -0.00400199 -0.00949131 -0.0102092
          -0.0095234 -0.0104179 -0.00949131 -0.0104179 -0.0095234 -0.0115354
          -0.0140032 -0.0116458 -0.012164 -0.011447 -0.012164 -0.0140032
          -0.00998517 -0.0116458 -0.0177132 -0.0140032 -0.012164 -0.011447
          -0.012164 -0.0116458 -0.00986613 -0.011447 -0.0177132 -0.012164
          -0.00986613 -0.011447 -0.0177132 -0.0161113 -0.012164 -0.0140032
          -0.01342 -0.0110955 -0.0119697 -0.0131649 -0.0131649 -0.0110955
          -0.0119697 -0.0122415 -0.0110955 -0.0103014 -0.0119697 -0.0122415
          -0.01342 -0.0100434 -0.0109875 -0.0110955 -0.0110955 -0.00829571
          -0.011999 -0.00839467 -0.0116014 -0.0110955 -0.011999 -0.00839467
          -0.0110955 -0.00829571 -0.0101949 -0.011999 0.0275463 0.0270713
          0.0276488 0.0297779 0.0275463 0.0214733 0.0270713 0.0297779
          -0.00792453 -0.00236865 -0.00910394 -0.00164808 -0.00910394 -0.0124198
          -0.00236865 -0.00792453 -0.00792453 -0.0031679 -0.000287921 -0.00734382
          0.0383668 0.0387796 0.0450642 0.0395448 0.0762001 0.0819169
          0.0731584 0.0766639 0.0452472 0.0569946 0.0541389 0.0518298
          0.045937 0.0452472 0.0541389 0.0518298 0.045937 0.0541389
          0.0608716 0.0518298 0.0541389 0.0569946 0.0608716 0.0518298
          0.0541389 0.0569946 0.0649467 0.0608716 0.0583567 0.0541389
          0.0649467 0.0608716 0.0541389 0.0486119 0.0583567 0.0519682
          -0.0121278 -0.0113241 -0.0115306 -0.00921344 0.00900184 0.00822017
          0.0127976 0.0163032 0.00900184 0.00822017 0.0163032 0.00963681
          0.00900184 0.00963681 0.0163032 0.0175491 -0.0115306 -0.0113241
          -0.0112966 -0.00921344 -0.0115306 -0.00921344 -0.0112966 -0.00839904
          -0.0146054 -0.0163887 -0.0186162 -0.016824 -0.014775 -0.0146054
          -0.0186162 -0.016824 -0.0146054 -0.014775 -0.016316 -0.016824
          -0.012015 -0.0146054 -0.016316 -0.016824 -0.012015 -0.0146054
          -0.016824 -0.0132045 -0.012015 -0.0132619 -0.0146054 -0.0132045
          -0.012015 -0.0132619 -0.014775 -0.0146054 -0.012015 -0.014775
          -0.016316 -0.0146054 -0.0132619 -0.0163887 -0.014775 -0.0146054
          -0.014775 -0.0163887 -0.0186162 -0.0146054 -0.016824 -0.0146054
          -0.0150762 -0.0132045 -0.0132045 -0.0146054 -0.0150762 -0.011999
          -0.0132045 -0.0131649 -0.0146054 -0.011999 -0.0146054 -0.0131649
          -0.0132045 -0.0116014 -0.0146054 -0.0131649 -0.0150762 -0.011999
          -0.0146054 -0.0137598 -0.0150762 -0.0131649 -0.0146054 -0.0137598
          -0.0131649 -0.0141855 -0.0146054 -0.0131649 -0.0142512 -0.0141855
          -0.0154642 -0.0124395 -0.0128779 -0.0138764 -0.0138764 -0.016129
          -0.0128779 -0.0154642 0.00789755 0.00260366 0.00960777 0.00929873
          0.00960777 0.0146023 0.00789755 0.00929873 0.00960777 0.0151683
          0.0146023 0.00929873 0.00960777 0.0151683 0.00929873 0.00841701
          0.00841701 0.00260366 0.00929873 0.00960777 0.00841701 0.00260366
          0.000322241 0.00929873 0.00474989 0.00841701 0.000322241 0.00929873
          0.00474989 0.0047323 0.00929873 0.000322241 0.00929873 0.00474989
          0.00841701 0.00686604 0.0146023 0.0151683 0.0165835 0.00929873
          0.00789755 0.0146023 0.0165835 0.00929873 -0.0102092 -0.0104179
          -0.00949131 -0.00944187 -0.0102092 -0.00986348 -0.0104179 -0.00944187
          -0.00944187 -0.00986348 -0.0104179 -0.00867774 -0.00944187 -0.0104179
          -0.00949131 -0.00867774 -0.0104179 -0.00867774 -0.0119405 -0.00949131
          -0.0104179 -0.0119405 -0.0125083 -0.00949131 -0.0104179 -0.0102092
          -0.0095234 -0.0115354 -0.0115354 -0.0122989 -0.014953 -0.0104179
          -0.0092593 -0.00986348 -0.0104179 -0.0110417 -0.0104179 -0.0092593
          -0.0110417 -0.0132636 -0.0104179 -0.0092593 -0.0132636 -0.0144693
          -0.0115942 -0.0146452 -0.0123001 -0.0152337 -0.0115942 -0.0123001
          -0.0132091 -0.0152337 -0.0115942 -0.0152337 -0.0132091 -0.0151294
          -0.0115942 -0.0146452 -0.0152337 -0.0151294 -0.0152337 -0.018128
          -0.0174963 -0.0189734 -0.0152337 -0.018128 -0.0189734 -0.0174151
          -0.0189734 -0.0152337 -0.0174151 -0.0179506 -0.0189734 -0.0135404
          -0.0152337 -0.0179506 -0.0189734 -0.0160632 -0.0152337 -0.0135404
          -0.0152337 -0.0135404 -0.0160632 -0.0121716 -0.0152337 -0.0121716
          -0.00948852 -0.0135404 -0.0152337 -0.0137818 -0.0179506 -0.0135404
          -0.0174151 -0.0137818 -0.0179506 -0.0152337 -0.0109937 -0.00927824
          -0.0103014 -0.0109875 -0.0109937 -0.00742649 -0.0103014 -0.00927824
          -0.00949131 -0.00998045 -0.0119405 -0.00877047 -0.00719991 -0.00877047
          -0.00617679 -0.00783516 0.111747 0.101595 0.112732 0.106809
          0.10765 0.101595 0.111747 0.106809 0.10765 0.103915
          0.111747 0.101595 0.104122 0.103915 0.111747 0.10765
          -0.00998045 -0.0114026 -0.0119405 -0.00877047 -0.00998045 -0.0114026
          -0.00877047 -0.00617679 -0.00877047 -0.00998045 -0.00617679 -0.00783516
          -0.0159403 -0.0247358 -0.0201982 -0.0214738 -0.0159403 -0.0201982
          -0.0177132 -0.0214738 -0.00921344 -0.00670828 -0.00745357 -0.0079659
          -0.0101035 -0.00921344 -0.00745357 -0.0079659 -0.00745357 -0.00822036
          -0.0101035 -0.0079659 -0.00921344 -0.00670828 -0.0079659 -0.00759501
          -0.0079659 -0.00670828 -0.00470133 -0.00759501 -0.0079659 -0.00759501
          -0.00470133 -0.00599707 -0.0079659 -0.00759501 -0.00599707 -0.00790277
          0.0442774 0.0510428 0.0449968 0.0422139 -0.015154 -0.0140178
          -0.0131376 -0.015396 0.0638716 0.0572523 0.0599948 0.0542829
          0.0572523 0.0521232 0.0599948 0.0542829 0.0599948 0.0521232
          0.0485009 0.0542829 0.107926 0.103492 0.102758 0.101867
          0.102758 0.103492 0.0984366 0.101867 0.0542829 0.0496291
          0.0521232 0.0419076 -0.00617679 -0.00385626 -0.00591698 -0.00783516
          -0.00617679 -0.00495655 -0.00385626 -0.00783516 -0.00495655 -0.00385626
          -0.00577718 -0.00617679 -0.00495655 -0.00443768 -0.00577718 -0.00385626
          -0.00385626 -0.00443768 -0.00591698 -0.00495655 -0.00385626 -0.00495655
          -0.00591698 -0.00783516 -0.00443768 -0.00577718 -0.00385626 -0.00357756
          -0.000798352 -0.00357756 -0.00443768 -0.00385626 -0.000798352 -0.00357756
          -0.00385626 -0.00071185 -0.00385626 -0.000798352 -0.00071185 0.00224888
          -0.00385626 -0.00577718 -0.00071185 -0.00357756 -0.00613969 -0.00577718
          -0.00071185 -0.00385626 -0.00613969 -0.00577718 -0.00385626 -0.00617679
          0.018373 0.0145488 0.0267247 0.0183968 0.018373 0.0145488
          0.0183968 0.0101551 0.0145488 0.0249025 0.0267247 0.0183968
          0.0183968 0.027128 0.0226921 0.0267247 -0.0138988 -0.0176947
          -0.0175004 -0.0179139 -0.0138988 -0.0176947 -0.0179139 -0.0151294
          -0.0176947 -0.018128 -0.0179139 -0.0151294 -0.0151294 -0.018128
          -0.0179139 -0.0177062 -0.00498123 -0.00903642 -0.010044 -0.00832996
          -0.00498123 -0.00903642 -0.00731356 -0.010044 -0.00498123 -0.00731356
          -0.00903642 -0.00339795 -0.00903642 -0.00731356 -0.00842294 -0.00339795
          -0.00903642 -0.00842294 -0.00731356 -0.00951806 -0.00903642 -0.00951806
          -0.00731356 -0.010044 -0.00832996 -0.00903642 -0.0122022 -0.00834367
          -0.0147507 -0.0178131 -0.0163672 -0.0184706 -0.0222241 -0.0178131
          -0.0184706 -0.0163672 -0.0187996 -0.0222241 -0.0184706 -0.0163672
          -0.0163022 -0.0187996 -0.0184706 -0.0163672 -0.0163022 -0.0187996
          -0.0163672 -0.0159942 -0.0163672 -0.0159942 -0.0141968 -0.0163022
          -0.0159942 -0.0141968 -0.0157141 -0.0163672 -0.0163672 -0.0180549
          -0.0157141 -0.0159942 -0.0202491 -0.0180549 -0.0163672 -0.0159942
          -0.0222241 -0.0202491 -0.0163672 -0.0159942 -0.0187996 -0.0222241
          -0.0163672 -0.0159942 -0.0222241 -0.0202491 -0.0178131 -0.0163672
          -0.0202491 -0.0180549 -0.0157141 -0.0163672 0.0583691 0.0515351
          0.0485772 0.0493815 0.0583691 0.0521232 0.0485772 0.0515351
          0.0515351 0.0583691 0.0521232 0.0599948 0.0515351 0.0506082
          0.0599948 0.0521232 0.0515351 0.0457958 0.0506082 0.0521232
          0.041583 0.0457958 0.0515351 0.0521232 0.0515351 0.041583
          0.0521232 0.0485772 0.0515351 0.0478322 0.0506082 0.0457958
          0.0568305 0.0478322 0.0572903 0.0515351 0.101595 0.103915
          0.10761 0.0977652 -0.0122154 -0.0121653 -0.0112706 -0.0121714
          -0.0122154 -0.0121653 -0.0101472 -0.0112706 -0.0121653 -0.0113411
          -0.0101472 -0.0112706 -0.0113411 -0.0100866 -0.0101472 -0.0112706
          -0.0101472 -0.0100866 -0.00790277 -0.0112706 -0.00994981 -0.0112706
          -0.0121714 -0.010768 -0.00821885 -0.0112706 -0.00994981 -0.010768
          -0.00821885 -0.00998593 -0.00994981 -0.0112706 -0.00994981 -0.00998593
          -0.0121714 -0.0112706 0.0092244 0.00960777 0.0161199 0.0128998
          0.0092244 0.00960777 0.0128998 0.00789755 0.00584569 0.00789755
          0.0092244 0.0128998 0.00584569 0.013872 0.0128998 0.0092244
          0.0128998 0.00960777 0.0146023 0.00789755 0.0128998 0.00960777
          0.0161199 0.0146023 0.0128998 0.0146023 0.0161199 0.021662
          -0.0115942 -0.00871713 -0.00822036 -0.00974557 -0.00974557 -0.0111888
          -0.00822036 -0.0115942 -0.00974557 -0.00948852 -0.00822036 -0.0111888
          -0.00172237 0.00181038 0.00900184 0.00509314 -0.00172237 0.00509314
          -0.00370727 0.00181038 -0.00172237 -0.00370727 -0.0084688 0.00181038
          -0.00172237 0.00181038 -0.0084688 -0.00147667 0.00181038 -0.00421154
          -0.0084688 -0.00147667 -0.00147667 -0.00421154 0.000511914 0.00181038
          -0.00370727 -0.00421154 -0.0084688 0.00181038 0.00509314 0.00478569
          -0.00370727 0.00181038 0.00509314 0.00963681 0.00181038 0.00900184
          0.00963681 0.00822017 0.00181038 0.00900184 0.00963681 0.00822017
          0.00418987 0.00181038 0.00181038 0.00418987 0.00304432 0.00822017
          0.00181038 0.00822017 0.00343406 0.00900184 0.0053151 0.00401747
          0.0118168 0.00478053 0.0053151 0.0101018 0.0118168 0.00401747
          0.00401747 0.0101018 0.0118168 0.00478053 0.0391504 0.0435662
          0.0457958 0.0419076 0.0435662 0.0419076 0.0391504 0.0339339
          0.0435662 0.0339339 0.0367918 0.0419076 0.00210831 9.87133e-05
          0.000251628 -0.00448618 0.00210831 -0.00448618 0.000251628 -0.00508143
          0.0376856 0.0442869 0.0485009 0.0435662 0.0991194 0.101867
          0.105555 0.102758 0.104296 0.105555 0.102758 0.0987585
          0.104296 0.102758 0.10664 0.0987585 0.104296 0.105555
          0.10664 0.102758 0.10035 0.10664 0.102758 0.0987585
          0.105508 0.10664 0.102758 0.10035 0.0583567 0.0511354
          0.057476 0.058239 0.0583567 0.0486119 0.057476 0.0511354
          0.0511354 0.0430777 0.0486119 0.057476 0.058239 0.057476
          0.0542829 0.0511354 0.058239 0.0542829 0.0485009 0.0511354
          0.0435662 0.0430777 0.0511354 0.0496291 -0.00579803 -0.00834925
          -0.00546711 0.000251628 -0.00579803 -0.00834925 0.000251628 -0.00727612
          -0.00448618 -0.00834925 -0.00727612 0.000251628 0.000251628 9.87133e-05
          -0.00727612 -0.00448618 -0.00448618 -0.00834925 0.000251628 -0.00508143
          0.0946768 0.0894452 0.0922335 0.0933328 0.0946768 0.0933328
          0.0922335 0.0985842 0.0946768 0.0933328 0.0985842 0.0942488
          0.0946768 0.0894452 0.0933328 0.0942488 -0.0105734 -0.0114026
          -0.00767366 -0.00613969 -0.0105734 -0.00767366 -0.00779774 -0.00613969
          -0.0102839 -0.0105734 -0.00779774 -0.00613969 -0.0102839 -0.0114026
          -0.0105734 -0.00613969 -0.0105734 -0.0109318 -0.00767366 -0.0104381
          -0.0105734 -0.0145331 -0.0109318 -0.0104381 -0.0150371 -0.0146903
          -0.015471 -0.016142 -0.00364772 5.82853e-05 0.00061746 -0.000798352
          -0.00353163 -0.00256661 -0.00343188 -0.000758185 -0.00353163 -0.00610029
          -0.00343188 -0.00256661 -0.00343188 -0.00591698 -0.00256661 -0.00610029
          -0.00343188 -0.00591698 -0.00413169 -0.00256661 -0.00256661 -0.00591698
          -0.00413169 -0.00610029 -0.0153847 -0.0146903 -0.015471 -0.0175449
          -0.0153847 -0.0124395 -0.015471 -0.0146903 -0.0153847 -0.0129857
          -0.0124395 -0.0146903 -0.0153847 -0.0163881 -0.0129857 -0.0146903
          -0.0163881 -0.0142089 -0.0129857 -0.0146903 -0.0129857 -0.0142089
          -0.012766 -0.0146903 -0.0146903 -0.0129857 -0.0124395 -0.012766
          -0.0146903 -0.0124395 -0.015471 -0.012766 -0.0146903 -0.012766
          -0.015471 -0.0128604 -0.016142 -0.0146903 -0.015471 -0.0128604
          -0.0128252 -0.0125329 -0.010768 -0.0122154 -0.0125329 -0.0122154
          -0.00882003 -0.010768 -0.0128252 -0.0139518 -0.0119604 -0.0125329
          -0.0145928 -0.0149003 -0.0111888 -0.0132091 -0.0133178 -0.0149003
          -0.0111888 -0.0145928 -0.0131376 -0.0133178 -0.0111888 -0.0145928
          -0.0140178 -0.0133178 -0.0131376 -0.0145928 -0.0140178 -0.0149003
          -0.0133178 -0.0145928 -0.0140178 -0.0168699 -0.0149003 -0.0145928
          -0.0145928 -0.0137818 -0.0174151 -0.0132091 -0.0145928 -0.0132091
          -0.0174151 -0.0151294 -0.0145928 -0.0174151 -0.0167668 -0.0151294
          -0.0167668 -0.0145928 -0.0163192 -0.0174151 -0.0167668 -0.015396
          -0.0163192 -0.0145928 -0.0145928 -0.015396 -0.0163192 -0.0137818
          -0.0145928 -0.0137818 -0.0163192 -0.0174151 0.0422139 0.0510428
          0.0449968 0.0452472 0.0422139 0.0340728 0.0452472 0.0449968
          0.0449968 0.0340728 0.0452472 0.0375999 0.0449968 0.0442869
          0.05184 0.0441457 0.0475958 0.0450642 0.045926 0.0570944
          0.0475958 0.0527487 0.0450642 0.0570944 0.0527487 0.0450642
          0.0570944 0.0549191 0.0527487 0.0468155 0.0450642 0.0549191
          0.0527487 0.0468155 0.045937 0.0450642 0.0450642 0.0468155
          0.0570944 0.0549191 0.0468155 0.0570944 0.0561024 0.0450642
          0.0468155 0.0450642 0.0561024 0.0500391 0.0450642 0.0570944
          0.0561024 0.0500391 0.0450642 0.0570944 0.0500391 0.045926
          0.07594 0.0762057 0.0837749 0.0782877 0.0782877 0.0762057
          0.0837749 0.0778226 0.0782877 0.086149 0.0778226 0.0837749
          0.0782877 0.086149 0.0775013 0.0778226 0.0782877 0.0778226
          0.0775013 0.0725458 0.0782606 0.0782877 0.0775013 0.0725458
          0.0782606 0.0712148 0.0782877 0.0725458 0.0782877 0.0712148
          0.0782606 0.0802136 0.0782877 0.0712148 0.0778226 0.0725458
          0.0712148 0.0782877 0.0778226 0.0677137 0.0712148 0.069947
          0.0782877 0.0677137 0.0782877 0.069947 0.0778226 0.0677137
          0.0782877 0.0762057 0.0778226 0.069947 0.0209412 0.0146023
          0.021662 0.0165835 0.100629 0.101867 0.106809 0.105742
          0.100629 0.105742 0.106809 0.103169 0.100629 0.101867
          0.105742 0.103169 -0.01342 -0.0126734 -0.0141968 -0.0141881
          -0.0126734 -0.0129857 -0.0141881 -0.01342 -0.0126734 -0.0109875
          -0.0141881 -0.0129857 -0.0126734 -0.0109875 -0.0133371 -0.0141881
          -0.0126734 -0.0133371 -0.0153847 -0.0141881 -0.0141881 -0.0133371
          -0.0153847 -0.0129857 -0.0141881 -0.0129857 -0.0153847 -0.0163881
          -0.0157141 -0.0141881 -0.0153847 -0.0163881 -0.0157141 -0.0129857
          -0.0141881 -0.0163881 -0.0157141 -0.0141881 -0.0129857 -0.0142089
          -0.0157141 -0.01342 -0.0141881 -0.0142089 -0.0141881 -0.01342
          -0.0129857 -0.0142089 -0.0141881 -0.0109875 -0.0133371 -0.0129857
          0.1075 0.100418 0.112281 0.11019 0.1075 0.112281
          0.112242 0.11019 0.112242 0.1075 0.11019 0.104812
          0.1075 0.100418 0.11019 0.0993376 0.1075 0.101679
          0.100418 0.0787728 -0.0173699 -0.0130007 -0.0110197 -0.0117923
          -0.0173699 -0.0110197 -0.012431 -0.0117923 -0.0177313 -0.0173699
          -0.0110197 -0.012431 -0.0177313 -0.0110197 -0.0150233 -0.012431
          -0.0177313 -0.0173699 -0.0150233 -0.0110197 -0.0173699 -0.0209682
          -0.0150233 -0.0110197 -0.0150233 -0.0108072 -0.012431 -0.0110197
          -0.0150233 -0.0107869 -0.0108072 -0.0110197 -0.0110197 -0.012431
          -0.0117923 -0.00944941 -0.00510329 -0.00151987 -0.00911235 -0.0107643
          -0.0107643 -0.0131762 -0.00911235 -0.00510329 -0.0119491 -0.0138988
          -0.0153733 -0.0151294 -0.0115942 -0.0151294 -0.0119491 -0.0146452
          -0.0120732 -0.0101546 -0.00980449 -0.0109344 -0.0109344 -0.0101546
          -0.00503266 -0.0120732 -0.0184729 -0.0143337 -0.0131762 -0.0148368
          -0.00980449 -0.0148368 -0.0131762 -0.0143337 -0.00980449 -0.0143337
          -0.0131762 -0.0101546 -0.0143337 -0.0101546 -0.00980449 -0.0120732
          -0.0148368 -0.0143337 -0.00980449 -0.0120732 -0.0131762 -0.0143337
          -0.00911235 -0.0101546 -0.0131762 -0.0182206 -0.00911235 -0.0143337
          -0.0119491 -0.0115942 -0.00974557 -0.00900353 -0.0119491 -0.00974557
          -0.00711215 -0.00900353 -0.0123001 -0.00974557 -0.00711215 -0.0119491
          -0.0123001 -0.0115942 -0.00974557 -0.0119491 -0.0138764 -0.0128252
          -0.01305 -0.0147393 -0.00613969 -0.00348063 -0.00158471 -0.00071185
          -0.00613969 -0.00158471 -0.00197492 -0.00071185 -0.00071185 0.00224888
          -0.00158471 -0.00197492 0.00224888 -0.00071185 -0.00158471 0.00504842
          0.00224888 -0.00158471 0.00594786 0.00504842 -0.00158471 0.00224888
          0.00594786 -0.00197492 -0.00158471 -0.0036721 -0.00348063 -0.00613969
          0.0387796 0.0390306 0.0487549 0.045842 0.0387796 0.0390306
          0.0456925 0.0487549 0.045842 0.0498687 0.0487549 0.0545551
          0.045842 0.0487549 0.05297 0.0545551 0.0487549 0.045842
          0.05297 0.0496291 0.05297 0.0487549 0.0561024 0.0545551
          0.0487549 0.0545551 0.060776 0.0561024 0.0487549 0.060776
          0.0529727 0.0561024 0.0487549 0.0561024 0.0529727 0.0500391
          0.0487549 0.0468155 0.0561024 0.0500391 0.0487549 0.0468155
          0.0500391 0.0450642 0.0498687 0.060776 0.0529727 0.0487549
          0.0498687 0.0545551 0.060776 0.0487549 -0.0135258 -0.0128463
          -0.0145272 -0.0134479 -0.0128463 -0.0101082 -0.0134479 -0.0135258
          -0.0155531 -0.0149838 -0.0164017 -0.01385 -0.0155531 -0.01385
          -0.0164017 -0.0146771 -0.0155531 -0.0153294 -0.0149838 -0.01385
          -0.0155531 -0.0180922 -0.0153294 -0.016142
        </DataArray>
        <DataArray type="Float64" Name="DisplacementSolutionVector" NumberOfComponents="3" format="ascii" RangeMin="0" RangeMax="1.1432970122">
          0.248309 0.07594 0.362052 0.276815 0.0802136 0.346431
          0.297489 0.0760461 0.273847 0.209017 0.0680971 0.26482
          0.122207 0.000471272 -0.462474 0.131645 0.00478053 -0.424531
          0.124809 5.29779e-05 -0.483101 0.0816163 -2.51321e-05 -0.451585
          0.107566 -0.0128015 -0.607479 0.106885 -0.0166778 -0.610537
          0.0974821 -0.012431 -0.598996 0.109254 -0.0117923 -0.604306
          0.180281 -0.00286856 -0.557066 0.145549 -0.00508143 -0.577714
          0.171264 0.00623301 -0.573364 0.162 -0.00546711 -0.577397
          0.0991005 0.026316 -0.14341 0.100967 0.0376856 -0.0124784
          0.168288 0.0375999 -0.0873447 0.0689865 0.0290619 -0.0831016
          0.0674725 -0.0100434 -0.47284 0.0442687 -0.00529419 -0.466267
          0.0772562 -0.00829571 -0.449559 0.0758985 -0.00839467 -0.497359
          -0.0268066 0.0509021 0.288966 0.019031 0.0478604 0.222628
          0.060929 0.0538991 0.266939 0.0171833 0.0535705 0.315495
          0.256253 0.111304 1.03556 0.172295 0.10293 0.999356
          0.185509 0.107383 1.03394 0.214788 0.10492 1.00424
          0.145903 0.092674 0.919067 0.0896431 0.0734616 0.892396
          0.137992 0.0809897 0.939445 0.117288 0.0824418 0.964402
          0.0242242 -0.010768 -0.269019 0.00691554 -0.00994981 -0.300825
          -0.00778128 -0.00821885 -0.267441 0.0259847 -0.00747016 -0.269956
          0.0508163 0.00841701 -0.326806 0.0764155 0.00741455 -0.357328
          0.01461 0.00723765 -0.34214 0.0548873 0.00331069 -0.396044
          0.00765602 -0.0064143 -0.0148698 0.016022 -0.0112065 -0.0373548
          0.021377 -0.0104381 -0.0359205 0.0292423 -0.0145331 -0.0274994
          0.119042 -0.0136001 -0.539299 0.0878253 -0.0163672 -0.510375
          0.102378 -0.0147507 -0.539178 0.0845509 -0.0178131 -0.501965
          0.247261 0.101271 0.929042 0.198685 0.0945086 0.918357
          0.254201 0.103492 0.959385 0.289994 0.106625 0.941827
          0.0689865 0.0290619 -0.0831016 0.0991005 0.026316 -0.14341
          0.100967 0.0376856 -0.0124784 0.0692071 0.0290328 -0.0736489
          0.0245713 -0.00500875 -0.104985 -0.0152809 -0.00864801 -0.0931318
          -0.0014031 -0.00719991 -0.0748949 0.0176904 -0.00353163 -0.0727868
          0.298834 0.0968458 0.818175 0.217678 0.0968129 0.834652
          0.268238 0.0953534 0.771063 0.272272 0.0982259 0.871623
          0.124138 0.0125122 -0.349927 0.0919653 0.00584569 -0.369417
          0.122749 0.0083212 -0.401283 0.155675 0.013872 -0.375313
          0.14323 0.027128 -0.191288 0.120774 0.030637 -0.123642
          0.185682 0.0349137 -0.171147 0.109529 0.0267247 -0.164205
          0.0970682 -0.00880874 -0.546836 0.0421184 -0.0116166 -0.5242
          0.0696074 -0.00701453 -0.503281 0.0352309 -0.0128731 -0.503908
          0.364544 0.0778847 0.37568 0.27609 0.0684555 0.293154
          0.373022 0.0833251 0.422228 0.361653 0.0757261 0.29799
          0.0228868 -0.0175449 -0.410755 0.0311669 -0.015471 -0.372513
          -0.0180461 -0.0179976 -0.382811 0.0101504 -0.0167399 -0.34114
          0.239077 0.0121727 -0.458207 0.21932 0.00944826 -0.501778
          0.189171 0.00696049 -0.46894 0.231423 0.0159505 -0.487696
          0.115975 0.0128998 -0.314557 0.155675 0.013872 -0.375313
          0.175406 0.0171797 -0.332993 0.128141 0.0092244 -0.36495
          0.109382 0.0908914 0.835634 0.0525426 0.0870027 0.823583
          0.0433159 0.0880509 0.781563 0.100789 0.0866501 0.753101
          0.0688902 0.018373 -0.205679 0.14323 0.027128 -0.191288
          0.078365 0.0183968 -0.220655 0.109529 0.0267247 -0.164205
          0.111468 -0.0123134 -0.602749 0.114299 -0.00953216 -0.601565
          0.119576 -0.00659314 -0.600207 0.118476 -0.0115173 -0.589823
          -0.00694388 -0.0196739 -0.43155 -0.0180461 -0.0179976 -0.382811
          0.0228868 -0.0175449 -0.410755 -0.0129101 -0.0150505 -0.411734
          0.113746 -0.0145598 -0.606765 0.107431 -0.00998447 -0.605534
          0.112644 -0.0104976 -0.615798 0.112637 -0.0103711 -0.611269
          0.0811874 0.0034827 -0.0826292 0.0556279 0.0119667 -0.0448786
          0.0809459 0.00664006 -0.0918569 0.0452555 0.00867015 -0.051966
          0.0754783 0.0822369 0.620429 0.164032 0.0827915 0.545908
          0.199691 0.0849973 0.580698 0.13533 0.0805968 0.576606
          0.199036 0.0230983 -0.364512 0.167838 0.0206599 -0.322149
          0.124138 0.0125122 -0.349927 0.155675 0.013872 -0.375313
          0.19211 0.00963681 -0.421164 0.131645 0.00478053 -0.424531
          0.171681 0.0118168 -0.394107 0.177759 0.0101018 -0.451713
          0.135136 -0.0161269 -0.592202 0.1144 -0.0159403 -0.605091
          0.137741 -0.00834925 -0.591306 0.118368 -0.00951325 -0.595495
          0.120603 -0.00930884 -0.326509 0.0615568 -0.00927245 -0.319052
          0.102812 -0.00669444 -0.317028 0.0754448 -0.00761653 -0.348043
          0.220738 0.0983866 1.03044 0.22275 0.104812 1.04279
          0.169989 0.0988924 1.0076 0.222148 0.100112 0.994249
          0.0439374 -0.00694747 -0.551364 0.0553065 0.00140284 -0.56841
          0.0742199 -0.00934427 -0.556536 0.0648896 -0.00151987 -0.57823
          0.19211 0.00963681 -0.421164 0.177392 0.0114892 -0.3605
          0.16371 0.00418987 -0.421372 0.205526 0.00822017 -0.38119
          0.222064 0.0922335 1.0378 0.239193 0.0983216 1.08158
          0.256621 0.0931621 1.063 0.203901 0.0897619 1.07521
          0.141147 0.100371 0.938067 0.141182 0.0902565 0.952366
          0.115205 0.101212 0.962865 0.0987851 0.0961257 0.918228
          0.0540152 0.00252499 -0.0946214 0.0667859 -0.00492085 -0.132948
          0.0680056 -0.0011597 -0.0994993 0.0245713 -0.00500875 -0.104985
          0.18131 0.00998128 -0.509551 0.179763 0.00577853 -0.528465
          0.147387 0.00173919 -0.514186 0.130792 -0.000960639 -0.550484
          0.100967 0.0376856 -0.0124784 0.104946 0.0435662 0.0577277
          0.0611862 0.0391504 0.0429092 0.0449238 0.0339339 0.00411554
          0.201989 0.0793398 0.615495 0.117833 0.067363 0.48689
          0.178795 0.0768006 0.555971 0.24751 0.0759489 0.490251
          0.0273608 0.00523286 -0.404675 0.0527092 0.00222036 -0.446413
          0.0101279 -0.00173324 -0.425111 0.0548873 0.00331069 -0.396044
          0.110055 -0.0119697 -0.4245 0.122055 -0.0136552 -0.391712
          0.120859 -0.0118386 -0.3705 0.073581 -0.012766 -0.382787
          0.0689447 -0.0128604 -0.335303 0.0311669 -0.015471 -0.372513
          0.0487007 -0.016142 -0.343334 0.0331346 -0.0139518 -0.311202
          0.119042 -0.0136001 -0.539299 0.114044 -0.0144426 -0.516593
          0.132045 -0.0137283 -0.536958 0.102378 -0.0147507 -0.539178
          0.102322 0.0639772 0.375425 0.0590932 0.0607576 0.34242
          0.15796 0.0626744 0.270179 0.0689063 0.0561299 0.274001
          0.0441608 -0.0145928 -0.191319 0.0233769 -0.015396 -0.171585
          0.0425612 -0.0137818 -0.154251 0.0171834 -0.0131376 -0.175025
          0.000362789 -0.0130793 -0.455538 0.030685 -0.00952224 -0.456825
          0.0481888 -0.0126734 -0.4751 0.0129194 -0.0132095 -0.492054
          0.18704 -0.0084688 -0.503135 0.199929 -0.00871553 -0.521842
          0.152841 -0.0122022 -0.551974 0.166017 -0.00832996 -0.548618
          0.164177 -0.0141855 -0.483115 0.126251 -0.0140065 -0.477368
          0.16549 -0.0131014 -0.449159 0.121678 -0.0131649 -0.477031
          0.163842 0.0365633 -0.0716904 0.243538 0.045937 -0.0299528
          0.161268 0.0430777 0.00556753 0.215481 0.0468155 0.0269334
          -0.0388781 -0.0110417 -0.128993 -0.0402609 -0.0132542 -0.172689
          -0.0116154 -0.0127112 -0.160316 -0.0129988 -0.0132636 -0.152133
          0.121678 -0.0131649 -0.477031 0.165557 -0.0137598 -0.4616
          0.157734 -0.0150762 -0.492321 0.133529 -0.0122415 -0.442996
          0.118476 -0.0115173 -0.589823 0.0998571 -0.0152705 -0.572757
          0.109724 -0.0136582 -0.587157 0.0987473 -0.0156323 -0.593287
          0.130862 -0.00448618 -0.596049 0.115624 -0.00953853 -0.606174
          0.112396 -0.00944941 -0.595416 0.116074 -0.00889233 -0.591783
          0.123047 -0.00843312 -0.371754 0.120603 -0.00930884 -0.326509
          0.102812 -0.00669444 -0.317028 0.0754448 -0.00761653 -0.348043
          0.26761 0.10803 1.03604 0.22275 0.104812 1.04279
          0.220738 0.0983866 1.03044 0.222148 0.100112 0.994249
          -0.038764 -0.0152156 -0.219229 -0.0150094 -0.0166441 -0.254014
          0.0213185 -0.0168699 -0.245591 4.09269e-05 -0.015154 -0.187651
          0.113639 -0.0132619 -0.522822 0.0908379 -0.0141968 -0.513139
          0.0896834 -0.01342 -0.474792 0.0964633 -0.0116014 -0.498097
          0.0410239 -0.0180549 -0.471625 0.00408605 -0.0172167 -0.465409
          0.0135894 -0.016901 -0.492048 0.0172693 -0.0198767 -0.502773
          0.1297 9.87133e-05 -0.605701 0.123019 0.00231494 -0.613989
          0.119565 -0.00358364 -0.614347 0.127146 -0.00193784 -0.605756
          0.0638506 0.00594671 -0.330755 0.0919653 0.00584569 -0.369417
          0.0598204 0.00789755 -0.317222 0.00379622 2.43316e-05 -0.336744
          0.162928 -0.0101426 -0.361795 0.161751 -0.00820863 -0.358657
          0.130047 -0.0108439 -0.391734 0.123047 -0.00843312 -0.371754
          0.154866 -0.00903024 -0.300863 0.147637 -0.00749906 -0.261287
          0.152519 -0.00688212 -0.28843 0.101176 -0.00783675 -0.284289
          0.0450636 -0.0111888 -0.184676 -0.000871435 -0.0111273 -0.144184
          0.0345143 -0.0101269 -0.131573 0.0125049 -0.0101035 -0.180202
          0.141569 0.0485009 0.0692919 0.111056 0.0506082 0.116801
          0.199017 0.0610013 0.140613 0.134692 0.0456868 0.0266296
          0.0967532 0.0787728 0.992186 0.0967532 0.0787728 0.992186
          0.169989 0.0988924 1.0076 0.0967532 0.0787728 0.992186
          0.159944 -0.0163887 -0.514976 0.134357 -0.0146054 -0.509884
          0.113639 -0.0132619 -0.522822 0.130132 -0.0142512 -0.513988
          -0.0383281 -0.0105095 -0.0693774 -0.0152809 -0.00864801 -0.0931318
          -0.0295031 -0.0100554 -0.0861512 -0.0096781 -0.00610029 -0.0620695
          0.00322887 -0.000798352 -0.00798877 0.000235171 0.000333111 0.000284983
          0 0 0 0.00220275 0.00061746 -0.00693662
          0.134573 -0.00903642 -0.561118 0.117073 -0.00842294 -0.561124
          0.119123 -0.00951806 -0.581108 0.129355 -0.0141182 -0.578393
          0.0449238 0.0339339 0.00411554 -0.00934244 0.0266212 -0.0334379
          0.100967 0.0376856 -0.0124784 -0.0143431 0.0252607 -0.0446928
          0.23316 0.00509314 -0.452771 0.19211 0.00963681 -0.421164
          0.249159 0.00900184 -0.406363 0.239077 0.0121727 -0.458207
          -0.0211191 0.0597525 0.441455 0.0830577 0.0694311 0.477071
          -0.0101049 0.0672179 0.524128 0.0594662 0.0664747 0.514154
          0.145882 0.0938932 1.06259 0.106761 0.101082 1.02841
          0.111359 0.103038 1.02849 0.1552 0.0906953 1.03528
          0.013461 -0.00348063 -0.0158737 0 0 0
          0.0274571 -0.00635234 -0.0179501 0 0 0
          0.0987772 -0.0110197 -0.589217 0.074161 -0.0108072 -0.582806
          0.0974821 -0.012431 -0.598996 0.0998489 -0.00965086 -0.589306
          0.15796 0.0626744 0.270179 0.0939533 0.0506828 0.181751
          0.165688 0.0612821 0.281712 0.0689063 0.0561299 0.274001
          0.100967 0.0376856 -0.0124784 0.141569 0.0485009 0.0692919
          0.0611862 0.0391504 0.0429092 0.104946 0.0435662 0.0577277
          0.204595 0.0961512 0.949524 0.148758 0.0957216 0.968415
          0.201861 0.0919498 0.982176 0.180715 0.0976954 0.945894
          0.19211 0.00963681 -0.421164 0.160387 0.00185887 -0.476443
          0.131645 0.00478053 -0.424531 0.124809 5.29779e-05 -0.483101
          0.0918535 -0.00127327 -0.184187 0.120583 0.00142762 -0.16821
          0.132188 -0.00369529 -0.201109 0.128242 -0.0011845 -0.215126
          0.184437 0.0145785 -0.571365 0.150403 0.00210831 -0.583032
          0.171264 0.00623301 -0.573364 0.15353 0.000570539 -0.562779
          0.152816 0.00527735 -0.573116 0.146871 0.00484992 -0.59224
          0.127413 -0.00533943 -0.584442 0.127146 -0.00193784 -0.605756
          0.141569 0.0485009 0.0692919 0.134692 0.0456868 0.0266296
          0.199017 0.0610013 0.140613 0.198498 0.0519682 0.0225208
          0.0798418 -0.0176947 -0.264202 0.0966303 -0.0151294 -0.230152
          0.0556986 -0.0149003 -0.231736 0.10478 -0.018128 -0.212972
          0.0508684 -0.0116704 -0.233291 0.0125049 -0.0101035 -0.180202
          0.0444503 -0.00882003 -0.221329 0.00402628 -0.0122154 -0.223718
          -0.0139035 0.00686604 -0.302569 -0.00773479 0.00474989 -0.315558
          0.0508163 0.00841701 -0.326806 -0.0055242 0.00327003 -0.3614
          0.217441 0.0908349 0.694364 0.272704 0.0935405 0.736088
          0.303862 0.0937414 0.696053 0.262492 0.0911611 0.652694
          0.0808134 0.0722704 0.485717 0.150391 0.0775013 0.461281
          0.0846141 0.0787166 0.528453 0.171272 0.0778226 0.475443
          0.272272 0.0982259 0.871623 0.317504 0.0992951 0.814724
          0.35665 0.103169 0.859128 0.293221 0.100629 0.862298
          0.199466 0.0297779 -0.163731 0.163842 0.0365633 -0.0716904
          0.137108 0.0320141 -0.0853689 0.23391 0.0395448 -0.0669595
          0.282294 0.0987585 0.988705 0.298929 0.101482 1.04991
          0.256007 0.0933328 1.02618 0.262572 0.0985842 1.02395
          0.00322887 -0.000798352 -0.00798877 0 0 0
          0.0062396 0.00749469 -0.00317775 0.00220275 0.00061746 -0.00693662
          0.117833 0.067363 0.48689 0.089927 0.0645819 0.43286
          0.185822 0.0722326 0.453532 0.15877 0.0654663 0.366123
          -0.0410849 -0.0131109 -0.178468 -0.0421975 -0.0121278 -0.149963
          -0.0048344 -0.0120173 -0.183844 -0.0417754 -0.0127901 -0.19048
          0.0698431 -0.00822036 -0.18142 0.0667859 -0.00492085 -0.132948
          0.0825549 -0.00948852 -0.155184 0.0862894 -0.00400199 -0.166307
          -0.00804499 0.0392555 0.118445 0.0713689 0.0401873 0.0354087
          0.111056 0.0506082 0.116801 0.0640984 0.0457958 0.114738
          0.108162 0.0929403 0.778368 0.0433159 0.0880509 0.781563
          0.0583965 0.0997503 0.826217 0.0388664 0.0965394 0.756258
          0.113746 -0.0145598 -0.606765 0.121685 -0.0166017 -0.597055
          0.107566 -0.0128015 -0.607479 0.104713 -0.0169045 -0.601903
          0.141147 0.100371 0.938067 0.168513 0.0943187 0.953422
          0.204595 0.0961512 0.949524 0.148758 0.0957216 0.968415
          0.135136 -0.0161269 -0.592202 0.1144 -0.0159403 -0.605091
          0.130566 -0.0141443 -0.594765 0.137741 -0.00834925 -0.591306
          0.128141 0.0092244 -0.36495 0.149133 0.0161199 -0.296868
          0.175406 0.0171797 -0.332993 0.115975 0.0128998 -0.314557
          0.0583685 -0.00316609 -0.0516314 0.0514059 0.00594786 -0.0423778
          0.0784527 -0.00597124 -0.0773241 0.0407461 -0.00197492 -0.0545277
          0.160002 -0.0117775 -0.507128 0.137233 -0.0135718 -0.504352
          0.163383 -0.0132896 -0.490656 0.154852 -0.0116642 -0.533339
          0.0918535 -0.00127327 -0.184187 0.0862894 -0.00400199 -0.166307
          0.0962148 -0.00593256 -0.21049 0.132188 -0.00369529 -0.201109
          0.109254 -0.0117923 -0.604306 0.115624 -0.00953853 -0.606174
          0.120129 -0.00615696 -0.608411 0.116074 -0.00889233 -0.591783
          0.331863 0.0933791 0.681261 0.303862 0.0937414 0.696053
          0.319563 0.0916535 0.59525 0.389693 0.0946005 0.585769
          0.164278 -0.0127238 -0.470143 0.166124 -0.0132648 -0.456047
          0.163383 -0.0132896 -0.490656 0.124448 -0.0143225 -0.471353
          0.0657571 -0.0031679 -0.428833 0.0945674 0.00212618 -0.424615
          0.0919653 0.00584569 -0.369417 0.00962742 -0.00493176 -0.396985
          0.109208 0.0572903 0.209665 0.172426 0.0599948 0.182148
          0.199017 0.0610013 0.140613 0.192891 0.0664681 0.226339
          0.0345143 -0.0101269 -0.131573 0.0508293 -0.0107902 -0.0918145
          0.0695339 -0.0077584 -0.112705 0.0188405 -0.00834344 -0.0945442
          -0.0104375 -0.0117784 -0.420885 -0.0183776 -0.0107372 -0.385427
          0.0276634 -0.0124395 -0.381452 0.049198 -0.0109875 -0.426503
          0.107318 -0.0140032 -0.607226 0.101268 -0.0133311 -0.59472
          0.111468 -0.0123134 -0.602749 0.108992 -0.0122948 -0.606635
          0.0890549 -0.00504081 -0.59431 0.076987 -0.00403773 -0.579963
          0.074161 -0.0108072 -0.582806 0.0845377 -0.00382754 -0.593911
          0.129565 -0.00181342 -0.563005 0.152816 0.00527735 -0.573116
          0.130792 -0.000960639 -0.550484 0.127413 -0.00533943 -0.584442
          0.073427 -0.0150233 -0.582338 0.0603935 -0.0166081 -0.565105
          0.0974886 -0.0130007 -0.586673 0.0770825 -0.0209682 -0.589541
          0.0679001 0.0684276 0.660272 0.116441 0.0700373 0.586952
          0.0746714 0.0731584 0.661841 0.148895 0.0762001 0.66868
          0.0829969 -0.0109702 -0.307637 0.0608181 -0.012833 -0.282402
          0.0623433 -0.00899144 -0.27071 0.0419592 -0.0119604 -0.304688
          0.131919 0.0935166 1.0631 0.110551 0.0973971 1.01445
          0.11299 0.0952604 1.06038 0.165145 0.0940771 1.01785
          0.15353 0.000570539 -0.562779 0.150403 0.00210831 -0.583032
          0.171264 0.00623301 -0.573364 0.145549 -0.00508143 -0.577714
          0.0862894 -0.00400199 -0.166307 0.121216 -0.0034695 -0.167938
          0.126891 -0.00861598 -0.183665 0.0975373 -0.00974557 -0.192492
          0.117288 0.0824418 0.964402 0.117288 0.0824418 0.964402
          0.117288 0.0824418 0.964402 0.141182 0.0902565 0.952366
          0.316173 0.0897648 0.554729 0.260232 0.0884996 0.60553
          0.262492 0.0911611 0.652694 0.199691 0.0849973 0.580698
          0.109413 -0.00731356 -0.560632 0.0992329 -0.00753719 -0.587347
          0.0998489 -0.00965086 -0.589306 0.119123 -0.00951806 -0.581108
          0.0737005 -0.0132091 -0.182875 0.0425612 -0.0137818 -0.154251
          0.0755101 -0.0174151 -0.181463 0.101464 -0.0152337 -0.183591
          -0.0211191 0.0597525 0.441455 -0.0213389 0.0540566 0.325313
          0.0590932 0.0607576 0.34242 0.102322 0.0639772 0.375425
          0.24751 0.0759489 0.490251 0.366693 0.0817436 0.45118
          0.376057 0.088585 0.525818 0.342939 0.0904408 0.603744
          0.0836865 -0.0155189 -0.576022 0.0480688 -0.0136174 -0.554683
          0.0859557 -0.0131762 -0.586375 0.073082 -0.0182206 -0.580329
          0.103987 -0.0142188 -0.596435 0.0994754 -0.0162388 -0.56772
          0.0998571 -0.0152705 -0.572757 0.0914105 -0.0189928 -0.58394
          -0.0402609 -0.0132542 -0.172689 -0.00275804 -0.0140178 -0.20773
          -0.0410849 -0.0131109 -0.178468 -0.0116154 -0.0127112 -0.160316
          0.114294 -0.0146101 -0.600231 0.125346 -0.0111707 -0.593521
          0.111468 -0.0123134 -0.602749 0.106077 -0.011639 -0.601787
          0.00553736 -0.00949131 -0.0872548 0.0303649 -0.0119405 -0.0807488
          0.0341126 -0.0125083 -0.114873 0.0256855 -0.00877047 -0.0769447
          0.27145 0.0922475 0.715046 0.293472 0.0994953 0.79386
          0.248601 0.0963202 0.818343 0.204122 0.0875869 0.77037
          -0.0355365 -0.0141714 -0.273168 0.0266702 -0.0125329 -0.259877
          0.00213241 -0.0128252 -0.289606 0.00402628 -0.0122154 -0.223718
          0.0450636 -0.0111888 -0.184676 0.0698431 -0.00822036 -0.18142
          0.0508684 -0.0116704 -0.233291 0.0444503 -0.00882003 -0.221329
          0.0982184 0.0600215 0.359552 0.060929 0.0538991 0.266939
          0.116016 0.0552688 0.266951 0.0171833 0.0535705 0.315495
          0.172727 0.0572523 0.179964 0.239744 0.0627337 0.215118
          0.185124 0.05297 0.131345 0.28714 0.0650225 0.175661
          0.0689447 -0.0128604 -0.335303 0.0487007 -0.016142 -0.343334
          0.0679743 -0.0153294 -0.306575 0.0331346 -0.0139518 -0.311202
          0.076987 -0.00403773 -0.579963 0.0890549 -0.00504081 -0.59431
          0.0801628 -0.00822523 -0.571445 0.0992329 -0.00753719 -0.587347
          0.26761 0.10803 1.03604 0.250416 0.112338 1.09087
          0.284176 0.113884 1.09618 0.260994 0.10922 1.08958
          0.000362789 -0.0130793 -0.455538 0.00880291 -0.00779109 -0.477707
          -0.00345285 -0.00674395 -0.445396 0.030685 -0.00952224 -0.456825
          0.222148 0.100112 0.994249 0.214788 0.10492 1.00424
          0.169989 0.0988924 1.0076 0.149803 0.0947307 0.967832
          -0.042216 -0.0112982 -0.106801 -0.0431464 -0.0115306 -0.135303
          -0.0438624 -0.0112966 -0.125053 0.00270117 -0.00839904 -0.122071
          0.086844 0.0241004 -0.145402 0.137108 0.0320141 -0.0853689
          0.135582 0.0211458 -0.209163 0.199466 0.0297779 -0.163731
          0.100508 -0.0172467 -0.594197 0.0876484 -0.0143337 -0.588037
          0.0995078 -0.0148368 -0.598679 0.102143 -0.0120732 -0.59422
          0.148946 0.0951903 0.97766 0.111699 0.0872084 1.01616
          0.172295 0.10293 0.999356 0.14422 0.101679 1.03743
          0.231761 0.0961351 0.92421 0.251644 0.0986556 0.9563
          0.268008 0.0960197 0.961097 0.204595 0.0961512 0.949524
          0.0654843 -0.00281992 -0.4944 0.0877043 -0.0027958 -0.528633
          0.128315 -0.00339795 -0.511432 0.109617 -0.00182166 -0.493723
          0.00020316 -0.00504482 -0.026493 -0.0227859 -0.00193359 -0.0184177
          -0.0292533 -0.00563442 -0.0335524 -0.0270274 -0.00466195 -0.0349902
          -0.0357635 -0.00911502 -0.0589362 -0.0102802 -0.00591698 -0.0432173
          -0.0116991 -0.00495655 -0.029839 -0.0075844 -0.00783516 -0.0507497
          0.128315 -0.00339795 -0.511432 0.109617 -0.00182166 -0.493723
          0.138348 -0.00834367 -0.530527 0.151141 -0.00421154 -0.490188
          0.121678 -0.0131649 -0.477031 0.0943749 -0.0110955 -0.459335
          0.133529 -0.0122415 -0.442996 0.11878 -0.011999 -0.4627
          0.246225 0.0190544 -0.257511 0.182105 0.0194951 -0.264953
          0.287691 0.0276488 -0.212564 0.279438 0.0225269 -0.278857
          0.0157321 -0.0143898 -0.251108 0.0331346 -0.0139518 -0.311202
          0.0266702 -0.0125329 -0.259877 0.0608181 -0.012833 -0.282402
          0.159365 0.0442869 -0.00337952 0.229061 0.0449968 -0.0778743
          0.274803 0.0541389 -0.0163549 0.219222 0.0486119 -0.00572604
          -0.000871435 -0.0111273 -0.144184 -0.0431464 -0.0115306 -0.135303
          -0.010015 -0.0095234 -0.104158 0.00270117 -0.00839904 -0.122071
          -0.0347885 -0.00779776 -0.0616949 -0.0292533 -0.00563442 -0.0335524
          -0.0075844 -0.00783516 -0.0507497 -0.0357635 -0.00911502 -0.0589362
          0.0742199 -0.00934427 -0.556536 0.0865935 -0.00428175 -0.59029
          0.0715879 -0.0107643 -0.570157 0.0648896 -0.00151987 -0.57823
          0.101464 -0.0152337 -0.183591 0.102126 -0.0189734 -0.170381
          0.135107 -0.0174963 -0.199185 0.12208 -0.0160632 -0.164258
          0.073581 -0.012766 -0.382787 0.0327647 -0.0109596 -0.337261
          0.0558022 -0.0109937 -0.389167 0.0276634 -0.0124395 -0.381452
          0.315243 0.0628785 0.222664 0.27609 0.0684555 0.293154
          0.326695 0.0694075 0.312661 0.352832 0.0701436 0.265476
          0.116016 0.0552688 0.266951 0.165241 0.0545551 0.192337
          0.165688 0.0612821 0.281712 0.228849 0.0575983 0.213013
          0.145529 -0.0171154 -0.571117 0.154929 -0.0155281 -0.542343
          0.12387 -0.0137173 -0.55443 0.148566 -0.0137518 -0.555601
          0.0688902 0.018373 -0.205679 0.14323 0.027128 -0.191288
          0.130885 0.0226921 -0.239709 0.078365 0.0183968 -0.220655
          0.146871 0.00484992 -0.59224 0.156081 0.0102825 -0.594759
          0.1297 9.87133e-05 -0.605701 0.127146 -0.00193784 -0.605756
          0.251013 0.0330087 -0.116421 0.199466 0.0297779 -0.163731
          0.306307 0.0396681 -0.119836 0.29657 0.0342262 -0.144824
          0.11472 -0.0137039 -0.576103 0.124799 -0.0135258 -0.574159
          0.145529 -0.0171154 -0.571117 0.12387 -0.0137173 -0.55443
          0.331863 0.0933791 0.681261 0.389693 0.0946005 0.585769
          0.319563 0.0916535 0.59525 0.394862 0.0940187 0.563365
          -0.00165095 -0.00443768 -0.0206394 -0.00551033 -0.00413169 -0.0251656
          0.00405932 5.82853e-05 -0.0225702 0.00965275 -0.00343188 -0.0436944
          0.168288 0.0375999 -0.0873447 0.163956 0.0390901 -0.0880543
          0.185682 0.0349137 -0.171147 0.120774 0.030637 -0.123642
          0.329085 0.113175 1.04334 0.26761 0.10803 1.03604
          0.264721 0.107082 0.998789 0.304568 0.113406 1.05426
          0.0502169 -0.00470133 -0.188891 0.0698431 -0.00822036 -0.18142
          0.0252408 -0.0079659 -0.186335 0.0444503 -0.00882003 -0.221329
          0.267528 0.060776 0.191131 0.228849 0.0575983 0.213013
          0.315243 0.0628785 0.222664 0.27609 0.0684555 0.293154
          0.116016 0.0552688 0.266951 0.185828 0.0648493 0.366047
          0.15877 0.0654663 0.366123 0.0982184 0.0600215 0.359552
          0.23316 0.00509314 -0.452771 0.227329 0.00478569 -0.482107
          0.199929 -0.00871553 -0.521842 0.175681 -0.00370727 -0.508049
          0.0925816 -0.0217264 -0.601484 0.1081 -0.0209799 -0.606824
          0.102214 -0.0221425 -0.614932 0.106885 -0.0166778 -0.610537
          0.117833 0.067363 0.48689 0.0982184 0.0600215 0.359552
          0.089927 0.0645819 0.43286 0.15877 0.0654663 0.366123
          0.300097 0.0831428 0.404996 0.276815 0.0802136 0.346431
          0.345247 0.0849373 0.333469 0.297489 0.0760461 0.273847
          0.102214 -0.0221425 -0.614932 0.106885 -0.0166778 -0.610537
          0.0984941 -0.0173699 -0.601281 0.0925816 -0.0217264 -0.601484
          0.204595 0.0961512 0.949524 0.216996 0.0946768 0.982276
          0.254847 0.0942488 0.990392 0.201861 0.0919498 0.982176
          0.0925113 -0.0100672 -0.58693 0.0855552 -0.00604505 -0.571251
          0.097403 -0.00460077 -0.593334 0.0865935 -0.00428175 -0.59029
          0.0242242 -0.010768 -0.269019 -0.00778128 -0.00821885 -0.267441
          0.00022389 -0.00790277 -0.232947 0.0259847 -0.00747016 -0.269956
          0.0581534 -0.0202491 -0.482959 0.0326146 -0.0205887 -0.428346
          0.0793457 -0.0182685 -0.45509 0.0410239 -0.0180549 -0.471625
          0.177392 0.0114892 -0.3605 0.131645 0.00478053 -0.424531
          0.128141 0.0092244 -0.36495 0.171681 0.0118168 -0.394107
          0.25535 0.057476 0.0852052 0.344346 0.0656273 0.127083
          0.271213 0.0549191 0.0653578 0.332187 0.0577736 0.0357389
          0.00379622 2.43316e-05 -0.336744 0.0598204 0.00789755 -0.317222
          -0.00458031 0.00720486 -0.248147 -0.00630596 0.0047323 -0.294327
          0.0720016 0.0386142 0.0590978 -0.0249977 0.0324135 0.0456061
          0.0359137 0.0362804 0.0463107 0.023489 0.0297041 -0.0166612
          0.120205 -0.0074673 -0.574662 0.15353 0.000570539 -0.562779
          0.130862 -0.00448618 -0.596049 0.127413 -0.00533943 -0.584442
          -0.00896293 -0.00640648 -0.0407497 -0.0292533 -0.00563442 -0.0335524
          0.00020316 -0.00504482 -0.026493 -0.0116991 -0.00495655 -0.029839
          0.141147 0.100371 0.938067 0.115205 0.101212 0.962865
          0.148758 0.0957216 0.968415 0.143039 0.100997 0.951491
          0.0770825 -0.0209682 -0.589541 0.0603935 -0.0166081 -0.565105
          0.0871718 -0.0133081 -0.56754 0.0571961 -0.0189245 -0.5595
          0.124962 0.103705 0.917689 0.141147 0.100371 0.938067
          0.107308 0.105929 0.93937 0.0838931 0.102285 0.893233
          0.114469 -0.00938039 -0.604088 0.0974886 -0.0130007 -0.586673
          0.10914 -0.00942437 -0.584649 0.09246 -0.0181342 -0.59445
          0.330412 0.111551 1.00014 0.26761 0.10803 1.03604
          0.264721 0.107082 0.998789 0.329085 0.113175 1.04334
          0.0303649 -0.0119405 -0.0807488 0.0508293 -0.0107902 -0.0918145
          0.0341126 -0.0125083 -0.114873 0.0256855 -0.00877047 -0.0769447
          -0.0308071 -0.0103616 -0.3191 -0.0386367 -0.00998593 -0.259364
          0.00691554 -0.00994981 -0.300825 -0.0144376 -0.00790873 -0.306156
          0.16371 0.00418987 -0.421372 0.131645 0.00478053 -0.424531
          0.160387 0.00185887 -0.476443 0.122207 0.000471272 -0.462474
          0.25535 0.057476 0.0852052 0.271213 0.0549191 0.0653578
          0.219222 0.0486119 -0.00572604 0.243538 0.045937 -0.0299528
          0.251013 0.0330087 -0.116421 0.23391 0.0395448 -0.0669595
          0.185795 0.0311586 -0.1008 0.270051 0.0400479 -0.0453142
          0.137741 -0.00834925 -0.591306 0.1144 -0.0159403 -0.605091
          0.118662 -0.0118541 -0.601902 0.125961 -0.00727612 -0.600585
          0.239744 0.0627337 0.215118 0.172727 0.0572523 0.179964
          0.267607 0.0706221 0.272312 0.238454 0.0638716 0.176386
          0.209922 0.09271 0.859342 0.154107 0.0883189 0.857766
          0.153914 0.0798208 0.88027 0.198685 0.0945086 0.918357
          0.122055 -0.0136552 -0.391712 0.133888 -0.0146771 -0.401768
          0.16614 -0.0138481 -0.427097 0.164565 -0.0133876 -0.382405
          0.150518 -0.0153733 -0.270885 0.114861 -0.0179139 -0.253853
          0.150465 -0.0175464 -0.284748 0.144869 -0.0177062 -0.239967
          0.203901 0.0897619 1.07521 0.161148 0.0923967 1.06649
          0.145882 0.0938932 1.06259 0.146166 0.0938949 1.01979
          -0.00441511 -0.00222472 -0.0122332 0.00765602 -0.0064143 -0.0148698
          0 0 0 -0.00310213 -0.00244935 -0.0142378
          0.0425612 -0.0137818 -0.154251 0.0171834 -0.0131376 -0.175025
          0.00182056 -0.0115354 -0.128416 0.0345143 -0.0101269 -0.131573
          0.185795 0.0311586 -0.1008 0.132813 0.0247032 -0.151924
          0.199466 0.0297779 -0.163731 0.200648 0.0214733 -0.214665
          0.0483354 -0.00442074 -0.55277 0.0801628 -0.00822523 -0.571445
          0.0391397 -0.00499197 -0.525882 0.0764351 -0.00495617 -0.53841
          0.110055 -0.0119697 -0.4245 0.073581 -0.012766 -0.382787
          0.120859 -0.0118386 -0.3705 0.0834431 -0.0103708 -0.372283
          0.103987 -0.0142188 -0.596435 0.114299 -0.00953216 -0.601565
          0.118476 -0.0115173 -0.589823 0.122016 -0.0103725 -0.580307
          0.153439 0.0976263 0.896305 0.141147 0.100371 0.938067
          0.168513 0.0943187 0.953422 0.204595 0.0961512 0.949524
          0.0407461 -0.00197492 -0.0545277 0.0811874 0.0034827 -0.0826292
          0.0680056 -0.0011597 -0.0994993 0.0418506 0.000676097 -0.0697344
          0.213557 0.025394 -0.25746 0.149133 0.0161199 -0.296868
          0.216692 0.0189193 -0.322874 0.182105 0.0194951 -0.264953
          0.0389648 -0.00539303 -0.0891458 0.0695339 -0.0077584 -0.112705
          0.0667859 -0.00492085 -0.132948 0.0680056 -0.0011597 -0.0994993
          0.0583685 -0.00316609 -0.0516314 0.0255033 0.00090171 -0.0220747
          0.0514059 0.00594786 -0.0423778 0.0303638 -0.00158471 -0.0321671
          0.238454 0.0638716 0.176386 0.172426 0.0599948 0.182148
          0.293523 0.0709724 0.187424 0.213365 0.058239 0.10934
          -0.0150094 -0.0166441 -0.254014 -0.000947842 -0.0186037 -0.321454
          0.00727071 -0.0159958 -0.292999 0.0386203 -0.0180922 -0.317802
          -0.00165095 -0.00443768 -0.0206394 0.00405932 5.82853e-05 -0.0225702
          -0.00608307 -0.00364772 -0.0122518 0.00322887 -0.000798352 -0.00798877
          -0.010015 -0.0095234 -0.104158 0.00270117 -0.00839904 -0.122071
          -0.0152809 -0.00864801 -0.0931318 -0.0014031 -0.00719991 -0.0748949
          0.319563 0.0916535 0.59525 0.316173 0.0897648 0.554729
          0.199691 0.0849973 0.580698 0.237426 0.086149 0.538209
          -0.0014031 -0.00719991 -0.0748949 0.0188405 -0.00834344 -0.0945442
          0.0165473 -0.00617679 -0.0509829 0.0256855 -0.00877047 -0.0769447
          0.28714 0.0650225 0.175661 0.344346 0.0656273 0.127083
          0.35414 0.0709775 0.22333 0.344461 0.0653814 0.18953
          0.160387 0.00185887 -0.476443 0.176831 0.00185096 -0.511452
          0.175681 -0.00370727 -0.508049 0.146451 -0.00498123 -0.540931
          0.00553736 -0.00949131 -0.0872548 -0.010015 -0.0095234 -0.104158
          -0.0014031 -0.00719991 -0.0748949 0.0188405 -0.00834344 -0.0945442
          0.109382 0.0908914 0.835634 0.0896431 0.0734616 0.892396
          0.145903 0.092674 0.919067 0.0820273 0.0897636 0.875404
          0.148566 -0.0137518 -0.555601 0.132045 -0.0137283 -0.536958
          0.154929 -0.0155281 -0.542343 0.12387 -0.0137173 -0.55443
          0.0290398 -0.0139909 -0.0689169 0.0381607 -0.0153411 -0.0506569
          0.021377 -0.0104381 -0.0359205 0.016022 -0.0112065 -0.0373548
          0.0271315 -0.00354039 -0.522255 0.0349748 -0.00214796 -0.509131
          0.0559069 -0.00708235 -0.53041 0.0398111 0.00126769 -0.547039
          0.0801865 -0.0129857 -0.431223 0.0558022 -0.0109937 -0.389167
          0.0276634 -0.0124395 -0.381452 0.073581 -0.012766 -0.382787
          -0.00991763 0.0660669 0.456629 0.0595115 0.0667901 0.408272
          0.0808134 0.0722704 0.485717 -0.0160427 0.0608877 0.4158
          0.118801 -0.0139847 -0.559433 0.149308 -0.0091699 -0.552519
          0.13808 -0.0101082 -0.579112 0.148566 -0.0137518 -0.555601
          0.198539 0.0823455 0.576957 0.252053 0.0846894 0.591048
          0.178795 0.0768006 0.555971 0.237126 0.0794021 0.50115
          0.0982184 0.0600215 0.359552 0.0519335 0.0584848 0.350848
          0.060929 0.0538991 0.266939 0.0171833 0.0535705 0.315495
          0.173823 0.0246422 -0.254984 0.115975 0.0128998 -0.314557
          0.149133 0.0161199 -0.296868 0.137752 0.021662 -0.228365
          -0.00165095 -0.00443768 -0.0206394 -0.00700115 -0.00345964 -0.0120442
          -0.00551033 -0.00413169 -0.0251656 -0.0102802 -0.00591698 -0.0432173
          0.247261 0.101271 0.929042 0.198685 0.0945086 0.918357
          0.289994 0.106625 0.941827 0.272881 0.101595 0.900105
          -0.000402004 -0.0101472 -0.218544 -0.00778128 -0.00821885 -0.267441
          0.00022389 -0.00790277 -0.232947 0.0242242 -0.010768 -0.269019
          -0.0014031 -0.00719991 -0.0748949 0.0188405 -0.00834344 -0.0945442
          0.0256855 -0.00877047 -0.0769447 -0.0075844 -0.00783516 -0.0507497
          0.00753595 -0.0138764 -0.340524 0.0327647 -0.0109596 -0.337261
          0.0419592 -0.0119604 -0.304688 0.0689447 -0.0128604 -0.335303
          0.0746342 -0.0182243 -0.408703 0.069771 -0.0176787 -0.359571
          0.116094 -0.0159618 -0.415128 0.0864608 -0.0150371 -0.385583
          0.271213 0.0549191 0.0653578 0.215481 0.0468155 0.0269334
          0.161268 0.0430777 0.00556753 0.243538 0.045937 -0.0299528
          0.364544 0.0778847 0.37568 0.282707 0.0780598 0.447798
          0.373022 0.0833251 0.422228 0.240365 0.0719055 0.361752
          0.120205 -0.0074673 -0.574662 0.127413 -0.00533943 -0.584442
          0.0974886 -0.0130007 -0.586673 0.0970682 -0.00880874 -0.546836
          0.233002 0.103482 1.08172 0.19409 0.0993376 1.07089
          0.239193 0.0983216 1.08158 0.220738 0.0983866 1.03044
          -0.00151333 0.0741555 0.554507 0.0808134 0.0722704 0.485717
          -0.0101049 0.0672179 0.524128 -0.00991763 0.0660669 0.456629
          0.049462 0.0234903 -0.116728 0.045572 0.0183116 -0.184803
          0.0269824 0.0190862 -0.166782 -0.0244421 0.0178141 -0.132669
          0.0558022 -0.0109937 -0.389167 0.0801865 -0.0129857 -0.431223
          0.0769836 -0.0103014 -0.421409 0.110055 -0.0119697 -0.4245
          0.0062396 0.00749469 -0.00317775 0.0105776 0.00504842 -0.00736282
          0.0274925 0.0101144 -0.0279686 0.0311991 0.0147318 -0.021768
          0.315675 0.0464779 -0.0557286 0.251511 0.0450642 -0.00310106
          0.314985 0.0475958 -0.0156401 0.32407 0.0527487 0.00931725
          0.146451 -0.00498123 -0.540931 0.109413 -0.00731356 -0.560632
          0.120205 -0.0074673 -0.574662 0.137254 -0.010044 -0.578733
          0.341816 0.112732 0.920067 0.289994 0.106625 0.941827
          0.294293 0.110603 0.96798 0.332879 0.110851 0.961753
          0.0670694 -0.0106223 -0.51427 0.0674725 -0.0100434 -0.47284
          0.0964633 -0.0116014 -0.498097 0.0758985 -0.00839467 -0.497359
          0.0337951 -0.0196446 -0.535277 0.0535114 -0.0187996 -0.526146
          0.0653537 -0.018359 -0.55754 0.0647985 -0.0129255 -0.545036
          0.0368505 -0.00613969 -0.0433125 0.0619345 -0.0102839 -0.0527576
          0.0784527 -0.00597124 -0.0773241 0.0583685 -0.00316609 -0.0516314
          -0.0312485 -0.0147393 -0.307478 0.00213241 -0.0128252 -0.289606
          -0.0309792 -0.01305 -0.314827 -0.0355365 -0.0141714 -0.273168
          0.293221 0.100629 0.862298 0.272272 0.0982259 0.871623
          0.285884 0.101867 0.926939 0.35665 0.103169 0.859128
          0.0176904 -0.00353163 -0.0727868 0.0188405 -0.00834344 -0.0945442
          -0.0014031 -0.00719991 -0.0748949 0.0245713 -0.00500875 -0.104985
          0.384031 0.0961793 0.70697 0.298834 0.0968458 0.818175
          0.34366 0.0948321 0.759262 0.303862 0.0937414 0.696053
          0.0512157 -0.0221583 -0.559286 0.0283937 -0.0250899 -0.531799
          0.0653537 -0.018359 -0.55754 0.0337951 -0.0196446 -0.535277
          0.0273608 0.00523286 -0.404675 0.0548873 0.00331069 -0.396044
          0.0764155 0.00741455 -0.357328 0.0932756 0.00212624 -0.445271
          0.177759 0.0101018 -0.451713 0.189171 0.00696049 -0.46894
          0.134062 0.00401747 -0.464844 0.147387 0.00173919 -0.514186
          0.145798 0.090798 0.679028 0.164032 0.0827915 0.545908
          0.190968 0.0892035 0.6277 0.0754783 0.0822369 0.620429
          0.0595115 0.0667901 0.408272 0.150391 0.0775013 0.461281
          0.0808134 0.0722704 0.485717 0.171272 0.0778226 0.475443
          0.107324 0.0996718 0.805121 0.0907144 0.0927309 0.71224
          0.108162 0.0929403 0.778368 0.0388664 0.0965394 0.756258
          0.0611862 0.0391504 0.0429092 -0.00934244 0.0266212 -0.0334379
          0.0449238 0.0339339 0.00411554 -0.0157458 0.0323379 0.0389614
          0.169989 0.0988924 1.0076 0.18707 0.1075 1.04546
          0.168881 0.100418 1.06673 0.0967532 0.0787728 0.992186
          0.204548 0.0340728 -0.161825 0.240943 0.0331244 -0.188792
          0.137752 0.021662 -0.228365 0.213557 0.025394 -0.25746
          0.121298 -0.0203243 -0.601592 0.12041 -0.0170253 -0.596519
          0.126913 -0.0224445 -0.601183 0.113746 -0.0145598 -0.606765
          0 0 0 0 0 0
          0.013461 -0.00348063 -0.0158737 0 0 0
          0.256253 0.111304 1.03556 0.214788 0.10492 1.00424
          0.227293 0.112242 1.05647 0.26761 0.10803 1.03604
          0.168513 0.0943187 0.953422 0.204595 0.0961512 0.949524
          0.216313 0.0984366 0.955905 0.216196 0.0956329 0.913168
          0.13533 0.0805968 0.576606 0.189954 0.0762057 0.471849
          0.0830577 0.0694311 0.477071 0.0808134 0.0722704 0.485717
          0.137752 0.021662 -0.228365 0.204548 0.0340728 -0.161825
          0.109294 0.0209412 -0.217591 0.16095 0.0298942 -0.151939
          -0.0352411 -0.00732795 -0.0746054 -0.0112473 -0.00867774 -0.0676795
          0.00069831 -0.0122989 -0.0909205 -0.00895024 -0.0104179 -0.0974204
          -0.0343607 -0.0175614 -0.288495 -0.000947842 -0.0186037 -0.321454
          0.00727071 -0.0159958 -0.292999 -0.0150094 -0.0166441 -0.254014
          0.0252408 -0.0079659 -0.186335 0.0698431 -0.00822036 -0.18142
          0.0125049 -0.0101035 -0.180202 0.0444503 -0.00882003 -0.221329
          0.113639 -0.0132619 -0.522822 0.0896834 -0.01342 -0.474792
          0.121678 -0.0131649 -0.477031 0.0964633 -0.0116014 -0.498097
          0.256253 0.111304 1.03556 0.26761 0.10803 1.03604
          0.250416 0.112338 1.09087 0.284176 0.113884 1.09618
          0.0945674 0.00212618 -0.424615 0.0664855 -0.0026124 -0.453424
          0.0688967 0.00260366 -0.397242 0.00962742 -0.00493176 -0.396985
          0.268008 0.0960197 0.961097 0.204595 0.0961512 0.949524
          0.254847 0.0942488 0.990392 0.201861 0.0919498 0.982176
          -0.0152553 0.0199927 -0.106234 -0.0199145 0.0267211 -0.024701
          -0.0209827 0.0198814 -0.106826 0.0692071 0.0290328 -0.0736489
          -0.010015 -0.0095234 -0.104158 0.00270117 -0.00839904 -0.122071
          -0.042216 -0.0112982 -0.106801 -0.0152809 -0.00864801 -0.0931318
          0.0556986 -0.0149003 -0.231736 0.0737005 -0.0132091 -0.182875
          0.0441608 -0.0145928 -0.191319 0.0966303 -0.0151294 -0.230152
          0.177759 0.0101018 -0.451713 0.134062 0.00401747 -0.464844
          0.125164 0.0053151 -0.431484 0.135703 0.0025933 -0.49578
          0.0853375 -0.0184729 -0.58789 0.0653537 -0.018359 -0.55754
          0.0808666 -0.022248 -0.583 0.0836865 -0.0155189 -0.576022
          0.102925 -0.01385 -0.339323 0.159421 -0.0147054 -0.329643
          0.160203 -0.0119435 -0.337823 0.118528 -0.0149838 -0.308486
          0.0261287 -0.0124198 -0.465925 0.00962742 -0.00493176 -0.396985
          0.0657571 -0.0031679 -0.428833 0.0116505 -0.0055628 -0.385172
          0.317504 0.0992951 0.814724 0.367966 0.104195 0.7975
          0.293221 0.100629 0.862298 0.302232 0.0971933 0.769835
          0.0640031 0.0178233 -0.205846 0.0740235 0.0117361 -0.29873
          0.0734512 0.0151683 -0.243691 0.123789 0.014183 -0.274253
          0.238454 0.0638716 0.176386 0.213365 0.058239 0.10934
          0.293523 0.0709724 0.187424 0.35358 0.070367 0.118803
          0.0444503 -0.00882003 -0.221329 0.0819989 -0.00422975 -0.217356
          0.0910404 -0.00871713 -0.248485 0.0491411 -0.00599707 -0.241803
          0.0553065 0.00140284 -0.56841 0.0711245 0.00679275 -0.587151
          0.0805224 -0.000891983 -0.581501 0.0865935 -0.00428175 -0.59029
          0.120268 -0.0101949 -0.41947 0.133529 -0.0122415 -0.442996
          0.158708 -0.0108474 -0.413742 0.130047 -0.0108439 -0.391734
          -0.000871435 -0.0111273 -0.144184 -0.0421975 -0.0121278 -0.149963
          0.0125049 -0.0101035 -0.180202 -0.0048344 -0.0120173 -0.183844
          -0.00458031 0.00720486 -0.248147 -0.00630596 0.0047323 -0.294327
          0.0598204 0.00789755 -0.317222 0.0567087 0.0165835 -0.211871
          0.0967532 0.0787728 0.992186 0.14422 0.101679 1.03743
          0.115032 0.0843161 1.07455 0.111699 0.0872084 1.01616
          0.107566 -0.0128015 -0.607479 0.112241 -0.0126718 -0.604121
          0.113746 -0.0145598 -0.606765 0.108992 -0.0122948 -0.606635
          0.0608994 -0.00221483 -0.159693 0.0862894 -0.00400199 -0.166307
          0.0502169 -0.00470133 -0.188891 0.0962148 -0.00593256 -0.21049
          0.0556279 0.0119667 -0.0448786 0.0514059 0.00594786 -0.0423778
          0.0311991 0.0147318 -0.021768 0.0274925 0.0101144 -0.0279686
          0.149682 0.0387796 -0.00792568 0.137108 0.0320141 -0.0853689
          0.0887729 0.0367918 0.00698102 0.163842 0.0365633 -0.0716904
          0.269623 0.0833918 0.439675 0.222461 0.0782877 0.41735
          0.150391 0.0775013 0.461281 0.221318 0.0782606 0.38677
          0.373022 0.0833251 0.422228 0.240365 0.0719055 0.361752
          0.301397 0.0779443 0.365474 0.361653 0.0757261 0.29799
          -0.00151333 0.0741555 0.554507 0.0754783 0.0822369 0.620429
          0.0808134 0.0722704 0.485717 0.0846141 0.0787166 0.528453
          0.0439374 -0.00694747 -0.551364 0.0254341 -0.00812965 -0.517394
          0.0559069 -0.00708235 -0.53041 0.0271315 -0.00354039 -0.522255
          0.213557 0.025394 -0.25746 0.229906 0.0269602 -0.297914
          0.175406 0.0171797 -0.332993 0.173823 0.0246422 -0.254984
          0.0116505 -0.0055628 -0.385172 0.026183 -0.0140618 -0.460937
          0.0657571 -0.0031679 -0.428833 0.0261287 -0.0124198 -0.465925
          0.149682 0.0387796 -0.00792568 0.0887729 0.0367918 0.00698102
          0.130585 0.0390306 0.0287109 0.126597 0.045842 0.0973606
          0.106057 -0.0116458 -0.606543 0.112396 -0.00944941 -0.595416
          0.0998489 -0.00965086 -0.589306 0.110311 -0.011447 -0.600512
          0.268238 0.0953534 0.771063 0.272704 0.0935405 0.736088
          0.217441 0.0908349 0.694364 0.186477 0.0935983 0.764036
          0.168288 0.0375999 -0.0873447 0.185682 0.0349137 -0.171147
          0.254571 0.0422139 -0.140693 0.204548 0.0340728 -0.161825
          0.063013 -0.0157642 -0.0456833 0.0385235 -0.0105734 -0.0388337
          0.045819 -0.00779774 -0.0366013 0.0619345 -0.0102839 -0.0527576
          0.260233 0.0868215 0.649864 0.312824 0.0949824 0.693554
          0.296649 0.0901879 0.64528 0.24719 0.0906245 0.746051
          0.289143 0.105429 1.04493 0.284969 0.105508 0.994064
          0.258775 0.10035 0.992022 0.335373 0.10664 1.00044
          0.101464 -0.0152337 -0.183591 0.11946 -0.0121716 -0.160773
          0.130472 -0.0123001 -0.19356 0.0825549 -0.00948852 -0.155184
          0.18131 0.00998128 -0.509551 0.179763 0.00577853 -0.528465
          0.15353 0.000570539 -0.562779 0.179652 0.0134379 -0.536532
          0.284969 0.105508 0.994064 0.254201 0.103492 0.959385
          0.216313 0.0984366 0.955905 0.292096 0.102758 0.964551
          -0.0402609 -0.0132542 -0.172689 -0.038764 -0.0152156 -0.219229
          -0.00275804 -0.0140178 -0.20773 4.09269e-05 -0.015154 -0.187651
          0.00182056 -0.0115354 -0.128416 -0.00895024 -0.0104179 -0.0974204
          0.0347523 -0.014953 -0.10816 0.0341126 -0.0125083 -0.114873
          0.0977345 -0.0202973 -0.106306 0.0605018 -0.0184435 -0.0762623
          0.0715661 -0.0194334 -0.0566621 0.0863681 -0.0147362 -0.0821753
          0.128141 0.0092244 -0.36495 0.0688967 0.00260366 -0.397242
          0.131645 0.00478053 -0.424531 0.11452 0.00584169 -0.393886
          0.0508293 -0.0107902 -0.0918145 0.073345 -0.0152032 -0.0979749
          0.105846 -0.0102429 -0.126556 0.0931616 -0.0105415 -0.0987839
          0.1081 -0.0209799 -0.606824 0.113746 -0.0145598 -0.606765
          0.106885 -0.0166778 -0.610537 0.107566 -0.0128015 -0.607479
          0.302232 0.0971933 0.769835 0.268238 0.0953534 0.771063
          0.317504 0.0992951 0.814724 0.380329 0.099153 0.71259
          0.177392 0.0114892 -0.3605 0.131645 0.00478053 -0.424531
          0.171681 0.0118168 -0.394107 0.19211 0.00963681 -0.421164
          -0.0150094 -0.0166441 -0.254014 0.0386203 -0.0180922 -0.317802
          0.00727071 -0.0159958 -0.292999 0.0213185 -0.0168699 -0.245591
          0.12041 -0.0170253 -0.596519 0.105112 -0.0109623 -0.591591
          0.116001 -0.0152121 -0.60849 0.107431 -0.00998447 -0.605534
          4.09269e-05 -0.015154 -0.187651 -0.00275804 -0.0140178 -0.20773
          0.0441608 -0.0145928 -0.191319 0.0475774 -0.0167668 -0.194693
          0.0751999 0.00105064 -0.137564 0.0540152 0.00252499 -0.0946214
          0.0667859 -0.00492085 -0.132948 0.0680056 -0.0011597 -0.0994993
          0.264721 0.107082 0.998789 0.209054 0.100802 0.973437
          0.246243 0.10426 0.96754 0.262803 0.108299 1.00082
          0.0737005 -0.0132091 -0.182875 0.0732646 -0.0135404 -0.135977
          0.0825549 -0.00948852 -0.155184 0.0345143 -0.0101269 -0.131573
          0.0171833 0.0535705 0.315495 0.0337169 0.0592017 0.420383
          0.0982184 0.0600215 0.359552 0.0519335 0.0584848 0.350848
          0.110675 -0.00367405 -0.515213 0.135703 0.0025933 -0.49578
          0.0817732 -0.00910394 -0.520643 0.0948104 -0.00236865 -0.481413
          0.113746 -0.0145598 -0.606765 0.126913 -0.0224445 -0.601183
          0.110326 -0.021099 -0.615295 0.116001 -0.0152121 -0.60849
          0.274803 0.0541389 -0.0163549 0.229061 0.0449968 -0.0778743
          0.331839 0.0569946 -0.0477761 0.257162 0.0452472 -0.0826948
          0.274099 0.105261 1.08923 0.260994 0.10922 1.08958
          0.330875 0.112426 1.07607 0.315064 0.107581 1.09375
          0.267528 0.060776 0.191131 0.344461 0.0653814 0.18953
          0.254682 0.0561024 0.122055 0.28714 0.0650225 0.175661
          0.127413 -0.00533943 -0.584442 0.152816 0.00527735 -0.573116
          0.127146 -0.00193784 -0.605756 0.10914 -0.00942437 -0.584649
          0.139728 -0.0146452 -0.224153 0.0966303 -0.0151294 -0.230152
          0.135107 -0.0174963 -0.199185 0.101464 -0.0152337 -0.183591
          0.0483354 -0.00442074 -0.55277 0.0391397 -0.00499197 -0.525882
          0.0423568 -0.000690955 -0.520877 0.0764351 -0.00495617 -0.53841
          0.102925 -0.01385 -0.339323 0.159421 -0.0147054 -0.329643
          0.164565 -0.0133876 -0.382405 0.160203 -0.0119435 -0.337823
          0.237126 0.0794021 0.50115 0.293499 0.0841291 0.540835
          0.298245 0.0824615 0.466509 0.296192 0.0875151 0.559671
          0 0 0 0 0 0
          0 0 0 0.013461 -0.00348063 -0.0158737
          0.330412 0.111551 1.00014 0.294293 0.110603 0.96798
          0.315774 0.113468 1.01396 0.264721 0.107082 0.998789
          0.268008 0.0960197 0.961097 0.216996 0.0946768 0.982276
          0.254847 0.0942488 0.990392 0.204595 0.0961512 0.949524
          -0.0438624 -0.0112966 -0.125053 -0.0442204 -0.0113241 -0.160393
          -0.0255505 -0.00966033 -0.133725 -0.00603925 -0.00921344 -0.155231
          0.00562483 -0.00357756 -0.0126354 0.0108895 -0.00577718 -0.0287179
          0.0159097 -0.00071185 -0.0210781 0.0182165 -0.00767366 -0.0242749
          0.0987473 -0.0156323 -0.593287 0.0853375 -0.0184729 -0.58789
          0.0914105 -0.0189928 -0.58394 0.0836865 -0.0155189 -0.576022
          0.272272 0.0982259 0.871623 0.298834 0.0968458 0.818175
          0.317504 0.0992951 0.814724 0.268238 0.0953534 0.771063
          0.0737005 -0.0132091 -0.182875 0.0425612 -0.0137818 -0.154251
          0.101464 -0.0152337 -0.183591 0.0732646 -0.0135404 -0.135977
          0.2938 0.0972136 0.929731 0.341624 0.10169 0.94404
          0.268008 0.0960197 0.961097 0.289816 0.0991194 0.922122
          0.0801628 -0.00822523 -0.571445 0.074161 -0.0108072 -0.582806
          0.0998489 -0.00965086 -0.589306 0.0973108 -0.00874778 -0.600482
          -0.0116991 -0.00495655 -0.029839 -0.00165095 -0.00443768 -0.0206394
          -0.00441511 -0.00222472 -0.0122332 0.00020316 -0.00504482 -0.026493
          0.296192 0.0875151 0.559671 0.271522 0.0837749 0.481467
          0.198539 0.0823455 0.576957 0.260232 0.0884996 0.60553
          0.239744 0.0627337 0.215118 0.228849 0.0575983 0.213013
          0.267528 0.060776 0.191131 0.27609 0.0684555 0.293154
          0.239744 0.0627337 0.215118 0.35414 0.0709775 0.22333
          0.267528 0.060776 0.191131 0.28714 0.0650225 0.175661
          0.086844 0.0241004 -0.145402 0.135582 0.0211458 -0.209163
          0.0734512 0.0151683 -0.243691 0.137752 0.021662 -0.228365
          0.117833 0.067363 0.48689 0.185822 0.0722326 0.453532
          0.12867 0.0712302 0.495567 0.178795 0.0768006 0.555971
          0.248309 0.07594 0.362052 0.179831 0.069947 0.368224
          0.222461 0.0782877 0.41735 0.17999 0.0712148 0.342808
          0.139728 -0.0146452 -0.224153 0.10478 -0.018128 -0.212972
          0.135107 -0.0174963 -0.199185 0.0966303 -0.0151294 -0.230152
          0.137108 0.0320141 -0.0853689 0.185795 0.0311586 -0.1008
          0.132813 0.0247032 -0.151924 0.199466 0.0297779 -0.163731
          0.141569 0.0485009 0.0692919 0.163459 0.0542829 0.132925
          0.100178 0.0521232 0.164525 0.104946 0.0435662 0.0577277
          0.0274571 -0.00635234 -0.0179501 0.045819 -0.00779774 -0.0366013
          0.046611 -0.0127395 -0.0281452 0.0220256 -0.0109318 -0.0199872
          0.0512157 -0.0221583 -0.559286 0.0853375 -0.0184729 -0.58789
          0.073082 -0.0182206 -0.580329 0.0653537 -0.018359 -0.55754
          -0.010015 -0.0095234 -0.104158 -0.000871435 -0.0111273 -0.144184
          0.00270117 -0.00839904 -0.122071 0.0345143 -0.0101269 -0.131573
          0.168513 0.0943187 0.953422 0.222148 0.100112 0.994249
          0.216996 0.0946768 0.982276 0.174536 0.092526 0.994842
          0.256007 0.0933328 1.02618 0.262572 0.0985842 1.02395
          0.256621 0.0931621 1.063 0.222064 0.0922335 1.0378
          0.086844 0.0241004 -0.145402 0.199466 0.0297779 -0.163731
          0.135582 0.0211458 -0.209163 0.16095 0.0298942 -0.151939
          0.0406751 -0.0188984 -0.381652 0.0386203 -0.0180922 -0.317802
          0.0101504 -0.0167399 -0.34114 -0.000947842 -0.0186037 -0.321454
          0.239744 0.0627337 0.215118 0.35414 0.0709775 0.22333
          0.267607 0.0706221 0.272312 0.361653 0.0757261 0.29799
          0.0165473 -0.00617679 -0.0509829 0.0176904 -0.00353163 -0.0727868
          -0.0014031 -0.00719991 -0.0748949 0.00965275 -0.00343188 -0.0436944
          0.24751 0.0759489 0.490251 0.185822 0.0722326 0.453532
          0.293499 0.0841291 0.540835 0.282707 0.0780598 0.447798
          0.0914105 -0.0189928 -0.58394 0.0821186 -0.0163022 -0.547193
          0.0998571 -0.0152705 -0.572757 0.0653537 -0.018359 -0.55754
          -0.0383281 -0.0105095 -0.0693774 -0.0295031 -0.0100554 -0.0861512
          -0.029149 -0.00963848 -0.045854 -0.0096781 -0.00610029 -0.0620695
          0.154866 -0.00903024 -0.300863 0.101176 -0.00783675 -0.284289
          0.120603 -0.00930884 -0.326509 0.113901 -0.0112095 -0.282981
          0.0754783 0.0822369 0.620429 0.13533 0.0805968 0.576606
          0.127105 0.0876495 0.701116 0.100937 0.0804062 0.671573
          -0.00458031 0.00720486 -0.248147 -0.0124161 0.00998805 -0.238023
          0.0567087 0.0165835 -0.211871 -0.0163625 0.013976 -0.178291
          0.126597 0.045842 0.0973606 0.0443352 0.0428983 0.124246
          0.0939533 0.0506828 0.181751 0.0583242 0.0419076 0.088712
          0.0987473 -0.0156323 -0.593287 0.0998571 -0.0152705 -0.572757
          0.0836865 -0.0155189 -0.576022 0.0914105 -0.0189928 -0.58394
          0.175406 0.0171797 -0.332993 0.214694 0.0186287 -0.384992
          0.229906 0.0269602 -0.297914 0.216692 0.0189193 -0.322874
          0.0608181 -0.012833 -0.282402 0.118728 -0.0117847 -0.327695
          0.0829969 -0.0109702 -0.307637 0.113901 -0.0112095 -0.282981
          0.0742199 -0.00934427 -0.556536 0.0805224 -0.000891983 -0.581501
          0.0865935 -0.00428175 -0.59029 0.0553065 0.00140284 -0.56841
          0.107324 0.0996718 0.805121 0.108162 0.0929403 0.778368
          0.0583965 0.0997503 0.826217 0.0388664 0.0965394 0.756258
          0.173823 0.0246422 -0.254984 0.109294 0.0209412 -0.217591
          0.115975 0.0128998 -0.314557 0.137752 0.021662 -0.228365
          0.154929 -0.0155281 -0.542343 0.159944 -0.0163887 -0.514976
          0.147899 -0.0184525 -0.564006 0.128281 -0.014775 -0.553089
          0.0689865 0.0290619 -0.0831016 0.100967 0.0376856 -0.0124784
          0.103092 0.0367894 -0.0397778 0.0611862 0.0391504 0.0429092
          0.329085 0.113175 1.04334 0.284176 0.113884 1.09618
          0.26761 0.10803 1.03604 0.304568 0.113406 1.05426
          0.0979294 -0.0116895 -0.552479 0.12387 -0.0137173 -0.55443
          0.11472 -0.0137039 -0.576103 0.128281 -0.014775 -0.553089
          0.0595115 0.0667901 0.408272 0.0808134 0.0722704 0.485717
          0.0846141 0.0787166 0.528453 -0.00991763 0.0660669 0.456629
          0.101268 -0.0133311 -0.59472 0.0859557 -0.0131762 -0.586375
          0.0998671 -0.00980449 -0.59992 0.0995078 -0.0148368 -0.598679
          -0.0129101 -0.0150505 -0.411734 0.0276634 -0.0124395 -0.381452
          -0.0202432 -0.0154642 -0.375762 0.0311669 -0.015471 -0.372513
          0.110055 -0.0119697 -0.4245 0.0801865 -0.0129857 -0.431223
          0.132605 -0.0129756 -0.428618 0.073581 -0.012766 -0.382787
          0.0527092 0.00222036 -0.446413 0.0677674 -0.000179497 -0.487995
          0.0816163 -2.51321e-05 -0.451585 0.0932756 0.00212624 -0.445271
          -0.0390216 -0.0145598 -0.228437 -0.0360913 -0.0157609 -0.267026
          -0.0355365 -0.0141714 -0.273168 0.0157321 -0.0143898 -0.251108
          -0.00441511 -0.00222472 -0.0122332 -0.0116991 -0.00495655 -0.029839
          -0.0198786 -0.00456851 -0.014675 -0.00700115 -0.00345964 -0.0120442
          0.0331346 -0.0139518 -0.311202 0.0101504 -0.0167399 -0.34114
          0.00753595 -0.0138764 -0.340524 0.0311669 -0.015471 -0.372513
          0.175681 -0.00370727 -0.508049 0.128315 -0.00339795 -0.511432
          0.138348 -0.00834367 -0.530527 0.151141 -0.00421154 -0.490188
          0.0701937 -0.00792453 -0.467995 0.0657571 -0.0031679 -0.428833
          0.106478 -0.00164808 -0.472928 0.0850406 -0.000287921 -0.429248
          0.0689865 0.0290619 -0.0831016 -0.0152553 0.0199927 -0.106234
          0.0692071 0.0290328 -0.0736489 -0.0143431 0.0252607 -0.0446928
          0.198685 0.0945086 0.918357 0.145903 0.092674 0.919067
          0.207948 0.0972424 0.9111 0.154107 0.0883189 0.857766
          0.175681 -0.00370727 -0.508049 0.166017 -0.00832996 -0.548618
          0.152841 -0.0122022 -0.551974 0.138348 -0.00834367 -0.530527
          0.279438 0.0225269 -0.278857 0.182105 0.0194951 -0.264953
          0.287691 0.0276488 -0.212564 0.230788 0.0275463 -0.219076
          0.113746 -0.0145598 -0.606765 0.116001 -0.0152121 -0.60849
          0.110326 -0.021099 -0.615295 0.112644 -0.0104976 -0.615798
          0.159944 -0.0163887 -0.514976 0.134357 -0.0146054 -0.509884
          0.157734 -0.0150762 -0.492321 0.143157 -0.016824 -0.518352
          0.11452 0.00584169 -0.393886 0.16371 0.00418987 -0.421372
          0.139514 0.000511914 -0.444654 0.122207 0.000471272 -0.462474
          0.0608181 -0.012833 -0.282402 0.0157321 -0.0143898 -0.251108
          0.0508684 -0.0116704 -0.233291 0.0266702 -0.0125329 -0.259877
          0.0615568 -0.00927245 -0.319052 0.0829969 -0.0109702 -0.307637
          0.0419592 -0.0119604 -0.304688 0.0327647 -0.0109596 -0.337261
          0.0518296 -0.0153847 -0.436534 0.0782603 -0.0163881 -0.431469
          0.0615418 -0.0146903 -0.401189 0.0228868 -0.0175449 -0.410755
          0.126251 -0.0140065 -0.477368 0.0894282 -0.0157141 -0.475633
          0.114044 -0.0144426 -0.516593 0.124448 -0.0143225 -0.471353
          0.0858781 -0.0155531 -0.346023 0.0487007 -0.016142 -0.343334
          0.0679743 -0.0153294 -0.306575 0.0689447 -0.0128604 -0.335303
          0.201861 0.0919498 0.982176 0.211651 0.0894452 1.02033
          0.216996 0.0946768 0.982276 0.254847 0.0942488 0.990392
          0.368553 0.104122 0.745728 0.24719 0.0906245 0.746051
          0.299233 0.103915 0.847262 0.293472 0.0994953 0.79386
          0.0228868 -0.0175449 -0.410755 -0.0202432 -0.0154642 -0.375762
          0.0311669 -0.015471 -0.372513 -0.0129101 -0.0150505 -0.411734
          0.0603935 -0.0166081 -0.565105 0.0974886 -0.0130007 -0.586673
          0.0885485 -0.0107869 -0.567941 0.073427 -0.0150233 -0.582338
          0.0742199 -0.00934427 -0.556536 0.0979294 -0.0116895 -0.552479
          0.0855552 -0.00604505 -0.571251 0.0741411 -0.00504061 -0.54589
          -0.0048344 -0.0120173 -0.183844 0.0125049 -0.0101035 -0.180202
          0.0450636 -0.0111888 -0.184676 0.00402628 -0.0122154 -0.223718
          0.137752 0.021662 -0.228365 0.0567087 0.0165835 -0.211871
          0.16095 0.0298942 -0.151939 0.109294 0.0209412 -0.217591
          0.109382 0.0908914 0.835634 0.0896431 0.0734616 0.892396
          0.0820273 0.0897636 0.875404 0.0525426 0.0870027 0.823583
          0.164091 -0.018657 -0.566595 0.129355 -0.0141182 -0.578393
          0.137254 -0.010044 -0.578733 0.133596 -0.0181632 -0.590032
          0.0581534 -0.0202491 -0.482959 0.0118425 -0.0240072 -0.475595
          0.0410239 -0.0180549 -0.471625 0.049659 -0.0222241 -0.516821
          0.00020316 -0.00504482 -0.026493 0.00562483 -0.00357756 -0.0126354
          0.0108895 -0.00577718 -0.0287179 -0.00441511 -0.00222472 -0.0122332
          -0.00559399 0.0202761 -0.1029 0.0500145 0.0249025 -0.112389
          -0.00726708 0.0149956 -0.161331 -0.000573831 0.0145488 -0.167424
          0.109254 -0.0117923 -0.604306 0.120129 -0.00615696 -0.608411
          0.114469 -0.00938039 -0.604088 0.116074 -0.00889233 -0.591783
          0.120859 -0.0118386 -0.3705 0.0689447 -0.0128604 -0.335303
          0.0829969 -0.0109702 -0.307637 0.0834431 -0.0103708 -0.372283
          0.384031 0.0961793 0.70697 0.389693 0.0946005 0.585769
          0.331863 0.0933791 0.681261 0.394862 0.0940187 0.563365
          0.0257655 -0.0133371 -0.43445 -0.0104375 -0.0117784 -0.420885
          0.0276634 -0.0124395 -0.381452 0.049198 -0.0109875 -0.426503
          0.0720016 0.0386142 0.0590978 0.126597 0.045842 0.0973606
          0.0799235 0.0462954 0.15972 0.161857 0.0498687 0.153568
          0.0391397 -0.00499197 -0.525882 0.0654843 -0.00281992 -0.4944
          0.0764351 -0.00495617 -0.53841 0.0728637 -0.00800935 -0.538075
          0.315675 0.0464779 -0.0557286 0.324155 0.0518298 -0.0383277
          0.306307 0.0396681 -0.119836 0.243931 0.0382422 -0.120107
          0.23391 0.0395448 -0.0669595 0.315675 0.0464779 -0.0557286
          0.306307 0.0396681 -0.119836 0.243931 0.0382422 -0.120107
          0.0406751 -0.0188984 -0.381652 -0.000947842 -0.0186037 -0.321454
          0.0101504 -0.0167399 -0.34114 0.00138579 -0.0197199 -0.365311
          0.0638506 0.00594671 -0.330755 0.115975 0.0128998 -0.314557
          0.0919653 0.00584569 -0.369417 0.137117 0.0163716 -0.314393
          0.201989 0.0793398 0.615495 0.178795 0.0768006 0.555971
          0.266947 0.0832243 0.575552 0.24751 0.0759489 0.490251
          0.116094 -0.0159618 -0.415128 0.148017 -0.0154864 -0.384611
          0.146533 -0.0142383 -0.451025 0.133888 -0.0146771 -0.401768
          0.0927891 -0.0138988 -0.27258 0.118728 -0.0117847 -0.327695
          0.0608181 -0.012833 -0.282402 0.113901 -0.0112095 -0.282981
          0.00156437 -0.00480447 -0.0194943 0.00765602 -0.0064143 -0.0148698
          0.00020316 -0.00504482 -0.026493 -0.00310213 -0.00244935 -0.0142378
          0.0995078 -0.0148368 -0.598679 0.101268 -0.0133311 -0.59472
          0.107318 -0.0140032 -0.607226 0.108992 -0.0122948 -0.606635
          0.102717 0.0704512 0.892847 0.0740493 0.0641616 0.883765
          0.0792191 0.0683723 0.922832 0.137992 0.0809897 0.939445
          0.187876 0.0115894 -0.319623 0.123789 0.014183 -0.274253
          0.200648 0.0214733 -0.214665 0.182105 0.0194951 -0.264953
          0.209308 0.0137501 -0.529951 0.177732 0.0129794 -0.566982
          0.15353 0.000570539 -0.562779 0.179652 0.0134379 -0.536532
          0.073581 -0.012766 -0.382787 0.102925 -0.01385 -0.339323
          0.122055 -0.0136552 -0.391712 0.120859 -0.0118386 -0.3705
          0.262565 0.0127976 -0.353888 0.215632 0.0156658 -0.31289
          0.279438 0.0225269 -0.278857 0.272434 0.0195054 -0.327936
          -0.0048344 -0.0120173 -0.183844 -0.000871435 -0.0111273 -0.144184
          0.0450636 -0.0111888 -0.184676 0.0125049 -0.0101035 -0.180202
          0.124799 -0.0135258 -0.574159 0.148566 -0.0137518 -0.555601
          0.132045 -0.0137283 -0.536958 0.118801 -0.0139847 -0.559433
          -0.0161031 0.0543238 0.317271 -0.0155251 0.0493815 0.243135
          0.0689063 0.0561299 0.274001 -0.0209697 0.0473978 0.229358
          0.216196 0.0956329 0.913168 0.231761 0.0961351 0.92421
          0.27271 0.0964002 0.88158 0.209525 0.0981286 0.870041
          0.262492 0.0911611 0.652694 0.199691 0.0849973 0.580698
          0.190968 0.0892035 0.6277 0.237426 0.086149 0.538209
          0.26761 0.10803 1.03604 0.22275 0.104812 1.04279
          0.227293 0.112242 1.05647 0.250416 0.112338 1.09087
          0.0247822 0.00224888 -0.0362098 0.0407461 -0.00197492 -0.0545277
          0.00965275 -0.00343188 -0.0436944 0.0418506 0.000676097 -0.0697344
          0.132605 -0.0129756 -0.428618 0.126251 -0.0140065 -0.477368
          0.110055 -0.0119697 -0.4245 0.121678 -0.0131649 -0.477031
          0.0337951 -0.0196446 -0.535277 0.0270565 -0.014071 -0.52226
          0.0647985 -0.0129255 -0.545036 0.0480688 -0.0136174 -0.554683
          0.159365 0.0442869 -0.00337952 0.274803 0.0541389 -0.0163549
          0.198498 0.0519682 0.0225208 0.219222 0.0486119 -0.00572604
          0.10645 -0.0155909 -0.489206 0.146533 -0.0142383 -0.451025
          0.124448 -0.0143225 -0.471353 0.116094 -0.0159618 -0.415128
          0.103987 -0.0142188 -0.596435 0.0998571 -0.0152705 -0.572757
          0.0994754 -0.0162388 -0.56772 0.122016 -0.0103725 -0.580307
          0.0410239 -0.0180549 -0.471625 -0.00694388 -0.0196739 -0.43155
          0.00408605 -0.0172167 -0.465409 0.0118425 -0.0240072 -0.475595
          0.00965275 -0.00343188 -0.0436944 -0.00551033 -0.00413169 -0.0251656
          0.00405932 5.82853e-05 -0.0225702 0.0048109 -0.00256661 -0.0414316
          0.0410239 -0.0180549 -0.471625 0.0326146 -0.0205887 -0.428346
          0.0782603 -0.0163881 -0.431469 0.0518296 -0.0153847 -0.436534
          0.214788 0.10492 1.00424 0.18707 0.1075 1.04546
          0.22275 0.104812 1.04279 0.169989 0.0988924 1.0076
          0.0881059 -0.0270881 -0.606613 0.0925816 -0.0217264 -0.601484
          0.0984941 -0.0173699 -0.601281 0.0770825 -0.0209682 -0.589541
          0.0836865 -0.0155189 -0.576022 0.0715879 -0.0107643 -0.570157
          0.102221 -0.0132634 -0.576693 0.0925113 -0.0100672 -0.58693
          0.14323 0.027128 -0.191288 0.185682 0.0349137 -0.171147
          0.130885 0.0226921 -0.239709 0.109529 0.0267247 -0.164205
          0.164565 -0.0133876 -0.382405 0.132605 -0.0129756 -0.428618
          0.165496 -0.012174 -0.412527 0.166124 -0.0132648 -0.456047
          0.0157321 -0.0143898 -0.251108 0.00727071 -0.0159958 -0.292999
          -0.0355365 -0.0141714 -0.273168 0.00213241 -0.0128252 -0.289606
          0.16095 0.0298942 -0.151939 0.137108 0.0320141 -0.0853689
          0.086844 0.0241004 -0.145402 0.199466 0.0297779 -0.163731
          0.0245713 -0.00500875 -0.104985 -0.0152809 -0.00864801 -0.0931318
          0.0176904 -0.00353163 -0.0727868 0.00486514 -0.00518339 -0.0966911
          -0.042216 -0.0112982 -0.106801 -0.0438624 -0.0112966 -0.125053
          -0.0152809 -0.00864801 -0.0931318 0.00270117 -0.00839904 -0.122071
          0.216996 0.0946768 0.982276 0.220738 0.0983866 1.03044
          0.222064 0.0922335 1.0378 0.174536 0.092526 0.994842
          0.177759 0.0101018 -0.451713 0.249124 0.0204591 -0.440537
          0.214694 0.0186287 -0.384992 0.254645 0.0175491 -0.410354
          0.145402 -0.0119491 -0.248543 0.0966303 -0.0151294 -0.230152
          0.150518 -0.0153733 -0.270885 0.139728 -0.0146452 -0.224153
          0.0487702 -0.0173093 -0.0310522 0.0463084 -0.0174144 -0.0414897
          0.0220256 -0.0109318 -0.0199872 0.0385235 -0.0105734 -0.0388337
          0.135703 0.0025933 -0.49578 0.106478 -0.00164808 -0.472928
          0.125164 0.0053151 -0.431484 0.153324 0.009434 -0.465698
          0.282707 0.0780598 0.447798 0.301397 0.0779443 0.365474
          0.240365 0.0719055 0.361752 0.298245 0.0824615 0.466509
          -0.0118951 0.0528332 0.283342 -0.0155251 0.0493815 0.243135
          0.0876554 0.0583691 0.26528 -0.0161031 0.0543238 0.317271
          0.11452 0.00584169 -0.393886 0.0816163 -2.51321e-05 -0.451585
          0.122207 0.000471272 -0.462474 0.0932756 0.00212624 -0.445271
          0.0698431 -0.00822036 -0.18142 0.0862894 -0.00400199 -0.166307
          0.0975373 -0.00974557 -0.192492 0.0962148 -0.00593256 -0.21049
          0.111468 -0.0123134 -0.602749 0.109724 -0.0136582 -0.587157
          0.118768 -0.0128463 -0.594283 0.112241 -0.0126718 -0.604121
          -0.0360913 -0.0157609 -0.267026 -0.0273646 -0.016129 -0.335138
          -0.0312485 -0.0147393 -0.307478 0.00727071 -0.0159958 -0.292999
          0.112472 -0.00908123 -0.617884 0.10517 -0.0159049 -0.610222
          0.114469 -0.00938039 -0.604088 0.119565 -0.00358364 -0.614347
          0.12962 -0.0179958 -0.581327 0.12041 -0.0170253 -0.596519
          0.134646 -0.0196971 -0.587951 0.147899 -0.0184525 -0.564006
          0.106478 -0.00164808 -0.472928 0.117983 -0.00211367 -0.53106
          0.153324 0.009434 -0.465698 0.135703 0.0025933 -0.49578
          0.137361 -0.000485042 -0.592 0.1297 9.87133e-05 -0.605701
          0.110097 -0.00503266 -0.59666 0.125961 -0.00727612 -0.600585
          0.049198 -0.0109875 -0.426503 -0.0126592 -0.0086086 -0.409138
          -0.0183776 -0.0107372 -0.385427 0.0249799 -0.00927824 -0.386426
          -0.00441511 -0.00222472 -0.0122332 -0.0116991 -0.00495655 -0.029839
          -0.0292533 -0.00563442 -0.0335524 -0.0254388 -0.00647699 -0.0297218
          0.0688902 0.018373 -0.205679 0.000458692 0.00569362 -0.263183
          0.0882954 0.0139789 -0.275434 -0.00458031 0.00720486 -0.248147
          0.13533 0.0805968 0.576606 0.164032 0.0827915 0.545908
          0.199691 0.0849973 0.580698 0.171272 0.0778226 0.475443
          0.216483 0.0943034 0.778517 0.272704 0.0935405 0.736088
          0.186477 0.0935983 0.764036 0.205824 0.0927761 0.710946
          -0.0272993 0.0550045 0.375903 0.0337169 0.0592017 0.420383
          0.089927 0.0645819 0.43286 -0.0211191 0.0597525 0.441455
          0 0 0 0 0 0
          0 0 0 0.00562483 -0.00357756 -0.0126354
          0.168513 0.0943187 0.953422 0.148758 0.0957216 0.968415
          0.141147 0.100371 0.938067 0.115205 0.101212 0.962865
          0.248309 0.07594 0.362052 0.222461 0.0782877 0.41735
          0.300097 0.0831428 0.404996 0.276815 0.0802136 0.346431
          0.227293 0.112242 1.05647 0.190655 0.112281 1.08595
          0.24468 0.114842 1.09294 0.216442 0.11019 1.08311
          0.205526 0.00822017 -0.38119 0.177392 0.0114892 -0.3605
          0.261294 0.0163032 -0.376382 0.19211 0.00963681 -0.421164
          0.310355 0.0708743 0.136241 0.262343 0.0583567 0.0517336
          0.313974 0.0649467 0.0409103 0.35358 0.070367 0.118803
          0.130862 -0.00448618 -0.596049 0.116074 -0.00889233 -0.591783
          0.120205 -0.0074673 -0.574662 0.127413 -0.00533943 -0.584442
          0.165688 0.0612821 0.281712 0.0939533 0.0506828 0.181751
          0.15796 0.0626744 0.270179 0.172727 0.0572523 0.179964
          0.110032 -0.012015 -0.542389 0.113639 -0.0132619 -0.522822
          0.121768 -0.0132045 -0.506753 0.0964633 -0.0116014 -0.498097
          -0.0116154 -0.0127112 -0.160316 -0.00275804 -0.0140178 -0.20773
          -0.0410849 -0.0131109 -0.178468 -0.0048344 -0.0120173 -0.183844
          0.120268 -0.0101949 -0.41947 0.130047 -0.0108439 -0.391734
          0.158708 -0.0108474 -0.413742 0.123047 -0.00843312 -0.371754
          0.0518296 -0.0153847 -0.436534 0.0481888 -0.0126734 -0.4751
          0.0705408 -0.0141881 -0.470342 0.0410239 -0.0180549 -0.471625
          0.181436 0.0819169 0.673158 0.27145 0.0922475 0.715046
          0.260233 0.0868215 0.649864 0.296649 0.0901879 0.64528
          -0.00726708 0.0149956 -0.161331 -0.000573831 0.0145488 -0.167424
          0.0688902 0.018373 -0.205679 0.0250181 0.0101551 -0.238931
          0.0737005 -0.0132091 -0.182875 0.0825549 -0.00948852 -0.155184
          0.0450636 -0.0111888 -0.184676 0.0345143 -0.0101269 -0.131573
          0.282707 0.0780598 0.447798 0.237126 0.0794021 0.50115
          0.240365 0.0719055 0.361752 0.185822 0.0722326 0.453532
          0.18704 -0.0084688 -0.503135 0.199929 -0.00871553 -0.521842
          0.166017 -0.00832996 -0.548618 0.175681 -0.00370727 -0.508049
          0.0764155 0.00741455 -0.357328 0.135072 0.0117331 -0.321953
          0.135405 0.00710339 -0.365193 0.11452 0.00584169 -0.393886
          0.0407461 -0.00197492 -0.0545277 0.0811874 0.0034827 -0.0826292
          0.0418506 0.000676097 -0.0697344 0.0452555 0.00867015 -0.051966
          0.104713 -0.0169045 -0.601903 0.0974821 -0.012431 -0.598996
          0.107566 -0.0128015 -0.607479 0.0875997 -0.0177313 -0.597244
          0.15877 0.0654663 0.366123 0.165688 0.0612821 0.281712
          0.116016 0.0552688 0.266951 0.060929 0.0538991 0.266939
          0.0418506 0.000676097 -0.0697344 0.0811874 0.0034827 -0.0826292
          0.0809459 0.00664006 -0.0918569 0.0452555 0.00867015 -0.051966
          0.130792 -0.000960639 -0.550484 0.124087 -0.00488907 -0.541258
          0.147387 0.00173919 -0.514186 0.110675 -0.00367405 -0.515213
          0.0554554 -0.00994833 -0.555061 0.0728637 -0.00800935 -0.538075
          0.0764351 -0.00495617 -0.53841 0.0801628 -0.00822523 -0.571445
          0.178795 0.0768006 0.555971 0.181436 0.0819169 0.673158
          0.201989 0.0793398 0.615495 0.252053 0.0846894 0.591048
          0.0228868 -0.0175449 -0.410755 -0.0180461 -0.0179976 -0.382811
          0.0311669 -0.015471 -0.372513 -0.0202432 -0.0154642 -0.375762
          -0.0129101 -0.0150505 -0.411734 0.0276634 -0.0124395 -0.381452
          -0.02311 -0.0128779 -0.364239 -0.0202432 -0.0154642 -0.375762
          0.045572 0.0183116 -0.184803 -0.0206594 0.0140266 -0.187186
          -0.0124161 0.00998805 -0.238023 -0.0158773 0.0100494 -0.249103
          0.0249799 -0.00927824 -0.386426 0.0327647 -0.0109596 -0.337261
          0.0424382 -0.00742649 -0.369547 0.0119736 -0.00702655 -0.341033
          0.0680056 -0.0011597 -0.0994993 0.0567513 -0.00688996 -0.0800162
          0.0418506 0.000676097 -0.0697344 0.0389648 -0.00539303 -0.0891458
          -0.0155251 0.0493815 0.243135 -0.0129809 0.041583 0.147286
          -0.0095751 0.0449849 0.183895 0.0635172 0.0515351 0.19353
          0.165145 0.0940771 1.01785 0.19409 0.0993376 1.07089
          0.220738 0.0983866 1.03044 0.161148 0.0923967 1.06649
          0.257162 0.0452472 -0.0826948 0.31346 0.0448283 -0.141522
          0.323171 0.0510428 -0.116229 0.324155 0.0518298 -0.0383277
          0.18704 -0.0084688 -0.503135 0.175681 -0.00370727 -0.508049
          0.152841 -0.0122022 -0.551974 0.138348 -0.00834367 -0.530527
          -0.0075844 -0.00783516 -0.0507497 -0.0116991 -0.00495655 -0.029839
          0.0108895 -0.00577718 -0.0287179 0.0165473 -0.00617679 -0.0509829
          0.0159457 -0.000758185 -0.0663928 0.0275312 0.0035501 -0.0515769
          0.00965275 -0.00343188 -0.0436944 0.0176904 -0.00353163 -0.0727868
          0.131259 -0.0138379 -0.510261 0.102378 -0.0147507 -0.539178
          0.114044 -0.0144426 -0.516593 0.119042 -0.0136001 -0.539299
          -0.0116991 -0.00495655 -0.029839 -0.00441511 -0.00222472 -0.0122332
          -0.0292533 -0.00563442 -0.0335524 0.00020316 -0.00504482 -0.026493
          0.24751 0.0759489 0.490251 0.366693 0.0817436 0.45118
          0.282707 0.0780598 0.447798 0.376057 0.088585 0.525818
          0.364544 0.0778847 0.37568 0.282707 0.0780598 0.447798
          0.366693 0.0817436 0.45118 0.373022 0.0833251 0.422228
          0.164565 -0.0133876 -0.382405 0.122055 -0.0136552 -0.391712
          0.165496 -0.012174 -0.412527 0.132605 -0.0129756 -0.428618
          0.0686171 -0.0179506 -0.138966 0.110093 -0.0200852 -0.141493
          0.0732646 -0.0135404 -0.135977 0.073345 -0.0152032 -0.0979749
          0.268008 0.0960197 0.961097 0.282294 0.0987585 0.988705
          0.308147 0.0989408 0.97371 0.254847 0.0942488 0.990392
          0.0598204 0.00789755 -0.317222 0.0688967 0.00260366 -0.397242
          0.0445276 0.00929873 -0.294244 0.000364435 0.000322241 -0.360076
          -0.0387419 -0.00986348 -0.100418 -0.0398427 -0.0112934 -0.139971
          0.00182056 -0.0115354 -0.128416 -0.0388781 -0.0110417 -0.128993
          0.0101279 -0.00173324 -0.425111 0.0237723 -0.00750152 -0.472728
          0.0170272 -0.008019 -0.442072 0.0664855 -0.0026124 -0.453424
          0.164565 -0.0133876 -0.382405 0.160203 -0.0119435 -0.337823
          0.120859 -0.0118386 -0.3705 0.122055 -0.0136552 -0.391712
          0.197509 0.00429118 -0.539182 0.209308 0.0137501 -0.529951
          0.179763 0.00577853 -0.528465 0.21932 0.00944826 -0.501778
          0.216483 0.0943034 0.778517 0.217678 0.0968129 0.834652
          0.268238 0.0953534 0.771063 0.298834 0.0968458 0.818175
          0.0449238 0.0339339 0.00411554 -0.00934244 0.0266212 -0.0334379
          -0.0143431 0.0252607 -0.0446928 -0.0157458 0.0323379 0.0389614
          0.178795 0.0768006 0.555971 0.185822 0.0722326 0.453532
          0.237126 0.0794021 0.50115 0.293499 0.0841291 0.540835
          0.1297 9.87133e-05 -0.605701 0.10082 -0.00345068 -0.604568
          0.114543 -0.00627446 -0.607233 0.123019 0.00231494 -0.613989
          0.0519335 0.0584848 0.350848 0.0337169 0.0592017 0.420383
          0.0982184 0.0600215 0.359552 0.089927 0.0645819 0.43286
          0.0987851 0.0961257 0.918228 0.141182 0.0902565 0.952366
          0.115205 0.101212 0.962865 0.117288 0.0824418 0.964402
          0.0817732 -0.00910394 -0.520643 0.0970682 -0.00880874 -0.546836
          0.110675 -0.00367405 -0.515213 0.0696074 -0.00701453 -0.503281
          0.164565 -0.0133876 -0.382405 0.160203 -0.0119435 -0.337823
          0.165496 -0.012174 -0.412527 0.120859 -0.0118386 -0.3705
          0.109724 -0.0136582 -0.587157 0.101268 -0.0133311 -0.59472
          0.108096 -0.0129574 -0.595506 0.112241 -0.0126718 -0.604121
          0.0964633 -0.0116014 -0.498097 0.0896834 -0.01342 -0.474792
          0.121678 -0.0131649 -0.477031 0.0943749 -0.0110955 -0.459335
          0.0680056 -0.0011597 -0.0994993 0.0567513 -0.00688996 -0.0800162
          0.0407461 -0.00197492 -0.0545277 0.0418506 0.000676097 -0.0697344
          0.148895 0.0762001 0.66868 0.201989 0.0793398 0.615495
          0.178795 0.0768006 0.555971 0.181436 0.0819169 0.673158
          0.168513 0.0943187 0.953422 0.149803 0.0947307 0.967832
          0.222148 0.100112 0.994249 0.174536 0.092526 0.994842
          0.12962 -0.0179958 -0.581327 0.112709 -0.0131223 -0.570554
          0.128281 -0.014775 -0.553089 0.130675 -0.016316 -0.55811
          0.0927891 -0.0138988 -0.27258 0.102925 -0.01385 -0.339323
          0.0608181 -0.012833 -0.282402 0.118728 -0.0117847 -0.327695
          0.203477 -0.00152772 -0.523147 0.172754 -0.00977107 -0.561995
          0.166017 -0.00832996 -0.548618 0.180281 -0.00286856 -0.557066
          0.0979294 -0.0116895 -0.552479 0.112709 -0.0131223 -0.570554
          0.0855552 -0.00604505 -0.571251 0.0741411 -0.00504061 -0.54589
          0.116016 0.0552688 0.266951 0.0799235 0.0462954 0.15972
          0.060929 0.0538991 0.266939 0.165241 0.0545551 0.192337
          0.154929 -0.0155281 -0.542343 0.159245 -0.0136275 -0.519906
          0.130132 -0.0142512 -0.513988 0.132045 -0.0137283 -0.536958
          0.0865935 -0.00428175 -0.59029 0.0805224 -0.000891983 -0.581501
          0.097403 -0.00460077 -0.593334 0.0923287 0.000732152 -0.600877
          0.0974821 -0.012431 -0.598996 0.106885 -0.0166778 -0.610537
          0.0984941 -0.0173699 -0.601281 0.109254 -0.0117923 -0.604306
          0.106478 -0.00164808 -0.472928 0.125164 0.0053151 -0.431484
          0.0850406 -0.000287921 -0.429248 0.0657571 -0.0031679 -0.428833
          0.0364287 -0.00142277 -0.359323 0.0377969 -0.00734382 -0.416931
          0.0832282 0.0038756 -0.376847 0.0116505 -0.0055628 -0.385172
          0.0826533 0.00922241 -0.323018 0.0364287 -0.00142277 -0.359323
          0.0832282 0.0038756 -0.376847 0.0638506 0.00594671 -0.330755
          0.112637 -0.0103711 -0.611269 0.113683 -0.00346981 -0.617295
          0.112472 -0.00908123 -0.617884 0.119565 -0.00358364 -0.614347
          0.100508 -0.0172467 -0.594197 0.0995078 -0.0148368 -0.598679
          0.1144 -0.0159403 -0.605091 0.102143 -0.0120732 -0.59422
          0.0862894 -0.00400199 -0.166307 0.121216 -0.0034695 -0.167938
          0.0975373 -0.00974557 -0.192492 0.134593 -0.00711215 -0.20878
          0.135405 0.00710339 -0.365193 0.11452 0.00584169 -0.393886
          0.139514 0.000511914 -0.444654 0.0932756 0.00212624 -0.445271
          0.137254 -0.010044 -0.578733 0.114991 -0.0139796 -0.594954
          0.119123 -0.00951806 -0.581108 0.130566 -0.0141443 -0.594765
          0.0512157 -0.0221583 -0.559286 0.0653537 -0.018359 -0.55754
          0.0808666 -0.022248 -0.583 0.0853375 -0.0184729 -0.58789
          0.129565 -0.00181342 -0.563005 0.152816 0.00527735 -0.573116
          0.127413 -0.00533943 -0.584442 0.10914 -0.00942437 -0.584649
          0.01461 0.00723765 -0.34214 0.0548873 0.00331069 -0.396044
          0.0273608 0.00523286 -0.404675 -0.0055242 0.00327003 -0.3614
          -0.0417754 -0.0127901 -0.19048 -0.0442204 -0.0113241 -0.160393
          -0.0421975 -0.0121278 -0.149963 -0.0048344 -0.0120173 -0.183844
          0 0 0 0.0311991 0.0147318 -0.021768
          0.0105776 0.00504842 -0.00736282 0.0062396 0.00749469 -0.00317775
          0.152841 0.00628365 -0.549552 0.130792 -0.000960639 -0.550484
          0.135703 0.0025933 -0.49578 0.117983 -0.00211367 -0.53106
          0.0091938 0.0639893 0.725891 0.0679001 0.0684276 0.660272
          0.0746714 0.0731584 0.661841 0.0803818 0.0694965 0.739584
          0.0689063 0.0561299 0.274001 0.0467083 0.0485772 0.184625
          -0.0209697 0.0473978 0.229358 -0.0155251 0.0493815 0.243135
          0.0245713 -0.00500875 -0.104985 0.0334735 -0.00317254 -0.125435
          0.0338639 -0.00745357 -0.153426 0.00706416 -0.00670828 -0.137923
          0.0770825 -0.0209682 -0.589541 0.0571961 -0.0189245 -0.5595
          0.0871718 -0.0133081 -0.56754 0.0665122 -0.024018 -0.578377
          0.222148 0.100112 0.994249 0.209054 0.100802 0.973437
          0.166592 0.0943382 0.957611 0.216313 0.0984366 0.955905
          4.09269e-05 -0.015154 -0.187651 0.0213185 -0.0168699 -0.245591
          -0.00275804 -0.0140178 -0.20773 0.0475774 -0.0167668 -0.194693
          0.0101279 -0.00173324 -0.425111 0.0246036 -0.00641771 -0.486264
          0.0237723 -0.00750152 -0.472728 0.0664855 -0.0026124 -0.453424
          0.134646 -0.0196971 -0.587951 0.11977 -0.0145272 -0.59394
          0.121298 -0.0203243 -0.601592 0.121685 -0.0166017 -0.597055
          0.121298 -0.0203243 -0.601592 0.11977 -0.0145272 -0.59394
          0.113746 -0.0145598 -0.606765 0.121685 -0.0166017 -0.597055
          0.0864608 -0.0150371 -0.385583 0.073581 -0.012766 -0.382787
          0.0615418 -0.0146903 -0.401189 0.0689447 -0.0128604 -0.335303
          -0.0112473 -0.00867774 -0.0676795 -0.0352411 -0.00732795 -0.0746054
          0.00069831 -0.0122989 -0.0909205 -0.00484605 -0.00787858 -0.0492213
          -0.0158773 0.0100494 -0.249103 -0.00773479 0.00474989 -0.315558
          0.0445276 0.00929873 -0.294244 -0.0139035 0.00686604 -0.302569
          0.113639 -0.0132619 -0.522822 0.0908379 -0.0141968 -0.513139
          0.0964633 -0.0116014 -0.498097 0.0670694 -0.0106223 -0.51427
          0.154852 -0.0116642 -0.533339 0.131259 -0.0138379 -0.510261
          0.149308 -0.0091699 -0.552519 0.160002 -0.0117775 -0.507128
          0.218704 0.0214812 -0.457714 0.249124 0.0204591 -0.440537
          0.214694 0.0186287 -0.384992 0.177759 0.0101018 -0.451713
          0.284969 0.105508 0.994064 0.26761 0.10803 1.03604
          0.289143 0.105429 1.04493 0.222148 0.100112 0.994249
          0.179763 0.00577853 -0.528465 0.21932 0.00944826 -0.501778
          0.231423 0.0159505 -0.487696 0.18131 0.00998128 -0.509551
          0.0689063 0.0561299 0.274001 0.0590932 0.0607576 0.34242
          -0.0161031 0.0543238 0.317271 -0.0213389 0.0540566 0.325313
          0.209308 0.0137501 -0.529951 0.171264 0.00623301 -0.573364
          0.197509 0.00429118 -0.539182 0.15353 0.000570539 -0.562779
          0.158504 0.0967715 0.763692 0.0907144 0.0927309 0.71224
          0.127105 0.0876495 0.701116 0.108162 0.0929403 0.778368
          0.0881059 -0.0270881 -0.606613 0.0770825 -0.0209682 -0.589541
          0.09246 -0.0181342 -0.59445 0.0665122 -0.024018 -0.578377
          0.201861 0.0919498 0.982176 0.143039 0.100997 0.951491
          0.180715 0.0976954 0.945894 0.148758 0.0957216 0.968415
          0.127105 0.0876495 0.701116 0.145798 0.090798 0.679028
          0.217441 0.0908349 0.694364 0.190968 0.0892035 0.6277
          0.0973108 -0.00874778 -0.600482 0.0910021 -0.00774906 -0.595565
          0.106057 -0.0116458 -0.606543 0.104248 -0.00998517 -0.60549
          0.12041 -0.0170253 -0.596519 0.103554 -0.0102896 -0.583544
          0.116001 -0.0152121 -0.60849 0.105112 -0.0109623 -0.591591
          -0.00710968 0.0326024 0.0350586 0.0713689 0.0401873 0.0354087
          0.0611862 0.0391504 0.0429092 0.0217851 0.0294766 -0.0339357
          0.168513 0.0943187 0.953422 0.149803 0.0947307 0.967832
          0.141182 0.0902565 0.952366 0.166592 0.0943382 0.957611
          0.386449 0.0928267 0.549801 0.296192 0.0875151 0.559671
          0.316173 0.0897648 0.554729 0.387982 0.0910084 0.486622
          0.0974821 -0.012431 -0.598996 0.106077 -0.011639 -0.601787
          0.104248 -0.00998517 -0.60549 0.0910021 -0.00774906 -0.595565
          -0.0386929 -0.00973485 -0.0876329 -0.010015 -0.0095234 -0.104158
          -0.0014031 -0.00719991 -0.0748949 -0.0075844 -0.00783516 -0.0507497
          0.117288 0.0824418 0.964402 0.117288 0.0824418 0.964402
          0.141182 0.0902565 0.952366 0.145903 0.092674 0.919067
          0.198685 0.0945086 0.918357 0.153914 0.0798208 0.88027
          0.209922 0.09271 0.859342 0.200281 0.0922869 0.909085
          0.289994 0.106625 0.941827 0.285884 0.101867 0.926939
          0.336675 0.107926 0.957762 0.341479 0.110086 0.924588
          0.0290398 -0.0139909 -0.0689169 0.0303649 -0.0119405 -0.0807488
          0.0126215 -0.00998045 -0.0546027 0.021377 -0.0104381 -0.0359205
          0.12041 -0.0170253 -0.596519 0.145529 -0.0171154 -0.571117
          0.134646 -0.0196971 -0.587951 0.147899 -0.0184525 -0.564006
          0.109724 -0.0136582 -0.587157 0.118801 -0.0139847 -0.559433
          0.102221 -0.0132634 -0.576693 0.0998571 -0.0152705 -0.572757
          0.049198 -0.0109875 -0.426503 -0.0183776 -0.0107372 -0.385427
          0.0276634 -0.0124395 -0.381452 0.0249799 -0.00927824 -0.386426
          0.0500145 0.0249025 -0.112389 0.0688902 0.018373 -0.205679
          0.109529 0.0267247 -0.164205 0.120774 0.030637 -0.123642
          0.0508293 -0.0107902 -0.0918145 0.0863681 -0.0147362 -0.0821753
          0.073345 -0.0152032 -0.0979749 0.0931616 -0.0105415 -0.0987839
          0.0801628 -0.00822523 -0.571445 0.074161 -0.0108072 -0.582806
          0.0973108 -0.00874778 -0.600482 0.076987 -0.00403773 -0.579963
          0.0975595 -0.00451818 -0.516903 0.0654843 -0.00281992 -0.4944
          0.0764351 -0.00495617 -0.53841 0.128315 -0.00339795 -0.511432
          0.1144 -0.0159403 -0.605091 0.112614 -0.0109344 -0.605291
          0.125961 -0.00727612 -0.600585 0.118368 -0.00951325 -0.595495
          -0.0104375 -0.0117784 -0.420885 -0.00345285 -0.00674395 -0.445396
          -0.0126592 -0.0086086 -0.409138 0.030685 -0.00952224 -0.456825
          0.1544 0.00590663 -0.591654 0.156081 0.0102825 -0.594759
          0.1297 9.87133e-05 -0.605701 0.150403 0.00210831 -0.583032
          0.272272 0.0982259 0.871623 0.35898 0.100297 0.86023
          0.35012 0.10216 0.905117 0.35665 0.103169 0.859128
          0.137361 -0.000485042 -0.592 0.1297 9.87133e-05 -0.605701
          0.125961 -0.00727612 -0.600585 0.155927 0.000251628 -0.585031
          0.239077 0.0121727 -0.458207 0.227329 0.00478569 -0.482107
          0.189171 0.00696049 -0.46894 0.21932 0.00944826 -0.501778
          0.175681 -0.00370727 -0.508049 0.203477 -0.00152772 -0.523147
          0.166017 -0.00832996 -0.548618 0.146451 -0.00498123 -0.540931
          -0.038764 -0.0152156 -0.219229 -0.0150094 -0.0166441 -0.254014
          -0.0390216 -0.0145598 -0.228437 -0.00275804 -0.0140178 -0.20773
          -0.00275804 -0.0140178 -0.20773 0.0213185 -0.0168699 -0.245591
          0.0157321 -0.0143898 -0.251108 0.0556986 -0.0149003 -0.231736
          0.0720016 0.0386142 0.0590978 0.0443352 0.0428983 0.124246
          0.0799235 0.0462954 0.15972 0.126597 0.045842 0.0973606
          0.110032 -0.012015 -0.542389 0.0964633 -0.0116014 -0.498097
          0.121768 -0.0132045 -0.506753 0.0873117 -0.0085829 -0.529073
          0.0510099 -0.0126816 -0.511239 0.0444074 -0.00740716 -0.491207
          0.0670694 -0.0106223 -0.51427 0.0254341 -0.00812965 -0.517394
          0.15353 0.000570539 -0.562779 0.130862 -0.00448618 -0.596049
          0.150403 0.00210831 -0.583032 0.145549 -0.00508143 -0.577714
          0.316173 0.0897648 0.554729 0.296192 0.0875151 0.559671
          0.260232 0.0884996 0.60553 0.271522 0.0837749 0.481467
          0.120129 -0.00615696 -0.608411 0.113683 -0.00346981 -0.617295
          0.112637 -0.0103711 -0.611269 0.119565 -0.00358364 -0.614347
          -0.00151333 0.0741555 0.554507 0.0808134 0.0722704 0.485717
          -0.00991763 0.0660669 0.456629 0.0846141 0.0787166 0.528453
          0.24719 0.0906245 0.746051 0.181436 0.0819169 0.673158
          0.148895 0.0762001 0.66868 0.149244 0.0766639 0.750003
          0.332879 0.110851 0.961753 0.254201 0.103492 0.959385
          0.289994 0.106625 0.941827 0.264721 0.107082 0.998789
          0.135582 0.0211458 -0.209163 0.135072 0.0117331 -0.321953
          0.182105 0.0194951 -0.264953 0.123789 0.014183 -0.274253
          0.0995078 -0.0148368 -0.598679 0.108992 -0.0122948 -0.606635
          0.112614 -0.0109344 -0.605291 0.0998671 -0.00980449 -0.59992
          0.203477 -0.00152772 -0.523147 0.166017 -0.00832996 -0.548618
          0.163709 -0.000792662 -0.549448 0.180281 -0.00286856 -0.557066
          0.27145 0.0922475 0.715046 0.316074 0.0917422 0.635195
          0.290993 0.0932419 0.690529 0.378687 0.0993396 0.685729
          0.158825 0.0903425 0.962158 0.120177 0.0786899 0.945524
          0.137992 0.0809897 0.939445 0.156753 0.0825092 0.929123
          0.0858781 -0.0155531 -0.346023 0.0864608 -0.0150371 -0.385583
          0.0487007 -0.016142 -0.343334 0.0689447 -0.0128604 -0.335303
          0.0259847 -0.00747016 -0.269956 0.0242242 -0.010768 -0.269019
          -0.000402004 -0.0101472 -0.218544 0.00022389 -0.00790277 -0.232947
          0.27145 0.0922475 0.715046 0.196146 0.0872112 0.6934
          0.302232 0.0971933 0.769835 0.290993 0.0932419 0.690529
          -0.0116154 -0.0127112 -0.160316 -0.0421975 -0.0121278 -0.149963
          -0.0410849 -0.0131109 -0.178468 -0.0398427 -0.0112934 -0.139971
          0.186567 0.0895988 0.781783 0.109382 0.0908914 0.835634
          0.165257 0.0931675 0.813209 0.100789 0.0866501 0.753101
          0.0966303 -0.0151294 -0.230152 0.10478 -0.018128 -0.212972
          0.144869 -0.0177062 -0.239967 0.139728 -0.0146452 -0.224153
          0.109294 0.0209412 -0.217591 0.0567087 0.0165835 -0.211871
          0.16095 0.0298942 -0.151939 0.0991005 0.026316 -0.14341
          -0.00895024 -0.0104179 -0.0974204 0.00069831 -0.0122989 -0.0909205
          0.0347523 -0.014953 -0.10816 0.0341126 -0.0125083 -0.114873
          -0.00275804 -0.0140178 -0.20773 -0.0410849 -0.0131109 -0.178468
          -0.0048344 -0.0120173 -0.183844 -0.0417754 -0.0127901 -0.19048
          0.0754448 -0.00761653 -0.348043 0.0615568 -0.00927245 -0.319052
          0.0424382 -0.00742649 -0.369547 0.0834431 -0.0103708 -0.372283
          0.0487702 -0.0173093 -0.0310522 0.0316418 -0.00827242 -0.00712274
          0.0220256 -0.0109318 -0.0199872 0.0292423 -0.0145331 -0.0274994
          0.100508 -0.0172467 -0.594197 0.0864786 -0.020683 -0.591283
          0.0995078 -0.0148368 -0.598679 0.0876484 -0.0143337 -0.588037
          0.127105 0.0876495 0.701116 0.196146 0.0872112 0.6934
          0.217441 0.0908349 0.694364 0.186477 0.0935983 0.764036
          0.118728 -0.0117847 -0.327695 0.118528 -0.0149838 -0.308486
          0.160203 -0.0119435 -0.337823 0.152768 -0.0128705 -0.286097
          0.113901 -0.0112095 -0.282981 0.118528 -0.0149838 -0.308486
          0.118728 -0.0117847 -0.327695 0.152768 -0.0128705 -0.286097
          0.089927 0.0645819 0.43286 0.0982184 0.0600215 0.359552
          0.0519335 0.0584848 0.350848 0.15877 0.0654663 0.366123
          0.0948104 -0.00236865 -0.481413 0.134062 0.00401747 -0.464844
          0.125164 0.0053151 -0.431484 0.0945674 0.00212618 -0.424615
          0.109555 -6.04137e-05 -0.59853 0.0965191 0.00659027 -0.605155
          0.123019 0.00231494 -0.613989 0.13511 0.00860607 -0.600893
          -0.0055242 0.00327003 -0.3614 0.0508163 0.00841701 -0.326806
          0.000364435 0.000322241 -0.360076 -0.00773479 0.00474989 -0.315558
          0.0688902 0.018373 -0.205679 0.0882954 0.0139789 -0.275434
          0.14323 0.027128 -0.191288 0.109294 0.0209412 -0.217591
          -0.00102808 0.0614825 0.371555 0.060043 0.0568305 0.259679
          0.0851486 0.064407 0.331217 -0.0118951 0.0528332 0.283342
          0.378687 0.0993396 0.685729 0.27145 0.0922475 0.715046
          0.370712 0.103799 0.763024 0.302232 0.0971933 0.769835
          0.228106 -0.00172237 -0.461908 0.23316 0.00509314 -0.452771
          0.199929 -0.00871553 -0.521842 0.175681 -0.00370727 -0.508049
          0.292096 0.102758 0.964551 0.216313 0.0984366 0.955905
          0.251644 0.0986556 0.9563 0.285884 0.101867 0.926939
          0.0213185 -0.0168699 -0.245591 0.0556986 -0.0149003 -0.231736
          0.0475774 -0.0167668 -0.194693 0.0798418 -0.0176947 -0.264202
          -0.00102808 0.0614825 0.371555 -0.00714448 0.0494386 0.23525
          0.060043 0.0568305 0.259679 -0.0118951 0.0528332 0.283342
          0.164468 0.103075 0.903438 0.204595 0.0961512 0.949524
          0.141147 0.100371 0.938067 0.216196 0.0956329 0.913168
          -0.042216 -0.0112982 -0.106801 -0.0438624 -0.0112966 -0.125053
          -0.0295031 -0.0100554 -0.0861512 -0.0152809 -0.00864801 -0.0931318
          0.130885 0.0226921 -0.239709 0.0882954 0.0139789 -0.275434
          0.0826533 0.00922241 -0.323018 0.137117 0.0163716 -0.314393
          -0.00848475 0.0649001 0.590354 0.00350164 0.0727373 0.630668
          0.0716709 0.0749929 0.578483 -0.0101049 0.0672179 0.524128
          -0.0213389 0.0540566 0.325313 -0.0161031 0.0543238 0.317271
          0.0689063 0.0561299 0.274001 -0.0209697 0.0473978 0.229358
          0.120205 -0.0074673 -0.574662 0.130792 -0.000960639 -0.550484
          0.127413 -0.00533943 -0.584442 0.0970682 -0.00880874 -0.546836
          0.101176 -0.00783675 -0.284289 0.0829969 -0.0109702 -0.307637
          0.0623433 -0.00899144 -0.27071 0.0615568 -0.00927245 -0.319052
          0.0553065 0.00140284 -0.56841 0.0439374 -0.00694747 -0.551364
          0.0659989 -0.00118024 -0.559713 0.0398111 0.00126769 -0.547039
          0.112614 -0.0109344 -0.605291 0.108992 -0.0122948 -0.606635
          0.115624 -0.00953853 -0.606174 0.114543 -0.00627446 -0.607233
          0.302885 0.0378947 -0.208492 0.213557 0.025394 -0.25746
          0.292862 0.0326986 -0.268318 0.295685 0.0331866 -0.227221
          -0.00441511 -0.00222472 -0.0122332 -0.00165095 -0.00443768 -0.0206394
          -0.0116991 -0.00495655 -0.029839 -0.00700115 -0.00345964 -0.0120442
          -0.0055242 0.00327003 -0.3614 0.0101279 -0.00173324 -0.425111
          0.0548873 0.00331069 -0.396044 0.0273608 0.00523286 -0.404675
          0.0834431 -0.0103708 -0.372283 0.123047 -0.00843312 -0.371754
          0.130047 -0.0108439 -0.391734 0.084756 -0.00847522 -0.397233
          0.332017 0.109344 1.02927 0.26761 0.10803 1.03604
          0.289143 0.105429 1.04493 0.284969 0.105508 0.994064
          0.0425612 -0.0137818 -0.154251 0.0341126 -0.0125083 -0.114873
          0.0686171 -0.0179506 -0.138966 0.0732646 -0.0135404 -0.135977
          0.0423568 -0.000690955 -0.520877 0.0843502 -0.00391901 -0.563047
          0.0483354 -0.00442074 -0.55277 0.0764351 -0.00495617 -0.53841
          0.0925113 -0.0100672 -0.58693 0.0742199 -0.00934427 -0.556536
          0.0855552 -0.00604505 -0.571251 0.0865935 -0.00428175 -0.59029
          0.0751999 0.00105064 -0.137564 0.0540152 0.00252499 -0.0946214
          0.0680056 -0.0011597 -0.0994993 0.104426 0.00262799 -0.127086
          0.332879 0.110851 0.961753 0.254201 0.103492 0.959385
          0.264721 0.107082 0.998789 0.330412 0.111551 1.00014
          0.25535 0.057476 0.0852052 0.271213 0.0549191 0.0653578
          0.243538 0.045937 -0.0299528 0.332187 0.0577736 0.0357389
          0.114044 -0.0144426 -0.516593 0.0908379 -0.0141968 -0.513139
          0.0937691 -0.0138029 -0.549149 0.102378 -0.0147507 -0.539178
          0.224695 0.0953553 0.846221 0.186567 0.0895988 0.781783
          0.167438 0.0943679 0.871731 0.165257 0.0931675 0.813209
          0.0558778 0.0858855 0.622921 0.0846141 0.0787166 0.528453
          0.0754783 0.0822369 0.620429 -0.00151333 0.0741555 0.554507
          0.0834431 -0.0103708 -0.372283 0.0829969 -0.0109702 -0.307637
          0.120603 -0.00930884 -0.326509 0.0615568 -0.00927245 -0.319052
          0.0836865 -0.0155189 -0.576022 0.0821186 -0.0163022 -0.547193
          0.0937691 -0.0138029 -0.549149 0.0647985 -0.0129255 -0.545036
          0.153439 0.0976263 0.896305 0.141876 0.0985264 0.846848
          0.164468 0.103075 0.903438 0.216196 0.0956329 0.913168
          0.0598204 0.00789755 -0.317222 0.128141 0.0092244 -0.36495
          0.0948509 0.00960777 -0.330541 0.0688967 0.00260366 -0.397242
          0.216692 0.0189193 -0.322874 0.175406 0.0171797 -0.332993
          0.214694 0.0186287 -0.384992 0.171681 0.0118168 -0.394107
          0.367966 0.104195 0.7975 0.293221 0.100629 0.862298
          0.359992 0.10765 0.826851 0.349887 0.106809 0.885922
          0.261294 0.0163032 -0.376382 0.216692 0.0189193 -0.322874
          0.267948 0.021667 -0.358312 0.19211 0.00963681 -0.421164
          0.00753595 -0.0138764 -0.340524 0.0419592 -0.0119604 -0.304688
          0.00213241 -0.0128252 -0.289606 0.0331346 -0.0139518 -0.311202
          0.0603935 -0.0166081 -0.565105 0.0421184 -0.0116166 -0.5242
          0.0554554 -0.00994833 -0.555061 0.0728637 -0.00800935 -0.538075
          0.260233 0.0868215 0.649864 0.296649 0.0901879 0.64528
          0.27145 0.0922475 0.715046 0.24719 0.0906245 0.746051
          0.101268 -0.0133311 -0.59472 0.0925113 -0.0100672 -0.58693
          0.107431 -0.00998447 -0.605534 0.0998671 -0.00980449 -0.59992
          0.15796 0.0626744 0.270179 0.0939533 0.0506828 0.181751
          0.0689063 0.0561299 0.274001 0.0467083 0.0485772 0.184625
          -0.00165095 -0.00443768 -0.0206394 -0.0254388 -0.00647699 -0.0297218
          -0.00700115 -0.00345964 -0.0120442 -0.0102802 -0.00591698 -0.0432173
          0.0679743 -0.0153294 -0.306575 0.0386203 -0.0180922 -0.317802
          0.0490511 -0.0173693 -0.279308 0.00727071 -0.0159958 -0.292999
          0.289994 0.106625 0.941827 0.254201 0.103492 0.959385
          0.246243 0.10426 0.96754 0.264721 0.107082 0.998789
          0.384031 0.0961793 0.70697 0.303862 0.0937414 0.696053
          0.331863 0.0933791 0.681261 0.389693 0.0946005 0.585769
          0.120286 0.0757005 0.587085 0.100937 0.0804062 0.671573
          0.196146 0.0872112 0.6934 0.198539 0.0823455 0.576957
          0.198539 0.0823455 0.576957 0.252053 0.0846894 0.591048
          0.120286 0.0757005 0.587085 0.178795 0.0768006 0.555971
          -0.00804499 0.0392555 0.118445 -0.00710968 0.0326024 0.0350586
          0.0640984 0.0457958 0.114738 -0.0123321 0.0364686 0.0853844
          0.156753 0.0825092 0.929123 0.102717 0.0704512 0.892847
          0.120177 0.0786899 0.945524 0.137992 0.0809897 0.939445
          0.135405 0.0894653 0.972754 0.120177 0.0786899 0.945524
          0.137992 0.0809897 0.939445 0.158825 0.0903425 0.962158
          0.394862 0.0940187 0.563365 0.316173 0.0897648 0.554729
          0.387982 0.0910084 0.486622 0.389693 0.0946005 0.585769
          0.118528 -0.0149838 -0.308486 0.159421 -0.0147054 -0.329643
          0.160203 -0.0119435 -0.337823 0.152768 -0.0128705 -0.286097
          0.118528 -0.0149838 -0.308486 0.113705 -0.0175004 -0.293712
          0.142066 -0.0162666 -0.339489 0.159421 -0.0147054 -0.329643
          0.154866 -0.00903024 -0.300863 0.152519 -0.00688212 -0.28843
          0.15653 -0.00651799 -0.313547 0.120603 -0.00930884 -0.326509
          0.19409 0.0993376 1.07089 0.165145 0.0940771 1.01785
          0.131919 0.0935166 1.0631 0.161148 0.0923967 1.06649
          0.0615568 -0.00927245 -0.319052 0.0327647 -0.0109596 -0.337261
          0.0343041 -0.00708722 -0.315142 0.0424382 -0.00742649 -0.369547
          0.0510099 -0.0126816 -0.511239 0.00880291 -0.00779109 -0.477707
          0.0444074 -0.00740716 -0.491207 0.0254341 -0.00812965 -0.517394
          0.0368505 -0.00613969 -0.0433125 0.045819 -0.00779774 -0.0366013
          0.013461 -0.00348063 -0.0158737 0.0182165 -0.00767366 -0.0242749
          0.0834431 -0.0103708 -0.372283 0.073581 -0.012766 -0.382787
          0.0689447 -0.0128604 -0.335303 0.0327647 -0.0109596 -0.337261
          0.12962 -0.0179958 -0.581327 0.134646 -0.0196971 -0.587951
          0.126913 -0.0224445 -0.601183 0.147899 -0.0184525 -0.564006
          -0.0355365 -0.0141714 -0.273168 -0.0405949 -0.0121653 -0.220618
          0.00402628 -0.0122154 -0.223718 -0.0364058 -0.0121714 -0.271789
          0.0182165 -0.00767366 -0.0242749 0.00562483 -0.00357756 -0.0126354
          0 0 0 0 0 0
          0.228849 0.0575983 0.213013 0.165241 0.0545551 0.192337
          0.27609 0.0684555 0.293154 0.239744 0.0627337 0.215118
          0.216196 0.0956329 0.913168 0.217678 0.0968129 0.834652
          0.224695 0.0953553 0.846221 0.167438 0.0943679 0.871731
          0.341816 0.112732 0.920067 0.299471 0.10761 0.905539
          0.294293 0.110603 0.96798 0.289994 0.106625 0.941827
          0.000364435 0.000322241 -0.360076 0.0101279 -0.00173324 -0.425111
          0.00962742 -0.00493176 -0.396985 0.0688967 0.00260366 -0.397242
          0.149803 0.0947307 0.967832 0.117288 0.0824418 0.964402
          0.0967532 0.0787728 0.992186 0.115205 0.101212 0.962865
          -0.0357635 -0.00911502 -0.0589362 -0.0254388 -0.00647699 -0.0297218
          -0.0116991 -0.00495655 -0.029839 -0.0102802 -0.00591698 -0.0432173
          -0.00441511 -0.00222472 -0.0122332 -0.0254388 -0.00647699 -0.0297218
          -0.0198786 -0.00456851 -0.014675 -0.0116991 -0.00495655 -0.029839
          -0.00991763 0.0660669 0.456629 0.0595115 0.0667901 0.408272
          -0.0160427 0.0608877 0.4158 -0.0117722 0.0584996 0.359025
          0.114543 -0.00627446 -0.607233 0.113683 -0.00346981 -0.617295
          0.112637 -0.0103711 -0.611269 0.120129 -0.00615696 -0.608411
          0.0862894 -0.00400199 -0.166307 0.0751999 0.00105064 -0.137564
          0.0608994 -0.00221483 -0.159693 0.0667859 -0.00492085 -0.132948
          0.366693 0.0817436 0.45118 0.280246 0.0724522 0.393062
          0.24751 0.0759489 0.490251 0.282707 0.0780598 0.447798
          0.0257655 -0.0133371 -0.43445 0.030685 -0.00952224 -0.456825
          0.049198 -0.0109875 -0.426503 0.0481888 -0.0126734 -0.4751
          -0.0075844 -0.00783516 -0.0507497 -0.0116991 -0.00495655 -0.029839
          0.00020316 -0.00504482 -0.026493 0.0108895 -0.00577718 -0.0287179
          0.00402628 -0.0122154 -0.223718 -0.0396832 -0.0112706 -0.242638
          0.0242242 -0.010768 -0.269019 -0.0364058 -0.0121714 -0.271789
          0.266947 0.0832243 0.575552 0.24751 0.0759489 0.490251
          0.376057 0.088585 0.525818 0.342939 0.0904408 0.603744
          0.114469 -0.00938039 -0.604088 0.109254 -0.0117923 -0.604306
          0.116074 -0.00889233 -0.591783 0.0974886 -0.0130007 -0.586673
          0.168288 0.0375999 -0.0873447 0.14323 0.027128 -0.191288
          0.204548 0.0340728 -0.161825 0.0991005 0.026316 -0.14341
          0.115205 0.101212 0.962865 0.0967532 0.0787728 0.992186
          0.149803 0.0947307 0.967832 0.165145 0.0940771 1.01785
          0.0826533 0.00922241 -0.323018 0.0882954 0.0139789 -0.275434
          0.0638506 0.00594671 -0.330755 0.137117 0.0163716 -0.314393
          0.0256855 -0.00877047 -0.0769447 0.0508293 -0.0107902 -0.0918145
          0.0341126 -0.0125083 -0.114873 0.0188405 -0.00834344 -0.0945442
          0.227293 0.112242 1.05647 0.250416 0.112338 1.09087
          0.24468 0.114842 1.09294 0.284176 0.113884 1.09618
          0.0657571 -0.0031679 -0.428833 0.125164 0.0053151 -0.431484
          0.0919653 0.00584569 -0.369417 0.0945674 0.00212618 -0.424615
          -0.0386929 -0.00973485 -0.0876329 -0.0384657 -0.00944187 -0.0839381
          -0.0075844 -0.00783516 -0.0507497 -0.0357635 -0.00911502 -0.0589362
          0.0450636 -0.0111888 -0.184676 0.0556986 -0.0149003 -0.231736
          0.0508684 -0.0116704 -0.233291 0.0737005 -0.0132091 -0.182875
          0.0734512 0.0151683 -0.243691 0.135582 0.0211458 -0.209163
          0.182105 0.0194951 -0.264953 0.149133 0.0161199 -0.296868
          0.115205 0.101212 0.962865 0.115205 0.101212 0.962865
          0.148758 0.0957216 0.968415 0.115205 0.101212 0.962865
          0.0623433 -0.00899144 -0.27071 0.0242242 -0.010768 -0.269019
          0.0259847 -0.00747016 -0.269956 0.0615568 -0.00927245 -0.319052
          0.239077 0.0121727 -0.458207 0.189171 0.00696049 -0.46894
          0.249124 0.0204591 -0.440537 0.231423 0.0159505 -0.487696
          0.0648896 -0.00151987 -0.57823 0.0711245 0.00679275 -0.587151
          0.0553065 0.00140284 -0.56841 0.0865935 -0.00428175 -0.59029
          0.369769 0.0801117 0.315608 0.301397 0.0779443 0.365474
          0.379682 0.0859182 0.404263 0.378097 0.0840946 0.326979
          0.0615568 -0.00927245 -0.319052 0.0829969 -0.0109702 -0.307637
          0.0623433 -0.00899144 -0.27071 0.0419592 -0.0119604 -0.304688
          0.0508684 -0.0116704 -0.233291 0.0266702 -0.0125329 -0.259877
          0.0444503 -0.00882003 -0.221329 0.0242242 -0.010768 -0.269019
          0.073581 -0.012766 -0.382787 0.0801865 -0.0129857 -0.431223
          0.0558022 -0.0109937 -0.389167 0.110055 -0.0119697 -0.4245
          0.0334735 -0.00317254 -0.125435 0.0608994 -0.00221483 -0.159693
          0.0667859 -0.00492085 -0.132948 0.0338639 -0.00745357 -0.153426
          0.0101504 -0.0167399 -0.34114 0.0386203 -0.0180922 -0.317802
          0.00727071 -0.0159958 -0.292999 -0.000947842 -0.0186037 -0.321454
          0.138138 -0.0232528 -0.593319 0.120838 -0.0201982 -0.603292
          0.135136 -0.0161269 -0.592202 0.111776 -0.0247358 -0.601291
          0.260232 0.0884996 0.60553 0.217441 0.0908349 0.694364
          0.199691 0.0849973 0.580698 0.13533 0.0805968 0.576606
          0.0406751 -0.0188984 -0.381652 0.0386203 -0.0180922 -0.317802
          0.0487007 -0.016142 -0.343334 0.0101504 -0.0167399 -0.34114
          0.00753595 -0.0138764 -0.340524 0.0419592 -0.0119604 -0.304688
          0.0331346 -0.0139518 -0.311202 0.0689447 -0.0128604 -0.335303
          0.106885 -0.0166778 -0.610537 0.113746 -0.0145598 -0.606765
          0.110326 -0.021099 -0.615295 0.112644 -0.0104976 -0.615798
          0.0998489 -0.00965086 -0.589306 0.074161 -0.0108072 -0.582806
          0.0974821 -0.012431 -0.598996 0.0973108 -0.00874778 -0.600482
          0.216996 0.0946768 0.982276 0.168513 0.0943187 0.953422
          0.148758 0.0957216 0.968415 0.204595 0.0961512 0.949524
          0.204548 0.0340728 -0.161825 0.243931 0.0382422 -0.120107
          0.16095 0.0298942 -0.151939 0.240943 0.0331244 -0.188792
          0.106057 -0.0116458 -0.606543 0.0998489 -0.00965086 -0.589306
          0.0974821 -0.012431 -0.598996 0.0973108 -0.00874778 -0.600482
          0.164565 -0.0133876 -0.382405 0.120859 -0.0118386 -0.3705
          0.165496 -0.012174 -0.412527 0.122055 -0.0136552 -0.391712
          0.154929 -0.0155281 -0.542343 0.130132 -0.0142512 -0.513988
          0.159944 -0.0163887 -0.514976 0.113639 -0.0132619 -0.522822
          0.0754448 -0.00761653 -0.348043 0.0834431 -0.0103708 -0.372283
          0.0424382 -0.00742649 -0.369547 0.084756 -0.00847522 -0.397233
          0.332017 0.109344 1.02927 0.284969 0.105508 0.994064
          0.289143 0.105429 1.04493 0.335373 0.10664 1.00044
          0.0368281 -0.00633565 -0.419251 0.0249799 -0.00927824 -0.386426
          0.0424382 -0.00742649 -0.369547 -0.0113336 -0.00627454 -0.364814
          0.0925113 -0.0100672 -0.58693 0.0742199 -0.00934427 -0.556536
          0.105112 -0.0109623 -0.591591 0.0855552 -0.00604505 -0.571251
          0.149133 0.0161199 -0.296868 0.128141 0.0092244 -0.36495
          0.175406 0.0171797 -0.332993 0.177392 0.0114892 -0.3605
          0.104713 -0.0169045 -0.601903 0.106885 -0.0166778 -0.610537
          0.0875997 -0.0177313 -0.597244 0.107566 -0.0128015 -0.607479
          -0.000871435 -0.0111273 -0.144184 -0.0421975 -0.0121278 -0.149963
          -0.010015 -0.0095234 -0.104158 -0.0431464 -0.0115306 -0.135303
          0.330412 0.111551 1.00014 0.264721 0.107082 0.998789
          0.315774 0.113468 1.01396 0.329085 0.113175 1.04334
          0.0406751 -0.0188984 -0.381652 0.0487007 -0.016142 -0.343334
          0.0311669 -0.015471 -0.372513 0.0101504 -0.0167399 -0.34114
          0.148946 0.0951903 0.97766 0.14422 0.101679 1.03743
          0.185509 0.107383 1.03394 0.169989 0.0988924 1.0076
          0.197509 0.00429118 -0.539182 0.179763 0.00577853 -0.528465
          0.176831 0.00185096 -0.511452 0.21932 0.00944826 -0.501778
          0.199929 -0.00871553 -0.521842 0.152841 -0.0122022 -0.551974
          0.166017 -0.00832996 -0.548618 0.164091 -0.018657 -0.566595
          0.359488 0.0745767 0.226421 0.238454 0.0638716 0.176386
          0.293523 0.0709724 0.187424 0.358776 0.0740713 0.182399
          0.378097 0.0840946 0.326979 0.248309 0.07594 0.362052
          0.300097 0.0831428 0.404996 0.297489 0.0760461 0.273847
          0.073581 -0.012766 -0.382787 0.0864608 -0.0150371 -0.385583
          0.108289 -0.0142089 -0.434857 0.122055 -0.0136552 -0.391712
          0.260232 0.0884996 0.60553 0.217441 0.0908349 0.694364
          0.262492 0.0911611 0.652694 0.199691 0.0849973 0.580698
          0.0548873 0.00331069 -0.396044 0.0948509 0.00960777 -0.330541
          0.11452 0.00584169 -0.393886 0.0688967 0.00260366 -0.397242
          0.15796 0.0626744 0.270179 0.179831 0.069947 0.368224
          0.17999 0.0712148 0.342808 0.11408 0.0677137 0.376145
          -0.00275804 -0.0140178 -0.20773 -0.0150094 -0.0166441 -0.254014
          -0.0390216 -0.0145598 -0.228437 0.0157321 -0.0143898 -0.251108
          0.26761 0.10803 1.03604 0.214788 0.10492 1.00424
          0.22275 0.104812 1.04279 0.222148 0.100112 0.994249
          0.0834431 -0.0103708 -0.372283 0.0615568 -0.00927245 -0.319052
          0.120603 -0.00930884 -0.326509 0.0754448 -0.00761653 -0.348043
          -0.0396448 -0.0102092 -0.109624 -0.0421975 -0.0121278 -0.149963
          -0.0431464 -0.0115306 -0.135303 -0.010015 -0.0095234 -0.104158
          0.109555 -6.04137e-05 -0.59853 0.085481 0.000932724 -0.594326
          0.10082 -0.00345068 -0.604568 0.0965191 0.00659027 -0.605155
          0.158421 0.0496291 0.0897101 0.215481 0.0468155 0.0269334
          0.161268 0.0430777 0.00556753 0.271213 0.0549191 0.0653578
          0.141147 0.100371 0.938067 0.153439 0.0976263 0.896305
          0.124962 0.103705 0.917689 0.164468 0.103075 0.903438
          0.0407461 -0.00197492 -0.0545277 0.0368505 -0.00613969 -0.0433125
          0.0784527 -0.00597124 -0.0773241 0.0583685 -0.00316609 -0.0516314
          0.296722 0.0330849 -0.195031 0.243931 0.0382422 -0.120107
          0.306307 0.0396681 -0.119836 0.304914 0.0388482 -0.161189
          0.114044 -0.0144426 -0.516593 0.0878253 -0.0163672 -0.510375
          0.0908379 -0.0141968 -0.513139 0.102378 -0.0147507 -0.539178
          0.18131 0.00998128 -0.509551 0.130792 -0.000960639 -0.550484
          0.147387 0.00173919 -0.514186 0.135703 0.0025933 -0.49578
          0.364544 0.0778847 0.37568 0.240365 0.0719055 0.361752
          0.373022 0.0833251 0.422228 0.27609 0.0684555 0.293154
          0.109254 -0.0117923 -0.604306 0.112637 -0.0103711 -0.611269
          0.120129 -0.00615696 -0.608411 0.115624 -0.00953853 -0.606174
          0.126251 -0.0140065 -0.477368 0.166124 -0.0132648 -0.456047
          0.163383 -0.0132896 -0.490656 0.164177 -0.0141855 -0.483115
          0.13533 0.0805968 0.576606 0.189954 0.0762057 0.471849
          0.0808134 0.0722704 0.485717 0.171272 0.0778226 0.475443
          0.12387 -0.0137173 -0.55443 0.132045 -0.0137283 -0.536958
          0.130132 -0.0142512 -0.513988 0.114044 -0.0144426 -0.516593
          0.00156437 -0.00480447 -0.0194943 -0.0184737 -0.00268011 -0.0251174
          -0.00896293 -0.00640648 -0.0407497 -0.00484605 -0.00787858 -0.0492213
          0.049462 0.0234903 -0.116728 0.0269824 0.0190862 -0.166782
          0.045572 0.0183116 -0.184803 0.0640031 0.0178233 -0.205846
          0.282294 0.0987585 0.988705 0.298929 0.101482 1.04991
          0.31334 0.101594 1.01953 0.256007 0.0933328 1.02618
          -0.0036987 0.0700438 0.47369 0.0846141 0.0787166 0.528453
          -0.00151333 0.0741555 0.554507 -0.00991763 0.0660669 0.456629
          0.0338639 -0.00745357 -0.153426 0.00706416 -0.00670828 -0.137923
          0.0502169 -0.00470133 -0.188891 0.0252408 -0.0079659 -0.186335
          0.0948582 -0.0101546 -0.592337 0.0796746 -0.00510329 -0.588382
          0.10082 -0.00345068 -0.604568 0.109555 -6.04137e-05 -0.59853
          0.0894282 -0.0157141 -0.475633 0.0908379 -0.0141968 -0.513139
          0.126251 -0.0140065 -0.477368 0.114044 -0.0144426 -0.516593
          0.0247822 0.00224888 -0.0362098 0.00322887 -0.000798352 -0.00798877
          0.0159097 -0.00071185 -0.0210781 0.0161469 0.00429153 -0.0295316
          0.10645 -0.0155909 -0.489206 0.116094 -0.0159618 -0.415128
          0.124448 -0.0143225 -0.471353 0.0793457 -0.0182685 -0.45509
          0.12387 -0.0137173 -0.55443 0.154929 -0.0155281 -0.542343
          0.128281 -0.014775 -0.553089 0.130132 -0.0142512 -0.513988
          0.387982 0.0910084 0.486622 0.381624 0.0883173 0.476281
          0.298245 0.0824615 0.466509 0.379682 0.0859182 0.404263
          0.134692 0.0456868 0.0266296 0.103092 0.0367894 -0.0397778
          0.162043 0.0441457 -0.0289436 0.159365 0.0442869 -0.00337952
          0.251644 0.0986556 0.9563 0.258775 0.10035 0.992022
          0.282294 0.0987585 0.988705 0.216996 0.0946768 0.982276
          0.101095 0.0763853 0.812186 0.0668794 0.0646988 0.817607
          0.0740493 0.0641616 0.883765 0.0612522 0.0739216 0.829945
          0.10517 -0.0159049 -0.610222 0.0984941 -0.0173699 -0.601281
          0.0974886 -0.0130007 -0.586673 0.09246 -0.0181342 -0.59445
          0.134593 -0.00711215 -0.20878 0.147637 -0.00749906 -0.261287
          0.143208 -0.00900353 -0.241278 0.0962148 -0.00593256 -0.21049
          0.27609 0.0684555 0.293154 0.280246 0.0724522 0.393062
          0.282707 0.0780598 0.447798 0.240365 0.0719055 0.361752
          0.109724 -0.0136582 -0.587157 0.118476 -0.0115173 -0.589823
          0.118768 -0.0128463 -0.594283 0.124799 -0.0135258 -0.574159
          0.137233 -0.0135718 -0.504352 0.132045 -0.0137283 -0.536958
          0.159245 -0.0136275 -0.519906 0.154852 -0.0116642 -0.533339
          0.0871718 -0.0133081 -0.56754 0.0603935 -0.0166081 -0.565105
          0.0970682 -0.00880874 -0.546836 0.0571961 -0.0189245 -0.5595
          0.216996 0.0946768 0.982276 0.148758 0.0957216 0.968415
          0.201861 0.0919498 0.982176 0.204595 0.0961512 0.949524
          0.18704 -0.0084688 -0.503135 0.175681 -0.00370727 -0.508049
          0.138348 -0.00834367 -0.530527 0.151141 -0.00421154 -0.490188
          -0.0169867 0.0583781 0.508089 0.0594662 0.0664747 0.514154
          -0.0211191 0.0597525 0.441455 -0.00848475 0.0649001 0.590354
          -0.0390216 -0.0145598 -0.228437 -0.00275804 -0.0140178 -0.20773
          0.0157321 -0.0143898 -0.251108 0.00402628 -0.0122154 -0.223718
          0.222064 0.0922335 1.0378 0.174536 0.092526 0.994842
          0.161148 0.0923967 1.06649 0.146166 0.0938949 1.01979
          0.0679743 -0.0153294 -0.306575 0.0157321 -0.0143898 -0.251108
          0.0556986 -0.0149003 -0.231736 0.0608181 -0.012833 -0.282402
          0.24564 0.0977652 0.878842 0.272881 0.101595 0.900105
          0.198685 0.0945086 0.918357 0.247261 0.101271 0.929042
          0.0865935 -0.00428175 -0.59029 0.0742199 -0.00934427 -0.556536
          0.0855552 -0.00604505 -0.571251 0.0805224 -0.000891983 -0.581501
          0.130792 -0.000960639 -0.550484 0.120205 -0.0074673 -0.574662
          0.124087 -0.00488907 -0.541258 0.0970682 -0.00880874 -0.546836
          0.319563 0.0916535 0.59525 0.316173 0.0897648 0.554729
          0.262492 0.0911611 0.652694 0.199691 0.0849973 0.580698
          0.0798418 -0.0176947 -0.264202 0.0556986 -0.0149003 -0.231736
          0.0475774 -0.0167668 -0.194693 0.10478 -0.018128 -0.212972
          0.0410239 -0.0180549 -0.471625 0.0782603 -0.0163881 -0.431469
          0.0793457 -0.0182685 -0.45509 0.0894282 -0.0157141 -0.475633
          0.0519335 0.0584848 0.350848 0.102322 0.0639772 0.375425
          -0.0213389 0.0540566 0.325313 -0.0211191 0.0597525 0.441455
          0.134646 -0.0196971 -0.587951 0.11977 -0.0145272 -0.59394
          0.12041 -0.0170253 -0.596519 0.121298 -0.0203243 -0.601592
          0.0508293 -0.0107902 -0.0918145 0.0567513 -0.00688996 -0.0800162
          0.0931616 -0.0105415 -0.0987839 0.0695339 -0.0077584 -0.112705
          0.1297 9.87133e-05 -0.605701 0.155927 0.000251628 -0.585031
          0.137361 -0.000485042 -0.592 0.1544 0.00590663 -0.591654
          0.0159457 -0.000758185 -0.0663928 0.0418506 0.000676097 -0.0697344
          0.0540152 0.00252499 -0.0946214 0.0275312 0.0035501 -0.0515769
          0.217678 0.0968129 0.834652 0.165257 0.0931675 0.813209
          0.186477 0.0935983 0.764036 0.268238 0.0953534 0.771063
          0.199466 0.0297779 -0.163731 0.137108 0.0320141 -0.0853689
          0.185795 0.0311586 -0.1008 0.23391 0.0395448 -0.0669595
          0.0240896 0.00249727 -0.466643 0.0654843 -0.00281992 -0.4944
          0.0527092 0.00222036 -0.446413 0.0677674 -0.000179497 -0.487995
          0.0567087 0.0165835 -0.211871 -0.0163625 0.013976 -0.178291
          0.045572 0.0183116 -0.184803 0.0437957 0.0214384 -0.141935
          0.0444074 -0.00740716 -0.491207 0.0442687 -0.00529419 -0.466267
          0.0758985 -0.00839467 -0.497359 0.0349748 -0.00214796 -0.509131
          -0.0343607 -0.0175614 -0.288495 -0.0273646 -0.016129 -0.335138
          0.00727071 -0.0159958 -0.292999 -0.000947842 -0.0186037 -0.321454
          0.0817732 -0.00910394 -0.520643 0.0696074 -0.00701453 -0.503281
          0.0948104 -0.00236865 -0.481413 0.0352309 -0.0128731 -0.503908
          0.0603776 -0.0173095 -0.104529 0.073345 -0.0152032 -0.0979749
          0.0686171 -0.0179506 -0.138966 0.0732646 -0.0135404 -0.135977
          0.0713689 0.0401873 0.0354087 0.134692 0.0456868 0.0266296
          0.111056 0.0506082 0.116801 0.141569 0.0485009 0.0692919
          -0.00804499 0.0392555 0.118445 -0.00710968 0.0326024 0.0350586
          0.0713689 0.0401873 0.0354087 0.0640984 0.0457958 0.114738
          0.131259 -0.0138379 -0.510261 0.10645 -0.0155909 -0.489206
          0.0878253 -0.0163672 -0.510375 0.102378 -0.0147507 -0.539178
          0.336675 0.107926 0.957762 0.335373 0.10664 1.00044
          0.339454 0.105555 0.957672 0.292096 0.102758 0.964551
          0.086844 0.0241004 -0.145402 -0.0209827 0.0198814 -0.106826
          0.0540385 0.0279604 -0.0683123 0.0437957 0.0214384 -0.141935
          0.231423 0.0159505 -0.487696 0.209308 0.0137501 -0.529951
          0.18131 0.00998128 -0.509551 0.236316 0.0246008 -0.485233
          -0.00275804 -0.0140178 -0.20773 -0.0150094 -0.0166441 -0.254014
          0.0157321 -0.0143898 -0.251108 0.0213185 -0.0168699 -0.245591
          -0.0272993 0.0550045 0.375903 0.0337169 0.0592017 0.420383
          -0.0211191 0.0597525 0.441455 -0.0169867 0.0583781 0.508089
          0.0480306 -0.0184858 -0.532774 0.0421184 -0.0116166 -0.5242
          0.0970682 -0.00880874 -0.546836 0.0352309 -0.0128731 -0.503908
          0.0125049 -0.0101035 -0.180202 0.0252408 -0.0079659 -0.186335
          0.0444503 -0.00882003 -0.221329 -0.000402004 -0.0101472 -0.218544
          0.0449238 0.0339339 0.00411554 0.0359137 0.0362804 0.0463107
          -0.0240479 0.0354399 0.0821265 -0.0199145 0.0267211 -0.024701
          0.0463084 -0.0174144 -0.0414897 0.0423499 -0.0114026 -0.055377
          0.0385235 -0.0105734 -0.0388337 0.063013 -0.0157642 -0.0456833
          0.303862 0.0937414 0.696053 0.298834 0.0968458 0.818175
          0.34366 0.0948321 0.759262 0.272704 0.0935405 0.736088
          0.123789 0.014183 -0.274253 0.135072 0.0117331 -0.321953
          0.182105 0.0194951 -0.264953 0.187876 0.0115894 -0.319623
          0.267528 0.060776 0.191131 0.239744 0.0627337 0.215118
          0.27609 0.0684555 0.293154 0.35414 0.0709775 0.22333
          -0.0244421 0.0178141 -0.132669 -0.0209827 0.0198814 -0.106826
          -0.0273946 0.023484 -0.0637811 0.0540385 0.0279604 -0.0683123
          0.0245713 -0.00500875 -0.104985 0.00270117 -0.00839904 -0.122071
          -0.0014031 -0.00719991 -0.0748949 -0.0152809 -0.00864801 -0.0931318
          0.0581534 -0.0202491 -0.482959 0.0410239 -0.0180549 -0.471625
          0.0793457 -0.0182685 -0.45509 0.0894282 -0.0157141 -0.475633
          0.168513 0.0943187 0.953422 0.216313 0.0984366 0.955905
          0.251644 0.0986556 0.9563 0.216996 0.0946768 0.982276
          0.19211 0.00963681 -0.421164 0.189171 0.00696049 -0.46894
          0.131645 0.00478053 -0.424531 0.134062 0.00401747 -0.464844
          0.0801628 -0.00822523 -0.571445 0.0885485 -0.0107869 -0.567941
          0.109413 -0.00731356 -0.560632 0.0998489 -0.00965086 -0.589306
          0.104713 -0.0169045 -0.601903 0.1081 -0.0209799 -0.606824
          0.106885 -0.0166778 -0.610537 0.107566 -0.0128015 -0.607479
          0.264721 0.107082 0.998789 0.209054 0.100802 0.973437
          0.254201 0.103492 0.959385 0.246243 0.10426 0.96754
          -0.00559399 0.0202761 -0.1029 -0.00726708 0.0149956 -0.161331
          0.0689865 0.0290619 -0.0831016 -0.0152553 0.0199927 -0.106234
          0.303862 0.0937414 0.696053 0.272704 0.0935405 0.736088
          0.331863 0.0933791 0.681261 0.262492 0.0911611 0.652694
          0.153746 -0.0166346 -0.580158 0.137254 -0.010044 -0.578733
          0.130566 -0.0141443 -0.594765 0.133596 -0.0181632 -0.590032
          0.104248 -0.00998517 -0.60549 0.106057 -0.0116458 -0.606543
          0.111468 -0.0123134 -0.602749 0.106077 -0.011639 -0.601787
          0.155675 0.013872 -0.375313 0.171681 0.0118168 -0.394107
          0.175406 0.0171797 -0.332993 0.128141 0.0092244 -0.36495
          0.254645 0.0175491 -0.410354 0.239077 0.0121727 -0.458207
          0.19211 0.00963681 -0.421164 0.189171 0.00696049 -0.46894
          0.0418506 0.000676097 -0.0697344 0.0407461 -0.00197492 -0.0545277
          0.00965275 -0.00343188 -0.0436944 0.0176904 -0.00353163 -0.0727868
          0.0273608 0.00523286 -0.404675 0.0527092 0.00222036 -0.446413
          0.0548873 0.00331069 -0.396044 0.0932756 0.00212624 -0.445271
          0.272434 0.0195054 -0.327936 0.177392 0.0114892 -0.3605
          0.215632 0.0156658 -0.31289 0.216692 0.0189193 -0.322874
          0.0424382 -0.00742649 -0.369547 0.0327647 -0.0109596 -0.337261
          0.0343041 -0.00708722 -0.315142 0.0119736 -0.00702655 -0.341033
          -0.0357635 -0.00911502 -0.0589362 -0.0335928 -0.00987119 -0.0475263
          -0.0254388 -0.00647699 -0.0297218 -0.0102802 -0.00591698 -0.0432173
          0.0887729 0.0367918 0.00698102 0.0359137 0.0362804 0.0463107
          0.0449238 0.0339339 0.00411554 -0.0199145 0.0267211 -0.024701
          0.00020316 -0.00504482 -0.026493 0.00156437 -0.00480447 -0.0194943
          -0.00896293 -0.00640648 -0.0407497 0.016022 -0.0112065 -0.0373548
          0.227347 0.0341367 -0.239023 0.167838 0.0206599 -0.322149
          0.229906 0.0269602 -0.297914 0.173823 0.0246422 -0.254984
          0.0500145 0.0249025 -0.112389 0.0688902 0.018373 -0.205679
          0.120774 0.030637 -0.123642 0.0689865 0.0290619 -0.0831016
          0.130862 -0.00448618 -0.596049 0.115624 -0.00953853 -0.606174
          0.125961 -0.00727612 -0.600585 0.118662 -0.0118541 -0.601902
          0.164468 0.103075 0.903438 0.153439 0.0976263 0.896305
          0.124962 0.103705 0.917689 0.11098 0.103607 0.870345
          0.0918535 -0.00127327 -0.184187 0.0751999 0.00105064 -0.137564
          0.0608994 -0.00221483 -0.159693 0.0862894 -0.00400199 -0.166307
          0.15353 0.000570539 -0.562779 0.177732 0.0129794 -0.566982
          0.152816 0.00527735 -0.573116 0.179652 0.0134379 -0.536532
          0.169989 0.0988924 1.0076 0.14422 0.101679 1.03743
          0.18707 0.1075 1.04546 0.0967532 0.0787728 0.992186
          0.0851486 0.064407 0.331217 0.060043 0.0568305 0.259679
          0.143321 0.0656661 0.27956 0.0876554 0.0583691 0.26528
          0.158421 0.0496291 0.0897101 0.161268 0.0430777 0.00556753
          0.0887729 0.0367918 0.00698102 0.104946 0.0435662 0.0577277
          -0.011625 0.0608921 0.603092 0.0746714 0.0731584 0.661841
          -0.00848475 0.0649001 0.590354 0.0091938 0.0639893 0.725891
          -0.0209827 0.0198814 -0.106826 -0.0199145 0.0267211 -0.024701
          -0.0273946 0.023484 -0.0637811 0.0540385 0.0279604 -0.0683123
          0.159365 0.0442869 -0.00337952 0.25679 0.05184 -0.0499682
          0.198498 0.0519682 0.0225208 0.274803 0.0541389 -0.0163549
          0.364544 0.0778847 0.37568 0.280246 0.0724522 0.393062
          0.282707 0.0780598 0.447798 0.27609 0.0684555 0.293154
          0.17999 0.0712148 0.342808 0.212417 0.073621 0.315974
          0.221318 0.0782606 0.38677 0.276815 0.0802136 0.346431
          0.0338639 -0.00745357 -0.153426 0.0667859 -0.00492085 -0.132948
          0.0334735 -0.00317254 -0.125435 0.0245713 -0.00500875 -0.104985
          0.0594662 0.0664747 0.514154 0.0830577 0.0694311 0.477071
          0.12867 0.0712302 0.495567 0.089927 0.0645819 0.43286
          0.120603 -0.00930884 -0.326509 0.15653 -0.00651799 -0.313547
          0.161751 -0.00820863 -0.358657 0.102812 -0.00669444 -0.317028
          0.0863681 -0.0147362 -0.0821753 0.0977345 -0.0202973 -0.106306
          0.073345 -0.0152032 -0.0979749 0.108133 -0.015707 -0.125203
          0.110032 -0.012015 -0.542389 0.0979294 -0.0116895 -0.552479
          0.113639 -0.0132619 -0.522822 0.0964633 -0.0116014 -0.498097
          0.0481888 -0.0126734 -0.4751 0.0444074 -0.00740716 -0.491207
          0.0670694 -0.0106223 -0.51427 0.0510099 -0.0126816 -0.511239
          0.127413 -0.00533943 -0.584442 0.114469 -0.00938039 -0.604088
          0.0974886 -0.0130007 -0.586673 0.10914 -0.00942437 -0.584649
          0.0998671 -0.00980449 -0.59992 0.108992 -0.0122948 -0.606635
          0.112614 -0.0109344 -0.605291 0.114543 -0.00627446 -0.607233
          0.238454 0.0638716 0.176386 0.293523 0.0709724 0.187424
          0.209017 0.0680971 0.26482 0.297489 0.0760461 0.273847
          0.146871 0.00484992 -0.59224 0.156081 0.0102825 -0.594759
          0.150403 0.00210831 -0.583032 0.1297 9.87133e-05 -0.605701
          0.0487702 -0.0173093 -0.0310522 0.0220256 -0.0109318 -0.0199872
          0.046611 -0.0127395 -0.0281452 0.0385235 -0.0105734 -0.0388337
          0.0331346 -0.0139518 -0.311202 0.00727071 -0.0159958 -0.292999
          0.00753595 -0.0138764 -0.340524 0.0101504 -0.0167399 -0.34114
          0.209308 0.0137501 -0.529951 0.210773 0.0188651 -0.544008
          0.177732 0.0129794 -0.566982 0.179652 0.0134379 -0.536532
          -0.0312485 -0.0147393 -0.307478 0.00753595 -0.0138764 -0.340524
          0.00213241 -0.0128252 -0.289606 0.0331346 -0.0139518 -0.311202
          0.189171 0.00696049 -0.46894 0.160387 0.00185887 -0.476443
          0.190515 0.00181038 -0.453267 0.19211 0.00963681 -0.421164
          0.013461 -0.00348063 -0.0158737 0 0 0
          0 0 0 0.0425707 -0.0036721 -0.0331096
          0.166592 0.0943382 0.957611 0.145903 0.092674 0.919067
          0.198685 0.0945086 0.918357 0.137992 0.0809897 0.939445
          0.00270117 -0.00839904 -0.122071 0.0338639 -0.00745357 -0.153426
          -0.00603925 -0.00921344 -0.155231 0.00706416 -0.00670828 -0.137923
          0.0705408 -0.0141881 -0.470342 0.0896834 -0.01342 -0.474792
          0.0894282 -0.0157141 -0.475633 0.0908379 -0.0141968 -0.513139
          0.0987851 0.0961257 0.918228 0.145903 0.092674 0.919067
          0.141182 0.0902565 0.952366 0.117288 0.0824418 0.964402
          -0.0169867 0.0583781 0.508089 0.116441 0.0700373 0.586952
          0.0594662 0.0664747 0.514154 -0.011625 0.0608921 0.603092
          0.264721 0.107082 0.998789 0.294293 0.110603 0.96798
          0.315774 0.113468 1.01396 0.262803 0.108299 1.00082
          0.248309 0.07594 0.362052 0.189954 0.0762057 0.471849
          0.222461 0.0782877 0.41735 0.179831 0.069947 0.368224
          0.303862 0.0937414 0.696053 0.316173 0.0897648 0.554729
          0.319563 0.0916535 0.59525 0.389693 0.0946005 0.585769
          0.359488 0.0745767 0.226421 0.35414 0.0709775 0.22333
          0.267607 0.0706221 0.272312 0.28714 0.0650225 0.175661
          0.215481 0.0468155 0.0269334 0.149682 0.0387796 -0.00792568
          0.126597 0.045842 0.0973606 0.161268 0.0430777 0.00556753
          0.1297 9.87133e-05 -0.605701 0.109555 -6.04137e-05 -0.59853
          0.123019 0.00231494 -0.613989 0.13511 0.00860607 -0.600893
          0.25535 0.057476 0.0852052 0.337898 0.0608716 0.0317743
          0.35358 0.070367 0.118803 0.344346 0.0656273 0.127083
          0.0737005 -0.0132091 -0.182875 0.0441608 -0.0145928 -0.191319
          0.0425612 -0.0137818 -0.154251 0.0450636 -0.0111888 -0.184676
          0.0410239 -0.0180549 -0.471625 0.0326146 -0.0205887 -0.428346
          0.0793457 -0.0182685 -0.45509 0.0782603 -0.0163881 -0.431469
          0.222064 0.0922335 1.0378 0.211651 0.0894452 1.02033
          0.174536 0.092526 0.994842 0.146166 0.0938949 1.01979
          0.299471 0.10761 0.905539 0.247261 0.101271 0.929042
          0.294293 0.110603 0.96798 0.289994 0.106625 0.941827
          0.168513 0.0943187 0.953422 0.216996 0.0946768 0.982276
          0.251644 0.0986556 0.9563 0.204595 0.0961512 0.949524
          0.0689447 -0.0128604 -0.335303 0.0829969 -0.0109702 -0.307637
          0.118728 -0.0117847 -0.327695 0.120859 -0.0118386 -0.3705
          0.00213241 -0.0128252 -0.289606 0.0327647 -0.0109596 -0.337261
          0.00691554 -0.00994981 -0.300825 0.0419592 -0.0119604 -0.304688
          0.0594662 0.0664747 0.514154 0.089927 0.0645819 0.43286
          -0.0211191 0.0597525 0.441455 0.0830577 0.0694311 0.477071
          0.171272 0.0778226 0.475443 0.164032 0.0827915 0.545908
          0.0846141 0.0787166 0.528453 0.13533 0.0805968 0.576606
          0.107318 -0.0140032 -0.607226 0.0987473 -0.0156323 -0.593287
          0.111468 -0.0123134 -0.602749 0.101268 -0.0133311 -0.59472
          0.00379622 2.43316e-05 -0.336744 0.00962742 -0.00493176 -0.396985
          0.0598204 0.00789755 -0.317222 0.0688967 0.00260366 -0.397242
          0.0598204 0.00789755 -0.317222 0.00962742 -0.00493176 -0.396985
          0.0919653 0.00584569 -0.369417 0.0688967 0.00260366 -0.397242
          0.198685 0.0945086 0.918357 0.24564 0.0977652 0.878842
          0.209922 0.09271 0.859342 0.272881 0.101595 0.900105
          0.228106 -0.00172237 -0.461908 0.190515 0.00181038 -0.453267
          0.246998 0.00343406 -0.395046 0.249159 0.00900184 -0.406363
          0.201989 0.0793398 0.615495 0.178795 0.0768006 0.555971
          0.252053 0.0846894 0.591048 0.266947 0.0832243 0.575552
          0.203477 -0.00152772 -0.523147 0.180281 -0.00286856 -0.557066
          0.163709 -0.000792662 -0.549448 0.197509 0.00429118 -0.539182
          0.0998489 -0.00965086 -0.589306 0.109413 -0.00731356 -0.560632
          0.0801628 -0.00822523 -0.571445 0.0992329 -0.00753719 -0.587347
          0.199466 0.0297779 -0.163731 0.23391 0.0395448 -0.0669595
          0.306307 0.0396681 -0.119836 0.243931 0.0382422 -0.120107
          0.290993 0.0932419 0.690529 0.196146 0.0872112 0.6934
          0.302232 0.0971933 0.769835 0.268238 0.0953534 0.771063
          -0.0014031 -0.00719991 -0.0748949 0.0176904 -0.00353163 -0.0727868
          -0.0152809 -0.00864801 -0.0931318 -0.0096781 -0.00610029 -0.0620695
          0.0337389 0.0794948 0.770988 0.100789 0.0866501 0.753101
          0.00350164 0.0727373 0.630668 0.0137284 0.080901 0.667222
          0.0948104 -0.00236865 -0.481413 0.124809 5.29779e-05 -0.483101
          0.134062 0.00401747 -0.464844 0.0945674 0.00212618 -0.424615
          0.0161469 0.00429153 -0.0295316 0.0274925 0.0101144 -0.0279686
          0.0247822 0.00224888 -0.0362098 0.0275312 0.0035501 -0.0515769
          0.389693 0.0946005 0.585769 0.386449 0.0928267 0.549801
          0.384595 0.0956412 0.62046 0.296192 0.0875151 0.559671
          0.296649 0.0901879 0.64528 0.342939 0.0904408 0.603744
          0.378063 0.0956028 0.621907 0.312824 0.0949824 0.693554
          0.0410239 -0.0180549 -0.471625 0.0481888 -0.0126734 -0.4751
          0.0135894 -0.016901 -0.492048 0.00408605 -0.0172167 -0.465409
          -0.000871435 -0.0111273 -0.144184 -0.00603925 -0.00921344 -0.155231
          0.00270117 -0.00839904 -0.122071 0.0125049 -0.0101035 -0.180202
          0.302885 0.0378947 -0.208492 0.304914 0.0388482 -0.161189
          0.240943 0.0331244 -0.188792 0.295685 0.0331866 -0.227221
          0.141147 0.100371 0.938067 0.0987851 0.0961257 0.918228
          0.115205 0.101212 0.962865 0.0838931 0.102285 0.893233
          0.268238 0.0953534 0.771063 0.302232 0.0971933 0.769835
          0.224695 0.0953553 0.846221 0.248601 0.0963202 0.818343
          0.243538 0.045937 -0.0299528 0.324155 0.0518298 -0.0383277
          0.243931 0.0382422 -0.120107 0.257162 0.0452472 -0.0826948
          0.0439374 -0.00694747 -0.551364 0.0742199 -0.00934427 -0.556536
          0.0715879 -0.0107643 -0.570157 0.0648896 -0.00151987 -0.57823
          0.26761 0.10803 1.03604 0.284176 0.113884 1.09618
          0.256253 0.111304 1.03556 0.304568 0.113406 1.05426
          -0.0355365 -0.0141714 -0.273168 -0.0390216 -0.0145598 -0.228437
          0.00402628 -0.0122154 -0.223718 -0.0405949 -0.0121653 -0.220618
          0.268008 0.0960197 0.961097 0.204595 0.0961512 0.949524
          0.201861 0.0919498 0.982176 0.180715 0.0976954 0.945894
          0.247261 0.101271 0.929042 0.246243 0.10426 0.96754
          0.289994 0.106625 0.941827 0.254201 0.103492 0.959385
          0.114044 -0.0144426 -0.516593 0.119042 -0.0136001 -0.539299
          0.132045 -0.0137283 -0.536958 0.137233 -0.0135718 -0.504352
          0.227329 0.00478569 -0.482107 0.160387 0.00185887 -0.476443
          0.190515 0.00181038 -0.453267 0.189171 0.00696049 -0.46894
          0.317504 0.0992951 0.814724 0.293221 0.100629 0.862298
          0.272272 0.0982259 0.871623 0.224695 0.0953553 0.846221
          -0.0129988 -0.0132636 -0.152133 0.0233769 -0.015396 -0.171585
          -0.0116154 -0.0127112 -0.160316 0.0150799 -0.0144693 -0.140254
          0.209308 0.0137501 -0.529951 0.21932 0.00944826 -0.501778
          0.231423 0.0159505 -0.487696 0.179763 0.00577853 -0.528465
          0.296192 0.0875151 0.559671 0.316074 0.0917422 0.635195
          0.384595 0.0956412 0.62046 0.290993 0.0932419 0.690529
          0.24751 0.0759489 0.490251 0.117833 0.067363 0.48689
          0.185822 0.0722326 0.453532 0.185828 0.0648493 0.366047
          0.185822 0.0722326 0.453532 0.089927 0.0645819 0.43286
          0.102322 0.0639772 0.375425 0.15877 0.0654663 0.366123
          0.162043 0.0441457 -0.0289436 0.103092 0.0367894 -0.0397778
          0.163956 0.0390901 -0.0880543 0.159365 0.0442869 -0.00337952
          0.198498 0.0519682 0.0225208 0.219222 0.0486119 -0.00572604
          0.262343 0.0583567 0.0517336 0.159365 0.0442869 -0.00337952
          -0.0417754 -0.0127901 -0.19048 -0.0048344 -0.0120173 -0.183844
          0.00402628 -0.0122154 -0.223718 -0.0405949 -0.0121653 -0.220618
          0.130792 -0.000960639 -0.550484 0.152816 0.00527735 -0.573116
          0.15353 0.000570539 -0.562779 0.127413 -0.00533943 -0.584442
          0.049659 -0.0222241 -0.516821 0.0410239 -0.0180549 -0.471625
          0.0535114 -0.0187996 -0.526146 0.0172693 -0.0198767 -0.502773
          -0.00710968 0.0326024 0.0350586 -0.00934244 0.0266212 -0.0334379
          0.0611862 0.0391504 0.0429092 -0.0157458 0.0323379 0.0389614
          0.11472 -0.0137039 -0.576103 0.128281 -0.014775 -0.553089
          0.112709 -0.0131223 -0.570554 0.0979294 -0.0116895 -0.552479
          0.137254 -0.010044 -0.578733 0.110311 -0.011447 -0.600512
          0.119123 -0.00951806 -0.581108 0.118662 -0.0118541 -0.601902
          0.261294 0.0163032 -0.376382 0.177392 0.0114892 -0.3605
          0.216692 0.0189193 -0.322874 0.19211 0.00963681 -0.421164
          0.114044 -0.0144426 -0.516593 0.137233 -0.0135718 -0.504352
          0.132045 -0.0137283 -0.536958 0.130132 -0.0142512 -0.513988
          0.0701937 -0.00792453 -0.467995 0.0261287 -0.0124198 -0.465925
          0.0657571 -0.0031679 -0.428833 0.026183 -0.0140618 -0.460937
          0.378097 0.0840946 0.326979 0.300097 0.0831428 0.404996
          0.386422 0.0887192 0.408722 0.345247 0.0849373 0.333469
          0.00069831 -0.0122989 -0.0909205 0.0303649 -0.0119405 -0.0807488
          0.0347523 -0.014953 -0.10816 0.0341126 -0.0125083 -0.114873
          0.137233 -0.0135718 -0.504352 0.163383 -0.0132896 -0.490656
          0.159245 -0.0136275 -0.519906 0.130132 -0.0142512 -0.513988
          0.181436 0.0819169 0.673158 0.27145 0.0922475 0.715046
          0.296649 0.0901879 0.64528 0.252053 0.0846894 0.591048
          0.0594662 0.0664747 0.514154 0.120286 0.0757005 0.587085
          0.178795 0.0768006 0.555971 0.12867 0.0712302 0.495567
          0.182741 0.0456925 0.0767849 0.215481 0.0468155 0.0269334
          0.193616 0.0487549 0.0843481 0.251511 0.0450642 -0.00310106
          0.328598 0.0951257 0.835047 0.298834 0.0968458 0.818175
          0.27271 0.0964002 0.88158 0.258085 0.0955726 0.819384
          0.0159457 -0.000758185 -0.0663928 0.0048109 -0.00256661 -0.0414316
          0.00965275 -0.00343188 -0.0436944 0.0275312 0.0035501 -0.0515769
          0.0439374 -0.00694747 -0.551364 0.0271315 -0.00354039 -0.522255
          0.0559069 -0.00708235 -0.53041 0.0398111 0.00126769 -0.547039
          0.109208 0.0572903 0.209665 0.0876554 0.0583691 0.26528
          0.172426 0.0599948 0.182148 0.143321 0.0656661 0.27956
          0.172426 0.0599948 0.182148 0.143321 0.0656661 0.27956
          0.209017 0.0680971 0.26482 0.192891 0.0664681 0.226339
          0.172426 0.0599948 0.182148 0.0876554 0.0583691 0.26528
          0.209017 0.0680971 0.26482 0.143321 0.0656661 0.27956
          0.0737005 -0.0132091 -0.182875 0.0825549 -0.00948852 -0.155184
          0.130472 -0.0123001 -0.19356 0.0975373 -0.00974557 -0.192492
          0.243538 0.045937 -0.0299528 0.324155 0.0518298 -0.0383277
          0.337898 0.0608716 0.0317743 0.332187 0.0577736 0.0357389
          -0.0116154 -0.0127112 -0.160316 -0.00275804 -0.0140178 -0.20773
          -0.0048344 -0.0120173 -0.183844 0.0171834 -0.0131376 -0.175025
          0.109208 0.0572903 0.209665 0.143321 0.0656661 0.27956
          0.172426 0.0599948 0.182148 0.192891 0.0664681 0.226339
          0.0125049 -0.0101035 -0.180202 0.0698431 -0.00822036 -0.18142
          0.0450636 -0.0111888 -0.184676 0.0444503 -0.00882003 -0.221329
          0.182105 0.0194951 -0.264953 0.200648 0.0214733 -0.214665
          0.230788 0.0275463 -0.219076 0.199466 0.0297779 -0.163731
          0.130885 0.0226921 -0.239709 0.137117 0.0163716 -0.314393
          0.0826533 0.00922241 -0.323018 0.167838 0.0206599 -0.322149
          0.341816 0.112732 0.920067 0.341479 0.110086 0.924588
          0.289994 0.106625 0.941827 0.332879 0.110851 0.961753
          0.0259847 -0.00747016 -0.269956 -0.000402004 -0.0101472 -0.218544
          0.0491411 -0.00599707 -0.241803 0.00022389 -0.00790277 -0.232947
          0.0700909 0.0705525 0.428527 0.150391 0.0775013 0.461281
          0.0846141 0.0787166 0.528453 0.0808134 0.0722704 0.485717
          -0.0312485 -0.0147393 -0.307478 0.00727071 -0.0159958 -0.292999
          -0.0273646 -0.016129 -0.335138 0.0101504 -0.0167399 -0.34114
          -0.00310213 -0.00244935 -0.0142378 -0.0227859 -0.00193359 -0.0184177
          0.00020316 -0.00504482 -0.026493 -0.0270274 -0.00466195 -0.0349902
          0.27145 0.0922475 0.715046 0.24719 0.0906245 0.746051
          0.293472 0.0994953 0.79386 0.204122 0.0875869 0.77037
          0.31346 0.0448283 -0.141522 0.240943 0.0331244 -0.188792
          0.239664 0.0342104 -0.217622 0.302885 0.0378947 -0.208492
          0 0 0 0 0 0
          0 0 0 0.000235171 0.000333111 0.000284983
          0.0998571 -0.0152705 -0.572757 0.102378 -0.0147507 -0.539178
          0.118801 -0.0139847 -0.559433 0.0821186 -0.0163022 -0.547193
          0.0540152 0.00252499 -0.0946214 0.0680056 -0.0011597 -0.0994993
          0.104426 0.00262799 -0.127086 0.0809459 0.00664006 -0.0918569
          -0.00896293 -0.00640648 -0.0407497 -0.0292533 -0.00563442 -0.0335524
          -0.0116991 -0.00495655 -0.029839 -0.0075844 -0.00783516 -0.0507497
          0.0590884 -0.0139826 -0.503316 0.0701937 -0.00792453 -0.467995
          0.0817732 -0.00910394 -0.520643 0.106478 -0.00164808 -0.472928
          0.10082 -0.00345068 -0.604568 0.0865935 -0.00428175 -0.59029
          0.104453 -0.00438932 -0.60791 0.0923287 0.000732152 -0.600877
          -0.0402609 -0.0132542 -0.172689 -0.038764 -0.0152156 -0.219229
          -0.0410849 -0.0131109 -0.178468 -0.00275804 -0.0140178 -0.20773
          0.222148 0.100112 0.994249 0.214788 0.10492 1.00424
          0.166592 0.0943382 0.957611 0.209054 0.100802 0.973437
          0.196146 0.0872112 0.6934 0.100937 0.0804062 0.671573
          0.100789 0.0866501 0.753101 0.127105 0.0876495 0.701116
          0.22275 0.104812 1.04279 0.216442 0.11019 1.08311
          0.250416 0.112338 1.09087 0.260994 0.10922 1.08958
          0.163842 0.0365633 -0.0716904 0.161268 0.0430777 0.00556753
          0.100967 0.0376856 -0.0124784 0.0692071 0.0290328 -0.0736489
          0.118801 -0.0139847 -0.559433 0.132045 -0.0137283 -0.536958
          0.12387 -0.0137173 -0.55443 0.0937691 -0.0138029 -0.549149
          0.0931616 -0.0105415 -0.0987839 0.108133 -0.015707 -0.125203
          0.073345 -0.0152032 -0.0979749 0.105846 -0.0102429 -0.126556
          0.0688902 0.018373 -0.205679 -0.00726708 0.0149956 -0.161331
          0.0991005 0.026316 -0.14341 0.0689865 0.0290619 -0.0831016
          0.16371 0.00418987 -0.421372 0.190515 0.00181038 -0.453267
          0.122207 0.000471272 -0.462474 0.160387 0.00185887 -0.476443
          0.127413 -0.00533943 -0.584442 0.146871 0.00484992 -0.59224
          0.150403 0.00210831 -0.583032 0.127146 -0.00193784 -0.605756
          0.359488 0.0745767 0.226421 0.297489 0.0760461 0.273847
          0.369769 0.0801117 0.315608 0.368693 0.0796129 0.22943
          0.0188405 -0.00834344 -0.0945442 0.0508293 -0.0107902 -0.0918145
          0.0341126 -0.0125083 -0.114873 0.0345143 -0.0101269 -0.131573
          0.209017 0.0680971 0.26482 0.267607 0.0706221 0.272312
          0.15796 0.0626744 0.270179 0.238454 0.0638716 0.176386
          0.00020316 -0.00504482 -0.026493 0.016022 -0.0112065 -0.0373548
          0.021377 -0.0104381 -0.0359205 0.00765602 -0.0064143 -0.0148698
          0.268238 0.0953534 0.771063 0.272704 0.0935405 0.736088
          0.186477 0.0935983 0.764036 0.216483 0.0943034 0.778517
          0.171272 0.0778226 0.475443 0.0595115 0.0667901 0.408272
          0.150391 0.0775013 0.461281 0.156872 0.0725458 0.373258
          0.109724 -0.0136582 -0.587157 0.118768 -0.0128463 -0.594283
          0.11977 -0.0145272 -0.59394 0.124799 -0.0135258 -0.574159
          0.296649 0.0901879 0.64528 0.378063 0.0956028 0.621907
          0.316074 0.0917422 0.635195 0.378687 0.0993396 0.685729
          0.0737005 -0.0132091 -0.182875 0.101464 -0.0152337 -0.183591
          0.130472 -0.0123001 -0.19356 0.0825549 -0.00948852 -0.155184
          0.0558778 0.0858855 0.622921 0.0754783 0.0822369 0.620429
          0.0201388 0.0872946 0.682538 -0.00151333 0.0741555 0.554507
          0.00405932 5.82853e-05 -0.0225702 0.00220275 0.00061746 -0.00693662
          0.00322887 -0.000798352 -0.00798877 0.0161469 0.00429153 -0.0295316
          0.0290398 -0.0139909 -0.0689169 0.021377 -0.0104381 -0.0359205
          0.0126215 -0.00998045 -0.0546027 0.016022 -0.0112065 -0.0373548
          0.184437 0.0145785 -0.571365 0.156081 0.0102825 -0.594759
          0.150403 0.00210831 -0.583032 0.146871 0.00484992 -0.59224
          0.246243 0.10426 0.96754 0.262803 0.108299 1.00082
          0.294293 0.110603 0.96798 0.264721 0.107082 0.998789
          0.0966303 -0.0151294 -0.230152 0.0737005 -0.0132091 -0.182875
          0.0755101 -0.0174151 -0.181463 0.101464 -0.0152337 -0.183591
          0.164468 0.103075 0.903438 0.204595 0.0961512 0.949524
          0.216196 0.0956329 0.913168 0.231761 0.0961351 0.92421
          0.0487007 -0.016142 -0.343334 0.0386203 -0.0180922 -0.317802
          0.00727071 -0.0159958 -0.292999 0.0101504 -0.0167399 -0.34114
          0.073427 -0.0150233 -0.582338 0.0554554 -0.00994833 -0.555061
          0.074161 -0.0108072 -0.582806 0.0885485 -0.0107869 -0.567941
          0.152816 0.00527735 -0.573116 0.146871 0.00484992 -0.59224
          0.150403 0.00210831 -0.583032 0.127413 -0.00533943 -0.584442
          0.0594662 0.0664747 0.514154 0.178795 0.0768006 0.555971
          0.120286 0.0757005 0.587085 0.116441 0.0700373 0.586952
          -0.0014031 -0.00719991 -0.0748949 0.00553736 -0.00949131 -0.0872548
          0.0188405 -0.00834344 -0.0945442 -0.0075844 -0.00783516 -0.0507497
          0.0334735 -0.00317254 -0.125435 0.0540152 0.00252499 -0.0946214
          0.0667859 -0.00492085 -0.132948 0.0751999 0.00105064 -0.137564
          0.0581534 -0.0202491 -0.482959 0.0410239 -0.0180549 -0.471625
          0.0118425 -0.0240072 -0.475595 0.0326146 -0.0205887 -0.428346
          -0.0421975 -0.0121278 -0.149963 -0.00603925 -0.00921344 -0.155231
          -0.000871435 -0.0111273 -0.144184 0.0125049 -0.0101035 -0.180202
          0.282294 0.0987585 0.988705 0.336045 0.105767 1.0392
          0.298929 0.101482 1.04991 0.262572 0.0985842 1.02395
          -0.00896293 -0.00640648 -0.0407497 -0.0075844 -0.00783516 -0.0507497
          -0.0112473 -0.00867774 -0.0676795 -0.0347885 -0.00779776 -0.0616949
          0.135072 0.0117331 -0.321953 0.135405 0.00710339 -0.365193
          0.11452 0.00584169 -0.393886 0.177392 0.0114892 -0.3605
          -0.0211321 -0.00227591 -0.0131021 -0.00441511 -0.00222472 -0.0122332
          -0.0292533 -0.00563442 -0.0335524 -0.0254388 -0.00647699 -0.0297218
          0.387982 0.0910084 0.486622 0.386449 0.0928267 0.549801
          0.298245 0.0824615 0.466509 0.381624 0.0883173 0.476281
          0.130792 -0.000960639 -0.550484 0.135703 0.0025933 -0.49578
          0.0817732 -0.00910394 -0.520643 0.110675 -0.00367405 -0.515213
          0.0974886 -0.0130007 -0.586673 0.120205 -0.0074673 -0.574662
          0.0885485 -0.0107869 -0.567941 0.0987772 -0.0110197 -0.589217
          0.185822 0.0722326 0.453532 0.12867 0.0712302 0.495567
          0.189954 0.0762057 0.471849 0.102322 0.0639772 0.375425
          0.188102 -0.00147667 -0.451478 0.205526 0.00822017 -0.38119
          0.246998 0.00343406 -0.395046 0.190515 0.00181038 -0.453267
          0.100789 0.0866501 0.753101 0.0337389 0.0794948 0.770988
          0.0433159 0.0880509 0.781563 0.0137284 0.080901 0.667222
          0.303862 0.0937414 0.696053 0.260232 0.0884996 0.60553
          0.316173 0.0897648 0.554729 0.389693 0.0946005 0.585769
          -0.0272993 0.0550045 0.375903 0.0519335 0.0584848 0.350848
          -0.0213389 0.0540566 0.325313 -0.0211191 0.0597525 0.441455
          0.086844 0.0241004 -0.145402 0.16095 0.0298942 -0.151939
          0.135582 0.0211458 -0.209163 0.137752 0.021662 -0.228365
          0.00213241 -0.0128252 -0.289606 0.00691554 -0.00994981 -0.300825
          -0.0364058 -0.0121714 -0.271789 0.0242242 -0.010768 -0.269019
          0.120603 -0.00930884 -0.326509 0.161751 -0.00820863 -0.358657
          0.123047 -0.00843312 -0.371754 0.102812 -0.00669444 -0.317028
          0.00069831 -0.0122989 -0.0909205 -0.0112473 -0.00867774 -0.0676795
          0.0126215 -0.00998045 -0.0546027 0.0303649 -0.0119405 -0.0807488
          0.123047 -0.00843312 -0.371754 0.0834431 -0.0103708 -0.372283
          0.0754448 -0.00761653 -0.348043 0.084756 -0.00847522 -0.397233
          0.168288 0.0375999 -0.0873447 0.120774 0.030637 -0.123642
          0.185682 0.0349137 -0.171147 0.14323 0.027128 -0.191288
          0.289816 0.0991194 0.922122 0.282294 0.0987585 0.988705
          0.251644 0.0986556 0.9563 0.292096 0.102758 0.964551
          0.258775 0.10035 0.992022 0.282294 0.0987585 0.988705
          0.292096 0.102758 0.964551 0.251644 0.0986556 0.9563
          0.14323 0.027128 -0.191288 0.173823 0.0246422 -0.254984
          0.239664 0.0342104 -0.217622 0.204548 0.0340728 -0.161825
          0.0887729 0.0367918 0.00698102 0.0359137 0.0362804 0.0463107
          0.126597 0.045842 0.0973606 0.0583242 0.0419076 0.088712
          0.248601 0.0963202 0.818343 0.209922 0.09271 0.859342
          0.272881 0.101595 0.900105 0.224695 0.0953553 0.846221
          0.329085 0.113175 1.04334 0.284176 0.113884 1.09618
          0.304568 0.113406 1.05426 0.327232 0.115343 1.08362
          0.118528 -0.0149838 -0.308486 0.0927891 -0.0138988 -0.27258
          0.150518 -0.0153733 -0.270885 0.152768 -0.0128705 -0.286097
          0.182105 0.0194951 -0.264953 0.135072 0.0117331 -0.321953
          0.215632 0.0156658 -0.31289 0.187876 0.0115894 -0.319623
          0.0832282 0.0038756 -0.376847 0.0850406 -0.000287921 -0.429248
          0.122749 0.0083212 -0.401283 0.0657571 -0.0031679 -0.428833
          -0.0268066 0.0509021 0.288966 -0.0276234 0.0433722 0.194733
          0.060929 0.0538991 0.266939 0.019031 0.0478604 0.222628
          0.189171 0.00696049 -0.46894 0.21932 0.00944826 -0.501778
          0.179763 0.00577853 -0.528465 0.18131 0.00998128 -0.509551
          0.164032 0.0827915 0.545908 0.150391 0.0775013 0.461281
          0.237426 0.086149 0.538209 0.171272 0.0778226 0.475443
          -0.0280384 -0.00847588 -0.0277801 -0.0182313 -0.00555993 -0.0122023
          -0.00551033 -0.00413169 -0.0251656 -0.029149 -0.00963848 -0.045854
          0.0337169 0.0592017 0.420383 0.089927 0.0645819 0.43286
          -0.0211191 0.0597525 0.441455 0.0594662 0.0664747 0.514154
          0.269623 0.0833918 0.439675 0.237426 0.086149 0.538209
          0.150391 0.0775013 0.461281 0.222461 0.0782877 0.41735
          0.203901 0.0897619 1.07521 0.222064 0.0922335 1.0378
          0.161148 0.0923967 1.06649 0.146166 0.0938949 1.01979
          0.0782603 -0.0163881 -0.431469 0.0615418 -0.0146903 -0.401189
          0.0228868 -0.0175449 -0.410755 0.0406751 -0.0188984 -0.381652
          0.0734512 0.0151683 -0.243691 0.045572 0.0183116 -0.184803
          -0.0124161 0.00998805 -0.238023 -0.0158773 0.0100494 -0.249103
          0.118801 -0.0139847 -0.559433 0.114044 -0.0144426 -0.516593
          0.132045 -0.0137283 -0.536958 0.0937691 -0.0138029 -0.549149
          0.131259 -0.0138379 -0.510261 0.137233 -0.0135718 -0.504352
          0.114044 -0.0144426 -0.516593 0.10645 -0.0155909 -0.489206
          0.0863681 -0.0147362 -0.0821753 0.0508293 -0.0107902 -0.0918145
          0.073345 -0.0152032 -0.0979749 0.0423499 -0.0114026 -0.055377
          0.316173 0.0897648 0.554729 0.260232 0.0884996 0.60553
          0.199691 0.0849973 0.580698 0.271522 0.0837749 0.481467
          0.0480306 -0.0184858 -0.532774 0.0817732 -0.00910394 -0.520643
          0.0590884 -0.0139826 -0.503316 0.0261287 -0.0124198 -0.465925
          0.0290398 -0.0139909 -0.0689169 0.0381607 -0.0153411 -0.0506569
          0.0303649 -0.0119405 -0.0807488 0.021377 -0.0104381 -0.0359205
          0.0638979 -0.00680671 -0.289187 0.0615568 -0.00927245 -0.319052
          0.0259847 -0.00747016 -0.269956 0.0343041 -0.00708722 -0.315142
          0.24719 0.0906245 0.746051 0.260233 0.0868215 0.649864
          0.148895 0.0762001 0.66868 0.181436 0.0819169 0.673158
          0.271522 0.0837749 0.481467 0.248309 0.07594 0.362052
          0.300097 0.0831428 0.404996 0.301397 0.0779443 0.365474
          0.15053 0.0943226 0.984227 0.146166 0.0938949 1.01979
          0.1552 0.0906953 1.03528 0.111359 0.103038 1.02849
          0.138138 -0.0232528 -0.593319 0.130566 -0.0141443 -0.594765
          0.135136 -0.0161269 -0.592202 0.120838 -0.0201982 -0.603292
          0.288612 0.101508 1.08839 0.239193 0.0983216 1.08158
          0.256621 0.0931621 1.063 0.222064 0.0922335 1.0378
          0.0407461 -0.00197492 -0.0545277 0.00965275 -0.00343188 -0.0436944
          0.0165473 -0.00617679 -0.0509829 0.0114538 -0.00385626 -0.0309387
          -0.02311 -0.0128779 -0.364239 -0.0308071 -0.0103616 -0.3191
          -0.0309792 -0.01305 -0.314827 0.0327647 -0.0109596 -0.337261
          0.153439 0.0976263 0.896305 0.141147 0.100371 0.938067
          0.204595 0.0961512 0.949524 0.216196 0.0956329 0.913168
          0.164468 0.103075 0.903438 0.180715 0.0976954 0.945894
          0.204595 0.0961512 0.949524 0.231761 0.0961351 0.92421
          0.0967532 0.0787728 0.992186 0.168881 0.100418 1.06673
          0.115032 0.0843161 1.07455 0.14422 0.101679 1.03743
          0.177732 0.0129794 -0.566982 0.146871 0.00484992 -0.59224
          0.150403 0.00210831 -0.583032 0.152816 0.00527735 -0.573116
          0.159421 -0.0147054 -0.329643 0.118528 -0.0149838 -0.308486
          0.150518 -0.0153733 -0.270885 0.152768 -0.0128705 -0.286097
          0.12962 -0.0179958 -0.581327 0.11472 -0.0137039 -0.576103
          0.12041 -0.0170253 -0.596519 0.147899 -0.0184525 -0.564006
          0.0863681 -0.0147362 -0.0821753 0.0977345 -0.0202973 -0.106306
          0.0605018 -0.0184435 -0.0762623 0.073345 -0.0152032 -0.0979749
          0.154929 -0.0155281 -0.542343 0.159944 -0.0163887 -0.514976
          0.128281 -0.014775 -0.553089 0.113639 -0.0132619 -0.522822
          0.359992 0.10765 0.826851 0.293472 0.0994953 0.79386
          0.299233 0.103915 0.847262 0.272881 0.101595 0.900105
          0.147899 -0.0184525 -0.564006 0.159944 -0.0163887 -0.514976
          0.152257 -0.0186162 -0.540096 0.128281 -0.014775 -0.553089
          0.272434 0.0195054 -0.327936 0.177392 0.0114892 -0.3605
          0.216692 0.0189193 -0.322874 0.261294 0.0163032 -0.376382
          0.272434 0.0195054 -0.327936 0.216692 0.0189193 -0.322874
          0.267948 0.021667 -0.358312 0.261294 0.0163032 -0.376382
          0.261294 0.0163032 -0.376382 0.19211 0.00963681 -0.421164
          0.267948 0.021667 -0.358312 0.254645 0.0175491 -0.410354
          0.0171833 0.0535705 0.315495 0.0337169 0.0592017 0.420383
          0.0519335 0.0584848 0.350848 -0.0272993 0.0550045 0.375903
          0.0188405 -0.00834344 -0.0945442 0.00553736 -0.00949131 -0.0872548
          0.0256855 -0.00877047 -0.0769447 -0.0075844 -0.00783516 -0.0507497
          0.0732646 -0.0135404 -0.135977 0.0508293 -0.0107902 -0.0918145
          0.105846 -0.0102429 -0.126556 0.0695339 -0.0077584 -0.112705
          0.135072 0.0117331 -0.321953 0.0948509 0.00960777 -0.330541
          0.0734512 0.0151683 -0.243691 0.0944564 0.0146023 -0.27546
          0.256253 0.111304 1.03556 0.250416 0.112338 1.09087
          0.227293 0.112242 1.05647 0.284176 0.113884 1.09618
          0.0943749 -0.0110955 -0.459335 0.0674725 -0.0100434 -0.47284
          0.049198 -0.0109875 -0.426503 0.0769836 -0.0103014 -0.421409
          0.121685 -0.0166017 -0.597055 0.112241 -0.0126718 -0.604121
          0.113746 -0.0145598 -0.606765 0.107566 -0.0128015 -0.607479
          0.240365 0.0719055 0.361752 0.239744 0.0627337 0.215118
          0.267607 0.0706221 0.272312 0.27609 0.0684555 0.293154
          0.0998671 -0.00980449 -0.59992 0.110097 -0.00503266 -0.59666
          0.114543 -0.00627446 -0.607233 0.112614 -0.0109344 -0.605291
          0.0881059 -0.0270881 -0.606613 0.102214 -0.0221425 -0.614932
          0.0984941 -0.0173699 -0.601281 0.0925816 -0.0217264 -0.601484
          0.0647985 -0.0129255 -0.545036 0.0665471 -0.0159942 -0.505201
          0.0908379 -0.0141968 -0.513139 0.0510099 -0.0126816 -0.511239
          -0.0036987 0.0700438 0.47369 0.0846141 0.0787166 0.528453
          0.0558778 0.0858855 0.622921 -0.00151333 0.0741555 0.554507
          0.373022 0.0833251 0.422228 0.298245 0.0824615 0.466509
          0.381656 0.0918153 0.550721 0.381624 0.0883173 0.476281
          0.252053 0.0846894 0.591048 0.381656 0.0918153 0.550721
          0.293499 0.0841291 0.540835 0.296192 0.0875151 0.559671
          0.205526 0.00822017 -0.38119 0.177392 0.0114892 -0.3605
          0.272434 0.0195054 -0.327936 0.261294 0.0163032 -0.376382
          0.25535 0.057476 0.0852052 0.337898 0.0608716 0.0317743
          0.262343 0.0583567 0.0517336 0.35358 0.070367 0.118803
          0.114044 -0.0144426 -0.516593 0.0937691 -0.0138029 -0.549149
          0.118801 -0.0139847 -0.559433 0.102378 -0.0147507 -0.539178
          0.389693 0.0946005 0.585769 0.386449 0.0928267 0.549801
          0.296192 0.0875151 0.559671 0.316173 0.0897648 0.554729
          0.0254341 -0.00812965 -0.517394 0.0444074 -0.00740716 -0.491207
          0.0559069 -0.00708235 -0.53041 0.0271315 -0.00354039 -0.522255
          0.137117 0.0163716 -0.314393 0.115975 0.0128998 -0.314557
          0.0919653 0.00584569 -0.369417 0.155675 0.013872 -0.375313
          0.130132 -0.0142512 -0.513988 0.113639 -0.0132619 -0.522822
          0.0908379 -0.0141968 -0.513139 0.0896834 -0.01342 -0.474792
          0.101199 -0.0169444 -0.331952 0.0798418 -0.0176947 -0.264202
          0.0679743 -0.0153294 -0.306575 0.0490511 -0.0173693 -0.279308
          0.247533 0.0529727 0.133991 0.228849 0.0575983 0.213013
          0.315243 0.0628785 0.222664 0.267528 0.060776 0.191131
          0.148758 0.0957216 0.968415 0.115205 0.101212 0.962865
          0.141147 0.100371 0.938067 0.115205 0.101212 0.962865
          0.0615568 -0.00927245 -0.319052 0.0327647 -0.0109596 -0.337261
          0.0424382 -0.00742649 -0.369547 0.0834431 -0.0103708 -0.372283
          0.132813 0.0247032 -0.151924 0.045572 0.0183116 -0.184803
          0.135582 0.0211458 -0.209163 0.0640031 0.0178233 -0.205846
          -0.0431464 -0.0115306 -0.135303 -0.00603925 -0.00921344 -0.155231
          0.00270117 -0.00839904 -0.122071 -0.000871435 -0.0111273 -0.144184
          0.0979294 -0.0116895 -0.552479 0.12387 -0.0137173 -0.55443
          0.128281 -0.014775 -0.553089 0.113639 -0.0132619 -0.522822
          0.0817732 -0.00910394 -0.520643 0.0480306 -0.0184858 -0.532774
          0.0871718 -0.0133081 -0.56754 0.0970682 -0.00880874 -0.546836
          0.0255033 0.00090171 -0.0220747 0 0 0
          0.0105776 0.00504842 -0.00736282 0.013461 -0.00348063 -0.0158737
          0.0091938 0.0639893 0.725891 0.0746714 0.0731584 0.661841
          0.0173037 0.072694 0.712974 0.0803818 0.0694965 0.739584
          -0.0388781 -0.0110417 -0.128993 -0.0402609 -0.0132542 -0.172689
          -0.0398427 -0.0112934 -0.139971 -0.0116154 -0.0127112 -0.160316
          0.23391 0.0395448 -0.0669595 0.149682 0.0387796 -0.00792568
          0.215481 0.0468155 0.0269334 0.163842 0.0365633 -0.0716904
          0.267607 0.0706221 0.272312 0.359488 0.0745767 0.226421
          0.369769 0.0801117 0.315608 0.361653 0.0757261 0.29799
          0.102285 -0.00418842 -0.60267 0.104248 -0.00998517 -0.60549
          0.119576 -0.00659314 -0.600207 0.106077 -0.011639 -0.601787
          0.0598204 0.00789755 -0.317222 -0.00630596 0.0047323 -0.294327
          0.00379622 2.43316e-05 -0.336744 0.000364435 0.000322241 -0.360076
          -0.0276234 0.0433722 0.194733 -0.0227431 0.040404 0.146911
          0.0939533 0.0506828 0.181751 0.0443352 0.0428983 0.124246
          0.124799 -0.0135258 -0.574159 0.148566 -0.0137518 -0.555601
          0.12387 -0.0137173 -0.55443 0.132045 -0.0137283 -0.536958
          0.146451 -0.00498123 -0.540931 0.124087 -0.00488907 -0.541258
          0.160387 0.00185887 -0.476443 0.176831 0.00185096 -0.511452
          -0.0150094 -0.0166441 -0.254014 0.00727071 -0.0159958 -0.292999
          -0.0360913 -0.0157609 -0.267026 0.0157321 -0.0143898 -0.251108
          0.394862 0.0940187 0.563365 0.319563 0.0916535 0.59525
          0.316173 0.0897648 0.554729 0.389693 0.0946005 0.585769
          0.199691 0.0849973 0.580698 0.164032 0.0827915 0.545908
          0.190968 0.0892035 0.6277 0.237426 0.086149 0.538209
          0.0769836 -0.0103014 -0.421409 0.0772562 -0.00829571 -0.449559
          0.084756 -0.00847522 -0.397233 0.120268 -0.0101949 -0.41947
          0.289994 0.106625 0.941827 0.254201 0.103492 0.959385
          0.332879 0.110851 0.961753 0.336675 0.107926 0.957762
          0.0817732 -0.00910394 -0.520643 0.0261287 -0.0124198 -0.465925
          0.0352309 -0.0128731 -0.503908 0.0948104 -0.00236865 -0.481413
          0.0974886 -0.0130007 -0.586673 0.0970682 -0.00880874 -0.546836
          0.0885485 -0.0107869 -0.567941 0.120205 -0.0074673 -0.574662
          0.220738 0.0983866 1.03044 0.22275 0.104812 1.04279
          0.19409 0.0993376 1.07089 0.165145 0.0940771 1.01785
          0.301397 0.0779443 0.365474 0.248309 0.07594 0.362052
          0.379682 0.0859182 0.404263 0.378097 0.0840946 0.326979
          0.217678 0.0968129 0.834652 0.216196 0.0956329 0.913168
          0.27271 0.0964002 0.88158 0.209525 0.0981286 0.870041
          0.0864608 -0.0150371 -0.385583 0.0487007 -0.016142 -0.343334
          0.0311669 -0.015471 -0.372513 0.0406751 -0.0188984 -0.381652
          0.0975373 -0.00974557 -0.192492 0.0862894 -0.00400199 -0.166307
          0.134593 -0.00711215 -0.20878 0.0962148 -0.00593256 -0.21049
          -0.02912 -0.0050596 -0.0467611 -0.00896293 -0.00640648 -0.0407497
          -0.0112473 -0.00867774 -0.0676795 -0.0347885 -0.00779776 -0.0616949
          -0.0169867 0.0583781 0.508089 0.0594662 0.0664747 0.514154
          -0.00848475 0.0649001 0.590354 -0.011625 0.0608921 0.603092
          0.0311669 -0.015471 -0.372513 0.00753595 -0.0138764 -0.340524
          0.0331346 -0.0139518 -0.311202 0.0689447 -0.0128604 -0.335303
          0.177759 0.0101018 -0.451713 0.189171 0.00696049 -0.46894
          0.147387 0.00173919 -0.514186 0.18131 0.00998128 -0.509551
          0.00379622 2.43316e-05 -0.336744 0.0688967 0.00260366 -0.397242
          0.0598204 0.00789755 -0.317222 0.000364435 0.000322241 -0.360076
          0.120177 0.0786899 0.945524 0.102717 0.0704512 0.892847
          0.0792191 0.0683723 0.922832 0.137992 0.0809897 0.939445
          0.00156437 -0.00480447 -0.0194943 -0.00310213 -0.00244935 -0.0142378
          0.00906148 -0.00396656 -0.00244451 0.00765602 -0.0064143 -0.0148698
          0.254645 0.0175491 -0.410354 0.177759 0.0101018 -0.451713
          0.249124 0.0204591 -0.440537 0.189171 0.00696049 -0.46894
          0.104713 -0.0169045 -0.601903 0.106077 -0.011639 -0.601787
          0.107566 -0.0128015 -0.607479 0.0974821 -0.012431 -0.598996
          0.113901 -0.0112095 -0.282981 0.147637 -0.00749906 -0.261287
          0.101176 -0.00783675 -0.284289 0.0910404 -0.00871713 -0.248485
          0.219222 0.0486119 -0.00572604 0.257162 0.0452472 -0.0826948
          0.274803 0.0541389 -0.0163549 0.243538 0.045937 -0.0299528
          0.209017 0.0680971 0.26482 0.143321 0.0656661 0.27956
          0.212417 0.073621 0.315974 0.192891 0.0664681 0.226339
          0.0782603 -0.0163881 -0.431469 0.108289 -0.0142089 -0.434857
          0.0615418 -0.0146903 -0.401189 0.0864608 -0.0150371 -0.385583
          0.0801628 -0.00822523 -0.571445 0.0973108 -0.00874778 -0.600482
          0.0890549 -0.00504081 -0.59431 0.076987 -0.00403773 -0.579963
          0.0101504 -0.0167399 -0.34114 -0.0273646 -0.016129 -0.335138
          -0.0180461 -0.0179976 -0.382811 0.00138579 -0.0197199 -0.365311
          0.369769 0.0801117 0.315608 0.301397 0.0779443 0.365474
          0.378097 0.0840946 0.326979 0.297489 0.0760461 0.273847
          0.104713 -0.0169045 -0.601903 0.1081 -0.0209799 -0.606824
          0.0925816 -0.0217264 -0.601484 0.106885 -0.0166778 -0.610537
          0.0425612 -0.0137818 -0.154251 0.0341126 -0.0125083 -0.114873
          0.0732646 -0.0135404 -0.135977 0.0345143 -0.0101269 -0.131573
          0.168513 0.0943187 0.953422 0.222148 0.100112 0.994249
          0.216313 0.0984366 0.955905 0.216996 0.0946768 0.982276
          0.00270117 -0.00839904 -0.122071 0.00706416 -0.00670828 -0.137923
          -0.0152809 -0.00864801 -0.0931318 0.00486514 -0.00518339 -0.0966911
          0.289816 0.0991194 0.922122 0.272272 0.0982259 0.871623
          0.27271 0.0964002 0.88158 0.35898 0.100297 0.86023
          0.0483354 -0.00442074 -0.55277 0.0554554 -0.00994833 -0.555061
          0.0391397 -0.00499197 -0.525882 0.0801628 -0.00822523 -0.571445
          -0.0228156 -0.00921044 -0.364747 -0.0308071 -0.0103616 -0.3191
          0.0327647 -0.0109596 -0.337261 0.0119736 -0.00702655 -0.341033
          0.133888 -0.0146771 -0.401768 0.124448 -0.0143225 -0.471353
          0.108289 -0.0142089 -0.434857 0.16614 -0.0138481 -0.427097
          0.389693 0.0946005 0.585769 0.296192 0.0875151 0.559671
          0.260232 0.0884996 0.60553 0.316173 0.0897648 0.554729
          0.045572 0.0183116 -0.184803 0.0269824 0.0190862 -0.166782
          -0.0206594 0.0140266 -0.187186 0.00474097 0.0139395 -0.220345
          0.0540385 0.0279604 -0.0683123 0.086844 0.0241004 -0.145402
          0.0692071 0.0290328 -0.0736489 0.137108 0.0320141 -0.0853689
          0.0490511 -0.0173693 -0.279308 0.0213185 -0.0168699 -0.245591
          0.0798418 -0.0176947 -0.264202 0.0556986 -0.0149003 -0.231736
          0.0873117 -0.0085829 -0.529073 0.0964633 -0.0116014 -0.498097
          0.121768 -0.0132045 -0.506753 0.0758985 -0.00839467 -0.497359
          0.130862 -0.00448618 -0.596049 0.112396 -0.00944941 -0.595416
          0.120205 -0.0074673 -0.574662 0.116074 -0.00889233 -0.591783
          0.135405 0.0894653 0.972754 0.148946 0.0951903 0.97766
          0.166592 0.0943382 0.957611 0.137992 0.0809897 0.939445
          0.284969 0.105508 0.994064 0.289143 0.105429 1.04493
          0.258775 0.10035 0.992022 0.222148 0.100112 0.994249
          0.0834431 -0.0103708 -0.372283 0.0424382 -0.00742649 -0.369547
          0.084756 -0.00847522 -0.397233 0.0769836 -0.0103014 -0.421409
          0.0742199 -0.00934427 -0.556536 0.0559069 -0.00708235 -0.53041
          0.0979294 -0.0116895 -0.552479 0.0741411 -0.00504061 -0.54589
          0.237126 0.0794021 0.50115 0.296192 0.0875151 0.559671
          0.189954 0.0762057 0.471849 0.198539 0.0823455 0.576957
          0.0647985 -0.0129255 -0.545036 0.0254341 -0.00812965 -0.517394
          0.0559069 -0.00708235 -0.53041 0.0742199 -0.00934427 -0.556536
          0.180281 -0.00286856 -0.557066 0.137254 -0.010044 -0.578733
          0.145549 -0.00508143 -0.577714 0.162 -0.00546711 -0.577397
          0.23391 0.0395448 -0.0669595 0.315675 0.0464779 -0.0557286
          0.243931 0.0382422 -0.120107 0.243538 0.045937 -0.0299528
          0.0345143 -0.0101269 -0.131573 0.0695339 -0.0077584 -0.112705
          0.0667859 -0.00492085 -0.132948 0.0389648 -0.00539303 -0.0891458
          0.254201 0.103492 0.959385 0.198685 0.0945086 0.918357
          0.209054 0.100802 0.973437 0.216313 0.0984366 0.955905
          0.0150799 -0.0144693 -0.140254 0.0425612 -0.0137818 -0.154251
          0.00182056 -0.0115354 -0.128416 0.0341126 -0.0125083 -0.114873
          0.0832282 0.0038756 -0.376847 0.0657571 -0.0031679 -0.428833
          0.122749 0.0083212 -0.401283 0.0919653 0.00584569 -0.369417
          0.220738 0.0983866 1.03044 0.169989 0.0988924 1.0076
          0.22275 0.104812 1.04279 0.165145 0.0940771 1.01785
          0.209054 0.100802 0.973437 0.209269 0.102614 0.986222
          0.246243 0.10426 0.96754 0.262803 0.108299 1.00082
          0.165145 0.0940771 1.01785 0.0967532 0.0787728 0.992186
          0.131919 0.0935166 1.0631 0.110551 0.0973971 1.01445
          0.102285 -0.00418842 -0.60267 0.0845377 -0.00382754 -0.593911
          0.0975384 -0.0068226 -0.604124 0.0910021 -0.00774906 -0.595565
          -0.0390216 -0.0145598 -0.228437 -0.00275804 -0.0140178 -0.20773
          0.00402628 -0.0122154 -0.223718 -0.0048344 -0.0120173 -0.183844
          0.102221 -0.0132634 -0.576693 0.0979294 -0.0116895 -0.552479
          0.105112 -0.0109623 -0.591591 0.0925113 -0.0100672 -0.58693
          0.085481 0.000932724 -0.594326 0.0648896 -0.00151987 -0.57823
          0.0796746 -0.00510329 -0.588382 0.0865935 -0.00428175 -0.59029
          0.153746 -0.0166346 -0.580158 0.133596 -0.0181632 -0.590032
          0.138138 -0.0232528 -0.593319 0.164091 -0.018657 -0.566595
          0.0885485 -0.0107869 -0.567941 0.0801628 -0.00822523 -0.571445
          0.074161 -0.0108072 -0.582806 0.0998489 -0.00965086 -0.589306
          0.198539 0.0823455 0.576957 0.178795 0.0768006 0.555971
          0.120286 0.0757005 0.587085 0.12867 0.0712302 0.495567
          0.0558778 0.0858855 0.622921 0.0846141 0.0787166 0.528453
          0.164032 0.0827915 0.545908 0.0754783 0.0822369 0.620429
          0.267948 0.021667 -0.358312 0.171681 0.0118168 -0.394107
          0.214694 0.0186287 -0.384992 0.19211 0.00963681 -0.421164
          0.204543 0.0383668 -0.0282422 0.0994822 0.0329572 -0.0324757
          0.149682 0.0387796 -0.00792568 0.137108 0.0320141 -0.0853689
          0.117288 0.0824418 0.964402 0.141182 0.0902565 0.952366
          0.137992 0.0809897 0.939445 0.145903 0.092674 0.919067
          0.197509 0.00429118 -0.539182 0.163709 -0.000792662 -0.549448
          0.15353 0.000570539 -0.562779 0.145549 -0.00508143 -0.577714
          0.330875 0.112426 1.07607 0.284176 0.113884 1.09618
          0.329085 0.113175 1.04334 0.327232 0.115343 1.08362
          0.0500145 0.0249025 -0.112389 0.109529 0.0267247 -0.164205
          0.163956 0.0390901 -0.0880543 0.120774 0.030637 -0.123642
          0.100967 0.0376856 -0.0124784 0.192396 0.0511354 0.0569261
          0.104946 0.0435662 0.0577277 0.161268 0.0430777 0.00556753
          0.000458692 0.00569362 -0.263183 0.0250181 0.0101551 -0.238931
          0.0619518 0.0109529 -0.275906 0.0203376 0.00322875 -0.300681
          0.127413 -0.00533943 -0.584442 0.129565 -0.00181342 -0.563005
          0.10914 -0.00942437 -0.584649 0.130792 -0.000960639 -0.550484
          0.0770825 -0.0209682 -0.589541 0.0871718 -0.0133081 -0.56754
          0.09246 -0.0181342 -0.59445 0.0665122 -0.024018 -0.578377
          0.0277829 -0.0133178 -0.215086 0.0157321 -0.0143898 -0.251108
          0.0508684 -0.0116704 -0.233291 0.0556986 -0.0149003 -0.231736
          0.172426 0.0599948 0.182148 0.209017 0.0680971 0.26482
          0.238454 0.0638716 0.176386 0.293523 0.0709724 0.187424
          0.0439374 -0.00694747 -0.551364 0.0254341 -0.00812965 -0.517394
          0.0742199 -0.00934427 -0.556536 0.0559069 -0.00708235 -0.53041
          0.260232 0.0884996 0.60553 0.198539 0.0823455 0.576957
          0.171272 0.0778226 0.475443 0.271522 0.0837749 0.481467
          0.00402628 -0.0122154 -0.223718 0.0125049 -0.0101035 -0.180202
          0.0444503 -0.00882003 -0.221329 -0.000402004 -0.0101472 -0.218544
          0.145798 0.090798 0.679028 0.205824 0.0927761 0.710946
          0.217441 0.0908349 0.694364 0.190968 0.0892035 0.6277
          0.163842 0.0365633 -0.0716904 0.149682 0.0387796 -0.00792568
          0.215481 0.0468155 0.0269334 0.161268 0.0430777 0.00556753
          0.293472 0.0994953 0.79386 0.194109 0.0876825 0.84685
          0.299233 0.103915 0.847262 0.24564 0.0977652 0.878842
          0.153914 0.0798208 0.88027 0.101095 0.0763853 0.812186
          0.102717 0.0704512 0.892847 0.154107 0.0883189 0.857766
          0.0567087 0.0165835 -0.211871 0.0734512 0.0151683 -0.243691
          0.137752 0.021662 -0.228365 0.086844 0.0241004 -0.145402
          0.0974886 -0.0130007 -0.586673 0.0987772 -0.0110197 -0.589217
          0.0885485 -0.0107869 -0.567941 0.073427 -0.0150233 -0.582338
          0.262572 0.0985842 1.02395 0.239193 0.0983216 1.08158
          0.274099 0.105261 1.08923 0.288612 0.101508 1.08839
          -0.0117722 0.0584996 0.359025 -0.0118951 0.0528332 0.283342
          0.0851486 0.064407 0.331217 0.0876554 0.0583691 0.26528
          0.254201 0.103492 0.959385 0.284969 0.105508 0.994064
          0.216313 0.0984366 0.955905 0.222148 0.100112 0.994249
          0.272272 0.0982259 0.871623 0.317504 0.0992951 0.814724
          0.35898 0.100297 0.86023 0.35665 0.103169 0.859128
          0.209017 0.0680971 0.26482 0.248309 0.07594 0.362052
          0.15796 0.0626744 0.270179 0.267607 0.0706221 0.272312
          0.11452 0.00584169 -0.393886 0.131645 0.00478053 -0.424531
          0.122207 0.000471272 -0.462474 0.0816163 -2.51321e-05 -0.451585
          0.0808134 0.0722704 0.485717 0.11408 0.0677137 0.376145
          0.0830577 0.0694311 0.477071 -0.0160427 0.0608877 0.4158
          0.130585 0.0390306 0.0287109 0.0994822 0.0329572 -0.0324757
          0.0887729 0.0367918 0.00698102 0.149682 0.0387796 -0.00792568
          0.0945674 0.00212618 -0.424615 0.0688967 0.00260366 -0.397242
          0.0919653 0.00584569 -0.369417 0.00962742 -0.00493176 -0.396985
          0.216483 0.0943034 0.778517 0.268238 0.0953534 0.771063
          0.272704 0.0935405 0.736088 0.298834 0.0968458 0.818175
          0.11977 -0.0145272 -0.59394 0.108096 -0.0129574 -0.595506
          0.11472 -0.0137039 -0.576103 0.12041 -0.0170253 -0.596519
          0.178795 0.0768006 0.555971 0.117833 0.067363 0.48689
          0.185822 0.0722326 0.453532 0.24751 0.0759489 0.490251
          0.00379622 2.43316e-05 -0.336744 0.00962742 -0.00493176 -0.396985
          0.0919653 0.00584569 -0.369417 0.0598204 0.00789755 -0.317222
          0.110675 -0.00367405 -0.515213 0.147387 0.00173919 -0.514186
          0.135703 0.0025933 -0.49578 0.134062 0.00401747 -0.464844
          0.0808134 0.0722704 0.485717 0.13533 0.0805968 0.576606
          0.0716709 0.0749929 0.578483 0.0830577 0.0694311 0.477071
          0.0995078 -0.0148368 -0.598679 0.107318 -0.0140032 -0.607226
          0.112614 -0.0109344 -0.605291 0.108992 -0.0122948 -0.606635
          0.267607 0.0706221 0.272312 0.15796 0.0626744 0.270179
          0.179831 0.069947 0.368224 0.248309 0.07594 0.362052
          -0.0417754 -0.0127901 -0.19048 -0.0442204 -0.0113241 -0.160393
          -0.0048344 -0.0120173 -0.183844 0.0125049 -0.0101035 -0.180202
          0.12962 -0.0179958 -0.581327 0.128281 -0.014775 -0.553089
          0.147899 -0.0184525 -0.564006 0.130675 -0.016316 -0.55811
          0.0983677 -0.0115942 -0.227508 0.0910404 -0.00871713 -0.248485
          0.0975373 -0.00974557 -0.192492 0.143208 -0.00900353 -0.241278
          0.358776 0.0740713 0.182399 0.293523 0.0709724 0.187424
          0.297489 0.0760461 0.273847 0.368693 0.0796129 0.22943
          0.137233 -0.0135718 -0.504352 0.131259 -0.0138379 -0.510261
          0.114044 -0.0144426 -0.516593 0.119042 -0.0136001 -0.539299
          0.0927891 -0.0138988 -0.27258 0.118728 -0.0117847 -0.327695
          0.113901 -0.0112095 -0.282981 0.118528 -0.0149838 -0.308486
          0.0406751 -0.0188984 -0.381652 0.0101504 -0.0167399 -0.34114
          0.0311669 -0.015471 -0.372513 0.00138579 -0.0197199 -0.365311
          0.25679 0.05184 -0.0499682 0.229061 0.0449968 -0.0778743
          0.331839 0.0569946 -0.0477761 0.274803 0.0541389 -0.0163549
          0.168513 0.0943187 0.953422 0.145903 0.092674 0.919067
          0.207948 0.0972424 0.9111 0.141182 0.0902565 0.952366
          0.0638979 -0.00680671 -0.289187 0.0615568 -0.00927245 -0.319052
          0.0343041 -0.00708722 -0.315142 0.0754448 -0.00761653 -0.348043
          0.120838 -0.0201982 -0.603292 0.130566 -0.0141443 -0.594765
          0.135136 -0.0161269 -0.592202 0.1144 -0.0159403 -0.605091
          0.120838 -0.0201982 -0.603292 0.1144 -0.0159403 -0.605091
          0.135136 -0.0161269 -0.592202 0.111776 -0.0247358 -0.601291
          0.130566 -0.0141443 -0.594765 0.109567 -0.0177132 -0.608718
          0.1144 -0.0159403 -0.605091 0.120838 -0.0201982 -0.603292
          -0.0129101 -0.0150505 -0.411734 -0.0104375 -0.0117784 -0.420885
          -0.0183776 -0.0107372 -0.385427 0.0276634 -0.0124395 -0.381452
          -0.0129101 -0.0150505 -0.411734 0.0257655 -0.0133371 -0.43445
          -0.0104375 -0.0117784 -0.420885 0.0276634 -0.0124395 -0.381452
          0.0257655 -0.0133371 -0.43445 0.030685 -0.00952224 -0.456825
          -0.0104375 -0.0117784 -0.420885 0.049198 -0.0109875 -0.426503
          0.0407461 -0.00197492 -0.0545277 0.0368505 -0.00613969 -0.0433125
          0.0159097 -0.00071185 -0.0210781 0.0114538 -0.00385626 -0.0309387
          0.163956 0.0390901 -0.0880543 0.159365 0.0442869 -0.00337952
          0.229061 0.0449968 -0.0778743 0.162043 0.0441457 -0.0289436
          0.108162 0.0929403 0.778368 0.141876 0.0985264 0.846848
          0.0583965 0.0997503 0.826217 0.0647625 0.0955917 0.842871
          0.120177 0.0786899 0.945524 0.0792191 0.0683723 0.922832
          0.107034 0.0785431 0.954037 0.137992 0.0809897 0.939445
          0.19211 0.00963681 -0.421164 0.177759 0.0101018 -0.451713
          0.214694 0.0186287 -0.384992 0.254645 0.0175491 -0.410354
          0.0345143 -0.0101269 -0.131573 0.0695339 -0.0077584 -0.112705
          0.0825549 -0.00948852 -0.155184 0.0667859 -0.00492085 -0.132948
          0.32407 0.0527487 0.00931725 0.315675 0.0464779 -0.0557286
          0.243538 0.045937 -0.0299528 0.324155 0.0518298 -0.0383277
          0.114299 -0.00953216 -0.601565 0.119576 -0.00659314 -0.600207
          0.118476 -0.0115173 -0.589823 0.130971 -0.00575554 -0.588593
          0.00020316 -0.00504482 -0.026493 0.0108895 -0.00577718 -0.0287179
          -0.00165095 -0.00443768 -0.0206394 -0.00441511 -0.00222472 -0.0122332
          0.293472 0.0994953 0.79386 0.24564 0.0977652 0.878842
          0.299233 0.103915 0.847262 0.272881 0.101595 0.900105
          0.045819 -0.00779774 -0.0366013 0.0182165 -0.00767366 -0.0242749
          0.0274571 -0.00635234 -0.0179501 0.013461 -0.00348063 -0.0158737
          0.201861 0.0919498 0.982176 0.148758 0.0957216 0.968415
          0.216996 0.0946768 0.982276 0.174536 0.092526 0.994842
          0.185124 0.05297 0.131345 0.28714 0.0650225 0.175661
          0.254682 0.0561024 0.122055 0.25535 0.057476 0.0852052
          0.0746342 -0.0182243 -0.408703 0.0782603 -0.0163881 -0.431469
          0.0326146 -0.0205887 -0.428346 0.0228868 -0.0175449 -0.410755
          0.101199 -0.0169444 -0.331952 0.118528 -0.0149838 -0.308486
          0.121041 -0.0164017 -0.361831 0.0858781 -0.0155531 -0.346023
          0.0611862 0.0391504 0.0429092 0.103092 0.0367894 -0.0397778
          0.159365 0.0442869 -0.00337952 0.100967 0.0376856 -0.0124784
          0.0688902 0.018373 -0.205679 0.109294 0.0209412 -0.217591
          0.0991005 0.026316 -0.14341 0.0567087 0.0165835 -0.211871
          0.172295 0.10293 0.999356 0.14422 0.101679 1.03743
          0.185509 0.107383 1.03394 0.148946 0.0951903 0.97766
          0.101176 -0.00783675 -0.284289 0.0989644 -0.00439551 -0.258818
          0.0623433 -0.00899144 -0.27071 0.0910404 -0.00871713 -0.248485
          0.0864608 -0.0150371 -0.385583 0.0615418 -0.0146903 -0.401189
          0.0487007 -0.016142 -0.343334 0.0689447 -0.0128604 -0.335303
          0.150518 -0.0153733 -0.270885 0.0966303 -0.0151294 -0.230152
          0.144869 -0.0177062 -0.239967 0.139728 -0.0146452 -0.224153
          0.0665471 -0.0159942 -0.505201 0.0705408 -0.0141881 -0.470342
          0.0894282 -0.0157141 -0.475633 0.0908379 -0.0141968 -0.513139
          0.27609 0.0684555 0.293154 0.185828 0.0648493 0.366047
          0.280246 0.0724522 0.393062 0.240365 0.0719055 0.361752
          -0.0116991 -0.00495655 -0.029839 -0.00165095 -0.00443768 -0.0206394
          0.00020316 -0.00504482 -0.026493 0.0108895 -0.00577718 -0.0287179
          0.276815 0.0802136 0.346431 0.212417 0.073621 0.315974
          0.297489 0.0760461 0.273847 0.209017 0.0680971 0.26482
          0.139728 -0.0146452 -0.224153 0.101464 -0.0152337 -0.183591
          0.135107 -0.0174963 -0.199185 0.130472 -0.0123001 -0.19356
          0.120603 -0.00930884 -0.326509 0.0829969 -0.0109702 -0.307637
          0.101176 -0.00783675 -0.284289 0.0615568 -0.00927245 -0.319052
          0.104713 -0.0169045 -0.601903 0.121298 -0.0203243 -0.601592
          0.1081 -0.0209799 -0.606824 0.113746 -0.0145598 -0.606765
          0.12041 -0.0170253 -0.596519 0.116001 -0.0152121 -0.60849
          0.126913 -0.0224445 -0.601183 0.113746 -0.0145598 -0.606765
          0.367966 0.104195 0.7975 0.293221 0.100629 0.862298
          0.349887 0.106809 0.885922 0.35665 0.103169 0.859128
          0.0798418 -0.0176947 -0.264202 0.0927891 -0.0138988 -0.27258
          0.0556986 -0.0149003 -0.231736 0.0966303 -0.0151294 -0.230152
          0.163842 0.0365633 -0.0716904 0.23391 0.0395448 -0.0669595
          0.243538 0.045937 -0.0299528 0.215481 0.0468155 0.0269334
          0.0276634 -0.0124395 -0.381452 -0.0183776 -0.0107372 -0.385427
          -0.02311 -0.0128779 -0.364239 -0.0228156 -0.00921044 -0.364747
          0.154107 0.0883189 0.857766 0.0612522 0.0739216 0.829945
          0.0896431 0.0734616 0.892396 0.109382 0.0908914 0.835634
          0.0157321 -0.0143898 -0.251108 0.0508684 -0.0116704 -0.233291
          0.0556986 -0.0149003 -0.231736 0.0608181 -0.012833 -0.282402
          0.154866 -0.00903024 -0.300863 0.101176 -0.00783675 -0.284289
          0.152519 -0.00688212 -0.28843 0.120603 -0.00930884 -0.326509
          0.0500145 0.0249025 -0.112389 0.120774 0.030637 -0.123642
          0.163956 0.0390901 -0.0880543 0.103092 0.0367894 -0.0397778
          0.0290398 -0.0139909 -0.0689169 0.0603776 -0.0173095 -0.104529
          0.0347523 -0.014953 -0.10816 0.0303649 -0.0119405 -0.0807488
          0.110311 -0.011447 -0.600512 0.109567 -0.0177132 -0.608718
          0.114991 -0.0139796 -0.594954 0.103294 -0.00986613 -0.605495
          0.135582 0.0211458 -0.209163 0.137108 0.0320141 -0.0853689
          0.132813 0.0247032 -0.151924 0.199466 0.0297779 -0.163731
          0.319326 0.0546587 0.103477 0.247533 0.0529727 0.133991
          0.315243 0.0628785 0.222664 0.344461 0.0653814 0.18953
          0.00753595 -0.0138764 -0.340524 0.0327647 -0.0109596 -0.337261
          0.00213241 -0.0128252 -0.289606 0.0419592 -0.0119604 -0.304688
          0.0979294 -0.0116895 -0.552479 0.0855552 -0.00604505 -0.571251
          0.103554 -0.0102896 -0.583544 0.105112 -0.0109623 -0.591591
          0.179763 0.00577853 -0.528465 0.15353 0.000570539 -0.562779
          0.147387 0.00173919 -0.514186 0.130792 -0.000960639 -0.550484
          0.063013 -0.0157642 -0.0456833 0.0423499 -0.0114026 -0.055377
          0.0385235 -0.0105734 -0.0388337 0.0619345 -0.0102839 -0.0527576
          0.296649 0.0901879 0.64528 0.378063 0.0956028 0.621907
          0.378687 0.0993396 0.685729 0.368553 0.104122 0.745728
          0.116094 -0.0159618 -0.415128 0.124448 -0.0143225 -0.471353
          0.108289 -0.0142089 -0.434857 0.133888 -0.0146771 -0.401768
          0.124087 -0.00488907 -0.541258 0.124809 5.29779e-05 -0.483101
          0.176831 0.00185096 -0.511452 0.147387 0.00173919 -0.514186
          -0.011625 0.0608921 0.603092 0.0679001 0.0684276 0.660272
          0.0746714 0.0731584 0.661841 0.0091938 0.0639893 0.725891
          0.0948509 0.00960777 -0.330541 0.0688967 0.00260366 -0.397242
          0.128141 0.0092244 -0.36495 0.11452 0.00584169 -0.393886
          0.00553736 -0.00949131 -0.0872548 0.00182056 -0.0115354 -0.128416
          -0.010015 -0.0095234 -0.104158 0.0345143 -0.0101269 -0.131573
          -0.0387419 -0.00986348 -0.100418 -0.0352411 -0.00732795 -0.0746054
          -0.0112473 -0.00867774 -0.0676795 -0.0384657 -0.00944187 -0.0839381
          0.0450636 -0.0111888 -0.184676 0.0338639 -0.00745357 -0.153426
          0.0698431 -0.00822036 -0.18142 0.0125049 -0.0101035 -0.180202
          0.168288 0.0375999 -0.0873447 0.185682 0.0349137 -0.171147
          0.204548 0.0340728 -0.161825 0.14323 0.027128 -0.191288
          0.163842 0.0365633 -0.0716904 0.137108 0.0320141 -0.0853689
          0.16095 0.0298942 -0.151939 0.199466 0.0297779 -0.163731
          0.222064 0.0922335 1.0378 0.239193 0.0983216 1.08158
          0.220738 0.0983866 1.03044 0.262572 0.0985842 1.02395
          0.256253 0.111304 1.03556 0.227293 0.112242 1.05647
          0.24468 0.114842 1.09294 0.284176 0.113884 1.09618
          0.247261 0.101271 0.929042 0.201574 0.0974581 0.951197
          0.246243 0.10426 0.96754 0.254201 0.103492 0.959385
          0.0832282 0.0038756 -0.376847 0.0377969 -0.00734382 -0.416931
          0.0657571 -0.0031679 -0.428833 0.0116505 -0.0055628 -0.385172
          0.0764351 -0.00495617 -0.53841 0.0654843 -0.00281992 -0.4944
          0.0423568 -0.000690955 -0.520877 0.0877043 -0.0027958 -0.528633
          0.00727071 -0.0159958 -0.292999 0.0386203 -0.0180922 -0.317802
          0.0490511 -0.0173693 -0.279308 0.0213185 -0.0168699 -0.245591
          0.160387 0.00185887 -0.476443 0.19211 0.00963681 -0.421164
          0.16371 0.00418987 -0.421372 0.190515 0.00181038 -0.453267
          0.199691 0.0849973 0.580698 0.198539 0.0823455 0.576957
          0.13533 0.0805968 0.576606 0.171272 0.0778226 0.475443
          0.120205 -0.0074673 -0.574662 0.15353 0.000570539 -0.562779
          0.127413 -0.00533943 -0.584442 0.130792 -0.000960639 -0.550484
          0.0173037 0.072694 0.712974 0.12824 0.0807888 0.747178
          0.100937 0.0804062 0.671573 0.100789 0.0866501 0.753101
          0.0407461 -0.00197492 -0.0545277 0.0247822 0.00224888 -0.0362098
          0.0114538 -0.00385626 -0.0309387 0.0159097 -0.00071185 -0.0210781
          0.112472 -0.00908123 -0.617884 0.114469 -0.00938039 -0.604088
          0.112637 -0.0103711 -0.611269 0.120129 -0.00615696 -0.608411
          0.191072 0.0185475 -0.420765 0.261623 0.0282334 -0.421171
          0.214694 0.0186287 -0.384992 0.218704 0.0214812 -0.457714
          -0.00896293 -0.00640648 -0.0407497 -0.00310213 -0.00244935 -0.0142378
          0.00020316 -0.00504482 -0.026493 -0.0270274 -0.00466195 -0.0349902
          0.260233 0.0868215 0.649864 0.342939 0.0904408 0.603744
          0.296649 0.0901879 0.64528 0.312824 0.0949824 0.693554
          -0.0211321 -0.00227591 -0.0131021 -0.00310213 -0.00244935 -0.0142378
          -0.00441511 -0.00222472 -0.0122332 0 0 0
          0.120774 0.030637 -0.123642 0.14323 0.027128 -0.191288
          0.0688902 0.018373 -0.205679 0.109529 0.0267247 -0.164205
          0.102378 -0.0147507 -0.539178 0.0937691 -0.0138029 -0.549149
          0.118801 -0.0139847 -0.559433 0.0821186 -0.0163022 -0.547193
          0.049462 0.0234903 -0.116728 -0.0244421 0.0178141 -0.132669
          -0.0273946 0.023484 -0.0637811 0.0540385 0.0279604 -0.0683123
          -0.00991763 0.0660669 0.456629 0.0808134 0.0722704 0.485717
          -0.0101049 0.0672179 0.524128 -0.0160427 0.0608877 0.4158
          0.264721 0.107082 0.998789 0.214788 0.10492 1.00424
          0.256253 0.111304 1.03556 0.26761 0.10803 1.03604
          0.108096 -0.0129574 -0.595506 0.102221 -0.0132634 -0.576693
          0.11472 -0.0137039 -0.576103 0.105112 -0.0109623 -0.591591
          0.0826533 0.00922241 -0.323018 0.0832282 0.0038756 -0.376847
          0.124138 0.0125122 -0.349927 0.0638506 0.00594671 -0.330755
          0.262803 0.108299 1.00082 0.214788 0.10492 1.00424
          0.256253 0.111304 1.03556 0.264721 0.107082 0.998789
          -0.0273646 -0.016129 -0.335138 0.00753595 -0.0138764 -0.340524
          -0.02311 -0.0128779 -0.364239 -0.0309792 -0.01305 -0.314827
          0.262803 0.108299 1.00082 0.256253 0.111304 1.03556
          0.315774 0.113468 1.01396 0.264721 0.107082 0.998789
          0.0881059 -0.0270881 -0.606613 0.0984941 -0.0173699 -0.601281
          0.10517 -0.0159049 -0.610222 0.09246 -0.0181342 -0.59445
          0.00562483 -0.00357756 -0.0126354 0 0 0
          0 0 0 0 0 0
          0.0925113 -0.0100672 -0.58693 0.0855552 -0.00604505 -0.571251
          0.105112 -0.0109623 -0.591591 0.097403 -0.00460077 -0.593334
          0.282294 0.0987585 0.988705 0.256007 0.0933328 1.02618
          0.31334 0.101594 1.01953 0.254847 0.0942488 0.990392
          0.227329 0.00478569 -0.482107 0.21932 0.00944826 -0.501778
          0.203477 -0.00152772 -0.523147 0.176831 0.00185096 -0.511452
          0.0500145 0.0249025 -0.112389 -0.00726708 0.0149956 -0.161331
          0.0689865 0.0290619 -0.0831016 -0.00559399 0.0202761 -0.1029
          -0.0390216 -0.0145598 -0.228437 -0.0048344 -0.0120173 -0.183844
          0.00402628 -0.0122154 -0.223718 -0.0417754 -0.0127901 -0.19048
          0.110055 -0.0119697 -0.4245 0.133529 -0.0122415 -0.442996
          0.120268 -0.0101949 -0.41947 0.130047 -0.0108439 -0.391734
          0.11472 -0.0137039 -0.576103 0.145529 -0.0171154 -0.571117
          0.12041 -0.0170253 -0.596519 0.147899 -0.0184525 -0.564006
          0.0418506 0.000676097 -0.0697344 0.0540152 0.00252499 -0.0946214
          0.0176904 -0.00353163 -0.0727868 0.0159457 -0.000758185 -0.0663928
          0.198498 0.0519682 0.0225208 0.262343 0.0583567 0.0517336
          0.213365 0.058239 0.10934 0.192396 0.0511354 0.0569261
          0.165688 0.0612821 0.281712 0.179831 0.069947 0.368224
          0.15796 0.0626744 0.270179 0.102322 0.0639772 0.375425
          0.00965275 -0.00343188 -0.0436944 0.0161469 0.00429153 -0.0295316
          0.0247822 0.00224888 -0.0362098 0.0275312 0.0035501 -0.0515769
          0.270051 0.0400479 -0.0453142 0.251511 0.0450642 -0.00310106
          0.271852 0.045926 0.0268448 0.314985 0.0475958 -0.0156401
          0.247533 0.0529727 0.133991 0.254682 0.0561024 0.122055
          0.319326 0.0546587 0.103477 0.262653 0.0500391 0.0812999
          0.102285 -0.00418842 -0.60267 0.106363 -0.00870799 -0.608749
          0.119576 -0.00659314 -0.600207 0.104248 -0.00998517 -0.60549
          0.0500145 0.0249025 -0.112389 -0.00726708 0.0149956 -0.161331
          0.0688902 0.018373 -0.205679 0.0689865 0.0290619 -0.0831016
          0.315675 0.0464779 -0.0557286 0.23391 0.0395448 -0.0669595
          0.314985 0.0475958 -0.0156401 0.251511 0.0450642 -0.00310106
          0.117833 0.067363 0.48689 0.12867 0.0712302 0.495567
          0.0594662 0.0664747 0.514154 0.178795 0.0768006 0.555971
          0.272272 0.0982259 0.871623 0.298834 0.0968458 0.818175
          0.35898 0.100297 0.86023 0.317504 0.0992951 0.814724
          0.298834 0.0968458 0.818175 0.371492 0.0993781 0.80277
          0.35898 0.100297 0.86023 0.317504 0.0992951 0.814724
          0.189171 0.00696049 -0.46894 0.21932 0.00944826 -0.501778
          0.176831 0.00185096 -0.511452 0.179763 0.00577853 -0.528465
          0.0391397 -0.00499197 -0.525882 0.0728637 -0.00800935 -0.538075
          0.0246036 -0.00641771 -0.486264 0.0654843 -0.00281992 -0.4944
          -0.0143431 0.0252607 -0.0446928 -0.0152553 0.0199927 -0.106234
          0.0692071 0.0290328 -0.0736489 -0.0199145 0.0267211 -0.024701
          0.198498 0.0519682 0.0225208 0.159365 0.0442869 -0.00337952
          0.192396 0.0511354 0.0569261 0.141569 0.0485009 0.0692919
          0.0737005 -0.0132091 -0.182875 0.0450636 -0.0111888 -0.184676
          0.0975373 -0.00974557 -0.192492 0.0983677 -0.0115942 -0.227508
          0.0974821 -0.012431 -0.598996 0.112396 -0.00944941 -0.595416
          0.0987772 -0.0110197 -0.589217 0.0998489 -0.00965086 -0.589306
          0.118476 -0.0115173 -0.589823 0.119576 -0.00659314 -0.600207
          0.13808 -0.0101082 -0.579112 0.130971 -0.00575554 -0.588593
          0.0391397 -0.00499197 -0.525882 0.0246036 -0.00641771 -0.486264
          0.0240896 0.00249727 -0.466643 0.0654843 -0.00281992 -0.4944
          0.246998 0.00343406 -0.395046 0.205526 0.00822017 -0.38119
          0.264155 0.0132645 -0.31677 0.262565 0.0127976 -0.353888
          0.0967532 0.0787728 0.992186 0.111699 0.0872084 1.01616
          0.148946 0.0951903 0.97766 0.14422 0.101679 1.03743
          0.214788 0.10492 1.00424 0.222148 0.100112 0.994249
          0.26761 0.10803 1.03604 0.264721 0.107082 0.998789
          0.0979294 -0.0116895 -0.552479 0.0873117 -0.0085829 -0.529073
          0.110032 -0.012015 -0.542389 0.112709 -0.0131223 -0.570554
          0.124448 -0.0143225 -0.471353 0.0894282 -0.0157141 -0.475633
          0.114044 -0.0144426 -0.516593 0.10645 -0.0155909 -0.489206
          0.129355 -0.0141182 -0.578393 0.0992329 -0.00753719 -0.587347
          0.119123 -0.00951806 -0.581108 0.114991 -0.0139796 -0.594954
          0.023489 0.0297041 -0.0166612 0.0540385 0.0279604 -0.0683123
          0.0359137 0.0362804 0.0463107 0.0887729 0.0367918 0.00698102
          0.198539 0.0823455 0.576957 0.252053 0.0846894 0.591048
          0.316074 0.0917422 0.635195 0.290993 0.0932419 0.690529
          0.00379622 2.43316e-05 -0.336744 0.00962742 -0.00493176 -0.396985
          0.0688967 0.00260366 -0.397242 0.000364435 0.000322241 -0.360076
          0.222148 0.100112 0.994249 0.166592 0.0943382 0.957611
          0.214788 0.10492 1.00424 0.149803 0.0947307 0.967832
          0.204595 0.0961512 0.949524 0.251644 0.0986556 0.9563
          0.216313 0.0984366 0.955905 0.216196 0.0956329 0.913168
          0.153439 0.0976263 0.896305 0.204595 0.0961512 0.949524
          0.168513 0.0943187 0.953422 0.216196 0.0956329 0.913168
          0.0850406 -0.000287921 -0.429248 0.125164 0.0053151 -0.431484
          0.122749 0.0083212 -0.401283 0.0657571 -0.0031679 -0.428833
          0.109413 -0.00731356 -0.560632 0.119123 -0.00951806 -0.581108
          0.120205 -0.0074673 -0.574662 0.137254 -0.010044 -0.578733
          0.134646 -0.0196971 -0.587951 0.12041 -0.0170253 -0.596519
          0.126913 -0.0224445 -0.601183 0.121298 -0.0203243 -0.601592
          0.214788 0.10492 1.00424 0.209269 0.102614 0.986222
          0.264721 0.107082 0.998789 0.262803 0.108299 1.00082
          0.0266702 -0.0125329 -0.259877 0.0331346 -0.0139518 -0.311202
          0.0419592 -0.0119604 -0.304688 0.0608181 -0.012833 -0.282402
          0.25679 0.05184 -0.0499682 0.323171 0.0510428 -0.116229
          0.331839 0.0569946 -0.0477761 0.229061 0.0449968 -0.0778743
          0.0793457 -0.0182685 -0.45509 0.0746342 -0.0182243 -0.408703
          0.0782603 -0.0163881 -0.431469 0.0326146 -0.0205887 -0.428346
          0.00069831 -0.0122989 -0.0909205 -0.0112473 -0.00867774 -0.0676795
          0.0303649 -0.0119405 -0.0807488 -0.00895024 -0.0104179 -0.0974204
          0.172727 0.0572523 0.179964 0.0467083 0.0485772 0.184625
          0.0939533 0.0506828 0.181751 0.15796 0.0626744 0.270179
          0.154852 -0.0116642 -0.533339 0.131259 -0.0138379 -0.510261
          0.137233 -0.0135718 -0.504352 0.119042 -0.0136001 -0.539299
          0.0535114 -0.0187996 -0.526146 0.0665471 -0.0159942 -0.505201
          0.0647985 -0.0129255 -0.545036 0.0510099 -0.0126816 -0.511239
          0.216196 0.0956329 0.913168 0.209525 0.0981286 0.870041
          0.164468 0.103075 0.903438 0.231761 0.0961351 0.92421
          0.110055 -0.0119697 -0.4245 0.121678 -0.0131649 -0.477031
          0.126251 -0.0140065 -0.477368 0.0896834 -0.01342 -0.474792
          0.0927891 -0.0138988 -0.27258 0.0508684 -0.0116704 -0.233291
          0.0983677 -0.0115942 -0.227508 0.113901 -0.0112095 -0.282981
          0.133475 0.0765293 0.818985 0.101095 0.0763853 0.812186
          0.12824 0.0807888 0.747178 0.149244 0.0766639 0.750003
          0.0481888 -0.0126734 -0.4751 0.0670694 -0.0106223 -0.51427
          0.0674725 -0.0100434 -0.47284 0.0896834 -0.01342 -0.474792
          0.166017 -0.00832996 -0.548618 0.134573 -0.00903642 -0.561118
          0.137254 -0.010044 -0.578733 0.129355 -0.0141182 -0.578393
          0.0970682 -0.00880874 -0.546836 0.0421184 -0.0116166 -0.5242
          0.0728637 -0.00800935 -0.538075 0.0696074 -0.00701453 -0.503281
          0.204122 0.0875869 0.77037 0.149244 0.0766639 0.750003
          0.133475 0.0765293 0.818985 0.12824 0.0807888 0.747178
          0.0165473 -0.00617679 -0.0509829 -0.0075844 -0.00783516 -0.0507497
          -0.0102802 -0.00591698 -0.0432173 -0.0014031 -0.00719991 -0.0748949
          -0.010015 -0.0095234 -0.104158 -0.0431464 -0.0115306 -0.135303
          -0.042216 -0.0112982 -0.106801 0.00270117 -0.00839904 -0.122071
          0.172426 0.0599948 0.182148 0.163459 0.0542829 0.132925
          0.141569 0.0485009 0.0692919 0.213365 0.058239 0.10934
          0.196146 0.0872112 0.6934 0.198539 0.0823455 0.576957
          0.260232 0.0884996 0.60553 0.290993 0.0932419 0.690529
          0.107566 -0.0128015 -0.607479 0.106057 -0.0116458 -0.606543
          0.108992 -0.0122948 -0.606635 0.115624 -0.00953853 -0.606174
          0.389693 0.0946005 0.585769 0.296192 0.0875151 0.559671
          0.384595 0.0956412 0.62046 0.260232 0.0884996 0.60553
          0.123047 -0.00843312 -0.371754 0.0834431 -0.0103708 -0.372283
          0.120603 -0.00930884 -0.326509 0.0754448 -0.00761653 -0.348043
          0.216692 0.0189193 -0.322874 0.213557 0.025394 -0.25746
          0.287792 0.0278946 -0.245922 0.285631 0.0272575 -0.283759
          0.0770825 -0.0209682 -0.589541 0.0974886 -0.0130007 -0.586673
          0.09246 -0.0181342 -0.59445 0.0871718 -0.0133081 -0.56754
          0.27609 0.0684555 0.293154 0.240365 0.0719055 0.361752
          0.373022 0.0833251 0.422228 0.361653 0.0757261 0.29799
          0.0715661 -0.0194334 -0.0566621 0.0463084 -0.0174144 -0.0414897
          0.0487702 -0.0173093 -0.0310522 0.063013 -0.0157642 -0.0456833
          0.0611862 0.0391504 0.0429092 0.0583242 0.0419076 0.088712
          -0.0123321 0.0364686 0.0853844 -0.0157458 0.0323379 0.0389614
          0.132605 -0.0129756 -0.428618 0.16614 -0.0138481 -0.427097
          0.166124 -0.0132648 -0.456047 0.164565 -0.0133876 -0.382405
          0.185124 0.05297 0.131345 0.165241 0.0545551 0.192337
          0.239744 0.0627337 0.215118 0.172727 0.0572523 0.179964
          0.111468 -0.0123134 -0.602749 0.114294 -0.0146101 -0.600231
          0.106077 -0.011639 -0.601787 0.107566 -0.0128015 -0.607479
          0.0439374 -0.00694747 -0.551364 0.0659989 -0.00118024 -0.559713
          0.0742199 -0.00934427 -0.556536 0.0553065 0.00140284 -0.56841
          0.060929 0.0538991 0.266939 -0.0276234 0.0433722 0.194733
          0.0443352 0.0428983 0.124246 0.019031 0.0478604 0.222628
          0.0982184 0.0600215 0.359552 0.15877 0.0654663 0.366123
          0.116016 0.0552688 0.266951 0.060929 0.0538991 0.266939
          0.0487702 -0.0173093 -0.0310522 0.0292423 -0.0145331 -0.0274994
          0.0220256 -0.0109318 -0.0199872 0.0463084 -0.0174144 -0.0414897
          0.32407 0.0527487 0.00931725 0.215481 0.0468155 0.0269334
          0.271213 0.0549191 0.0653578 0.243538 0.045937 -0.0299528
          0.112241 -0.0126718 -0.604121 0.118768 -0.0128463 -0.594283
          0.121685 -0.0166017 -0.597055 0.11977 -0.0145272 -0.59394
          0.121298 -0.0203243 -0.601592 0.11977 -0.0145272 -0.59394
          0.12041 -0.0170253 -0.596519 0.113746 -0.0145598 -0.606765
          0.12041 -0.0170253 -0.596519 0.11977 -0.0145272 -0.59394
          0.145529 -0.0171154 -0.571117 0.11472 -0.0137039 -0.576103
          0.114294 -0.0146101 -0.600231 0.125346 -0.0111707 -0.593521
          0.121685 -0.0166017 -0.597055 0.118768 -0.0128463 -0.594283
          0.165241 0.0545551 0.192337 0.0939533 0.0506828 0.181751
          0.185124 0.05297 0.131345 0.126597 0.045842 0.0973606
          0.165241 0.0545551 0.192337 0.0939533 0.0506828 0.181751
          0.172727 0.0572523 0.179964 0.185124 0.05297 0.131345
          0.0705408 -0.0141881 -0.470342 0.0481888 -0.0126734 -0.4751
          0.0908379 -0.0141968 -0.513139 0.0665471 -0.0159942 -0.505201
          0.272272 0.0982259 0.871623 0.224695 0.0953553 0.846221
          0.207948 0.0972424 0.9111 0.216196 0.0956329 0.913168
          0.201861 0.0919498 0.982176 0.15053 0.0943226 0.984227
          0.148758 0.0957216 0.968415 0.174536 0.092526 0.994842
          0.219222 0.0486119 -0.00572604 0.274803 0.0541389 -0.0163549
          0.262343 0.0583567 0.0517336 0.337898 0.0608716 0.0317743
          0.351348 0.111747 0.869577 0.299233 0.103915 0.847262
          0.299471 0.10761 0.905539 0.272881 0.101595 0.900105
          0.175681 -0.00370727 -0.508049 0.146451 -0.00498123 -0.540931
          0.134573 -0.00903642 -0.561118 0.138348 -0.00834367 -0.530527
          0.132045 -0.0137283 -0.536958 0.114044 -0.0144426 -0.516593
          0.12387 -0.0137173 -0.55443 0.0937691 -0.0138029 -0.549149
          0.064645 -0.0229194 -0.556744 0.0283937 -0.0250899 -0.531799
          0.049659 -0.0222241 -0.516821 0.0535114 -0.0187996 -0.526146
          0.0998671 -0.00980449 -0.59992 0.0948582 -0.0101546 -0.592337
          0.110097 -0.00503266 -0.59666 0.112614 -0.0109344 -0.605291
          0 0 0 0.00562483 -0.00357756 -0.0126354
          0 0 0 0 0 0
          0.227329 0.00478569 -0.482107 0.19211 0.00963681 -0.421164
          0.23316 0.00509314 -0.452771 0.239077 0.0121727 -0.458207
          0.271522 0.0837749 0.481467 0.301397 0.0779443 0.365474
          0.379682 0.0859182 0.404263 0.298245 0.0824615 0.466509
          -0.010015 -0.0095234 -0.104158 -0.0396448 -0.0102092 -0.109624
          -0.000871435 -0.0111273 -0.144184 0.00182056 -0.0115354 -0.128416
          -0.0386929 -0.00973485 -0.0876329 -0.042216 -0.0112982 -0.106801
          -0.0383281 -0.0105095 -0.0693774 -0.0152809 -0.00864801 -0.0931318
          0.122016 -0.0103725 -0.580307 0.13808 -0.0101082 -0.579112
          0.118476 -0.0115173 -0.589823 0.118801 -0.0139847 -0.559433
          0.11472 -0.0137039 -0.576103 0.124799 -0.0135258 -0.574159
          0.12387 -0.0137173 -0.55443 0.102221 -0.0132634 -0.576693
          0.172754 -0.00977107 -0.561995 0.137254 -0.010044 -0.578733
          0.153746 -0.0166346 -0.580158 0.164091 -0.018657 -0.566595
          0.0590884 -0.0139826 -0.503316 0.0261287 -0.0124198 -0.465925
          0.0701937 -0.00792453 -0.467995 0.026183 -0.0140618 -0.460937
          0.224695 0.0953553 0.846221 0.154107 0.0883189 0.857766
          0.248601 0.0963202 0.818343 0.209922 0.09271 0.859342
          0.154852 -0.0116642 -0.533339 0.119042 -0.0136001 -0.539299
          0.149308 -0.0091699 -0.552519 0.131259 -0.0138379 -0.510261
          0.0638506 0.00594671 -0.330755 0.115975 0.0128998 -0.314557
          0.0882954 0.0139789 -0.275434 0.0598204 0.00789755 -0.317222
          0.00765602 -0.0064143 -0.0148698 0.00906148 -0.00396656 -0.00244451
          0.0210138 -0.00977568 -0.00900036 0 0 0
          0.215481 0.0468155 0.0269334 0.126597 0.045842 0.0973606
          0.193616 0.0487549 0.0843481 0.158421 0.0496291 0.0897101
          -0.0152809 -0.00864801 -0.0931318 -0.0438624 -0.0112966 -0.125053
          -0.0255505 -0.00966033 -0.133725 0.00270117 -0.00839904 -0.122071
          0.0647625 0.0955917 0.842871 0.153439 0.0976263 0.896305
          0.141876 0.0985264 0.846848 0.0838931 0.102285 0.893233
          0.089927 0.0645819 0.43286 0.102322 0.0639772 0.375425
          -0.0211191 0.0597525 0.441455 0.0830577 0.0694311 0.477071
          0.24719 0.0906245 0.746051 0.194109 0.0876825 0.84685
          0.299233 0.103915 0.847262 0.293472 0.0994953 0.79386
          0.324902 0.0893821 0.507176 0.271522 0.0837749 0.481467
          0.237426 0.086149 0.538209 0.269623 0.0833918 0.439675
          0.108162 0.0929403 0.778368 0.0647625 0.0955917 0.842871
          0.0583965 0.0997503 0.826217 0.0433159 0.0880509 0.781563
          0.239664 0.0342104 -0.217622 0.227347 0.0341367 -0.239023
          0.229906 0.0269602 -0.297914 0.173823 0.0246422 -0.254984
          0.0311669 -0.015471 -0.372513 -0.0273646 -0.016129 -0.335138
          -0.0202432 -0.0154642 -0.375762 0.0101504 -0.0167399 -0.34114
          0.116441 0.0700373 0.586952 0.148895 0.0762001 0.66868
          0.178795 0.0768006 0.555971 0.181436 0.0819169 0.673158
          0.12041 -0.0170253 -0.596519 0.103554 -0.0102896 -0.583544
          0.12962 -0.0179958 -0.581327 0.116001 -0.0152121 -0.60849
          0.0720016 0.0386142 0.0590978 -0.0249977 0.0324135 0.0456061
          -0.0153192 0.0401373 0.139303 0.0359137 0.0362804 0.0463107
          0.145549 -0.00508143 -0.577714 0.112396 -0.00944941 -0.595416
          0.137254 -0.010044 -0.578733 0.120205 -0.0074673 -0.574662
          0.109382 0.0908914 0.835634 0.100789 0.0866501 0.753101
          0.0433159 0.0880509 0.781563 0.108162 0.0929403 0.778368
          0.173823 0.0246422 -0.254984 0.130885 0.0226921 -0.239709
          0.137117 0.0163716 -0.314393 0.0882954 0.0139789 -0.275434
          0.0832282 0.0038756 -0.376847 0.0377969 -0.00734382 -0.416931
          0.0850406 -0.000287921 -0.429248 0.0657571 -0.0031679 -0.428833
          0.0843502 -0.00391901 -0.563047 0.109413 -0.00731356 -0.560632
          0.0764351 -0.00495617 -0.53841 0.0877043 -0.0027958 -0.528633
          0.152816 0.00527735 -0.573116 0.150403 0.00210831 -0.583032
          0.15353 0.000570539 -0.562779 0.127413 -0.00533943 -0.584442
          0.0171834 -0.0131376 -0.175025 -0.000871435 -0.0111273 -0.144184
          -0.0116154 -0.0127112 -0.160316 0.00182056 -0.0115354 -0.128416
          0.118528 -0.0149838 -0.308486 0.114861 -0.0179139 -0.253853
          0.150518 -0.0153733 -0.270885 0.0927891 -0.0138988 -0.27258
          0.0257655 -0.0133371 -0.43445 0.0481888 -0.0126734 -0.4751
          0.0410239 -0.0180549 -0.471625 0.00408605 -0.0172167 -0.465409
          0.101176 -0.00783675 -0.284289 0.0638979 -0.00680671 -0.289187
          0.102812 -0.00669444 -0.317028 0.0615568 -0.00927245 -0.319052
          0.285884 0.101867 0.926939 0.35665 0.103169 0.859128
          0.272272 0.0982259 0.871623 0.35012 0.10216 0.905117
          0.351746 0.0970161 0.893709 0.35898 0.100297 0.86023
          0.27271 0.0964002 0.88158 0.328598 0.0951257 0.835047
          0.154866 -0.00903024 -0.300863 0.152768 -0.0128705 -0.286097
          0.113901 -0.0112095 -0.282981 0.160203 -0.0119435 -0.337823
          0.0853375 -0.0184729 -0.58789 0.073082 -0.0182206 -0.580329
          0.0859557 -0.0131762 -0.586375 0.0876484 -0.0143337 -0.588037
          -0.000871435 -0.0111273 -0.144184 -0.0421975 -0.0121278 -0.149963
          -0.0048344 -0.0120173 -0.183844 -0.0116154 -0.0127112 -0.160316
          0 0 0 0 0 0
          0 0 0 0.0062396 0.00749469 -0.00317775
          0.069771 -0.0176787 -0.359571 0.0386203 -0.0180922 -0.317802
          0.0858781 -0.0155531 -0.346023 0.0487007 -0.016142 -0.343334
          0.198685 0.0945086 0.918357 0.145903 0.092674 0.919067
          0.154107 0.0883189 0.857766 0.137992 0.0809897 0.939445
          -0.0116154 -0.0127112 -0.160316 -0.000871435 -0.0111273 -0.144184
          -0.0398427 -0.0112934 -0.139971 0.00182056 -0.0115354 -0.128416
          0.282707 0.0780598 0.447798 0.237126 0.0794021 0.50115
          0.293499 0.0841291 0.540835 0.298245 0.0824615 0.466509
          0.243931 0.0382422 -0.120107 0.163842 0.0365633 -0.0716904
          0.199466 0.0297779 -0.163731 0.23391 0.0395448 -0.0669595
          0.185822 0.0722326 0.453532 0.15877 0.0654663 0.366123
          0.179831 0.069947 0.368224 0.240365 0.0719055 0.361752
          0.201861 0.0919498 0.982176 0.211651 0.0894452 1.02033
          0.174536 0.092526 0.994842 0.216996 0.0946768 0.982276
          0.35414 0.0709775 0.22333 0.239744 0.0627337 0.215118
          0.27609 0.0684555 0.293154 0.361653 0.0757261 0.29799
          0.0540152 0.00252499 -0.0946214 0.0245713 -0.00500875 -0.104985
          0.0680056 -0.0011597 -0.0994993 0.0389648 -0.00539303 -0.0891458
          0.0689447 -0.0128604 -0.335303 0.0829969 -0.0109702 -0.307637
          0.102925 -0.01385 -0.339323 0.118728 -0.0117847 -0.327695
          0.0713689 0.0401873 0.0354087 0.111056 0.0506082 0.116801
          0.0640984 0.0457958 0.114738 0.141569 0.0485009 0.0692919
          0.158421 0.0496291 0.0897101 0.185124 0.05297 0.131345
          0.271213 0.0549191 0.0653578 0.25535 0.057476 0.0852052
          -0.000402004 -0.0101472 -0.218544 0.0252408 -0.0079659 -0.186335
          0.0444503 -0.00882003 -0.221329 0.00022389 -0.00790277 -0.232947
          0.120774 0.030637 -0.123642 0.168288 0.0375999 -0.0873447
          0.163956 0.0390901 -0.0880543 0.159365 0.0442869 -0.00337952
          0.332017 0.109344 1.02927 0.26761 0.10803 1.03604
          0.330412 0.111551 1.00014 0.329085 0.113175 1.04334
          0.00069831 -0.0122989 -0.0909205 -0.0264292 -0.0092593 -0.0990623
          -0.00895024 -0.0104179 -0.0974204 0.0150799 -0.0144693 -0.140254
          0.239744 0.0627337 0.215118 0.165688 0.0612821 0.281712
          0.240365 0.0719055 0.361752 0.267607 0.0706221 0.272312
          0.0611862 0.0391504 0.0429092 0.159365 0.0442869 -0.00337952
          0.141569 0.0485009 0.0692919 0.100967 0.0376856 -0.0124784
          0.0948582 -0.0101546 -0.592337 0.0796746 -0.00510329 -0.588382
          0.0998671 -0.00980449 -0.59992 0.10082 -0.00345068 -0.604568
          -0.0357635 -0.00911502 -0.0589362 -0.0254388 -0.00647699 -0.0297218
          -0.0292533 -0.00563442 -0.0335524 -0.0116991 -0.00495655 -0.029839
          0.00156437 -0.00480447 -0.0194943 -0.0184737 -0.00268011 -0.0251174
          -0.00310213 -0.00244935 -0.0142378 -0.00896293 -0.00640648 -0.0407497
          0.106311 0.0874838 0.977511 0.111699 0.0872084 1.01616
          0.148946 0.0951903 0.97766 0.0967532 0.0787728 0.992186
          0.0101504 -0.0167399 -0.34114 0.0487007 -0.016142 -0.343334
          0.0331346 -0.0139518 -0.311202 0.00727071 -0.0159958 -0.292999
          -0.0163625 0.013976 -0.178291 -0.0152553 0.0199927 -0.106234
          0.0437957 0.0214384 -0.141935 -0.00726708 0.0149956 -0.161331
          0.0793457 -0.0182685 -0.45509 0.116094 -0.0159618 -0.415128
          0.0782603 -0.0163881 -0.431469 0.0746342 -0.0182243 -0.408703
          0.0276634 -0.0124395 -0.381452 0.0327647 -0.0109596 -0.337261
          0.0558022 -0.0109937 -0.389167 0.0249799 -0.00927824 -0.386426
          0.179831 0.069947 0.368224 0.248309 0.07594 0.362052
          0.209017 0.0680971 0.26482 0.17999 0.0712148 0.342808
          -0.0384657 -0.00944187 -0.0839381 0.00553736 -0.00949131 -0.0872548
          -0.010015 -0.0095234 -0.104158 -0.0075844 -0.00783516 -0.0507497
          0.0303649 -0.0119405 -0.0807488 0.0423499 -0.0114026 -0.055377
          0.0508293 -0.0107902 -0.0918145 0.0256855 -0.00877047 -0.0769447
          0.0105776 0.00504842 -0.00736282 0 0 0
          0.0255033 0.00090171 -0.0220747 0.0311991 0.0147318 -0.021768
          0.00553736 -0.00949131 -0.0872548 -0.010015 -0.0095234 -0.104158
          0.0188405 -0.00834344 -0.0945442 0.0345143 -0.0101269 -0.131573
          0.177392 0.0114892 -0.3605 0.128141 0.0092244 -0.36495
          0.175406 0.0171797 -0.332993 0.171681 0.0118168 -0.394107
          0.177759 0.0101018 -0.451713 0.153324 0.009434 -0.465698
          0.182702 0.0147905 -0.493674 0.135703 0.0025933 -0.49578
          0.389693 0.0946005 0.585769 0.386449 0.0928267 0.549801
          0.316173 0.0897648 0.554729 0.387982 0.0910084 0.486622
          0.0519335 0.0584848 0.350848 0.089927 0.0645819 0.43286
          0.102322 0.0639772 0.375425 -0.0211191 0.0597525 0.441455
          0.0389648 -0.00539303 -0.0891458 0.0540152 0.00252499 -0.0946214
          0.0245713 -0.00500875 -0.104985 0.0418506 0.000676097 -0.0697344
          0.0359137 0.0362804 0.0463107 0.0540385 0.0279604 -0.0683123
          -0.0258321 0.0283266 0.00106752 0.0887729 0.0367918 0.00698102
          0.137233 -0.0135718 -0.504352 0.119042 -0.0136001 -0.539299
          0.132045 -0.0137283 -0.536958 0.154852 -0.0116642 -0.533339
          -0.02311 -0.0128779 -0.364239 -0.0308071 -0.0103616 -0.3191
          0.0327647 -0.0109596 -0.337261 -0.0228156 -0.00921044 -0.364747
          0.0437957 0.0214384 -0.141935 -0.0209827 0.0198814 -0.106826
          0.0540385 0.0279604 -0.0683123 0.0692071 0.0290328 -0.0736489
          0.164565 -0.0133876 -0.382405 0.160203 -0.0119435 -0.337823
          0.122055 -0.0136552 -0.391712 0.102925 -0.01385 -0.339323
          0.197509 0.00429118 -0.539182 0.163709 -0.000792662 -0.549448
          0.145549 -0.00508143 -0.577714 0.180281 -0.00286856 -0.557066
          0.217678 0.0968129 0.834652 0.165257 0.0931675 0.813209
          0.268238 0.0953534 0.771063 0.224695 0.0953553 0.846221
          0.0337389 0.0794948 0.770988 0.100937 0.0804062 0.671573
          0.00350164 0.0727373 0.630668 0.100789 0.0866501 0.753101
          0.0487702 -0.0173093 -0.0310522 0.0463084 -0.0174144 -0.0414897
          0.0385235 -0.0105734 -0.0388337 0.063013 -0.0157642 -0.0456833
          0.114543 -0.00627446 -0.607233 0.123019 0.00231494 -0.613989
          0.113683 -0.00346981 -0.617295 0.120129 -0.00615696 -0.608411
          0.141147 0.100371 0.938067 0.204595 0.0961512 0.949524
          0.180715 0.0976954 0.945894 0.148758 0.0957216 0.968415
          0.272434 0.0195054 -0.327936 0.216692 0.0189193 -0.322874
          0.279438 0.0225269 -0.278857 0.285631 0.0272575 -0.283759
          0.0653537 -0.018359 -0.55754 0.064645 -0.0229194 -0.556744
          0.0808666 -0.022248 -0.583 0.0914105 -0.0189928 -0.58394
          0.364544 0.0778847 0.37568 0.27609 0.0684555 0.293154
          0.282707 0.0780598 0.447798 0.240365 0.0719055 0.361752
          0.181436 0.0819169 0.673158 0.296649 0.0901879 0.64528
          0.201989 0.0793398 0.615495 0.252053 0.0846894 0.591048
          0.0527092 0.00222036 -0.446413 0.0654843 -0.00281992 -0.4944
          0.0816163 -2.51321e-05 -0.451585 0.0677674 -0.000179497 -0.487995
          0.111468 -0.0123134 -0.602749 0.103987 -0.0142188 -0.596435
          0.104386 -0.0161113 -0.608847 0.114299 -0.00953216 -0.601565
          -0.0355365 -0.0141714 -0.273168 0.0157321 -0.0143898 -0.251108
          0.00213241 -0.0128252 -0.289606 0.0266702 -0.0125329 -0.259877
          0.0261287 -0.0124198 -0.465925 0.0170272 -0.008019 -0.442072
          0.0657571 -0.0031679 -0.428833 0.00962742 -0.00493176 -0.396985
          0.137117 0.0163716 -0.314393 0.155675 0.013872 -0.375313
          0.229906 0.0269602 -0.297914 0.175406 0.0171797 -0.332993
          0.124962 0.103705 0.917689 0.141147 0.100371 0.938067
          0.0838931 0.102285 0.893233 0.11098 0.103607 0.870345
          0.0583685 -0.00316609 -0.0516314 0.0514059 0.00594786 -0.0423778
          0.0407461 -0.00197492 -0.0545277 0.0303638 -0.00158471 -0.0321671
          0.122749 0.0083212 -0.401283 0.125164 0.0053151 -0.431484
          0.155675 0.013872 -0.375313 0.0919653 0.00584569 -0.369417
          0.228849 0.0575983 0.213013 0.116016 0.0552688 0.266951
          0.239777 0.0639908 0.300576 0.165688 0.0612821 0.281712
          -0.0158773 0.0100494 -0.249103 0.0734512 0.0151683 -0.243691
          0.0202828 0.0114123 -0.276286 0.0508163 0.00841701 -0.326806
          0.126597 0.045842 0.0973606 0.165241 0.0545551 0.192337
          0.0799235 0.0462954 0.15972 0.161857 0.0498687 0.153568
          0.0337951 -0.0196446 -0.535277 0.0283937 -0.0250899 -0.531799
          0.0535114 -0.0187996 -0.526146 0.0172693 -0.0198767 -0.502773
          0.0274571 -0.00635234 -0.0179501 0.0182165 -0.00767366 -0.0242749
          0.0220256 -0.0109318 -0.0199872 0.013461 -0.00348063 -0.0158737
          0.0686171 -0.0179506 -0.138966 0.0603776 -0.0173095 -0.104529
          0.110093 -0.0200852 -0.141493 0.073345 -0.0152032 -0.0979749
          0.114469 -0.00938039 -0.604088 0.106885 -0.0166778 -0.610537
          0.109254 -0.0117923 -0.604306 0.0984941 -0.0173699 -0.601281
          0.282707 0.0780598 0.447798 0.298245 0.0824615 0.466509
          0.293499 0.0841291 0.540835 0.376057 0.088585 0.525818
          0.378097 0.0840946 0.326979 0.297489 0.0760461 0.273847
          0.345247 0.0849373 0.333469 0.368693 0.0796129 0.22943
          0.0337169 0.0592017 0.420383 0.117833 0.067363 0.48689
          0.0594662 0.0664747 0.514154 -0.0169867 0.0583781 0.508089
          0.153746 -0.0166346 -0.580158 0.137741 -0.00834925 -0.591306
          0.135136 -0.0161269 -0.592202 0.130566 -0.0141443 -0.594765
          -0.0390216 -0.0145598 -0.228437 -0.0417754 -0.0127901 -0.19048
          0.00402628 -0.0122154 -0.223718 -0.0405949 -0.0121653 -0.220618
          0.0907144 0.0927309 0.71224 0.127105 0.0876495 0.701116
          0.108162 0.0929403 0.778368 0.0201388 0.0872946 0.682538
          0.0311669 -0.015471 -0.372513 0.0487007 -0.016142 -0.343334
          0.0331346 -0.0139518 -0.311202 0.0101504 -0.0167399 -0.34114
          0.28714 0.0650225 0.175661 0.344461 0.0653814 0.18953
          0.254682 0.0561024 0.122055 0.344346 0.0656273 0.127083
          0.0418506 0.000676097 -0.0697344 0.0540152 0.00252499 -0.0946214
          0.0245713 -0.00500875 -0.104985 0.0176904 -0.00353163 -0.0727868
          0.0385235 -0.0105734 -0.0388337 0.0220256 -0.0109318 -0.0199872
          0.046611 -0.0127395 -0.0281452 0.045819 -0.00779774 -0.0366013
          0.267528 0.060776 0.191131 0.165241 0.0545551 0.192337
          0.239744 0.0627337 0.215118 0.185124 0.05297 0.131345
          0.0881059 -0.0270881 -0.606613 0.102214 -0.0221425 -0.614932
          0.10517 -0.0159049 -0.610222 0.0984941 -0.0173699 -0.601281
          -0.0383281 -0.0105095 -0.0693774 -0.042216 -0.0112982 -0.106801
          -0.0295031 -0.0100554 -0.0861512 -0.0152809 -0.00864801 -0.0931318
          0.180281 -0.00286856 -0.557066 0.172754 -0.00977107 -0.561995
          0.137254 -0.010044 -0.578733 0.162 -0.00546711 -0.577397
          0.0925113 -0.0100672 -0.58693 0.105112 -0.0109623 -0.591591
          0.107431 -0.00998447 -0.605534 0.0865935 -0.00428175 -0.59029
          0.0269824 0.0190862 -0.166782 -0.0206594 0.0140266 -0.187186
          -0.026268 0.0158844 -0.168531 -0.0244421 0.0178141 -0.132669
          0.110055 -0.0119697 -0.4245 0.122055 -0.0136552 -0.391712
          0.132605 -0.0129756 -0.428618 0.120859 -0.0118386 -0.3705
          0.130132 -0.0142512 -0.513988 0.163383 -0.0132896 -0.490656
          0.159245 -0.0136275 -0.519906 0.164177 -0.0141855 -0.483115
          0.049659 -0.0222241 -0.516821 0.0118425 -0.0240072 -0.475595
          0.0172693 -0.0198767 -0.502773 0.0283937 -0.0250899 -0.531799
          0.0890549 -0.00504081 -0.59431 0.0998489 -0.00965086 -0.589306
          0.0801628 -0.00822523 -0.571445 0.0992329 -0.00753719 -0.587347
          0.0535114 -0.0187996 -0.526146 0.0410239 -0.0180549 -0.471625
          0.0135894 -0.016901 -0.492048 0.0172693 -0.0198767 -0.502773
          0.0966303 -0.0151294 -0.230152 0.10478 -0.018128 -0.212972
          0.135107 -0.0174963 -0.199185 0.101464 -0.0152337 -0.183591
          0.270051 0.0400479 -0.0453142 0.204543 0.0383668 -0.0282422
          0.251511 0.0450642 -0.00310106 0.23391 0.0395448 -0.0669595
          0.0508293 -0.0107902 -0.0918145 0.073345 -0.0152032 -0.0979749
          0.0732646 -0.0135404 -0.135977 0.105846 -0.0102429 -0.126556
          0.0116505 -0.0055628 -0.385172 0.00962742 -0.00493176 -0.396985
          0.0919653 0.00584569 -0.369417 0.00379622 2.43316e-05 -0.336744
          0.332017 0.109344 1.02927 0.289143 0.105429 1.04493
          0.336045 0.105767 1.0392 0.335373 0.10664 1.00044
          0.133529 -0.0122415 -0.442996 0.165818 -0.0119508 -0.421795
          0.110055 -0.0119697 -0.4245 0.165496 -0.012174 -0.412527
          0.110055 -0.0119697 -0.4245 0.165818 -0.0119508 -0.421795
          0.133529 -0.0122415 -0.442996 0.130047 -0.0108439 -0.391734
          0.184437 0.0145785 -0.571365 0.171264 0.00623301 -0.573364
          0.209308 0.0137501 -0.529951 0.15353 0.000570539 -0.562779
          0.0275312 0.0035501 -0.0515769 0.0247822 0.00224888 -0.0362098
          0.00965275 -0.00343188 -0.0436944 0.0418506 0.000676097 -0.0697344
          0.106311 0.0874838 0.977511 0.0967532 0.0787728 0.992186
          0.148946 0.0951903 0.97766 0.0967532 0.0787728 0.992186
          0.216196 0.0956329 0.913168 0.204595 0.0961512 0.949524
          0.251644 0.0986556 0.9563 0.231761 0.0961351 0.92421
          0.203901 0.0897619 1.07521 0.146166 0.0938949 1.01979
          0.145882 0.0938932 1.06259 0.1552 0.0906953 1.03528
          0.0556986 -0.0149003 -0.231736 0.0966303 -0.0151294 -0.230152
          0.0475774 -0.0167668 -0.194693 0.10478 -0.018128 -0.212972
          0.0819398 -0.0260363 -0.591521 0.0512157 -0.0221583 -0.559286
          0.0853375 -0.0184729 -0.58789 0.073082 -0.0182206 -0.580329
          0.303862 0.0937414 0.696053 0.268238 0.0953534 0.771063
          0.298834 0.0968458 0.818175 0.272704 0.0935405 0.736088
          0.0885485 -0.0107869 -0.567941 0.120205 -0.0074673 -0.574662
          0.109413 -0.00731356 -0.560632 0.0998489 -0.00965086 -0.589306
          0.359992 0.10765 0.826851 0.293472 0.0994953 0.79386
          0.272881 0.101595 0.900105 0.293221 0.100629 0.862298
          0.0819398 -0.0260363 -0.591521 0.0853375 -0.0184729 -0.58789
          0.0982553 -0.0211777 -0.602659 0.0864786 -0.020683 -0.591283
          0.0481888 -0.0126734 -0.4751 0.0674725 -0.0100434 -0.47284
          0.049198 -0.0109875 -0.426503 0.0896834 -0.01342 -0.474792
          0.0410239 -0.0180549 -0.471625 0.0705408 -0.0141881 -0.470342
          0.0894282 -0.0157141 -0.475633 0.0665471 -0.0159942 -0.505201
          0.315148 0.0456464 -0.206792 0.227347 0.0341367 -0.239023
          0.279336 0.0377699 -0.265338 0.239664 0.0342104 -0.217622
          0.272272 0.0982259 0.871623 0.217678 0.0968129 0.834652
          0.224695 0.0953553 0.846221 0.216196 0.0956329 0.913168
          0.131919 0.0935166 1.0631 0.165145 0.0940771 1.01785
          0.11299 0.0952604 1.06038 0.161148 0.0923967 1.06649
          0.330875 0.112426 1.07607 0.26761 0.10803 1.03604
          0.329085 0.113175 1.04334 0.284176 0.113884 1.09618
          0.23391 0.0395448 -0.0669595 0.137108 0.0320141 -0.0853689
          0.149682 0.0387796 -0.00792568 0.163842 0.0365633 -0.0716904
          0.0679743 -0.0153294 -0.306575 0.0608181 -0.012833 -0.282402
          0.0556986 -0.0149003 -0.231736 0.0927891 -0.0138988 -0.27258
          0.146533 -0.0142383 -0.451025 0.124448 -0.0143225 -0.471353
          0.131259 -0.0138379 -0.510261 0.10645 -0.0155909 -0.489206
          0.378097 0.0840946 0.326979 0.300097 0.0831428 0.404996
          0.345247 0.0849373 0.333469 0.297489 0.0760461 0.273847
          0.18131 0.00998128 -0.509551 0.15353 0.000570539 -0.562779
          0.179763 0.00577853 -0.528465 0.130792 -0.000960639 -0.550484
          0.0368505 -0.00613969 -0.0433125 0.0425707 -0.0036721 -0.0331096
          0.013461 -0.00348063 -0.0158737 0.045819 -0.00779774 -0.0366013
          0.289816 0.0991194 0.922122 0.341624 0.10169 0.94404
          0.268008 0.0960197 0.961097 0.282294 0.0987585 0.988705
          0.188102 -0.00147667 -0.451478 0.139514 0.000511914 -0.444654
          0.176877 0.00304432 -0.402251 0.16371 0.00418987 -0.421372
          0.246998 0.00343406 -0.395046 0.205526 0.00822017 -0.38119
          0.262565 0.0127976 -0.353888 0.249159 0.00900184 -0.406363
          0.0979294 -0.0116895 -0.552479 0.128281 -0.014775 -0.553089
          0.112709 -0.0131223 -0.570554 0.110032 -0.012015 -0.542389
          0.0540152 0.00252499 -0.0946214 0.0418506 0.000676097 -0.0697344
          0.0809459 0.00664006 -0.0918569 0.0452555 0.00867015 -0.051966
          0.0746714 0.0731584 0.661841 0.100937 0.0804062 0.671573
          0.0173037 0.072694 0.712974 0.12824 0.0807888 0.747178
          0.0654843 -0.00281992 -0.4944 0.0677674 -0.000179497 -0.487995
          0.0423568 -0.000690955 -0.520877 0.0877043 -0.0027958 -0.528633
          0.25679 0.05184 -0.0499682 0.331839 0.0569946 -0.0477761
          0.313974 0.0649467 0.0409103 0.274803 0.0541389 -0.0163549
          0.0337169 0.0592017 0.420383 0.0982184 0.0600215 0.359552
          0.089927 0.0645819 0.43286 0.117833 0.067363 0.48689
          0.113901 -0.0112095 -0.282981 0.0910404 -0.00871713 -0.248485
          0.101176 -0.00783675 -0.284289 0.0829969 -0.0109702 -0.307637
          0.239744 0.0627337 0.215118 0.165688 0.0612821 0.281712
          0.267607 0.0706221 0.272312 0.15796 0.0626744 0.270179
          0.132605 -0.0129756 -0.428618 0.108289 -0.0142089 -0.434857
          0.122055 -0.0136552 -0.391712 0.0801865 -0.0129857 -0.431223
          0.134062 0.00401747 -0.464844 0.0948104 -0.00236865 -0.481413
          0.125164 0.0053151 -0.431484 0.135703 0.0025933 -0.49578
          0.336675 0.107926 0.957762 0.284969 0.105508 0.994064
          0.330412 0.111551 1.00014 0.335373 0.10664 1.00044
          0.0640984 0.0457958 0.114738 0.039149 0.0478322 0.166498
          -0.0095751 0.0449849 0.183895 0.0635172 0.0515351 0.19353
          0.0689447 -0.0128604 -0.335303 0.0829969 -0.0109702 -0.307637
          0.0327647 -0.0109596 -0.337261 0.0419592 -0.0119604 -0.304688
          0.00020316 -0.00504482 -0.026493 0.00562483 -0.00357756 -0.0126354
          0.00765602 -0.0064143 -0.0148698 0.0108895 -0.00577718 -0.0287179
          0.049462 0.0234903 -0.116728 0.137108 0.0320141 -0.0853689
          0.0540385 0.0279604 -0.0683123 0.0994822 0.0329572 -0.0324757
          0.0695339 -0.0077584 -0.112705 0.0567513 -0.00688996 -0.0800162
          0.0931616 -0.0105415 -0.0987839 0.0954823 -0.0039651 -0.106414
          0.141147 0.100371 0.938067 0.115205 0.101212 0.962865
          0.107308 0.105929 0.93937 0.0838931 0.102285 0.893233
          0.0992901 0.104541 0.989552 0.0992901 0.104541 0.989552
          0.106761 0.101082 1.02841 0.111359 0.103038 1.02849
          0.0311669 -0.015471 -0.372513 0.0276634 -0.0124395 -0.381452
          -0.0202432 -0.0154642 -0.375762 0.00753595 -0.0138764 -0.340524
          0.163842 0.0365633 -0.0716904 0.0887729 0.0367918 0.00698102
          0.149682 0.0387796 -0.00792568 0.161268 0.0430777 0.00556753
          -0.0308071 -0.0103616 -0.3191 -0.0144376 -0.00790873 -0.306156
          0.00691554 -0.00994981 -0.300825 0.0119736 -0.00702655 -0.341033
          0.0830577 0.0694311 0.477071 0.11408 0.0677137 0.376145
          0.179831 0.069947 0.368224 0.102322 0.0639772 0.375425
          0.15353 0.000570539 -0.562779 0.120205 -0.0074673 -0.574662
          0.130862 -0.00448618 -0.596049 0.145549 -0.00508143 -0.577714
          0.300097 0.0831428 0.404996 0.222461 0.0782877 0.41735
          0.221318 0.0782606 0.38677 0.276815 0.0802136 0.346431
          0.0290398 -0.0139909 -0.0689169 0.0303649 -0.0119405 -0.0807488
          0.0605018 -0.0184435 -0.0762623 0.0603776 -0.0173095 -0.104529
          0.127413 -0.00533943 -0.584442 0.150403 0.00210831 -0.583032
          0.15353 0.000570539 -0.562779 0.130862 -0.00448618 -0.596049
          0.0887729 0.0367918 0.00698102 0.0449238 0.0339339 0.00411554
          0.0359137 0.0362804 0.0463107 0.0583242 0.0419076 0.088712
          0.0742199 -0.00934427 -0.556536 0.0553065 0.00140284 -0.56841
          0.0865935 -0.00428175 -0.59029 0.0648896 -0.00151987 -0.57823
          0.268238 0.0953534 0.771063 0.317504 0.0992951 0.814724
          0.272272 0.0982259 0.871623 0.224695 0.0953553 0.846221
          0.12962 -0.0179958 -0.581327 0.11472 -0.0137039 -0.576103
          0.128281 -0.014775 -0.553089 0.112709 -0.0131223 -0.570554
          0.189171 0.00696049 -0.46894 0.176831 0.00185096 -0.511452
          0.147387 0.00173919 -0.514186 0.179763 0.00577853 -0.528465
          -0.00896293 -0.00640648 -0.0407497 -0.0116991 -0.00495655 -0.029839
          0.00020316 -0.00504482 -0.026493 -0.0075844 -0.00783516 -0.0507497
          -0.0272993 0.0550045 0.375903 0.0337169 0.0592017 0.420383
          0.0519335 0.0584848 0.350848 0.089927 0.0645819 0.43286
          0.100967 0.0376856 -0.0124784 0.0692071 0.0290328 -0.0736489
          0.0887729 0.0367918 0.00698102 0.0449238 0.0339339 0.00411554
          0.104664 -0.012164 -0.609688 0.107318 -0.0140032 -0.607226
          0.111468 -0.0123134 -0.602749 0.104248 -0.00998517 -0.60549
          0.129355 -0.0141182 -0.578393 0.130566 -0.0141443 -0.594765
          0.137254 -0.010044 -0.578733 0.133596 -0.0181632 -0.590032
          0.129355 -0.0141182 -0.578393 0.114991 -0.0139796 -0.594954
          0.137254 -0.010044 -0.578733 0.130566 -0.0141443 -0.594765
          0.0483354 -0.00442074 -0.55277 0.074161 -0.0108072 -0.582806
          0.0801628 -0.00822523 -0.571445 0.076987 -0.00403773 -0.579963
          0.0118425 -0.0240072 -0.475595 -0.00751634 -0.0214847 -0.407104
          0.0326146 -0.0205887 -0.428346 -0.00694388 -0.0196739 -0.43155
          0.101268 -0.0133311 -0.59472 0.0836865 -0.0155189 -0.576022
          0.102221 -0.0132634 -0.576693 0.0925113 -0.0100672 -0.58693
          0.188102 -0.00147667 -0.451478 0.190515 0.00181038 -0.453267
          0.176877 0.00304432 -0.402251 0.205526 0.00822017 -0.38119
          -0.0390216 -0.0145598 -0.228437 -0.00275804 -0.0140178 -0.20773
          -0.0048344 -0.0120173 -0.183844 -0.0417754 -0.0127901 -0.19048
          -0.0213389 0.0540566 0.325313 -0.0209697 0.0473978 0.229358
          0.0689063 0.0561299 0.274001 -0.0268066 0.0509021 0.288966
          0.0667859 -0.00492085 -0.132948 0.0608994 -0.00221483 -0.159693
          0.0862894 -0.00400199 -0.166307 0.0338639 -0.00745357 -0.153426
          0.378687 0.0993396 0.685729 0.290993 0.0932419 0.690529
          0.302232 0.0971933 0.769835 0.380329 0.099153 0.71259
          0.0817732 -0.00910394 -0.520643 0.0871718 -0.0133081 -0.56754
          0.0821075 -0.013979 -0.552556 0.117983 -0.00211367 -0.53106
          0.100967 0.0376856 -0.0124784 0.159365 0.0442869 -0.00337952
          0.192396 0.0511354 0.0569261 0.161268 0.0430777 0.00556753
          0.106885 -0.0166778 -0.610537 0.112644 -0.0104976 -0.615798
          0.110326 -0.021099 -0.615295 0.112472 -0.00908123 -0.617884
          0.0337951 -0.0196446 -0.535277 0.0172693 -0.0198767 -0.502773
          0.0535114 -0.0187996 -0.526146 0.0270565 -0.014071 -0.52226
          0.158504 0.0967715 0.763692 0.186477 0.0935983 0.764036
          0.205824 0.0927761 0.710946 0.216483 0.0943034 0.778517
          -0.00726708 0.0149956 -0.161331 0.0500145 0.0249025 -0.112389
          0.0688902 0.018373 -0.205679 -0.000573831 0.0145488 -0.167424
          0.0638506 0.00594671 -0.330755 0.0882954 0.0139789 -0.275434
          0.115975 0.0128998 -0.314557 0.137117 0.0163716 -0.314393
          0.119042 -0.0136001 -0.539299 0.0845509 -0.0178131 -0.501965
          0.102378 -0.0147507 -0.539178 0.0828441 -0.0184706 -0.529701
          0.177759 0.0101018 -0.451713 0.189171 0.00696049 -0.46894
          0.18131 0.00998128 -0.509551 0.231423 0.0159505 -0.487696
          0.01461 0.00723765 -0.34214 0.0764155 0.00741455 -0.357328
          0.0273608 0.00523286 -0.404675 0.0548873 0.00331069 -0.396044
          0.177759 0.0101018 -0.451713 0.135703 0.0025933 -0.49578
          0.125164 0.0053151 -0.431484 0.153324 0.009434 -0.465698
          0.220738 0.0983866 1.03044 0.22275 0.104812 1.04279
          0.233002 0.103482 1.08172 0.19409 0.0993376 1.07089
          0.22275 0.104812 1.04279 0.216442 0.11019 1.08311
          0.233002 0.103482 1.08172 0.19409 0.0993376 1.07089
          0.216692 0.0189193 -0.322874 0.177392 0.0114892 -0.3605
          0.215632 0.0156658 -0.31289 0.182105 0.0194951 -0.264953
          0.0715879 -0.0107643 -0.570157 0.0480688 -0.0136174 -0.554683
          0.0683278 -0.00911235 -0.575633 0.0859557 -0.0131762 -0.586375
          0.0659989 -0.00118024 -0.559713 0.0805224 -0.000891983 -0.581501
          0.0742199 -0.00934427 -0.556536 0.0553065 0.00140284 -0.56841
          0.0817732 -0.00910394 -0.520643 0.110675 -0.00367405 -0.515213
          0.0948104 -0.00236865 -0.481413 0.0696074 -0.00701453 -0.503281
          0.257162 0.0452472 -0.0826948 0.323171 0.0510428 -0.116229
          0.331839 0.0569946 -0.0477761 0.324155 0.0518298 -0.0383277
          0.0558022 -0.0109937 -0.389167 0.0769836 -0.0103014 -0.421409
          0.0834431 -0.0103708 -0.372283 0.110055 -0.0119697 -0.4245
          0.0876554 0.0583691 0.26528 0.0467083 0.0485772 0.184625
          0.0689063 0.0561299 0.274001 -0.0155251 0.0493815 0.243135
          0.163956 0.0390901 -0.0880543 0.185682 0.0349137 -0.171147
          0.229061 0.0449968 -0.0778743 0.168288 0.0375999 -0.0873447
          0.316074 0.0917422 0.635195 0.378063 0.0956028 0.621907
          0.384595 0.0956412 0.62046 0.378687 0.0993396 0.685729
          0.0157321 -0.0143898 -0.251108 0.00727071 -0.0159958 -0.292999
          0.0490511 -0.0173693 -0.279308 0.0213185 -0.0168699 -0.245591
          0.252053 0.0846894 0.591048 0.293499 0.0841291 0.540835
          0.237126 0.0794021 0.50115 0.296192 0.0875151 0.559671
          0.0825549 -0.00948852 -0.155184 0.11946 -0.0121716 -0.160773
          0.126891 -0.00861598 -0.183665 0.112393 -0.0041933 -0.142377
          0.231761 0.0961351 0.92421 0.204595 0.0961512 0.949524
          0.268008 0.0960197 0.961097 0.180715 0.0976954 0.945894
          0.0331346 -0.0139518 -0.311202 0.0679743 -0.0153294 -0.306575
          0.0608181 -0.012833 -0.282402 0.0157321 -0.0143898 -0.251108
          0.0364287 -0.00142277 -0.359323 0.0832282 0.0038756 -0.376847
          0.0638506 0.00594671 -0.330755 0.0116505 -0.0055628 -0.385172
          0.0556986 -0.0149003 -0.231736 0.0983677 -0.0115942 -0.227508
          0.0737005 -0.0132091 -0.182875 0.0966303 -0.0151294 -0.230152
          0.112472 -0.00908123 -0.617884 0.120129 -0.00615696 -0.608411
          0.112637 -0.0103711 -0.611269 0.119565 -0.00358364 -0.614347
          0.239744 0.0627337 0.215118 0.15796 0.0626744 0.270179
          0.267607 0.0706221 0.272312 0.172727 0.0572523 0.179964
          0.0720016 0.0386142 0.0590978 0.126597 0.045842 0.0973606
          0.161857 0.0498687 0.153568 0.182741 0.0456925 0.0767849
          0.130585 0.0390306 0.0287109 0.126597 0.045842 0.0973606
          0.0720016 0.0386142 0.0590978 0.182741 0.0456925 0.0767849
          -0.0209827 0.0198814 -0.106826 -0.0199145 0.0267211 -0.024701
          0.0540385 0.0279604 -0.0683123 0.0692071 0.0290328 -0.0736489
          0.109413 -0.00731356 -0.560632 0.117073 -0.00842294 -0.561124
          0.0877043 -0.0027958 -0.528633 0.0843502 -0.00391901 -0.563047
          0.0150799 -0.0144693 -0.140254 0.0458732 -0.0163192 -0.155792
          0.0425612 -0.0137818 -0.154251 0.0347523 -0.014953 -0.10816
          0.285631 0.0272575 -0.283759 0.292862 0.0326986 -0.268318
          0.216692 0.0189193 -0.322874 0.213557 0.025394 -0.25746
          -0.0048344 -0.0120173 -0.183844 -0.0421975 -0.0121278 -0.149963
          -0.0410849 -0.0131109 -0.178468 -0.0116154 -0.0127112 -0.160316
          0.162043 0.0441457 -0.0289436 0.25679 0.05184 -0.0499682
          0.198498 0.0519682 0.0225208 0.159365 0.0442869 -0.00337952
          0.0257655 -0.0133371 -0.43445 0.049198 -0.0109875 -0.426503
          0.0276634 -0.0124395 -0.381452 0.0801865 -0.0129857 -0.431223
          0.049462 0.0234903 -0.116728 0.0269824 0.0190862 -0.166782
          -0.026268 0.0158844 -0.168531 -0.0244421 0.0178141 -0.132669
          0.289816 0.0991194 0.922122 0.285884 0.101867 0.926939
          0.292096 0.102758 0.964551 0.251644 0.0986556 0.9563
          0 0 0 0.0105776 0.00504842 -0.00736282
          0 0 0 0.0062396 0.00749469 -0.00317775
          0.100508 -0.0172467 -0.594197 0.111776 -0.0247358 -0.601291
          0.1144 -0.0159403 -0.605091 0.107518 -0.0214738 -0.605715
          0.378687 0.0993396 0.685729 0.302232 0.0971933 0.769835
          0.370712 0.103799 0.763024 0.380329 0.099153 0.71259
          0.169989 0.0988924 1.0076 0.0967532 0.0787728 0.992186
          0.14422 0.101679 1.03743 0.0967532 0.0787728 0.992186
          0.0176904 -0.00353163 -0.0727868 -0.0096781 -0.00610029 -0.0620695
          0.0048109 -0.00256661 -0.0414316 0.0159457 -0.000758185 -0.0663928
          0.112709 -0.0131223 -0.570554 0.128281 -0.014775 -0.553089
          0.130675 -0.016316 -0.55811 0.110032 -0.012015 -0.542389
          0.120129 -0.00615696 -0.608411 0.1297 9.87133e-05 -0.605701
          0.119565 -0.00358364 -0.614347 0.127146 -0.00193784 -0.605756
          -0.0157458 0.0323379 0.0389614 0.0583242 0.0419076 0.088712
          -0.0171148 0.0401223 0.136628 -0.0240479 0.0354399 0.0821265
          0.165257 0.0931675 0.813209 0.186567 0.0895988 0.781783
          0.268238 0.0953534 0.771063 0.224695 0.0953553 0.846221
          0.0746342 -0.0182243 -0.408703 0.0864608 -0.0150371 -0.385583
          0.0782603 -0.0163881 -0.431469 0.0615418 -0.0146903 -0.401189
          0.0368281 -0.00633565 -0.419251 -0.00659978 -0.00503852 -0.411353
          -0.0126592 -0.0086086 -0.409138 0.0249799 -0.00927824 -0.386426
          0.0603935 -0.0166081 -0.565105 0.0970682 -0.00880874 -0.546836
          0.0885485 -0.0107869 -0.567941 0.0871718 -0.0133081 -0.56754
          0.086844 0.0241004 -0.145402 0.0567087 0.0165835 -0.211871
          0.0437957 0.0214384 -0.141935 0.0991005 0.026316 -0.14341
          0.0623433 -0.00899144 -0.27071 0.0910404 -0.00871713 -0.248485
          0.0491411 -0.00599707 -0.241803 0.0444503 -0.00882003 -0.221329
          0.280246 0.0724522 0.393062 0.185828 0.0648493 0.366047
          0.24751 0.0759489 0.490251 0.282707 0.0780598 0.447798
          0.293875 0.0479188 -0.149752 0.227347 0.0341367 -0.239023
          0.315148 0.0456464 -0.206792 0.239664 0.0342104 -0.217622
          0.159365 0.0442869 -0.00337952 0.168288 0.0375999 -0.0873447
          0.229061 0.0449968 -0.0778743 0.219222 0.0486119 -0.00572604
          -0.0384657 -0.00944187 -0.0839381 -0.0112473 -0.00867774 -0.0676795
          -0.0075844 -0.00783516 -0.0507497 -0.0347885 -0.00779776 -0.0616949
          0.113639 -0.0132619 -0.522822 0.121678 -0.0131649 -0.477031
          0.134357 -0.0146054 -0.509884 0.0964633 -0.0116014 -0.498097
          0.0742199 -0.00934427 -0.556536 0.0670694 -0.0106223 -0.51427
          0.0979294 -0.0116895 -0.552479 0.0559069 -0.00708235 -0.53041
          0.200648 0.0214733 -0.214665 0.135582 0.0211458 -0.209163
          0.199466 0.0297779 -0.163731 0.182105 0.0194951 -0.264953
          0.0381607 -0.0153411 -0.0506569 0.0292423 -0.0145331 -0.0274994
          0.021377 -0.0104381 -0.0359205 0.016022 -0.0112065 -0.0373548
          0.0481888 -0.0126734 -0.4751 0.000362789 -0.0130793 -0.455538
          0.0129194 -0.0132095 -0.492054 0.00408605 -0.0172167 -0.465409
          -0.0209697 0.0473978 0.229358 -0.0227431 0.040404 0.146911
          0.0467083 0.0485772 0.184625 -0.0276234 0.0433722 0.194733
          0.276815 0.0802136 0.346431 0.269623 0.0833918 0.439675
          0.300097 0.0831428 0.404996 0.345247 0.0849373 0.333469
          -0.0386929 -0.00973485 -0.0876329 -0.0396448 -0.0102092 -0.109624
          -0.042216 -0.0112982 -0.106801 -0.010015 -0.0095234 -0.104158
          0.168513 0.0943187 0.953422 0.251644 0.0986556 0.9563
          0.216313 0.0984366 0.955905 0.204595 0.0961512 0.949524
          0.198685 0.0945086 0.918357 0.200281 0.0922869 0.909085
          0.247261 0.101271 0.929042 0.201574 0.0974581 0.951197
          0.0583965 0.0997503 0.826217 0.0647625 0.0955917 0.842871
          0.141876 0.0985264 0.846848 0.0838931 0.102285 0.893233
          0.0590884 -0.0139826 -0.503316 0.0261287 -0.0124198 -0.465925
          0.0817732 -0.00910394 -0.520643 0.0701937 -0.00792453 -0.467995
          0.0176904 -0.00353163 -0.0727868 0.0188405 -0.00834344 -0.0945442
          0.0389648 -0.00539303 -0.0891458 0.0165473 -0.00617679 -0.0509829
          0.32407 0.0527487 0.00931725 0.271213 0.0549191 0.0653578
          0.332187 0.0577736 0.0357389 0.243538 0.045937 -0.0299528
          0.271213 0.0549191 0.0653578 0.161268 0.0430777 0.00556753
          0.219222 0.0486119 -0.00572604 0.243538 0.045937 -0.0299528
          -0.038764 -0.0152156 -0.219229 -0.0150094 -0.0166441 -0.254014
          -0.00275804 -0.0140178 -0.20773 0.0213185 -0.0168699 -0.245591
          0.213365 0.058239 0.10934 0.25535 0.057476 0.0852052
          0.35358 0.070367 0.118803 0.238454 0.0638716 0.176386
          0.165557 -0.0137598 -0.4616 0.164177 -0.0141855 -0.483115
          0.16549 -0.0131014 -0.449159 0.121678 -0.0131649 -0.477031
          0.134357 -0.0146054 -0.509884 0.121678 -0.0131649 -0.477031
          0.113639 -0.0132619 -0.522822 0.130132 -0.0142512 -0.513988
          -0.0343607 -0.0175614 -0.288495 0.00727071 -0.0159958 -0.292999
          -0.0360913 -0.0157609 -0.267026 -0.0150094 -0.0166441 -0.254014
          -0.0343607 -0.0175614 -0.288495 -0.0273646 -0.016129 -0.335138
          -0.0360913 -0.0157609 -0.267026 0.00727071 -0.0159958 -0.292999
          0 0 0 0.0220256 -0.0109318 -0.0199872
          0 0 0 0 0 0
          0.103294 -0.00986613 -0.605495 0.0973108 -0.00874778 -0.600482
          0.110311 -0.011447 -0.600512 0.106057 -0.0116458 -0.606543
          0.247261 0.101271 0.929042 0.201574 0.0974581 0.951197
          0.254201 0.103492 0.959385 0.198685 0.0945086 0.918357
          0.0487702 -0.0173093 -0.0310522 0.0523025 -0.0114998 -0.0165859
          0.046611 -0.0127395 -0.0281452 0.0220256 -0.0109318 -0.0199872
          0.0277829 -0.0133178 -0.215086 -0.00275804 -0.0140178 -0.20773
          0.0171834 -0.0131376 -0.175025 -0.0048344 -0.0120173 -0.183844
          0.0862894 -0.00400199 -0.166307 0.0608994 -0.00221483 -0.159693
          0.0698431 -0.00822036 -0.18142 0.0338639 -0.00745357 -0.153426
          0.269623 0.0833918 0.439675 0.300097 0.0831428 0.404996
          0.271522 0.0837749 0.481467 0.222461 0.0782877 0.41735
          0.0535114 -0.0187996 -0.526146 0.0821186 -0.0163022 -0.547193
          0.0653537 -0.018359 -0.55754 0.0647985 -0.0129255 -0.545036
          0.198685 0.0945086 0.918357 0.137992 0.0809897 0.939445
          0.153914 0.0798208 0.88027 0.156753 0.0825092 0.929123
          0.122055 -0.0136552 -0.391712 0.163356 -0.0145944 -0.367459
          0.133888 -0.0146771 -0.401768 0.164565 -0.0133876 -0.382405
          0.27145 0.0922475 0.715046 0.296649 0.0901879 0.64528
          0.378687 0.0993396 0.685729 0.368553 0.104122 0.745728
          0.28714 0.0650225 0.175661 0.344346 0.0656273 0.127083
          0.359488 0.0745767 0.226421 0.35414 0.0709775 0.22333
          0.0667859 -0.00492085 -0.132948 0.0680056 -0.0011597 -0.0994993
          0.0695339 -0.0077584 -0.112705 0.112393 -0.0041933 -0.142377
          0.364544 0.0778847 0.37568 0.280246 0.0724522 0.393062
          0.366693 0.0817436 0.45118 0.282707 0.0780598 0.447798
          0.117073 -0.00842294 -0.561124 0.0992329 -0.00753719 -0.587347
          0.109413 -0.00731356 -0.560632 0.119123 -0.00951806 -0.581108
          0.181436 0.0819169 0.673158 0.260233 0.0868215 0.649864
          0.201989 0.0793398 0.615495 0.296649 0.0901879 0.64528
          0.161268 0.0430777 0.00556753 0.0887729 0.0367918 0.00698102
          0.100967 0.0376856 -0.0124784 0.0692071 0.0290328 -0.0736489
          0.26761 0.10803 1.03604 0.260994 0.10922 1.08958
          0.330875 0.112426 1.07607 0.289143 0.105429 1.04493
          0.0720016 0.0386142 0.0590978 -0.0153192 0.0401373 0.139303
          0.0799235 0.0462954 0.15972 0.0443352 0.0428983 0.124246
          0.130862 -0.00448618 -0.596049 0.118662 -0.0118541 -0.601902
          0.125961 -0.00727612 -0.600585 0.137741 -0.00834925 -0.591306
          0.158504 0.0967715 0.763692 0.0907144 0.0927309 0.71224
          0.108162 0.0929403 0.778368 0.107324 0.0996718 0.805121
          0.00213241 -0.0128252 -0.289606 0.0419592 -0.0119604 -0.304688
          0.0242242 -0.010768 -0.269019 0.0266702 -0.0125329 -0.259877
          0.12824 0.0807888 0.747178 0.109382 0.0908914 0.835634
          0.186567 0.0895988 0.781783 0.100789 0.0866501 0.753101
          0.216692 0.0189193 -0.322874 0.214694 0.0186287 -0.384992
          0.229906 0.0269602 -0.297914 0.280167 0.0290173 -0.330448
          0.161268 0.0430777 0.00556753 0.0887729 0.0367918 0.00698102
          0.126597 0.045842 0.0973606 0.158421 0.0496291 0.0897101
          0.387982 0.0910084 0.486622 0.316173 0.0897648 0.554729
          0.392529 0.0915396 0.470357 0.271522 0.0837749 0.481467
          0.316173 0.0897648 0.554729 0.296192 0.0875151 0.559671
          0.271522 0.0837749 0.481467 0.387982 0.0910084 0.486622
          0.0987473 -0.0156323 -0.593287 0.109724 -0.0136582 -0.587157
          0.111468 -0.0123134 -0.602749 0.101268 -0.0133311 -0.59472
          0.214788 0.10492 1.00424 0.172295 0.10293 0.999356
          0.185509 0.107383 1.03394 0.169989 0.0988924 1.0076
          0.0608994 -0.00221483 -0.159693 0.0698431 -0.00822036 -0.18142
          0.0502169 -0.00470133 -0.188891 0.0862894 -0.00400199 -0.166307
          0.0176904 -0.00353163 -0.0727868 0.0540152 0.00252499 -0.0946214
          0.0245713 -0.00500875 -0.104985 0.0159457 -0.000758185 -0.0663928
          0.0525426 0.0870027 0.823583 0.0337389 0.0794948 0.770988
          0.0433159 0.0880509 0.781563 0.100789 0.0866501 0.753101
          0.219222 0.0486119 -0.00572604 0.337898 0.0608716 0.0317743
          0.25535 0.057476 0.0852052 0.243538 0.045937 -0.0299528
          0.30514 0.0391761 -0.236674 0.279336 0.0377699 -0.265338
          0.280167 0.0290173 -0.330448 0.229906 0.0269602 -0.297914
          0.284176 0.113884 1.09618 0.24468 0.114842 1.09294
          0.256253 0.111304 1.03556 0.304568 0.113406 1.05426
          0.185509 0.107383 1.03394 0.14422 0.101679 1.03743
          0.18707 0.1075 1.04546 0.169989 0.0988924 1.0076
          0.153914 0.0798208 0.88027 0.209922 0.09271 0.859342
          0.133475 0.0765293 0.818985 0.154107 0.0883189 0.857766
          0.166592 0.0943382 0.957611 0.145903 0.092674 0.919067
          0.207948 0.0972424 0.9111 0.198685 0.0945086 0.918357
          0.329085 0.113175 1.04334 0.264721 0.107082 0.998789
          0.315774 0.113468 1.01396 0.304568 0.113406 1.05426
          0.0918535 -0.00127327 -0.184187 0.0751999 0.00105064 -0.137564
          0.0862894 -0.00400199 -0.166307 0.120583 0.00142762 -0.16821
          0.0907144 0.0927309 0.71224 0.0201388 0.0872946 0.682538
          0.108162 0.0929403 0.778368 0.0388664 0.0965394 0.756258
          0.108162 0.0929403 0.778368 0.0201388 0.0872946 0.682538
          0.0433159 0.0880509 0.781563 0.0388664 0.0965394 0.756258
          0.122016 -0.0103725 -0.580307 0.130971 -0.00575554 -0.588593
          0.13808 -0.0101082 -0.579112 0.149308 -0.0091699 -0.552519
          0.174536 0.092526 0.994842 0.146166 0.0938949 1.01979
          0.165145 0.0940771 1.01785 0.161148 0.0923967 1.06649
          -0.0357635 -0.00911502 -0.0589362 -0.0014031 -0.00719991 -0.0748949
          -0.0102802 -0.00591698 -0.0432173 -0.0075844 -0.00783516 -0.0507497
          0.165557 -0.0137598 -0.4616 0.165145 -0.0139856 -0.453798
          0.157734 -0.0150762 -0.492321 0.133529 -0.0122415 -0.442996
          0.128141 0.0092244 -0.36495 0.0919653 0.00584569 -0.369417
          0.0945674 0.00212618 -0.424615 0.0688967 0.00260366 -0.397242
          0.00553736 -0.00949131 -0.0872548 0.0126215 -0.00998045 -0.0546027
          0.0256855 -0.00877047 -0.0769447 -0.0075844 -0.00783516 -0.0507497
          0.0603935 -0.0166081 -0.565105 0.0421184 -0.0116166 -0.5242
          0.0728637 -0.00800935 -0.538075 0.0970682 -0.00880874 -0.546836
          0.204122 0.0875869 0.77037 0.12824 0.0807888 0.747178
          0.133475 0.0765293 0.818985 0.101095 0.0763853 0.812186
          -0.0308071 -0.0103616 -0.3191 -0.0144376 -0.00790873 -0.306156
          0.0119736 -0.00702655 -0.341033 -0.0113336 -0.00627454 -0.364814
          0.303862 0.0937414 0.696053 0.380329 0.099153 0.71259
          0.317504 0.0992951 0.814724 0.268238 0.0953534 0.771063
          0.158421 0.0496291 0.0897101 0.161268 0.0430777 0.00556753
          0.192396 0.0511354 0.0569261 0.25535 0.057476 0.0852052
          0.112396 -0.00944941 -0.595416 0.106057 -0.0116458 -0.606543
          0.115624 -0.00953853 -0.606174 0.118662 -0.0118541 -0.601902
          0.197509 0.00429118 -0.539182 0.163709 -0.000792662 -0.549448
          0.176831 0.00185096 -0.511452 0.179763 0.00577853 -0.528465
          0.129565 -0.00181342 -0.563005 0.130792 -0.000960639 -0.550484
          0.117983 -0.00211367 -0.53106 0.0970682 -0.00880874 -0.546836
          0.0352309 -0.0128731 -0.503908 0.0421184 -0.0116166 -0.5242
          0.0696074 -0.00701453 -0.503281 0.0237723 -0.00750152 -0.472728
          0.175406 0.0171797 -0.332993 0.155675 0.013872 -0.375313
          0.229906 0.0269602 -0.297914 0.214694 0.0186287 -0.384992
          0.0512157 -0.0221583 -0.559286 0.064645 -0.0229194 -0.556744
          0.0808666 -0.022248 -0.583 0.0653537 -0.018359 -0.55754
          0.267528 0.060776 0.191131 0.35414 0.0709775 0.22333
          0.27609 0.0684555 0.293154 0.352832 0.0701436 0.265476
          0.0862894 -0.00400199 -0.166307 0.0698431 -0.00822036 -0.18142
          0.0502169 -0.00470133 -0.188891 0.0962148 -0.00593256 -0.21049
          0.152768 -0.0128705 -0.286097 0.0927891 -0.0138988 -0.27258
          0.150518 -0.0153733 -0.270885 0.145402 -0.0119491 -0.248543
          0.31346 0.0448283 -0.141522 0.304914 0.0388482 -0.161189
          0.240943 0.0331244 -0.188792 0.302885 0.0378947 -0.208492
          -0.0129988 -0.0132636 -0.152133 4.09269e-05 -0.015154 -0.187651
          -0.0116154 -0.0127112 -0.160316 0.0233769 -0.015396 -0.171585
          0.0811874 0.0034827 -0.0826292 0.0514059 0.00594786 -0.0423778
          0.0556279 0.0119667 -0.0448786 0.0452555 0.00867015 -0.051966
          -0.0357635 -0.00911502 -0.0589362 -0.0116991 -0.00495655 -0.029839
          -0.0292533 -0.00563442 -0.0335524 -0.0075844 -0.00783516 -0.0507497
          0.296192 0.0875151 0.559671 0.381656 0.0918153 0.550721
          0.384595 0.0956412 0.62046 0.316074 0.0917422 0.635195
          0.216996 0.0946768 0.982276 0.211651 0.0894452 1.02033
          0.174536 0.092526 0.994842 0.222064 0.0922335 1.0378
          0.130792 -0.000960639 -0.550484 0.124087 -0.00488907 -0.541258
          0.110675 -0.00367405 -0.515213 0.0970682 -0.00880874 -0.546836
          0.0483354 -0.00442074 -0.55277 0.074161 -0.0108072 -0.582806
          0.0554554 -0.00994833 -0.555061 0.0801628 -0.00822523 -0.571445
          0.135582 0.0211458 -0.209163 0.0734512 0.0151683 -0.243691
          0.182105 0.0194951 -0.264953 0.135072 0.0117331 -0.321953
          -0.00659978 -0.00503852 -0.411353 -0.0228156 -0.00921044 -0.364747
          -0.0126592 -0.0086086 -0.409138 0.0249799 -0.00927824 -0.386426
          0.0615568 -0.00927245 -0.319052 0.0689447 -0.0128604 -0.335303
          0.0829969 -0.0109702 -0.307637 0.0327647 -0.0109596 -0.337261
          0.16095 0.0298942 -0.151939 0.199466 0.0297779 -0.163731
          0.230788 0.0275463 -0.219076 0.240943 0.0331244 -0.188792
          0.0188405 -0.00834344 -0.0945442 0.0165473 -0.00617679 -0.0509829
          0.0256855 -0.00877047 -0.0769447 0.0389648 -0.00539303 -0.0891458
          0.182702 0.0147905 -0.493674 0.117983 -0.00211367 -0.53106
          0.135703 0.0025933 -0.49578 0.153324 0.009434 -0.465698
          0.25679 0.05184 -0.0499682 0.274803 0.0541389 -0.0163549
          0.313974 0.0649467 0.0409103 0.262343 0.0583567 0.0517336
          0.107566 -0.0128015 -0.607479 0.106077 -0.011639 -0.601787
          0.106057 -0.0116458 -0.606543 0.0974821 -0.012431 -0.598996
          0.26761 0.10803 1.03604 0.256253 0.111304 1.03556
          0.264721 0.107082 0.998789 0.304568 0.113406 1.05426
          0.107318 -0.0140032 -0.607226 0.111468 -0.0123134 -0.602749
          0.106057 -0.0116458 -0.606543 0.112241 -0.0126718 -0.604121
          0.132605 -0.0129756 -0.428618 0.0801865 -0.0129857 -0.431223
          0.122055 -0.0136552 -0.391712 0.073581 -0.012766 -0.382787
          0.0182165 -0.00767366 -0.0242749 0.0220256 -0.0109318 -0.0199872
          0 0 0 0 0 0
          0.0176904 -0.00353163 -0.0727868 0.00486514 -0.00518339 -0.0966911
          -0.0152809 -0.00864801 -0.0931318 -0.0096781 -0.00610029 -0.0620695
          0.332879 0.110851 0.961753 0.294293 0.110603 0.96798
          0.315774 0.113468 1.01396 0.330412 0.111551 1.00014
          0.25679 0.05184 -0.0499682 0.293875 0.0479188 -0.149752
          0.331839 0.0569946 -0.0477761 0.323171 0.0510428 -0.116229
          0.290993 0.0932419 0.690529 0.268238 0.0953534 0.771063
          0.302232 0.0971933 0.769835 0.380329 0.099153 0.71259
          0.0487702 -0.0173093 -0.0310522 0.0523025 -0.0114998 -0.0165859
          0.0220256 -0.0109318 -0.0199872 0.0316418 -0.00827242 -0.00712274
          0.201861 0.0919498 0.982176 0.15053 0.0943226 0.984227
          0.143039 0.100997 0.951491 0.148758 0.0957216 0.968415
          -0.0211321 -0.00227591 -0.0131021 -0.0227859 -0.00193359 -0.0184177
          -0.00441511 -0.00222472 -0.0122332 -0.00310213 -0.00244935 -0.0142378
          0.12387 -0.0137173 -0.55443 0.130132 -0.0142512 -0.513988
          0.113639 -0.0132619 -0.522822 0.0908379 -0.0141968 -0.513139
          0.203477 -0.00152772 -0.523147 0.166017 -0.00832996 -0.548618
          0.146451 -0.00498123 -0.540931 0.163709 -0.000792662 -0.549448
          0.154852 -0.0116642 -0.533339 0.119042 -0.0136001 -0.539299
          0.118801 -0.0139847 -0.559433 0.149308 -0.0091699 -0.552519
          0.030685 -0.00952224 -0.456825 -0.00345285 -0.00674395 -0.445396
          -0.0126592 -0.0086086 -0.409138 0.0368281 -0.00633565 -0.419251
          0.204543 0.0383668 -0.0282422 0.137108 0.0320141 -0.0853689
          0.149682 0.0387796 -0.00792568 0.23391 0.0395448 -0.0669595
          0.0391397 -0.00499197 -0.525882 0.0654843 -0.00281992 -0.4944
          0.0423568 -0.000690955 -0.520877 0.0764351 -0.00495617 -0.53841
          0.0667859 -0.00492085 -0.132948 0.0680056 -0.0011597 -0.0994993
          0.112393 -0.0041933 -0.142377 0.104426 0.00262799 -0.127086
          0.069771 -0.0176787 -0.359571 0.121041 -0.0164017 -0.361831
          0.116094 -0.0159618 -0.415128 0.0864608 -0.0150371 -0.385583
          0.0754783 0.0822369 0.620429 0.13533 0.0805968 0.576606
          0.0808134 0.0722704 0.485717 0.0846141 0.0787166 0.528453
          0.231423 0.0159505 -0.487696 0.218704 0.0214812 -0.457714
          0.18131 0.00998128 -0.509551 0.249124 0.0204591 -0.440537
          0.351746 0.0970161 0.893709 0.35012 0.10216 0.905117
          0.289816 0.0991194 0.922122 0.35898 0.100297 0.86023
          0.199691 0.0849973 0.580698 0.13533 0.0805968 0.576606
          0.127105 0.0876495 0.701116 0.0754783 0.0822369 0.620429
          0.209054 0.100802 0.973437 0.246243 0.10426 0.96754
          0.201574 0.0974581 0.951197 0.254201 0.103492 0.959385
          0.209054 0.100802 0.973437 0.209269 0.102614 0.986222
          0.201574 0.0974581 0.951197 0.246243 0.10426 0.96754
          -0.000871435 -0.0111273 -0.144184 -0.0421975 -0.0121278 -0.149963
          -0.0116154 -0.0127112 -0.160316 -0.0398427 -0.0112934 -0.139971
          0.260232 0.0884996 0.60553 0.198539 0.0823455 0.576957
          0.13533 0.0805968 0.576606 0.199691 0.0849973 0.580698
          0.319563 0.0916535 0.59525 0.199691 0.0849973 0.580698
          0.262492 0.0911611 0.652694 0.237426 0.086149 0.538209
          0.199691 0.0849973 0.580698 0.217441 0.0908349 0.694364
          0.262492 0.0911611 0.652694 0.190968 0.0892035 0.6277
          0.112396 -0.00944941 -0.595416 0.120205 -0.0074673 -0.574662
          0.0987772 -0.0110197 -0.589217 0.0998489 -0.00965086 -0.589306
          0.14422 0.101679 1.03743 0.115032 0.0843161 1.07455
          0.190655 0.112281 1.08595 0.168881 0.100418 1.06673
          0.186477 0.0935983 0.764036 0.127105 0.0876495 0.701116
          0.145798 0.090798 0.679028 0.217441 0.0908349 0.694364
          0.200648 0.0214733 -0.214665 0.132813 0.0247032 -0.151924
          0.199466 0.0297779 -0.163731 0.135582 0.0211458 -0.209163
          0.172727 0.0572523 0.179964 0.0939533 0.0506828 0.181751
          0.158421 0.0496291 0.0897101 0.185124 0.05297 0.131345
          0.27609 0.0684555 0.293154 0.239744 0.0627337 0.215118
          0.267607 0.0706221 0.272312 0.361653 0.0757261 0.29799
          0.27609 0.0684555 0.293154 0.165688 0.0612821 0.281712
          0.240365 0.0719055 0.361752 0.239744 0.0627337 0.215118
          0.0829969 -0.0109702 -0.307637 0.120603 -0.00930884 -0.326509
          0.118728 -0.0117847 -0.327695 0.120859 -0.0118386 -0.3705
          0.00020316 -0.00504482 -0.026493 0.00765602 -0.0064143 -0.0148698
          0.021377 -0.0104381 -0.0359205 0.0108895 -0.00577718 -0.0287179
          0.00020316 -0.00504482 -0.026493 0.0126215 -0.00998045 -0.0546027
          0.0108895 -0.00577718 -0.0287179 0.021377 -0.0104381 -0.0359205
          0.0667859 -0.00492085 -0.132948 0.0862894 -0.00400199 -0.166307
          0.0698431 -0.00822036 -0.18142 0.0338639 -0.00745357 -0.153426
          0.123047 -0.00843312 -0.371754 0.130047 -0.0108439 -0.391734
          0.120603 -0.00930884 -0.326509 0.0834431 -0.0103708 -0.372283
          0.113901 -0.0112095 -0.282981 0.118728 -0.0117847 -0.327695
          0.160203 -0.0119435 -0.337823 0.152768 -0.0128705 -0.286097
          0.0525426 0.0870027 0.823583 0.0433159 0.0880509 0.781563
          0.0647625 0.0955917 0.842871 0.109382 0.0908914 0.835634
          0.0679743 -0.0153294 -0.306575 0.00727071 -0.0159958 -0.292999
          0.0490511 -0.0173693 -0.279308 0.0157321 -0.0143898 -0.251108
          0.239664 0.0342104 -0.217622 0.173823 0.0246422 -0.254984
          0.213557 0.025394 -0.25746 0.240943 0.0331244 -0.188792
          0.289143 0.105429 1.04493 0.274099 0.105261 1.08923
          0.262572 0.0985842 1.02395 0.220738 0.0983866 1.03044
          0.251013 0.0330087 -0.116421 0.200648 0.0214733 -0.214665
          0.199466 0.0297779 -0.163731 0.256875 0.0270713 -0.182761
          -0.00165095 -0.00443768 -0.0206394 -0.0102802 -0.00591698 -0.0432173
          -0.00551033 -0.00413169 -0.0251656 0.00965275 -0.00343188 -0.0436944
          0.163842 0.0365633 -0.0716904 0.0887729 0.0367918 0.00698102
          0.161268 0.0430777 0.00556753 0.0692071 0.0290328 -0.0736489
          0.198539 0.0823455 0.576957 0.196146 0.0872112 0.6934
          0.181436 0.0819169 0.673158 0.252053 0.0846894 0.591048
          0.135136 -0.0161269 -0.592202 0.111776 -0.0247358 -0.601291
          0.1144 -0.0159403 -0.605091 0.100508 -0.0172467 -0.594197
          0.0311669 -0.015471 -0.372513 0.0276634 -0.0124395 -0.381452
          0.0689447 -0.0128604 -0.335303 0.073581 -0.012766 -0.382787
          0.180281 -0.00286856 -0.557066 0.166017 -0.00832996 -0.548618
          0.163709 -0.000792662 -0.549448 0.137254 -0.010044 -0.578733
          0.0808134 0.0722704 0.485717 0.189954 0.0762057 0.471849
          0.0830577 0.0694311 0.477071 0.11408 0.0677137 0.376145
          0.073581 -0.012766 -0.382787 0.102925 -0.01385 -0.339323
          0.0864608 -0.0150371 -0.385583 0.122055 -0.0136552 -0.391712
          0.0647985 -0.0129255 -0.545036 0.0439374 -0.00694747 -0.551364
          0.0742199 -0.00934427 -0.556536 0.0715879 -0.0107643 -0.570157
          0.175681 -0.00370727 -0.508049 0.146451 -0.00498123 -0.540931
          0.138348 -0.00834367 -0.530527 0.128315 -0.00339795 -0.511432
          0.120286 0.0757005 0.587085 0.198539 0.0823455 0.576957
          0.181436 0.0819169 0.673158 0.252053 0.0846894 0.591048
          0.146166 0.0938949 1.01979 0.174536 0.092526 0.994842
          0.15053 0.0943226 0.984227 0.1552 0.0906953 1.03528
          -0.038764 -0.0152156 -0.219229 -0.0360913 -0.0157609 -0.267026
          -0.0390216 -0.0145598 -0.228437 -0.0150094 -0.0166441 -0.254014
          0.0410239 -0.0180549 -0.471625 0.0326146 -0.0205887 -0.428346
          0.0518296 -0.0153847 -0.436534 0.0228868 -0.0175449 -0.410755
          0.251013 0.0330087 -0.116421 0.256875 0.0270713 -0.182761
          0.199466 0.0297779 -0.163731 0.29657 0.0342262 -0.144824
          0.308147 0.0989408 0.97371 0.282294 0.0987585 0.988705
          0.31334 0.101594 1.01953 0.254847 0.0942488 0.990392
          0.137361 -0.000485042 -0.592 0.118368 -0.00951325 -0.595495
          0.138658 -0.00579803 -0.587756 0.125961 -0.00727612 -0.600585
          0.124962 0.103705 0.917689 0.141147 0.100371 0.938067
          0.180715 0.0976954 0.945894 0.143039 0.100997 0.951491
          0.0458732 -0.0163192 -0.155792 0.0347523 -0.014953 -0.10816
          0.0686171 -0.0179506 -0.138966 0.0425612 -0.0137818 -0.154251
          0.0887729 0.0367918 0.00698102 0.0583242 0.0419076 0.088712
          0.126597 0.045842 0.0973606 0.158421 0.0496291 0.0897101
          0.186477 0.0935983 0.764036 0.145798 0.090798 0.679028
          0.205824 0.0927761 0.710946 0.217441 0.0908349 0.694364
          0.0137284 0.080901 0.667222 0.0754783 0.0822369 0.620429
          0.100937 0.0804062 0.671573 0.0716709 0.0749929 0.578483
          0.115205 0.101212 0.962865 0.165145 0.0940771 1.01785
          0.0992901 0.104541 0.989552 0.110551 0.0973971 1.01445
          0.101268 -0.0133311 -0.59472 0.112241 -0.0126718 -0.604121
          0.111468 -0.0123134 -0.602749 0.108992 -0.0122948 -0.606635
          0.0885485 -0.0107869 -0.567941 0.0554554 -0.00994833 -0.555061
          0.074161 -0.0108072 -0.582806 0.0801628 -0.00822523 -0.571445
          0.272272 0.0982259 0.871623 0.285884 0.101867 0.926939
          0.216196 0.0956329 0.913168 0.207948 0.0972424 0.9111
          0.126597 0.045842 0.0973606 0.0443352 0.0428983 0.124246
          0.0799235 0.0462954 0.15972 0.0939533 0.0506828 0.181751
          -0.0112473 -0.00867774 -0.0676795 -0.00896293 -0.00640648 -0.0407497
          -0.00484605 -0.00787858 -0.0492213 0.0126215 -0.00998045 -0.0546027
          0.0217851 0.0294766 -0.0339357 0.0500145 0.0249025 -0.112389
          0.103092 0.0367894 -0.0397778 0.0689865 0.0290619 -0.0831016
          0.112637 -0.0103711 -0.611269 0.108992 -0.0122948 -0.606635
          0.107431 -0.00998447 -0.605534 0.114543 -0.00627446 -0.607233
          0.102717 0.0704512 0.892847 0.0668794 0.0646988 0.817607
          0.0740493 0.0641616 0.883765 0.101095 0.0763853 0.812186
          0.137254 -0.010044 -0.578733 0.119123 -0.00951806 -0.581108
          0.110311 -0.011447 -0.600512 0.130566 -0.0141443 -0.594765
          0.248309 0.07594 0.362052 0.209017 0.0680971 0.26482
          0.297489 0.0760461 0.273847 0.267607 0.0706221 0.272312
          -0.0152553 0.0199927 -0.106234 0.0692071 0.0290328 -0.0736489
          -0.0209827 0.0198814 -0.106826 0.0437957 0.0214384 -0.141935
          0.131259 -0.0138379 -0.510261 0.0878253 -0.0163672 -0.510375
          0.114044 -0.0144426 -0.516593 0.102378 -0.0147507 -0.539178
          0.0583242 0.0419076 0.088712 0.0467083 0.0485772 0.184625
          0.0939533 0.0506828 0.181751 0.100178 0.0521232 0.164525
          0.112614 -0.0109344 -0.605291 0.102143 -0.0120732 -0.59422
          0.110097 -0.00503266 -0.59666 0.118368 -0.00951325 -0.595495
          0.145798 0.090798 0.679028 0.127105 0.0876495 0.701116
          0.158504 0.0967715 0.763692 0.0907144 0.0927309 0.71224
          0.0640984 0.0457958 0.114738 -0.00710968 0.0326024 0.0350586
          0.0713689 0.0401873 0.0354087 0.0611862 0.0391504 0.0429092
          0.11977 -0.0145272 -0.59394 0.136736 -0.0134479 -0.580147
          0.145529 -0.0171154 -0.571117 0.124799 -0.0135258 -0.574159
          0.0770825 -0.0209682 -0.589541 0.0603935 -0.0166081 -0.565105
          0.0974886 -0.0130007 -0.586673 0.0871718 -0.0133081 -0.56754
          0.060929 0.0538991 0.266939 0.019031 0.0478604 0.222628
          0.116016 0.0552688 0.266951 0.0171833 0.0535705 0.315495
          0.122016 -0.0103725 -0.580307 0.149308 -0.0091699 -0.552519
          0.13808 -0.0101082 -0.579112 0.118801 -0.0139847 -0.559433
          0.122016 -0.0103725 -0.580307 0.149308 -0.0091699 -0.552519
          0.118801 -0.0139847 -0.559433 0.119042 -0.0136001 -0.539299
          0.100508 -0.0172467 -0.594197 0.107518 -0.0214738 -0.605715
          0.1144 -0.0159403 -0.605091 0.0864786 -0.020683 -0.591283
          0.160002 -0.0117775 -0.507128 0.164278 -0.0127238 -0.470143
          0.163383 -0.0132896 -0.490656 0.137233 -0.0135718 -0.504352
          0.109724 -0.0136582 -0.587157 0.118801 -0.0139847 -0.559433
          0.124799 -0.0135258 -0.574159 0.102221 -0.0132634 -0.576693
          0.00270117 -0.00839904 -0.122071 0.00706416 -0.00670828 -0.137923
          0.00486514 -0.00518339 -0.0966911 0.0245713 -0.00500875 -0.104985
          0.297489 0.0760461 0.273847 0.276815 0.0802136 0.346431
          0.345247 0.0849373 0.333469 0.279083 0.0740901 0.226445
          0.0171834 -0.0131376 -0.175025 -0.000871435 -0.0111273 -0.144184
          0.0450636 -0.0111888 -0.184676 -0.0048344 -0.0120173 -0.183844
          0.341816 0.112732 0.920067 0.299471 0.10761 0.905539
          0.289994 0.106625 0.941827 0.272881 0.101595 0.900105
          0.25679 0.05184 -0.0499682 0.293875 0.0479188 -0.149752
          0.323171 0.0510428 -0.116229 0.237712 0.0442774 -0.120025
          0.18131 0.00998128 -0.509551 0.209308 0.0137501 -0.529951
          0.179763 0.00577853 -0.528465 0.179652 0.0134379 -0.536532
          0.207948 0.0972424 0.9111 0.154107 0.0883189 0.857766
          0.224695 0.0953553 0.846221 0.209922 0.09271 0.859342
          -0.0273646 -0.016129 -0.335138 0.00753595 -0.0138764 -0.340524
          -0.0309792 -0.01305 -0.314827 -0.0312485 -0.0147393 -0.307478
          0.00727071 -0.0159958 -0.292999 -0.0312485 -0.0147393 -0.307478
          -0.0355365 -0.0141714 -0.273168 0.00213241 -0.0128252 -0.289606
          0.172727 0.0572523 0.179964 0.100178 0.0521232 0.164525
          0.0939533 0.0506828 0.181751 0.0467083 0.0485772 0.184625
          0.341479 0.110086 0.924588 0.289994 0.106625 0.941827
          0.332879 0.110851 0.961753 0.336675 0.107926 0.957762
          -0.0357635 -0.00911502 -0.0589362 -0.0386929 -0.00973485 -0.0876329
          -0.0383281 -0.0105095 -0.0693774 -0.0014031 -0.00719991 -0.0748949
          0.120286 0.0757005 0.587085 0.196146 0.0872112 0.6934
          0.181436 0.0819169 0.673158 0.198539 0.0823455 0.576957
          0.0245713 -0.00500875 -0.104985 0.00270117 -0.00839904 -0.122071
          -0.0152809 -0.00864801 -0.0931318 0.00486514 -0.00518339 -0.0966911
          0.0754783 0.0822369 0.620429 0.0846141 0.0787166 0.528453
          0.164032 0.0827915 0.545908 0.13533 0.0805968 0.576606
          0.312824 0.0949824 0.693554 0.378063 0.0956028 0.621907
          0.296649 0.0901879 0.64528 0.368553 0.104122 0.745728
          0.116441 0.0700373 0.586952 0.178795 0.0768006 0.555971
          0.120286 0.0757005 0.587085 0.181436 0.0819169 0.673158
          0.0994822 0.0329572 -0.0324757 0.023489 0.0297041 -0.0166612
          0.0359137 0.0362804 0.0463107 0.0887729 0.0367918 0.00698102
          0.0535114 -0.0187996 -0.526146 0.0510099 -0.0126816 -0.511239
          0.0647985 -0.0129255 -0.545036 0.0270565 -0.014071 -0.52226
          0.189954 0.0762057 0.471849 0.248309 0.07594 0.362052
          0.271522 0.0837749 0.481467 0.298245 0.0824615 0.466509
          0.109208 0.0572903 0.209665 0.111056 0.0506082 0.116801
          0.172426 0.0599948 0.182148 0.0635172 0.0515351 0.19353
          0.132605 -0.0129756 -0.428618 0.120859 -0.0118386 -0.3705
          0.130047 -0.0108439 -0.391734 0.110055 -0.0119697 -0.4245
          -0.0402609 -0.0132542 -0.172689 4.09269e-05 -0.015154 -0.187651
          -0.00275804 -0.0140178 -0.20773 -0.0116154 -0.0127112 -0.160316
          0.0764155 0.00741455 -0.357328 0.11452 0.00584169 -0.393886
          0.135405 0.00710339 -0.365193 0.0932756 0.00212624 -0.445271
          0.0277829 -0.0133178 -0.215086 0.0450636 -0.0111888 -0.184676
          0.0508684 -0.0116704 -0.233291 0.00402628 -0.0122154 -0.223718
          0.0188405 -0.00834344 -0.0945442 0.0256855 -0.00877047 -0.0769447
          0.0508293 -0.0107902 -0.0918145 0.0389648 -0.00539303 -0.0891458
          0.0769836 -0.0103014 -0.421409 0.0772562 -0.00829571 -0.449559
          0.120268 -0.0101949 -0.41947 0.0943749 -0.0110955 -0.459335
          0.222148 0.100112 0.994249 0.216313 0.0984366 0.955905
          0.149803 0.0947307 0.967832 0.168513 0.0943187 0.953422
          0.0615568 -0.00927245 -0.319052 0.0638979 -0.00680671 -0.289187
          0.102812 -0.00669444 -0.317028 0.0754448 -0.00761653 -0.348043
          0.248309 0.07594 0.362052 0.276815 0.0802136 0.346431
          0.300097 0.0831428 0.404996 0.297489 0.0760461 0.273847
          -0.0272993 0.0550045 0.375903 0.089927 0.0645819 0.43286
          0.0519335 0.0584848 0.350848 -0.0211191 0.0597525 0.441455
          0.0715879 -0.0107643 -0.570157 0.0480688 -0.0136174 -0.554683
          0.0859557 -0.0131762 -0.586375 0.0836865 -0.0155189 -0.576022
          0.110311 -0.011447 -0.600512 0.107318 -0.0140032 -0.607226
          0.118662 -0.0118541 -0.601902 0.1144 -0.0159403 -0.605091
          0.127413 -0.00533943 -0.584442 0.150403 0.00210831 -0.583032
          0.130862 -0.00448618 -0.596049 0.127146 -0.00193784 -0.605756
          0.135405 0.0894653 0.972754 0.111699 0.0872084 1.01616
          0.148946 0.0951903 0.97766 0.106311 0.0874838 0.977511
          0.138138 -0.0232528 -0.593319 0.133596 -0.0181632 -0.590032
          0.130566 -0.0141443 -0.594765 0.120838 -0.0201982 -0.603292
          0.109294 0.0209412 -0.217591 0.204548 0.0340728 -0.161825
          0.173823 0.0246422 -0.254984 0.14323 0.027128 -0.191288
          0.137233 -0.0135718 -0.504352 0.163383 -0.0132896 -0.490656
          0.130132 -0.0142512 -0.513988 0.126251 -0.0140065 -0.477368
          0.175681 -0.00370727 -0.508049 0.134573 -0.00903642 -0.561118
          0.166017 -0.00832996 -0.548618 0.138348 -0.00834367 -0.530527
          0.0967532 0.0787728 0.992186 0.148946 0.0951903 0.97766
          0.169989 0.0988924 1.0076 0.0967532 0.0787728 0.992186
          0.165818 -0.0119508 -0.421795 0.162928 -0.0101426 -0.361795
          0.158708 -0.0108474 -0.413742 0.130047 -0.0108439 -0.391734
          0.130047 -0.0108439 -0.391734 0.161751 -0.00820863 -0.358657
          0.158708 -0.0108474 -0.413742 0.123047 -0.00843312 -0.371754
          0.228106 -0.00172237 -0.461908 0.175681 -0.00370727 -0.508049
          0.199929 -0.00871553 -0.521842 0.18704 -0.0084688 -0.503135
          0.0423499 -0.0114026 -0.055377 0.0463084 -0.0174144 -0.0414897
          0.0385235 -0.0105734 -0.0388337 0.021377 -0.0104381 -0.0359205
          0.0270565 -0.014071 -0.52226 0.0510099 -0.0126816 -0.511239
          0.0647985 -0.0129255 -0.545036 0.0254341 -0.00812965 -0.517394
          0.101095 0.0763853 0.812186 0.0091938 0.0639893 0.725891
          0.0173037 0.072694 0.712974 0.0803818 0.0694965 0.739584
          0.112614 -0.0109344 -0.605291 0.107318 -0.0140032 -0.607226
          0.118662 -0.0118541 -0.601902 0.115624 -0.00953853 -0.606174
          0.0556986 -0.0149003 -0.231736 0.0441608 -0.0145928 -0.191319
          0.0475774 -0.0167668 -0.194693 0.0966303 -0.0151294 -0.230152
          0.122016 -0.0103725 -0.580307 0.118801 -0.0139847 -0.559433
          0.0994754 -0.0162388 -0.56772 0.119042 -0.0136001 -0.539299
          0.0327647 -0.0109596 -0.337261 0.0276634 -0.0124395 -0.381452
          -0.02311 -0.0128779 -0.364239 -0.0228156 -0.00921044 -0.364747
          0.00182056 -0.0115354 -0.128416 -0.0129988 -0.0132636 -0.152133
          -0.0116154 -0.0127112 -0.160316 0.0150799 -0.0144693 -0.140254
          0.148758 0.0957216 0.968415 0.0992901 0.104541 0.989552
          0.15053 0.0943226 0.984227 0.115205 0.101212 0.962865
          0.152841 0.00628365 -0.549552 0.15353 0.000570539 -0.562779
          0.18131 0.00998128 -0.509551 0.130792 -0.000960639 -0.550484
          -0.0405949 -0.0121653 -0.220618 0.0125049 -0.0101035 -0.180202
          -0.000402004 -0.0101472 -0.218544 -0.0425719 -0.0113411 -0.197009
          0.18131 0.00998128 -0.509551 0.179652 0.0134379 -0.536532
          0.182702 0.0147905 -0.493674 0.236316 0.0246008 -0.485233
          0.152841 0.00628365 -0.549552 0.152816 0.00527735 -0.573116
          0.15353 0.000570539 -0.562779 0.130792 -0.000960639 -0.550484
          0.179652 0.0134379 -0.536532 0.15353 0.000570539 -0.562779
          0.18131 0.00998128 -0.509551 0.152841 0.00628365 -0.549552
          0.176831 0.00185096 -0.511452 0.163709 -0.000792662 -0.549448
          0.147387 0.00173919 -0.514186 0.179763 0.00577853 -0.528465
          0.123789 0.014183 -0.274253 0.135405 0.00710339 -0.365193
          0.135072 0.0117331 -0.321953 0.187876 0.0115894 -0.319623
          0.172426 0.0599948 0.182148 0.172727 0.0572523 0.179964
          0.238454 0.0638716 0.176386 0.209017 0.0680971 0.26482
          0.112614 -0.0109344 -0.605291 0.115624 -0.00953853 -0.606174
          0.118662 -0.0118541 -0.601902 0.125961 -0.00727612 -0.600585
          0.0701937 -0.00792453 -0.467995 0.0657571 -0.0031679 -0.428833
          0.0948104 -0.00236865 -0.481413 0.106478 -0.00164808 -0.472928
          0.0701937 -0.00792453 -0.467995 0.0261287 -0.0124198 -0.465925
          0.0948104 -0.00236865 -0.481413 0.0657571 -0.0031679 -0.428833
          0.267948 0.021667 -0.358312 0.216692 0.0189193 -0.322874
          0.171681 0.0118168 -0.394107 0.19211 0.00963681 -0.421164
          0.109724 -0.0136582 -0.587157 0.118476 -0.0115173 -0.589823
          0.124799 -0.0135258 -0.574159 0.118801 -0.0139847 -0.559433
          0.185509 0.107383 1.03394 0.190655 0.112281 1.08595
          0.227293 0.112242 1.05647 0.18707 0.1075 1.04546
          0.0688902 0.018373 -0.205679 0.0619518 0.0109529 -0.275906
          0.0882954 0.0139789 -0.275434 0.000458692 0.00569362 -0.263183
          0.19211 0.00963681 -0.421164 0.134062 0.00401747 -0.464844
          0.131645 0.00478053 -0.424531 0.177759 0.0101018 -0.451713
          0.105112 -0.0109623 -0.591591 0.0925113 -0.0100672 -0.58693
          0.107431 -0.00998447 -0.605534 0.108096 -0.0129574 -0.595506
          0.216692 0.0189193 -0.322874 0.267948 0.021667 -0.358312
          0.280167 0.0290173 -0.330448 0.285631 0.0272575 -0.283759
          0.0311669 -0.015471 -0.372513 -0.0202432 -0.0154642 -0.375762
          -0.0180461 -0.0179976 -0.382811 0.0101504 -0.0167399 -0.34114
          0.282707 0.0780598 0.447798 0.373022 0.0833251 0.422228
          0.301397 0.0779443 0.365474 0.298245 0.0824615 0.466509
          0.00020316 -0.00504482 -0.026493 0.00765602 -0.0064143 -0.0148698
          -0.00441511 -0.00222472 -0.0122332 -0.00310213 -0.00244935 -0.0142378
          0.359488 0.0745767 0.226421 0.358776 0.0740713 0.182399
          0.297489 0.0760461 0.273847 0.368693 0.0796129 0.22943
          0.120129 -0.00615696 -0.608411 0.123019 0.00231494 -0.613989
          0.113683 -0.00346981 -0.617295 0.119565 -0.00358364 -0.614347
          0.00156437 -0.00480447 -0.0194943 0.016022 -0.0112065 -0.0373548
          0.00020316 -0.00504482 -0.026493 0.00765602 -0.0064143 -0.0148698
          0.135405 0.0894653 0.972754 0.106311 0.0874838 0.977511
          0.148946 0.0951903 0.97766 0.107034 0.0785431 0.954037
          0.0715661 -0.0194334 -0.0566621 0.0463084 -0.0174144 -0.0414897
          0.063013 -0.0157642 -0.0456833 0.0423499 -0.0114026 -0.055377
          0.0984941 -0.0173699 -0.601281 0.0770825 -0.0209682 -0.589541
          0.0974886 -0.0130007 -0.586673 0.09246 -0.0181342 -0.59445
          0.0927891 -0.0138988 -0.27258 0.0983677 -0.0115942 -0.227508
          0.0556986 -0.0149003 -0.231736 0.0966303 -0.0151294 -0.230152
          0.0713689 0.0401873 0.0354087 0.134692 0.0456868 0.0266296
          0.141569 0.0485009 0.0692919 0.0611862 0.0391504 0.0429092
          0.267528 0.060776 0.191131 0.27609 0.0684555 0.293154
          0.315243 0.0628785 0.222664 0.352832 0.0701436 0.265476
          0.0995078 -0.0148368 -0.598679 0.107318 -0.0140032 -0.607226
          0.1144 -0.0159403 -0.605091 0.112614 -0.0109344 -0.605291
          0.132813 0.0247032 -0.151924 0.086844 0.0241004 -0.145402
          0.049462 0.0234903 -0.116728 0.137108 0.0320141 -0.0853689
          0.145529 -0.0171154 -0.571117 0.154929 -0.0155281 -0.542343
          0.128281 -0.014775 -0.553089 0.12387 -0.0137173 -0.55443
          0.163383 -0.0132896 -0.490656 0.137233 -0.0135718 -0.504352
          0.159245 -0.0136275 -0.519906 0.154852 -0.0116642 -0.533339
          0.247533 0.0529727 0.133991 0.267528 0.060776 0.191131
          0.315243 0.0628785 0.222664 0.344461 0.0653814 0.18953
          0.00020316 -0.00504482 -0.026493 0.016022 -0.0112065 -0.0373548
          0.0126215 -0.00998045 -0.0546027 0.021377 -0.0104381 -0.0359205
          0.0255033 0.00090171 -0.0220747 0.0425707 -0.0036721 -0.0331096
          0.013461 -0.00348063 -0.0158737 0.0303638 -0.00158471 -0.0321671
          0.139728 -0.0146452 -0.224153 0.10478 -0.018128 -0.212972
          0.144869 -0.0177062 -0.239967 0.135107 -0.0174963 -0.199185
          0.0345143 -0.0101269 -0.131573 0.0508293 -0.0107902 -0.0918145
          0.0732646 -0.0135404 -0.135977 0.0695339 -0.0077584 -0.112705
          0.0979294 -0.0116895 -0.552479 0.0742199 -0.00934427 -0.556536
          0.105112 -0.0109623 -0.591591 0.0925113 -0.0100672 -0.58693
          0.0689447 -0.0128604 -0.335303 0.118728 -0.0117847 -0.327695
          0.102925 -0.01385 -0.339323 0.120859 -0.0118386 -0.3705
          0.222064 0.0922335 1.0378 0.211651 0.0894452 1.02033
          0.146166 0.0938949 1.01979 0.1552 0.0906953 1.03528
          0.268008 0.0960197 0.961097 0.341624 0.10169 0.94404
          0.308147 0.0989408 0.97371 0.282294 0.0987585 0.988705
          0.31334 0.101594 1.01953 0.298929 0.101482 1.04991
          0.335042 0.104922 1.07194 0.291481 0.099271 1.04863
          0.204543 0.0383668 -0.0282422 0.137108 0.0320141 -0.0853689
          0.185795 0.0311586 -0.1008 0.0994822 0.0329572 -0.0324757
          0.130047 -0.0108439 -0.391734 0.123047 -0.00843312 -0.371754
          0.120268 -0.0101949 -0.41947 0.084756 -0.00847522 -0.397233
          0.0337169 0.0592017 0.420383 0.089927 0.0645819 0.43286
          0.0594662 0.0664747 0.514154 0.117833 0.067363 0.48689
          0.163956 0.0390901 -0.0880543 0.168288 0.0375999 -0.0873447
          0.229061 0.0449968 -0.0778743 0.159365 0.0442869 -0.00337952
          0.00474097 0.0139395 -0.220345 0.045572 0.0183116 -0.184803
          0.0734512 0.0151683 -0.243691 -0.0158773 0.0100494 -0.249103
          0.216483 0.0943034 0.778517 0.217678 0.0968129 0.834652
          0.186477 0.0935983 0.764036 0.268238 0.0953534 0.771063
          -0.00896293 -0.00640648 -0.0407497 -0.0184737 -0.00268011 -0.0251174
          -0.00310213 -0.00244935 -0.0142378 -0.0270274 -0.00466195 -0.0349902
          0.122055 -0.0136552 -0.391712 0.16614 -0.0138481 -0.427097
          0.132605 -0.0129756 -0.428618 0.164565 -0.0133876 -0.382405
          0.32407 0.0527487 0.00931725 0.23391 0.0395448 -0.0669595
          0.243538 0.045937 -0.0299528 0.315675 0.0464779 -0.0557286
          0.102717 0.0704512 0.892847 0.154107 0.0883189 0.857766
          0.0740493 0.0641616 0.883765 0.137992 0.0809897 0.939445
          0.251013 0.0330087 -0.116421 0.185795 0.0311586 -0.1008
          0.199466 0.0297779 -0.163731 0.200648 0.0214733 -0.214665
          0.164177 -0.0141855 -0.483115 0.159944 -0.0163887 -0.514976
          0.159245 -0.0136275 -0.519906 0.130132 -0.0142512 -0.513988
          0.0559069 -0.00708235 -0.53041 0.0349748 -0.00214796 -0.509131
          0.0741411 -0.00504061 -0.54589 0.0659989 -0.00118024 -0.559713
          0.163459 0.0542829 0.132925 0.25535 0.057476 0.0852052
          0.238454 0.0638716 0.176386 0.172727 0.0572523 0.179964
          -0.00310213 -0.00244935 -0.0142378 -0.0184737 -0.00268011 -0.0251174
          -0.0227859 -0.00193359 -0.0184177 -0.0270274 -0.00466195 -0.0349902
          0.115624 -0.00953853 -0.606174 0.114543 -0.00627446 -0.607233
          0.112637 -0.0103711 -0.611269 0.120129 -0.00615696 -0.608411
          0.246225 0.0190544 -0.257511 0.200648 0.0214733 -0.214665
          0.287691 0.0276488 -0.212564 0.182105 0.0194951 -0.264953
          0.121685 -0.0166017 -0.597055 0.112241 -0.0126718 -0.604121
          0.107566 -0.0128015 -0.607479 0.114294 -0.0146101 -0.600231
          -0.0355365 -0.0141714 -0.273168 -0.0390216 -0.0145598 -0.228437
          0.0157321 -0.0143898 -0.251108 0.00402628 -0.0122154 -0.223718
          0.0801628 -0.00822523 -0.571445 0.0554554 -0.00994833 -0.555061
          0.0391397 -0.00499197 -0.525882 0.0764351 -0.00495617 -0.53841
          0.146533 -0.0142383 -0.451025 0.164278 -0.0127238 -0.470143
          0.160002 -0.0117775 -0.507128 0.131259 -0.0138379 -0.510261
          0.064645 -0.0229194 -0.556744 0.049659 -0.0222241 -0.516821
          0.0828441 -0.0184706 -0.529701 0.0535114 -0.0187996 -0.526146
          0.159365 0.0442869 -0.00337952 0.25679 0.05184 -0.0499682
          0.274803 0.0541389 -0.0163549 0.229061 0.0449968 -0.0778743
          0.153439 0.0976263 0.896305 0.0987851 0.0961257 0.918228
          0.141147 0.100371 0.938067 0.0838931 0.102285 0.893233
          -0.0160427 0.0608877 0.4158 -0.0161031 0.0543238 0.317271
          0.0590932 0.0607576 0.34242 -0.0213389 0.0540566 0.325313
          0.264721 0.107082 0.998789 0.256253 0.111304 1.03556
          0.315774 0.113468 1.01396 0.304568 0.113406 1.05426
          0.254201 0.103492 0.959385 0.222148 0.100112 0.994249
          0.264721 0.107082 0.998789 0.284969 0.105508 0.994064
          0.15796 0.0626744 0.270179 0.209017 0.0680971 0.26482
          0.0876554 0.0583691 0.26528 0.17999 0.0712148 0.342808
          0.113705 -0.0175004 -0.293712 0.150465 -0.0175464 -0.284748
          0.142066 -0.0162666 -0.339489 0.159421 -0.0147054 -0.329643
          0.175681 -0.00370727 -0.508049 0.146451 -0.00498123 -0.540931
          0.166017 -0.00832996 -0.548618 0.134573 -0.00903642 -0.561118
          0.026183 -0.0140618 -0.460937 0.0657571 -0.0031679 -0.428833
          0.0701937 -0.00792453 -0.467995 0.0377969 -0.00734382 -0.416931
          -0.0202432 -0.0154642 -0.375762 -0.0273646 -0.016129 -0.335138
          -0.0180461 -0.0179976 -0.382811 0.0101504 -0.0167399 -0.34114
          0.141147 0.100371 0.938067 0.148758 0.0957216 0.968415
          0.180715 0.0976954 0.945894 0.143039 0.100997 0.951491
          0.171272 0.0778226 0.475443 0.189954 0.0762057 0.471849
          0.0808134 0.0722704 0.485717 0.11408 0.0677137 0.376145
          0.0808134 0.0722704 0.485717 0.0830577 0.0694311 0.477071
          -0.0101049 0.0672179 0.524128 -0.0160427 0.0608877 0.4158
          0.35898 0.100297 0.86023 0.272272 0.0982259 0.871623
          0.27271 0.0964002 0.88158 0.298834 0.0968458 0.818175
          0.135072 0.0117331 -0.321953 0.135405 0.00710339 -0.365193
          0.177392 0.0114892 -0.3605 0.187876 0.0115894 -0.319623
          0.239077 0.0121727 -0.458207 0.19211 0.00963681 -0.421164
          0.249159 0.00900184 -0.406363 0.254645 0.0175491 -0.410354
          0.114294 -0.0146101 -0.600231 0.112241 -0.0126718 -0.604121
          0.107566 -0.0128015 -0.607479 0.111468 -0.0123134 -0.602749
          0.238454 0.0638716 0.176386 0.28714 0.0650225 0.175661
          0.358776 0.0740713 0.182399 0.359488 0.0745767 0.226421
          0.237712 0.0442774 -0.120025 0.293875 0.0479188 -0.149752
          0.323171 0.0510428 -0.116229 0.254571 0.0422139 -0.140693
          0.0991005 0.026316 -0.14341 0.14323 0.027128 -0.191288
          0.0688902 0.018373 -0.205679 0.120774 0.030637 -0.123642
          0.0716709 0.0749929 0.578483 0.13533 0.0805968 0.576606
          0.0808134 0.0722704 0.485717 0.0754783 0.0822369 0.620429
          0.0331346 -0.0139518 -0.311202 0.00727071 -0.0159958 -0.292999
          0.0679743 -0.0153294 -0.306575 0.0157321 -0.0143898 -0.251108
          0.186567 0.0895988 0.781783 0.100789 0.0866501 0.753101
          0.165257 0.0931675 0.813209 0.127105 0.0876495 0.701116
          0.0907144 0.0927309 0.71224 0.0754783 0.0822369 0.620429
          0.0201388 0.0872946 0.682538 0.0558778 0.0858855 0.622921
          0.0425707 -0.0036721 -0.0331096 0.013461 -0.00348063 -0.0158737
          0.0274571 -0.00635234 -0.0179501 0 0 0
          -0.0352411 -0.00732795 -0.0746054 -0.0387419 -0.00986348 -0.100418
          -0.00895024 -0.0104179 -0.0974204 -0.0264292 -0.0092593 -0.0990623
          0.0508293 -0.0107902 -0.0918145 0.0931616 -0.0105415 -0.0987839
          0.105846 -0.0102429 -0.126556 0.0695339 -0.0077584 -0.112705
          0.0737005 -0.0132091 -0.182875 0.0508684 -0.0116704 -0.233291
          0.0450636 -0.0111888 -0.184676 0.0983677 -0.0115942 -0.227508
          0.302885 0.0378947 -0.208492 0.240943 0.0331244 -0.188792
          0.213557 0.025394 -0.25746 0.295685 0.0331866 -0.227221
          0.284969 0.105508 0.994064 0.26761 0.10803 1.03604
          0.264721 0.107082 0.998789 0.330412 0.111551 1.00014
          0.221318 0.0782606 0.38677 0.17999 0.0712148 0.342808
          0.156872 0.0725458 0.373258 0.212417 0.073621 0.315974
          0.0623433 -0.00899144 -0.27071 0.0989644 -0.00439551 -0.258818
          0.101176 -0.00783675 -0.284289 0.0638979 -0.00680671 -0.289187
          0.049462 0.0234903 -0.116728 0.086844 0.0241004 -0.145402
          0.0540385 0.0279604 -0.0683123 0.137108 0.0320141 -0.0853689
          0.267607 0.0706221 0.272312 0.165688 0.0612821 0.281712
          0.240365 0.0719055 0.361752 0.15796 0.0626744 0.270179
          0.0864608 -0.0150371 -0.385583 0.0858781 -0.0155531 -0.346023
          0.121041 -0.0164017 -0.361831 0.133888 -0.0146771 -0.401768
          0.0535114 -0.0187996 -0.526146 0.0283937 -0.0250899 -0.531799
          0.049659 -0.0222241 -0.516821 0.0172693 -0.0198767 -0.502773
          0.289143 0.105429 1.04493 0.220738 0.0983866 1.03044
          0.258775 0.10035 0.992022 0.222148 0.100112 0.994249
          0.149133 0.0161199 -0.296868 0.137752 0.021662 -0.228365
          0.213557 0.025394 -0.25746 0.173823 0.0246422 -0.254984
          0.00156437 -0.00480447 -0.0194943 -0.00310213 -0.00244935 -0.0142378
          0.00020316 -0.00504482 -0.026493 -0.00896293 -0.00640648 -0.0407497
          0.0439374 -0.00694747 -0.551364 0.0742199 -0.00934427 -0.556536
          0.0659989 -0.00118024 -0.559713 0.0559069 -0.00708235 -0.53041
          0.0157321 -0.0143898 -0.251108 0.0331346 -0.0139518 -0.311202
          0.00213241 -0.0128252 -0.289606 0.0266702 -0.0125329 -0.259877
          0.379682 0.0859182 0.404263 0.248309 0.07594 0.362052
          0.300097 0.0831428 0.404996 0.378097 0.0840946 0.326979
          0.116441 0.0700373 0.586952 0.201989 0.0793398 0.615495
          0.178795 0.0768006 0.555971 0.148895 0.0762001 0.66868
          0.0171834 -0.0131376 -0.175025 -0.000871435 -0.0111273 -0.144184
          -0.0048344 -0.0120173 -0.183844 -0.0116154 -0.0127112 -0.160316
          0.118476 -0.0115173 -0.589823 0.13808 -0.0101082 -0.579112
          0.125346 -0.0111707 -0.593521 0.118768 -0.0128463 -0.594283
          0.114294 -0.0146101 -0.600231 0.118768 -0.0128463 -0.594283
          0.121685 -0.0166017 -0.597055 0.112241 -0.0126718 -0.604121
          0.114543 -0.00627446 -0.607233 0.10082 -0.00345068 -0.604568
          0.107431 -0.00998447 -0.605534 0.113683 -0.00346981 -0.617295
          0.114543 -0.00627446 -0.607233 0.10082 -0.00345068 -0.604568
          0.113683 -0.00346981 -0.617295 0.123019 0.00231494 -0.613989
          0.118768 -0.0128463 -0.594283 0.109724 -0.0136582 -0.587157
          0.11977 -0.0145272 -0.59394 0.112241 -0.0126718 -0.604121
          0.0259847 -0.00747016 -0.269956 0.0242242 -0.010768 -0.269019
          0.0623433 -0.00899144 -0.27071 0.0444503 -0.00882003 -0.221329
          0.135405 0.0894653 0.972754 0.107034 0.0785431 0.954037
          0.148946 0.0951903 0.97766 0.137992 0.0809897 0.939445
          0.137254 -0.010044 -0.578733 0.133596 -0.0181632 -0.590032
          0.153746 -0.0166346 -0.580158 0.164091 -0.018657 -0.566595
          0.299471 0.10761 0.905539 0.247261 0.101271 0.929042
          0.289994 0.106625 0.941827 0.272881 0.101595 0.900105
          0.271852 0.045926 0.0268448 0.204543 0.0383668 -0.0282422
          0.182741 0.0456925 0.0767849 0.251511 0.0450642 -0.00310106
          0.0137284 0.080901 0.667222 -0.00151333 0.0741555 0.554507
          0.0754783 0.0822369 0.620429 0.0716709 0.0749929 0.578483
          0.0979294 -0.0116895 -0.552479 0.113639 -0.0132619 -0.522822
          0.128281 -0.014775 -0.553089 0.110032 -0.012015 -0.542389
          0.0389648 -0.00539303 -0.0891458 0.0188405 -0.00834344 -0.0945442
          0.0176904 -0.00353163 -0.0727868 0.0245713 -0.00500875 -0.104985
          0.101095 0.0763853 0.812186 0.0803818 0.0694965 0.739584
          0.0173037 0.072694 0.712974 0.12824 0.0807888 0.747178
          0.0608181 -0.012833 -0.282402 0.102925 -0.01385 -0.339323
          0.0829969 -0.0109702 -0.307637 0.118728 -0.0117847 -0.327695
          0.0540385 0.0279604 -0.0683123 -0.0273946 0.023484 -0.0637811
          -0.0258321 0.0283266 0.00106752 -0.0199145 0.0267211 -0.024701
          0.104248 -0.00998517 -0.60549 0.0973108 -0.00874778 -0.600482
          0.103294 -0.00986613 -0.605495 0.106057 -0.0116458 -0.606543
          0.145903 0.092674 0.919067 0.0896431 0.0734616 0.892396
          0.117288 0.0824418 0.964402 0.0820273 0.0897636 0.875404
          0.0611862 0.0391504 0.0429092 0.103092 0.0367894 -0.0397778
          0.134692 0.0456868 0.0266296 0.159365 0.0442869 -0.00337952
          -0.0384657 -0.00944187 -0.0839381 -0.0347885 -0.00779776 -0.0616949
          -0.0075844 -0.00783516 -0.0507497 -0.0357635 -0.00911502 -0.0589362
          0.049462 0.0234903 -0.116728 0.0540385 0.0279604 -0.0683123
          0.023489 0.0297041 -0.0166612 0.0994822 0.0329572 -0.0324757
          0.0796746 -0.00510329 -0.588382 0.0859557 -0.0131762 -0.586375
          0.0683278 -0.00911235 -0.575633 0.0948582 -0.0101546 -0.592337
          -0.0104375 -0.0117784 -0.420885 0.030685 -0.00952224 -0.456825
          -0.0126592 -0.0086086 -0.409138 0.049198 -0.0109875 -0.426503
          0.0882954 0.0139789 -0.275434 0.0598204 0.00789755 -0.317222
          0.0944564 0.0146023 -0.27546 0.0567087 0.0165835 -0.211871
          0.0864786 -0.020683 -0.591283 0.0853375 -0.0184729 -0.58789
          0.0876484 -0.0143337 -0.588037 0.073082 -0.0182206 -0.580329
          0.341479 0.110086 0.924588 0.285884 0.101867 0.926939
          0.336675 0.107926 0.957762 0.344688 0.105742 0.919014
          0.112614 -0.0109344 -0.605291 0.114543 -0.00627446 -0.607233
          0.115624 -0.00953853 -0.606174 0.125961 -0.00727612 -0.600585
          0.209308 0.0137501 -0.529951 0.179763 0.00577853 -0.528465
          0.231423 0.0159505 -0.487696 0.18131 0.00998128 -0.509551
          0.165688 0.0612821 0.281712 0.165241 0.0545551 0.192337
          0.172727 0.0572523 0.179964 0.239744 0.0627337 0.215118
          -0.0209697 0.0473978 0.229358 -0.0171148 0.0401223 0.136628
          0.0467083 0.0485772 0.184625 -0.0227431 0.040404 0.146911
          -0.0390216 -0.0145598 -0.228437 -0.0150094 -0.0166441 -0.254014
          -0.0360913 -0.0157609 -0.267026 0.0157321 -0.0143898 -0.251108
          0.289994 0.106625 0.941827 0.285884 0.101867 0.926939
          0.341479 0.110086 0.924588 0.272881 0.101595 0.900105
          0.0101504 -0.0167399 -0.34114 -0.000947842 -0.0186037 -0.321454
          -0.0273646 -0.016129 -0.335138 0.00138579 -0.0197199 -0.365311
          0.0742199 -0.00934427 -0.556536 0.0659989 -0.00118024 -0.559713
          0.0855552 -0.00604505 -0.571251 0.0805224 -0.000891983 -0.581501
          0.145549 -0.00508143 -0.577714 0.155927 0.000251628 -0.585031
          0.171264 0.00623301 -0.573364 0.162 -0.00546711 -0.577397
          0.274099 0.105261 1.08923 0.239193 0.0983216 1.08158
          0.262572 0.0985842 1.02395 0.220738 0.0983866 1.03044
          0.0171834 -0.0131376 -0.175025 0.0150799 -0.0144693 -0.140254
          0.0425612 -0.0137818 -0.154251 0.00182056 -0.0115354 -0.128416
          0.00553736 -0.00949131 -0.0872548 0.0188405 -0.00834344 -0.0945442
          0.0341126 -0.0125083 -0.114873 0.0345143 -0.0101269 -0.131573
          0.00753595 -0.0138764 -0.340524 -0.0312485 -0.0147393 -0.307478
          -0.0273646 -0.016129 -0.335138 0.0101504 -0.0167399 -0.34114
          0.137992 0.0809897 0.939445 0.0740493 0.0641616 0.883765
          0.0792191 0.0683723 0.922832 0.117288 0.0824418 0.964402
          0.240943 0.0331244 -0.188792 0.173823 0.0246422 -0.254984
          0.213557 0.025394 -0.25746 0.204548 0.0340728 -0.161825
          0.351746 0.0970161 0.893709 0.289816 0.0991194 0.922122
          0.27271 0.0964002 0.88158 0.35898 0.100297 0.86023
          0.10517 -0.0159049 -0.610222 0.114469 -0.00938039 -0.604088
          0.106885 -0.0166778 -0.610537 0.112472 -0.00908123 -0.617884
          0.0594662 0.0664747 0.514154 0.0716709 0.0749929 0.578483
          -0.0101049 0.0672179 0.524128 -0.00848475 0.0649001 0.590354
          0.12041 -0.0170253 -0.596519 0.12962 -0.0179958 -0.581327
          0.126913 -0.0224445 -0.601183 0.116001 -0.0152121 -0.60849
          0.161268 0.0430777 0.00556753 0.168288 0.0375999 -0.0873447
          0.219222 0.0486119 -0.00572604 0.163842 0.0365633 -0.0716904
          -0.00102808 0.0614825 0.371555 0.0595115 0.0667901 0.408272
          -0.00991763 0.0660669 0.456629 -0.0117722 0.0584996 0.359025
          0.089927 0.0645819 0.43286 0.0519335 0.0584848 0.350848
          0.102322 0.0639772 0.375425 0.15877 0.0654663 0.366123
          0.0830577 0.0694311 0.477071 0.0716709 0.0749929 0.578483
          -0.0101049 0.0672179 0.524128 0.0594662 0.0664747 0.514154
          0.063013 -0.0157642 -0.0456833 0.0423499 -0.0114026 -0.055377
          0.0619345 -0.0102839 -0.0527576 0.0863681 -0.0147362 -0.0821753
          0.154852 -0.0116642 -0.533339 0.118801 -0.0139847 -0.559433
          0.148566 -0.0137518 -0.555601 0.149308 -0.0091699 -0.552519
          0.163842 0.0365633 -0.0716904 0.243538 0.045937 -0.0299528
          0.219222 0.0486119 -0.00572604 0.161268 0.0430777 0.00556753
          0.0713689 0.0401873 0.0354087 0.103092 0.0367894 -0.0397778
          0.134692 0.0456868 0.0266296 0.0611862 0.0391504 0.0429092
          0.181436 0.0819169 0.673158 0.196146 0.0872112 0.6934
          0.27145 0.0922475 0.715046 0.252053 0.0846894 0.591048
          0.243931 0.0382422 -0.120107 0.324155 0.0518298 -0.0383277
          0.306307 0.0396681 -0.119836 0.304914 0.0388482 -0.161189
          0.100508 -0.0172467 -0.594197 0.102143 -0.0120732 -0.59422
          0.1144 -0.0159403 -0.605091 0.118368 -0.00951325 -0.595495
          0.0994822 0.0329572 -0.0324757 0.023489 0.0297041 -0.0166612
          0.0720016 0.0386142 0.0590978 0.0359137 0.0362804 0.0463107
          0.173823 0.0246422 -0.254984 0.0882954 0.0139789 -0.275434
          0.115975 0.0128998 -0.314557 0.109294 0.0209412 -0.217591
          0.0490511 -0.0173693 -0.279308 0.0213185 -0.0168699 -0.245591
          0.0556986 -0.0149003 -0.231736 0.0157321 -0.0143898 -0.251108
          0.124448 -0.0143225 -0.471353 0.126251 -0.0140065 -0.477368
          0.163383 -0.0132896 -0.490656 0.137233 -0.0135718 -0.504352
          0.124448 -0.0143225 -0.471353 0.126251 -0.0140065 -0.477368
          0.137233 -0.0135718 -0.504352 0.114044 -0.0144426 -0.516593
          0.0910404 -0.00871713 -0.248485 0.0508684 -0.0116704 -0.233291
          0.0444503 -0.00882003 -0.221329 0.0623433 -0.00899144 -0.27071
          0.177732 0.0129794 -0.566982 0.150403 0.00210831 -0.583032
          0.15353 0.000570539 -0.562779 0.152816 0.00527735 -0.573116
          0.158504 0.0967715 0.763692 0.127105 0.0876495 0.701116
          0.145798 0.090798 0.679028 0.186477 0.0935983 0.764036
          -0.00484605 -0.00787858 -0.0492213 0.016022 -0.0112065 -0.0373548
          0.0290398 -0.0139909 -0.0689169 0.0126215 -0.00998045 -0.0546027
          0.0864608 -0.0150371 -0.385583 0.102925 -0.01385 -0.339323
          0.0858781 -0.0155531 -0.346023 0.133888 -0.0146771 -0.401768
          0.073345 -0.0152032 -0.0979749 0.0977345 -0.0202973 -0.106306
          0.110093 -0.0200852 -0.141493 0.108133 -0.015707 -0.125203
          0.00182056 -0.0115354 -0.128416 -0.00895024 -0.0104179 -0.0974204
          0.0341126 -0.0125083 -0.114873 0.00553736 -0.00949131 -0.0872548
          -0.0169867 0.0583781 0.508089 0.117833 0.067363 0.48689
          0.0594662 0.0664747 0.514154 0.116441 0.0700373 0.586952
          0.0540152 0.00252499 -0.0946214 0.0680056 -0.0011597 -0.0994993
          0.0809459 0.00664006 -0.0918569 0.0418506 0.000676097 -0.0697344
          0.132045 -0.0137283 -0.536958 0.137233 -0.0135718 -0.504352
          0.159245 -0.0136275 -0.519906 0.130132 -0.0142512 -0.513988
          0.0176904 -0.00353163 -0.0727868 0.0407461 -0.00197492 -0.0545277
          0.0165473 -0.00617679 -0.0509829 0.0389648 -0.00539303 -0.0891458
          0.196146 0.0872112 0.6934 0.27145 0.0922475 0.715046
          0.186567 0.0895988 0.781783 0.204122 0.0875869 0.77037
          0.0176904 -0.00353163 -0.0727868 0.00486514 -0.00518339 -0.0966911
          -0.0096781 -0.00610029 -0.0620695 0.0159457 -0.000758185 -0.0663928
          0.260232 0.0884996 0.60553 0.296192 0.0875151 0.559671
          0.384595 0.0956412 0.62046 0.290993 0.0932419 0.690529
          0.0508684 -0.0116704 -0.233291 0.00402628 -0.0122154 -0.223718
          0.0444503 -0.00882003 -0.221329 0.0266702 -0.0125329 -0.259877
          0.196146 0.0872112 0.6934 0.186567 0.0895988 0.781783
          0.165257 0.0931675 0.813209 0.127105 0.0876495 0.701116
          -0.0211191 0.0597525 0.441455 0.0594662 0.0664747 0.514154
          -0.0101049 0.0672179 0.524128 -0.00848475 0.0649001 0.590354
          0.270051 0.0400479 -0.0453142 0.204543 0.0383668 -0.0282422
          0.271852 0.045926 0.0268448 0.251511 0.0450642 -0.00310106
          0.198539 0.0823455 0.576957 0.296192 0.0875151 0.559671
          0.260232 0.0884996 0.60553 0.290993 0.0932419 0.690529
          -0.0270274 -0.00466195 -0.0349902 -0.0292533 -0.00563442 -0.0335524
          -0.00896293 -0.00640648 -0.0407497 -0.0347885 -0.00779776 -0.0616949
          0.24719 0.0906245 0.746051 0.27145 0.0922475 0.715046
          0.260233 0.0868215 0.649864 0.181436 0.0819169 0.673158
          0.32407 0.0527487 0.00931725 0.251511 0.0450642 -0.00310106
          0.243538 0.045937 -0.0299528 0.23391 0.0395448 -0.0669595
          0.128141 0.0092244 -0.36495 0.11452 0.00584169 -0.393886
          0.131645 0.00478053 -0.424531 0.177392 0.0114892 -0.3605
          -0.0228156 -0.00921044 -0.364747 0.0119736 -0.00702655 -0.341033
          0.0249799 -0.00927824 -0.386426 -0.0113336 -0.00627454 -0.364814
          0.153439 0.0976263 0.896305 0.145903 0.092674 0.919067
          0.141182 0.0902565 0.952366 0.0987851 0.0961257 0.918228
          0.0817732 -0.00910394 -0.520643 0.0970682 -0.00880874 -0.546836
          0.0871718 -0.0133081 -0.56754 0.117983 -0.00211367 -0.53106
          0.0608181 -0.012833 -0.282402 0.0508684 -0.0116704 -0.233291
          0.0910404 -0.00871713 -0.248485 0.0623433 -0.00899144 -0.27071
          0.0337951 -0.0196446 -0.535277 0.0535114 -0.0187996 -0.526146
          0.0647985 -0.0129255 -0.545036 0.0270565 -0.014071 -0.52226
          0.0737005 -0.0132091 -0.182875 0.0825549 -0.00948852 -0.155184
          0.0975373 -0.00974557 -0.192492 0.0450636 -0.0111888 -0.184676
          0.122016 -0.0103725 -0.580307 0.118476 -0.0115173 -0.589823
          0.0998571 -0.0152705 -0.572757 0.118801 -0.0139847 -0.559433
          0.109724 -0.0136582 -0.587157 0.101268 -0.0133311 -0.59472
          0.0987473 -0.0156323 -0.593287 0.0836865 -0.0155189 -0.576022
          0.0819398 -0.0260363 -0.591521 0.0808666 -0.022248 -0.583
          0.0982553 -0.0211777 -0.602659 0.0853375 -0.0184729 -0.58789
          0.0116505 -0.0055628 -0.385172 0.026183 -0.0140618 -0.460937
          0.0377969 -0.00734382 -0.416931 0.0657571 -0.0031679 -0.428833
          0.0159457 -0.000758185 -0.0663928 0.0275312 0.0035501 -0.0515769
          0.0176904 -0.00353163 -0.0727868 0.0418506 0.000676097 -0.0697344
          0.216196 0.0956329 0.913168 0.217678 0.0968129 0.834652
          0.167438 0.0943679 0.871731 0.153439 0.0976263 0.896305
          0.153746 -0.0166346 -0.580158 0.130566 -0.0141443 -0.594765
          0.135136 -0.0161269 -0.592202 0.138138 -0.0232528 -0.593319
          0.148758 0.0957216 0.968415 0.115205 0.101212 0.962865
          0.15053 0.0943226 0.984227 0.143039 0.100997 0.951491
          0.115205 0.101212 0.962865 0.149803 0.0947307 0.967832
          0.148758 0.0957216 0.968415 0.174536 0.092526 0.994842
          0.268008 0.0960197 0.961097 0.251644 0.0986556 0.9563
          0.216996 0.0946768 0.982276 0.204595 0.0961512 0.949524
          0.0832282 0.0038756 -0.376847 0.0657571 -0.0031679 -0.428833
          0.0638506 0.00594671 -0.330755 0.0116505 -0.0055628 -0.385172
          0.160203 -0.0119435 -0.337823 0.162928 -0.0101426 -0.361795
          0.165496 -0.012174 -0.412527 0.120859 -0.0118386 -0.3705
          0.133529 -0.0122415 -0.442996 0.0943749 -0.0110955 -0.459335
          0.120268 -0.0101949 -0.41947 0.11878 -0.011999 -0.4627
          0.341624 0.10169 0.94404 0.337395 0.104296 0.987774
          0.308147 0.0989408 0.97371 0.282294 0.0987585 0.988705
          0.0647985 -0.0129255 -0.545036 0.0510099 -0.0126816 -0.511239
          0.0937691 -0.0138029 -0.549149 0.0670694 -0.0106223 -0.51427
          0.0754448 -0.00761653 -0.348043 0.0615568 -0.00927245 -0.319052
          0.0343041 -0.00708722 -0.315142 0.0424382 -0.00742649 -0.369547
          0.246225 0.0190544 -0.257511 0.200648 0.0214733 -0.214665
          0.215632 0.0156658 -0.31289 0.187876 0.0115894 -0.319623
          0.114469 -0.00938039 -0.604088 0.109254 -0.0117923 -0.604306
          0.106885 -0.0166778 -0.610537 0.112637 -0.0103711 -0.611269
          0.0896834 -0.01342 -0.474792 0.0943749 -0.0110955 -0.459335
          0.049198 -0.0109875 -0.426503 0.0769836 -0.0103014 -0.421409
          0.197509 0.00429118 -0.539182 0.145549 -0.00508143 -0.577714
          0.171264 0.00623301 -0.573364 0.180281 -0.00286856 -0.557066
          -0.00151333 0.0741555 0.554507 0.0716709 0.0749929 0.578483
          0.0808134 0.0722704 0.485717 0.0754783 0.0822369 0.620429
          0.336045 0.105767 1.0392 0.262572 0.0985842 1.02395
          0.289143 0.105429 1.04493 0.298929 0.101482 1.04991
          0.251013 0.0330087 -0.116421 0.23391 0.0395448 -0.0669595
          0.306307 0.0396681 -0.119836 0.199466 0.0297779 -0.163731
          0 0 0 0 0 0
          0.0274571 -0.00635234 -0.0179501 0 0 0
          0.332017 0.109344 1.02927 0.26761 0.10803 1.03604
          0.330875 0.112426 1.07607 0.289143 0.105429 1.04493
          0.0483354 -0.00442074 -0.55277 0.0801628 -0.00822523 -0.571445
          0.0764351 -0.00495617 -0.53841 0.0843502 -0.00391901 -0.563047
          0.0715661 -0.0194334 -0.0566621 0.0605018 -0.0184435 -0.0762623
          0.0423499 -0.0114026 -0.055377 0.0863681 -0.0147362 -0.0821753
          -0.0211321 -0.00227591 -0.0131021 -0.0201014 -0.000736465 -0.00233419
          -0.0227859 -0.00193359 -0.0184177 0 0 0
          0.0679743 -0.0153294 -0.306575 0.0927891 -0.0138988 -0.27258
          0.118528 -0.0149838 -0.308486 0.102925 -0.01385 -0.339323
          0.0927891 -0.0138988 -0.27258 0.118528 -0.0149838 -0.308486
          0.113901 -0.0112095 -0.282981 0.152768 -0.0128705 -0.286097
          0.137117 0.0163716 -0.314393 0.175406 0.0171797 -0.332993
          0.115975 0.0128998 -0.314557 0.155675 0.013872 -0.375313
          0.100967 0.0376856 -0.0124784 0.168288 0.0375999 -0.0873447
          0.161268 0.0430777 0.00556753 0.163842 0.0365633 -0.0716904
          0.285631 0.0272575 -0.283759 0.216692 0.0189193 -0.322874
          0.279438 0.0225269 -0.278857 0.287792 0.0278946 -0.245922
          0.211651 0.0894452 1.02033 0.256007 0.0933328 1.02618
          0.256621 0.0931621 1.063 0.222064 0.0922335 1.0378
          0.139728 -0.0146452 -0.224153 0.0983677 -0.0115942 -0.227508
          0.130472 -0.0123001 -0.19356 0.145402 -0.0119491 -0.248543
          0.302232 0.0971933 0.769835 0.196146 0.0872112 0.6934
          0.186567 0.0895988 0.781783 0.268238 0.0953534 0.771063
          0.282707 0.0780598 0.447798 0.185822 0.0722326 0.453532
          0.293499 0.0841291 0.540835 0.237126 0.0794021 0.50115
          0.132813 0.0247032 -0.151924 0.049462 0.0234903 -0.116728
          0.045572 0.0183116 -0.184803 0.0640031 0.0178233 -0.205846
          0.101268 -0.0133311 -0.59472 0.109724 -0.0136582 -0.587157
          0.111468 -0.0123134 -0.602749 0.112241 -0.0126718 -0.604121
          0.0389648 -0.00539303 -0.0891458 0.0418506 0.000676097 -0.0697344
          0.0245713 -0.00500875 -0.104985 0.0176904 -0.00353163 -0.0727868
          0.153914 0.0798208 0.88027 0.198685 0.0945086 0.918357
          0.156753 0.0825092 0.929123 0.200281 0.0922869 0.909085
          0.106363 -0.00870799 -0.608749 0.111468 -0.0123134 -0.602749
          0.119576 -0.00659314 -0.600207 0.104248 -0.00998517 -0.60549
          0.00069831 -0.0122989 -0.0909205 -0.00895024 -0.0104179 -0.0974204
          0.00182056 -0.0115354 -0.128416 0.0150799 -0.0144693 -0.140254
          0.147899 -0.0184525 -0.564006 0.128281 -0.014775 -0.553089
          0.152257 -0.0186162 -0.540096 0.130675 -0.016316 -0.55811
          0.100937 0.0804062 0.671573 0.127105 0.0876495 0.701116
          0.196146 0.0872112 0.6934 0.13533 0.0805968 0.576606
          0.165257 0.0931675 0.813209 0.109382 0.0908914 0.835634
          0.108162 0.0929403 0.778368 0.100789 0.0866501 0.753101
          0.086844 0.0241004 -0.145402 0.0437957 0.0214384 -0.141935
          0.0692071 0.0290328 -0.0736489 0.0991005 0.026316 -0.14341
          0.0188405 -0.00834344 -0.0945442 0.0508293 -0.0107902 -0.0918145
          0.0695339 -0.0077584 -0.112705 0.0389648 -0.00539303 -0.0891458
          0.196146 0.0872112 0.6934 0.100789 0.0866501 0.753101
          0.186567 0.0895988 0.781783 0.127105 0.0876495 0.701116
          0.0638506 0.00594671 -0.330755 0.0919653 0.00584569 -0.369417
          0.115975 0.0128998 -0.314557 0.0598204 0.00789755 -0.317222
          0.0995078 -0.0148368 -0.598679 0.102143 -0.0120732 -0.59422
          0.0998671 -0.00980449 -0.59992 0.112614 -0.0109344 -0.605291
          -0.0160427 0.0608877 0.4158 -0.0117722 0.0584996 0.359025
          0.0595115 0.0667901 0.408272 0.0590932 0.0607576 0.34242
          0.337395 0.104296 0.987774 0.298929 0.101482 1.04991
          0.31334 0.101594 1.01953 0.282294 0.0987585 0.988705
          -0.0150094 -0.0166441 -0.254014 0.00727071 -0.0159958 -0.292999
          0.0157321 -0.0143898 -0.251108 0.0213185 -0.0168699 -0.245591
          0.0391397 -0.00499197 -0.525882 0.0654843 -0.00281992 -0.4944
          0.0240896 0.00249727 -0.466643 0.0423568 -0.000690955 -0.520877
          0.0882954 0.0139789 -0.275434 0.000458692 0.00569362 -0.263183
          0.0619518 0.0109529 -0.275906 0.0638506 0.00594671 -0.330755
          0.0467083 0.0485772 0.184625 -0.0171148 0.0401223 0.136628
          -0.0209697 0.0473978 0.229358 -0.0155251 0.0493815 0.243135
          0.0982553 -0.0211777 -0.602659 0.0987473 -0.0156323 -0.593287
          0.104386 -0.0161113 -0.608847 0.107318 -0.0140032 -0.607226
          0.15796 0.0626744 0.270179 0.179831 0.069947 0.368224
          0.209017 0.0680971 0.26482 0.17999 0.0712148 0.342808
          0.239777 0.0639908 0.300576 0.116016 0.0552688 0.266951
          0.185828 0.0648493 0.366047 0.165688 0.0612821 0.281712
          0.0266702 -0.0125329 -0.259877 0.0419592 -0.0119604 -0.304688
          0.0242242 -0.010768 -0.269019 0.0608181 -0.012833 -0.282402
          0.130862 -0.00448618 -0.596049 0.112396 -0.00944941 -0.595416
          0.145549 -0.00508143 -0.577714 0.120205 -0.0074673 -0.574662
          0.270051 0.0400479 -0.0453142 0.23391 0.0395448 -0.0669595
          0.185795 0.0311586 -0.1008 0.204543 0.0383668 -0.0282422
          0.0865935 -0.00428175 -0.59029 0.0648896 -0.00151987 -0.57823
          0.0796746 -0.00510329 -0.588382 0.0715879 -0.0107643 -0.570157
          0.219222 0.0486119 -0.00572604 0.337898 0.0608716 0.0317743
          0.262343 0.0583567 0.0517336 0.25535 0.057476 0.0852052
          0.121678 -0.0131649 -0.477031 0.113639 -0.0132619 -0.522822
          0.130132 -0.0142512 -0.513988 0.0896834 -0.01342 -0.474792
          0.00156437 -0.00480447 -0.0194943 0.00906148 -0.00396656 -0.00244451
          0.0210138 -0.00977568 -0.00900036 0.00765602 -0.0064143 -0.0148698
          0.0918535 -0.00127327 -0.184187 0.0608994 -0.00221483 -0.159693
          0.0502169 -0.00470133 -0.188891 0.0962148 -0.00593256 -0.21049
          0.185822 0.0722326 0.453532 0.102322 0.0639772 0.375425
          0.179831 0.069947 0.368224 0.15877 0.0654663 0.366123
          0.0242242 -0.010768 -0.269019 0.0608181 -0.012833 -0.282402
          0.0508684 -0.0116704 -0.233291 0.0266702 -0.0125329 -0.259877
          0.0108895 -0.00577718 -0.0287179 0.00562483 -0.00357756 -0.0126354
          0.00765602 -0.0064143 -0.0148698 0.0182165 -0.00767366 -0.0242749
          0.0345143 -0.0101269 -0.131573 0.0188405 -0.00834344 -0.0945442
          0.0695339 -0.0077584 -0.112705 0.0389648 -0.00539303 -0.0891458
          0.0984941 -0.0173699 -0.601281 0.0770825 -0.0209682 -0.589541
          0.0987772 -0.0110197 -0.589217 0.0974886 -0.0130007 -0.586673
          0.172727 0.0572523 0.179964 0.28714 0.0650225 0.175661
          0.238454 0.0638716 0.176386 0.239744 0.0627337 0.215118
          0.121678 -0.0131649 -0.477031 0.133529 -0.0122415 -0.442996
          0.157734 -0.0150762 -0.492321 0.11878 -0.011999 -0.4627
          0.104946 0.0435662 0.0577277 0.158421 0.0496291 0.0897101
          0.163459 0.0542829 0.132925 0.0583242 0.0419076 0.088712
          0.0437957 0.0214384 -0.141935 -0.0163625 0.013976 -0.178291
          -0.0209827 0.0198814 -0.106826 -0.0152553 0.0199927 -0.106234
          -0.0268066 0.0509021 0.288966 0.0519335 0.0584848 0.350848
          -0.0213389 0.0540566 0.325313 -0.0272993 0.0550045 0.375903
          -0.0227431 0.040404 0.146911 0.0467083 0.0485772 0.184625
          0.0939533 0.0506828 0.181751 0.0583242 0.0419076 0.088712
          0.013461 -0.00348063 -0.0158737 0.0105776 0.00504842 -0.00736282
          0.0303638 -0.00158471 -0.0321671 0.0159097 -0.00071185 -0.0210781
          0.239664 0.0342104 -0.217622 0.173823 0.0246422 -0.254984
          0.229906 0.0269602 -0.297914 0.213557 0.025394 -0.25746
          0.069771 -0.0176787 -0.359571 0.101199 -0.0169444 -0.331952
          0.121041 -0.0164017 -0.361831 0.0858781 -0.0155531 -0.346023
          0.039149 0.0478322 0.166498 -0.00804499 0.0392555 0.118445
          0.111056 0.0506082 0.116801 0.0640984 0.0457958 0.114738
          0.130047 -0.0108439 -0.391734 0.110055 -0.0119697 -0.4245
          0.120859 -0.0118386 -0.3705 0.0834431 -0.0103708 -0.372283
          0.215481 0.0468155 0.0269334 0.161268 0.0430777 0.00556753
          0.126597 0.045842 0.0973606 0.158421 0.0496291 0.0897101
          0.0203376 0.00322875 -0.300681 0.0364287 -0.00142277 -0.359323
          0.0826533 0.00922241 -0.323018 0.0638506 0.00594671 -0.330755
          0.108992 -0.0122948 -0.606635 0.0998671 -0.00980449 -0.59992
          0.107431 -0.00998447 -0.605534 0.114543 -0.00627446 -0.607233
          0.102322 0.0639772 0.375425 0.0590932 0.0607576 0.34242
          0.11408 0.0677137 0.376145 0.179831 0.069947 0.368224
          0.137741 -0.00834925 -0.591306 0.125961 -0.00727612 -0.600585
          0.138658 -0.00579803 -0.587756 0.118368 -0.00951325 -0.595495
          0.165241 0.0545551 0.192337 0.165688 0.0612821 0.281712
          0.27609 0.0684555 0.293154 0.239744 0.0627337 0.215118
          0.214788 0.10492 1.00424 0.166592 0.0943382 0.957611
          0.148946 0.0951903 0.97766 0.149803 0.0947307 0.967832
          0.200648 0.0214733 -0.214665 0.132813 0.0247032 -0.151924
          0.135582 0.0211458 -0.209163 0.123789 0.014183 -0.274253
          0.27145 0.0922475 0.715046 0.252053 0.0846894 0.591048
          0.290993 0.0932419 0.690529 0.316074 0.0917422 0.635195
          0 0 0 0.0105776 0.00504842 -0.00736282
          0 0 0 0.013461 -0.00348063 -0.0158737
          0.00553736 -0.00949131 -0.0872548 0.0256855 -0.00877047 -0.0769447
          0.0341126 -0.0125083 -0.114873 0.0188405 -0.00834344 -0.0945442
          0.0720016 0.0386142 0.0590978 0.0359137 0.0362804 0.0463107
          0.126597 0.045842 0.0973606 0.0887729 0.0367918 0.00698102
          0.130047 -0.0108439 -0.391734 0.120859 -0.0118386 -0.3705
          0.120603 -0.00930884 -0.326509 0.0834431 -0.0103708 -0.372283
          0.0994822 0.0329572 -0.0324757 0.0359137 0.0362804 0.0463107
          0.0720016 0.0386142 0.0590978 0.0887729 0.0367918 0.00698102
          0.0410239 -0.0180549 -0.471625 0.0518296 -0.0153847 -0.436534
          0.0782603 -0.0163881 -0.431469 0.0894282 -0.0157141 -0.475633
          0.260232 0.0884996 0.60553 0.198539 0.0823455 0.576957
          0.217441 0.0908349 0.694364 0.13533 0.0805968 0.576606
          0.0887729 0.0367918 0.00698102 0.0540385 0.0279604 -0.0683123
          -0.0258321 0.0283266 0.00106752 -0.0199145 0.0267211 -0.024701
          0.248309 0.07594 0.362052 0.17999 0.0712148 0.342808
          0.276815 0.0802136 0.346431 0.209017 0.0680971 0.26482
          0.0819398 -0.0260363 -0.591521 0.0512157 -0.0221583 -0.559286
          0.0808666 -0.022248 -0.583 0.0853375 -0.0184729 -0.58789
          0.0490511 -0.0173693 -0.279308 0.0157321 -0.0143898 -0.251108
          0.0556986 -0.0149003 -0.231736 0.0679743 -0.0153294 -0.306575
          0.198685 0.0945086 0.918357 0.156753 0.0825092 0.929123
          0.200281 0.0922869 0.909085 0.201574 0.0974581 0.951197
          0.267607 0.0706221 0.272312 0.15796 0.0626744 0.270179
          0.240365 0.0719055 0.361752 0.179831 0.069947 0.368224
          0.379682 0.0859182 0.404263 0.300097 0.0831428 0.404996
          0.386422 0.0887192 0.408722 0.378097 0.0840946 0.326979
          0.289816 0.0991194 0.922122 0.282294 0.0987585 0.988705
          0.292096 0.102758 0.964551 0.339454 0.105555 0.957672
          0.379682 0.0859182 0.404263 0.300097 0.0831428 0.404996
          0.387982 0.0910084 0.486622 0.386422 0.0887192 0.408722
          0.086844 0.0241004 -0.145402 0.137108 0.0320141 -0.0853689
          0.132813 0.0247032 -0.151924 0.135582 0.0211458 -0.209163
          0.11472 -0.0137039 -0.576103 0.11977 -0.0145272 -0.59394
          0.145529 -0.0171154 -0.571117 0.124799 -0.0135258 -0.574159
          0.217678 0.0968129 0.834652 0.165257 0.0931675 0.813209
          0.224695 0.0953553 0.846221 0.167438 0.0943679 0.871731
          0.198685 0.0945086 0.918357 0.200281 0.0922869 0.909085
          0.209922 0.09271 0.859342 0.24564 0.0977652 0.878842
          -0.00694388 -0.0196739 -0.43155 -0.00751634 -0.0214847 -0.407104
          0.0326146 -0.0205887 -0.428346 0.0228868 -0.0175449 -0.410755
          0.32407 0.0527487 0.00931725 0.243538 0.045937 -0.0299528
          0.332187 0.0577736 0.0357389 0.324155 0.0518298 -0.0383277
          0.116016 0.0552688 0.266951 0.060929 0.0538991 0.266939
          0.0799235 0.0462954 0.15972 0.019031 0.0478604 0.222628
          0.16095 0.0298942 -0.151939 0.199466 0.0297779 -0.163731
          0.137752 0.021662 -0.228365 0.230788 0.0275463 -0.219076
          0.290993 0.0932419 0.690529 0.384595 0.0956412 0.62046
          0.260232 0.0884996 0.60553 0.389693 0.0946005 0.585769
          0.26761 0.10803 1.03604 0.22275 0.104812 1.04279
          0.250416 0.112338 1.09087 0.260994 0.10922 1.08958
          0.106363 -0.00870799 -0.608749 0.0975384 -0.0068226 -0.604124
          0.104664 -0.012164 -0.609688 0.104248 -0.00998517 -0.60549
          0.17999 0.0712148 0.342808 0.11408 0.0677137 0.376145
          0.171272 0.0778226 0.475443 0.156872 0.0725458 0.373258
          0.107566 -0.0128015 -0.607479 0.114294 -0.0146101 -0.600231
          0.106077 -0.011639 -0.601787 0.104713 -0.0169045 -0.601903
          0.152841 0.00628365 -0.549552 0.130792 -0.000960639 -0.550484
          0.18131 0.00998128 -0.509551 0.135703 0.0025933 -0.49578
          0.117833 0.067363 0.48689 0.178795 0.0768006 0.555971
          0.0594662 0.0664747 0.514154 0.116441 0.0700373 0.586952
          0.0608181 -0.012833 -0.282402 0.0508684 -0.0116704 -0.233291
          0.0623433 -0.00899144 -0.27071 0.0242242 -0.010768 -0.269019
          0.132813 0.0247032 -0.151924 0.0640031 0.0178233 -0.205846
          0.135582 0.0211458 -0.209163 0.123789 0.014183 -0.274253
          0.272272 0.0982259 0.871623 0.216196 0.0956329 0.913168
          0.27271 0.0964002 0.88158 0.217678 0.0968129 0.834652
          0.0595115 0.0667901 0.408272 0.11408 0.0677137 0.376145
          0.171272 0.0778226 0.475443 0.0808134 0.0722704 0.485717
          0.219222 0.0486119 -0.00572604 0.274803 0.0541389 -0.0163549
          0.337898 0.0608716 0.0317743 0.243538 0.045937 -0.0299528
          0.0558022 -0.0109937 -0.389167 0.0801865 -0.0129857 -0.431223
          0.049198 -0.0109875 -0.426503 0.0769836 -0.0103014 -0.421409
          0.0998671 -0.00980449 -0.59992 0.0859557 -0.0131762 -0.586375
          0.0796746 -0.00510329 -0.588382 0.0948582 -0.0101546 -0.592337
          0.0853375 -0.0184729 -0.58789 0.0836865 -0.0155189 -0.576022
          0.073082 -0.0182206 -0.580329 0.0653537 -0.018359 -0.55754
          0.113901 -0.0112095 -0.282981 0.101176 -0.00783675 -0.284289
          0.120603 -0.00930884 -0.326509 0.0829969 -0.0109702 -0.307637
          0.0419592 -0.0119604 -0.304688 0.0608181 -0.012833 -0.282402
          0.0623433 -0.00899144 -0.27071 0.0242242 -0.010768 -0.269019
          0.197509 0.00429118 -0.539182 0.179763 0.00577853 -0.528465
          0.15353 0.000570539 -0.562779 0.163709 -0.000792662 -0.549448
          -0.0335928 -0.00987119 -0.0475263 -0.0280384 -0.00847588 -0.0277801
          -0.0102802 -0.00591698 -0.0432173 -0.029149 -0.00963848 -0.045854
          0.0615418 -0.0146903 -0.401189 0.0864608 -0.0150371 -0.385583
          0.0311669 -0.015471 -0.372513 0.0406751 -0.0188984 -0.381652
          0.211651 0.0894452 1.02033 0.15053 0.0943226 0.984227
          0.201861 0.0919498 0.982176 0.174536 0.092526 0.994842
          0.0176904 -0.00353163 -0.0727868 0.0275312 0.0035501 -0.0515769
          0.00965275 -0.00343188 -0.0436944 0.0418506 0.000676097 -0.0697344
          0.109208 0.0572903 0.209665 0.039149 0.0478322 0.166498
          0.111056 0.0506082 0.116801 0.0635172 0.0515351 0.19353
          -0.0386929 -0.00973485 -0.0876329 -0.010015 -0.0095234 -0.104158
          -0.042216 -0.0112982 -0.106801 -0.0152809 -0.00864801 -0.0931318
          0.298929 0.101482 1.04991 0.315064 0.107581 1.09375
          0.335042 0.104922 1.07194 0.288612 0.101508 1.08839
          0.249124 0.0204591 -0.440537 0.177759 0.0101018 -0.451713
          0.18131 0.00998128 -0.509551 0.231423 0.0159505 -0.487696
          -0.0352411 -0.00732795 -0.0746054 -0.00895024 -0.0104179 -0.0974204
          0.00069831 -0.0122989 -0.0909205 -0.0264292 -0.0092593 -0.0990623
          0.189171 0.00696049 -0.46894 0.190515 0.00181038 -0.453267
          0.23316 0.00509314 -0.452771 0.19211 0.00963681 -0.421164
          -0.0309792 -0.01305 -0.314827 -0.0308071 -0.0103616 -0.3191
          0.00691554 -0.00994981 -0.300825 0.0327647 -0.0109596 -0.337261
          0.332879 0.110851 0.961753 0.264721 0.107082 0.998789
          0.294293 0.110603 0.96798 0.330412 0.111551 1.00014
          0.0228868 -0.0175449 -0.410755 0.0311669 -0.015471 -0.372513
          0.0101504 -0.0167399 -0.34114 0.00138579 -0.0197199 -0.365311
          0.0640031 0.0178233 -0.205846 0.0202828 0.0114123 -0.276286
          0.00474097 0.0139395 -0.220345 0.0734512 0.0151683 -0.243691
          0.104664 -0.012164 -0.609688 0.104386 -0.0161113 -0.608847
          0.111468 -0.0123134 -0.602749 0.107318 -0.0140032 -0.607226
          0.209054 0.100802 0.973437 0.222148 0.100112 0.994249
          0.214788 0.10492 1.00424 0.264721 0.107082 0.998789
          0.137361 -0.000485042 -0.592 0.109555 -6.04137e-05 -0.59853
          0.1297 9.87133e-05 -0.605701 0.13511 0.00860607 -0.600893
          0.341816 0.112732 0.920067 0.272881 0.101595 0.900105
          0.289994 0.106625 0.941827 0.341479 0.110086 0.924588
          0.0439374 -0.00694747 -0.551364 0.0715879 -0.0107643 -0.570157
          0.0683278 -0.00911235 -0.575633 0.0648896 -0.00151987 -0.57823
          0.182741 0.0456925 0.0767849 0.193616 0.0487549 0.0843481
          0.247533 0.0529727 0.133991 0.262653 0.0500391 0.0812999
          0.25535 0.057476 0.0852052 0.337898 0.0608716 0.0317743
          0.344346 0.0656273 0.127083 0.332187 0.0577736 0.0357389
          0.227329 0.00478569 -0.482107 0.190515 0.00181038 -0.453267
          0.23316 0.00509314 -0.452771 0.189171 0.00696049 -0.46894
          0.111468 -0.0123134 -0.602749 0.125346 -0.0111707 -0.593521
          0.119576 -0.00659314 -0.600207 0.106077 -0.011639 -0.601787
          0.0863681 -0.0147362 -0.0821753 0.073345 -0.0152032 -0.0979749
          0.0605018 -0.0184435 -0.0762623 0.0423499 -0.0114026 -0.055377
          0.16095 0.0298942 -0.151939 0.230788 0.0275463 -0.219076
          0.137752 0.021662 -0.228365 0.240943 0.0331244 -0.188792
          0.125961 -0.00727612 -0.600585 0.1297 9.87133e-05 -0.605701
          0.120129 -0.00615696 -0.608411 0.130862 -0.00448618 -0.596049
          0.182105 0.0194951 -0.264953 0.200648 0.0214733 -0.214665
          0.287691 0.0276488 -0.212564 0.230788 0.0275463 -0.219076
          0.0527092 0.00222036 -0.446413 0.0816163 -2.51321e-05 -0.451585
          0.0548873 0.00331069 -0.396044 0.0932756 0.00212624 -0.445271
          0.222064 0.0922335 1.0378 0.220738 0.0983866 1.03044
          0.161148 0.0923967 1.06649 0.174536 0.092526 0.994842
          0.0444074 -0.00740716 -0.491207 0.0349748 -0.00214796 -0.509131
          0.0559069 -0.00708235 -0.53041 0.0271315 -0.00354039 -0.522255
          0.262343 0.0583567 0.0517336 0.337898 0.0608716 0.0317743
          0.313974 0.0649467 0.0409103 0.35358 0.070367 0.118803
          0.0483354 -0.00442074 -0.55277 0.0801628 -0.00822523 -0.571445
          0.0843502 -0.00391901 -0.563047 0.076987 -0.00403773 -0.579963
          0.310355 0.0708743 0.136241 0.246247 0.0617354 0.0848547
          0.313974 0.0649467 0.0409103 0.262343 0.0583567 0.0517336
          0.0615568 -0.00927245 -0.319052 0.0419592 -0.0119604 -0.304688
          0.0623433 -0.00899144 -0.27071 0.0242242 -0.010768 -0.269019
          0.336675 0.107926 0.957762 0.254201 0.103492 0.959385
          0.332879 0.110851 0.961753 0.330412 0.111551 1.00014
          0.0919653 0.00584569 -0.369417 0.125164 0.0053151 -0.431484
          0.128141 0.0092244 -0.36495 0.0945674 0.00212618 -0.424615
          0.0368281 -0.00633565 -0.419251 -0.0126592 -0.0086086 -0.409138
          0.030685 -0.00952224 -0.456825 0.0249799 -0.00927824 -0.386426
          0.0359137 0.0362804 0.0463107 0.0449238 0.0339339 0.00411554
          -0.0240479 0.0354399 0.0821265 0.0583242 0.0419076 0.088712
          0.115975 0.0128998 -0.314557 0.0598204 0.00789755 -0.317222
          0.0944564 0.0146023 -0.27546 0.0882954 0.0139789 -0.275434
          0.0796746 -0.00510329 -0.588382 0.085481 0.000932724 -0.594326
          0.10082 -0.00345068 -0.604568 0.109555 -6.04137e-05 -0.59853
          0.0407461 -0.00197492 -0.0545277 0.0514059 0.00594786 -0.0423778
          0.0811874 0.0034827 -0.0826292 0.0452555 0.00867015 -0.051966
          0.359488 0.0745767 0.226421 0.293523 0.0709724 0.187424
          0.267607 0.0706221 0.272312 0.297489 0.0760461 0.273847
          0.238454 0.0638716 0.176386 0.35358 0.070367 0.118803
          0.293523 0.0709724 0.187424 0.358776 0.0740713 0.182399
          0.335373 0.10664 1.00044 0.258775 0.10035 0.992022
          0.262572 0.0985842 1.02395 0.282294 0.0987585 0.988705
          -0.0139035 0.00686604 -0.302569 0.0508163 0.00841701 -0.326806
          0.01461 0.00723765 -0.34214 -0.0055242 0.00327003 -0.3614
          0.199466 0.0297779 -0.163731 0.243931 0.0382422 -0.120107
          0.230788 0.0275463 -0.219076 0.240943 0.0331244 -0.188792
          0.0689865 0.0290619 -0.0831016 -0.0152553 0.0199927 -0.106234
          0.0437957 0.0214384 -0.141935 0.0692071 0.0290328 -0.0736489
          0.0276634 -0.0124395 -0.381452 0.0327647 -0.0109596 -0.337261
          0.0689447 -0.0128604 -0.335303 0.073581 -0.012766 -0.382787
          0.330875 0.112426 1.07607 0.260994 0.10922 1.08958
          0.26761 0.10803 1.03604 0.284176 0.113884 1.09618
          0.19211 0.00963681 -0.421164 0.189171 0.00696049 -0.46894
          0.134062 0.00401747 -0.464844 0.177759 0.0101018 -0.451713
          0.196146 0.0872112 0.6934 0.252053 0.0846894 0.591048
          0.198539 0.0823455 0.576957 0.290993 0.0932419 0.690529
          0.217678 0.0968129 0.834652 0.224695 0.0953553 0.846221
          0.268238 0.0953534 0.771063 0.272272 0.0982259 0.871623
          0.31334 0.101594 1.01953 0.336045 0.105767 1.0392
          0.335042 0.104922 1.07194 0.298929 0.101482 1.04991
          -0.0211321 -0.00227591 -0.0131021 0 0 0
          -0.00441511 -0.00222472 -0.0122332 0 0 0
          0.114044 -0.0144426 -0.516593 0.137233 -0.0135718 -0.504352
          0.130132 -0.0142512 -0.513988 0.126251 -0.0140065 -0.477368
          0.117073 -0.00842294 -0.561124 0.0992329 -0.00753719 -0.587347
          0.119123 -0.00951806 -0.581108 0.129355 -0.0141182 -0.578393
          0.118476 -0.0115173 -0.589823 0.109724 -0.0136582 -0.587157
          0.0998571 -0.0152705 -0.572757 0.118801 -0.0139847 -0.559433
          0.0689865 0.0290619 -0.0831016 0.100967 0.0376856 -0.0124784
          0.0611862 0.0391504 0.0429092 -0.00934244 0.0266212 -0.0334379
          0.0217851 0.0294766 -0.0339357 0.0689865 0.0290619 -0.0831016
          0.0611862 0.0391504 0.0429092 -0.00934244 0.0266212 -0.0334379
          0.0341126 -0.0125083 -0.114873 0.0603776 -0.0173095 -0.104529
          0.0732646 -0.0135404 -0.135977 0.073345 -0.0152032 -0.0979749
          0.214788 0.10492 1.00424 0.148946 0.0951903 0.97766
          0.169989 0.0988924 1.0076 0.149803 0.0947307 0.967832
          0.0836865 -0.0155189 -0.576022 0.0647985 -0.0129255 -0.545036
          0.102221 -0.0132634 -0.576693 0.0715879 -0.0107643 -0.570157
          0.169989 0.0988924 1.0076 0.148946 0.0951903 0.97766
          0.0967532 0.0787728 0.992186 0.149803 0.0947307 0.967832
          0.0829969 -0.0109702 -0.307637 0.0910404 -0.00871713 -0.248485
          0.101176 -0.00783675 -0.284289 0.0623433 -0.00899144 -0.27071
          0.185682 0.0349137 -0.171147 0.14323 0.027128 -0.191288
          0.239664 0.0342104 -0.217622 0.204548 0.0340728 -0.161825
          0.130792 -0.000960639 -0.550484 0.110675 -0.00367405 -0.515213
          0.0817732 -0.00910394 -0.520643 0.0970682 -0.00880874 -0.546836
          0.239664 0.0342104 -0.217622 0.173823 0.0246422 -0.254984
          0.240943 0.0331244 -0.188792 0.204548 0.0340728 -0.161825
          0.145529 -0.0171154 -0.571117 0.154929 -0.0155281 -0.542343
          0.147899 -0.0184525 -0.564006 0.128281 -0.014775 -0.553089
          0.00270117 -0.00839904 -0.122071 -0.00603925 -0.00921344 -0.155231
          -0.0255505 -0.00966033 -0.133725 0.00706416 -0.00670828 -0.137923
          0.101199 -0.0169444 -0.331952 0.0490511 -0.0173693 -0.279308
          0.0679743 -0.0153294 -0.306575 0.0386203 -0.0180922 -0.317802
          0.0764351 -0.00495617 -0.53841 0.0801628 -0.00822523 -0.571445
          0.109413 -0.00731356 -0.560632 0.0843502 -0.00391901 -0.563047
          0.199036 0.0230983 -0.364512 0.124138 0.0125122 -0.349927
          0.122749 0.0083212 -0.401283 0.155675 0.013872 -0.375313
          0.0801628 -0.00822523 -0.571445 0.109413 -0.00731356 -0.560632
          0.0843502 -0.00391901 -0.563047 0.0992329 -0.00753719 -0.587347
          0.216196 0.0956329 0.913168 0.217678 0.0968129 0.834652
          0.141876 0.0985264 0.846848 0.209525 0.0981286 0.870041
          0.073345 -0.0152032 -0.0979749 0.110093 -0.0200852 -0.141493
          0.0732646 -0.0135404 -0.135977 0.108133 -0.015707 -0.125203
          0.0720016 0.0386142 0.0590978 0.0359137 0.0362804 0.0463107
          -0.0153192 0.0401373 0.139303 0.0443352 0.0428983 0.124246
          0.163842 0.0365633 -0.0716904 0.0692071 0.0290328 -0.0736489
          0.168288 0.0375999 -0.0873447 0.0991005 0.026316 -0.14341
          0.00553736 -0.00949131 -0.0872548 0.0341126 -0.0125083 -0.114873
          0.00182056 -0.0115354 -0.128416 0.0345143 -0.0101269 -0.131573
          0.22275 0.104812 1.04279 0.214788 0.10492 1.00424
          0.169989 0.0988924 1.0076 0.222148 0.100112 0.994249
          0.268238 0.0953534 0.771063 0.317504 0.0992951 0.814724
          0.224695 0.0953553 0.846221 0.302232 0.0971933 0.769835
          0.114044 -0.0144426 -0.516593 0.10645 -0.0155909 -0.489206
          0.0894282 -0.0157141 -0.475633 0.0878253 -0.0163672 -0.510375
          0.331863 0.0933791 0.681261 0.262492 0.0911611 0.652694
          0.319563 0.0916535 0.59525 0.303862 0.0937414 0.696053
          0.118768 -0.0128463 -0.594283 0.125346 -0.0111707 -0.593521
          0.121685 -0.0166017 -0.597055 0.136736 -0.0134479 -0.580147
          0.227293 0.112242 1.05647 0.214788 0.10492 1.00424
          0.22275 0.104812 1.04279 0.26761 0.10803 1.03604
          0.303862 0.0937414 0.696053 0.34366 0.0948321 0.759262
          0.331863 0.0933791 0.681261 0.272704 0.0935405 0.736088
          0.10082 -0.00345068 -0.604568 0.085481 0.000932724 -0.594326
          0.0923287 0.000732152 -0.600877 0.0965191 0.00659027 -0.605155
          0.135405 0.0894653 0.972754 0.111699 0.0872084 1.01616
          0.172295 0.10293 0.999356 0.148946 0.0951903 0.97766
          0.0444503 -0.00882003 -0.221329 0.0252408 -0.0079659 -0.186335
          0.0491411 -0.00599707 -0.241803 0.00022389 -0.00790277 -0.232947
          0.0252408 -0.0079659 -0.186335 -0.00603925 -0.00921344 -0.155231
          0.00472803 -0.00759501 -0.177314 -0.000402004 -0.0101472 -0.218544
          -0.0386929 -0.00973485 -0.0876329 -0.0075844 -0.00783516 -0.0507497
          -0.0014031 -0.00719991 -0.0748949 -0.0357635 -0.00911502 -0.0589362
          0.124448 -0.0143225 -0.471353 0.108289 -0.0142089 -0.434857
          0.126251 -0.0140065 -0.477368 0.0894282 -0.0157141 -0.475633
          0.00753595 -0.0138764 -0.340524 0.0101504 -0.0167399 -0.34114
          -0.0273646 -0.016129 -0.335138 0.0311669 -0.015471 -0.372513
          0.251644 0.0986556 0.9563 0.282294 0.0987585 0.988705
          0.268008 0.0960197 0.961097 0.216996 0.0946768 0.982276
          0.104713 -0.0169045 -0.601903 0.1081 -0.0209799 -0.606824
          0.107566 -0.0128015 -0.607479 0.113746 -0.0145598 -0.606765
          -0.000402004 -0.0101472 -0.218544 0.00472803 -0.00759501 -0.177314
          0.0252408 -0.0079659 -0.186335 0.00022389 -0.00790277 -0.232947
          0.0423499 -0.0114026 -0.055377 0.0303649 -0.0119405 -0.0807488
          0.0605018 -0.0184435 -0.0762623 0.0381607 -0.0153411 -0.0506569
          0.240943 0.0331244 -0.188792 0.243931 0.0382422 -0.120107
          0.31346 0.0448283 -0.141522 0.204548 0.0340728 -0.161825
          0.0220256 -0.0109318 -0.0199872 0.0182165 -0.00767366 -0.0242749
          0.045819 -0.00779774 -0.0366013 0.0385235 -0.0105734 -0.0388337
          0.289994 0.106625 0.941827 0.246243 0.10426 0.96754
          0.294293 0.110603 0.96798 0.264721 0.107082 0.998789
          0.0129194 -0.0132095 -0.492054 0.0270565 -0.014071 -0.52226
          0.0510099 -0.0126816 -0.511239 0.0135894 -0.016901 -0.492048
          0.0987772 -0.0110197 -0.589217 0.0770825 -0.0209682 -0.589541
          0.073427 -0.0150233 -0.582338 0.0974886 -0.0130007 -0.586673
          -0.0014031 -0.00719991 -0.0748949 0.0188405 -0.00834344 -0.0945442
          0.0176904 -0.00353163 -0.0727868 0.0165473 -0.00617679 -0.0509829
          0.258085 0.0955726 0.819384 0.216483 0.0943034 0.778517
          0.217678 0.0968129 0.834652 0.179768 0.0976013 0.825329
          0.0508293 -0.0107902 -0.0918145 0.0863681 -0.0147362 -0.0821753
          0.0931616 -0.0105415 -0.0987839 0.0567513 -0.00688996 -0.0800162
          0.0975373 -0.00974557 -0.192492 0.121216 -0.0034695 -0.167938
          0.126891 -0.00861598 -0.183665 0.134593 -0.00711215 -0.20878
          0.297489 0.0760461 0.273847 0.212417 0.073621 0.315974
          0.276815 0.0802136 0.346431 0.279083 0.0740901 0.226445
          0.114299 -0.00953216 -0.601565 0.130971 -0.00575554 -0.588593
          0.118476 -0.0115173 -0.589823 0.122016 -0.0103725 -0.580307
          0.260232 0.0884996 0.60553 0.196146 0.0872112 0.6934
          0.217441 0.0908349 0.694364 0.198539 0.0823455 0.576957
          0.186567 0.0895988 0.781783 0.27145 0.0922475 0.715046
          0.248601 0.0963202 0.818343 0.204122 0.0875869 0.77037
          0.0171833 0.0535705 0.315495 -0.0272993 0.0550045 0.375903
          0.0519335 0.0584848 0.350848 -0.0268066 0.0509021 0.288966
          0.000362789 -0.0130793 -0.455538 0.030685 -0.00952224 -0.456825
          -0.0104375 -0.0117784 -0.420885 0.0257655 -0.0133371 -0.43445
          0.130472 -0.0123001 -0.19356 0.11946 -0.0121716 -0.160773
          0.126891 -0.00861598 -0.183665 0.0825549 -0.00948852 -0.155184
          0.172295 0.10293 0.999356 0.148946 0.0951903 0.97766
          0.169989 0.0988924 1.0076 0.214788 0.10492 1.00424
          0.182741 0.0456925 0.0767849 0.251511 0.0450642 -0.00310106
          0.262653 0.0500391 0.0812999 0.271852 0.045926 0.0268448
          0.0746714 0.0731584 0.661841 0.181436 0.0819169 0.673158
          0.100937 0.0804062 0.671573 0.12824 0.0807888 0.747178
          0.10517 -0.0159049 -0.610222 0.0974886 -0.0130007 -0.586673
          0.114469 -0.00938039 -0.604088 0.09246 -0.0181342 -0.59445
          0.127146 -0.00193784 -0.605756 0.114469 -0.00938039 -0.604088
          0.130862 -0.00448618 -0.596049 0.127413 -0.00533943 -0.584442
          0.262803 0.108299 1.00082 0.209269 0.102614 0.986222
          0.256253 0.111304 1.03556 0.214788 0.10492 1.00424
          0.127413 -0.00533943 -0.584442 0.116074 -0.00889233 -0.591783
          0.120205 -0.0074673 -0.574662 0.0974886 -0.0130007 -0.586673
          0.172295 0.10293 0.999356 0.148946 0.0951903 0.97766
          0.185509 0.107383 1.03394 0.169989 0.0988924 1.0076
          0.104946 0.0435662 0.0577277 0.100178 0.0521232 0.164525
          0.0640984 0.0457958 0.114738 0.0583242 0.0419076 0.088712
          0.0603935 -0.0166081 -0.565105 0.0421184 -0.0116166 -0.5242
          0.0970682 -0.00880874 -0.546836 0.0480306 -0.0184858 -0.532774
          0.336675 0.107926 0.957762 0.254201 0.103492 0.959385
          0.330412 0.111551 1.00014 0.284969 0.105508 0.994064
          0.192396 0.0511354 0.0569261 0.158421 0.0496291 0.0897101
          0.163459 0.0542829 0.132925 0.104946 0.0435662 0.0577277
          0.0782603 -0.0163881 -0.431469 0.0518296 -0.0153847 -0.436534
          0.0326146 -0.0205887 -0.428346 0.0228868 -0.0175449 -0.410755
          0.0275312 0.0035501 -0.0515769 0.0247822 0.00224888 -0.0362098
          0.0418506 0.000676097 -0.0697344 0.0452555 0.00867015 -0.051966
          0.0686171 -0.0179506 -0.138966 0.102126 -0.0189734 -0.170381
          0.0732646 -0.0135404 -0.135977 0.110093 -0.0200852 -0.141493
          0.110097 -0.00503266 -0.59666 0.1297 9.87133e-05 -0.605701
          0.114543 -0.00627446 -0.607233 0.125961 -0.00727612 -0.600585
          0.185682 0.0349137 -0.171147 0.14323 0.027128 -0.191288
          0.227347 0.0341367 -0.239023 0.239664 0.0342104 -0.217622
          -0.0383281 -0.0105095 -0.0693774 -0.0014031 -0.00719991 -0.0748949
          -0.0152809 -0.00864801 -0.0931318 -0.0096781 -0.00610029 -0.0620695
          -0.0386929 -0.00973485 -0.0876329 -0.0152809 -0.00864801 -0.0931318
          -0.0383281 -0.0105095 -0.0693774 -0.0014031 -0.00719991 -0.0748949
          0.0801628 -0.00822523 -0.571445 0.0973108 -0.00874778 -0.600482
          0.0998489 -0.00965086 -0.589306 0.0890549 -0.00504081 -0.59431
          0.197509 0.00429118 -0.539182 0.203477 -0.00152772 -0.523147
          0.176831 0.00185096 -0.511452 0.163709 -0.000792662 -0.549448
          0.0345143 -0.0101269 -0.131573 0.0338639 -0.00745357 -0.153426
          0.0450636 -0.0111888 -0.184676 0.0125049 -0.0101035 -0.180202
          0.0769836 -0.0103014 -0.421409 0.0834431 -0.0103708 -0.372283
          0.130047 -0.0108439 -0.391734 0.084756 -0.00847522 -0.397233
          0.332017 0.109344 1.02927 0.26761 0.10803 1.03604
          0.329085 0.113175 1.04334 0.330875 0.112426 1.07607
          0.247261 0.101271 0.929042 0.246243 0.10426 0.96754
          0.294293 0.110603 0.96798 0.289994 0.106625 0.941827
          0.185682 0.0349137 -0.171147 0.130885 0.0226921 -0.239709
          0.227347 0.0341367 -0.239023 0.14323 0.027128 -0.191288
          0.254201 0.103492 0.959385 0.207948 0.0972424 0.9111
          0.285884 0.101867 0.926939 0.272881 0.101595 0.900105
          0.0481888 -0.0126734 -0.4751 0.00880291 -0.00779109 -0.477707
          0.0444074 -0.00740716 -0.491207 0.0510099 -0.0126816 -0.511239
          0.198539 0.0823455 0.576957 0.12867 0.0712302 0.495567
          0.120286 0.0757005 0.587085 0.189954 0.0762057 0.471849
          0.0820273 0.0897636 0.875404 0.117288 0.0824418 0.964402
          0.145903 0.092674 0.919067 0.0987851 0.0961257 0.918228
          0.119565 -0.00358364 -0.614347 0.10517 -0.0159049 -0.610222
          0.114469 -0.00938039 -0.604088 0.127146 -0.00193784 -0.605756
          0.254682 0.0561024 0.122055 0.165241 0.0545551 0.192337
          0.267528 0.060776 0.191131 0.185124 0.05297 0.131345
          0.152841 -0.0122022 -0.551974 0.117073 -0.00842294 -0.561124
          0.134573 -0.00903642 -0.561118 0.129355 -0.0141182 -0.578393
          0.174536 0.092526 0.994842 0.211651 0.0894452 1.02033
          0.15053 0.0943226 0.984227 0.1552 0.0906953 1.03528
          0.104713 -0.0169045 -0.601903 0.0925816 -0.0217264 -0.601484
          0.0875997 -0.0177313 -0.597244 0.106885 -0.0166778 -0.610537
          0.132813 0.0247032 -0.151924 0.137108 0.0320141 -0.0853689
          0.049462 0.0234903 -0.116728 0.0994822 0.0329572 -0.0324757
          -0.0117722 0.0584996 0.359025 -0.0118951 0.0528332 0.283342
          0.0876554 0.0583691 0.26528 -0.0161031 0.0543238 0.317271
          0.116074 -0.00889233 -0.591783 0.115624 -0.00953853 -0.606174
          0.112396 -0.00944941 -0.595416 0.109254 -0.0117923 -0.604306
          0.11452 0.00584169 -0.393886 0.16371 0.00418987 -0.421372
          0.135405 0.00710339 -0.365193 0.139514 0.000511914 -0.444654
          0.165257 0.0931675 0.813209 0.153439 0.0976263 0.896305
          0.141876 0.0985264 0.846848 0.109382 0.0908914 0.835634
          0.0826533 0.00922241 -0.323018 0.137117 0.0163716 -0.314393
          0.124138 0.0125122 -0.349927 0.167838 0.0206599 -0.322149
          0.35898 0.100297 0.86023 0.35012 0.10216 0.905117
          0.289816 0.0991194 0.922122 0.272272 0.0982259 0.871623
          0.126597 0.045842 0.0973606 0.0583242 0.0419076 0.088712
          0.0939533 0.0506828 0.181751 0.158421 0.0496291 0.0897101
          0.0608181 -0.012833 -0.282402 0.0689447 -0.0128604 -0.335303
          0.0679743 -0.0153294 -0.306575 0.0331346 -0.0139518 -0.311202
          0.227293 0.112242 1.05647 0.185509 0.107383 1.03394
          0.18707 0.1075 1.04546 0.214788 0.10492 1.00424
          -0.00458031 0.00720486 -0.248147 0.000458692 0.00569362 -0.263183
          0.0638506 0.00594671 -0.330755 0.00441796 -0.000796769 -0.324265
          -0.00441511 -0.00222472 -0.0122332 0 0 0
          0 0 0 0 0 0
          0.0689865 0.0290619 -0.0831016 0.100967 0.0376856 -0.0124784
          0.168288 0.0375999 -0.0873447 0.159365 0.0442869 -0.00337952
          0.0157321 -0.0143898 -0.251108 -0.0360913 -0.0157609 -0.267026
          -0.0355365 -0.0141714 -0.273168 0.00727071 -0.0159958 -0.292999
          0.216692 0.0189193 -0.322874 0.285631 0.0272575 -0.283759
          0.280167 0.0290173 -0.330448 0.292862 0.0326986 -0.268318
          0.166124 -0.0132648 -0.456047 0.124448 -0.0143225 -0.471353
          0.164278 -0.0127238 -0.470143 0.16614 -0.0138481 -0.427097
          0.254645 0.0175491 -0.410354 0.189171 0.00696049 -0.46894
          0.249124 0.0204591 -0.440537 0.239077 0.0121727 -0.458207
          0.0859557 -0.0131762 -0.586375 0.0480688 -0.0136174 -0.554683
          0.0683278 -0.00911235 -0.575633 0.073082 -0.0182206 -0.580329
          0.160387 0.00185887 -0.476443 0.227329 0.00478569 -0.482107
          0.175681 -0.00370727 -0.508049 0.176831 0.00185096 -0.511452
          0.192396 0.0511354 0.0569261 0.25535 0.057476 0.0852052
          0.163459 0.0542829 0.132925 0.158421 0.0496291 0.0897101
          0.0337951 -0.0196446 -0.535277 0.0647985 -0.0129255 -0.545036
          0.0653537 -0.018359 -0.55754 0.0480688 -0.0136174 -0.554683
          0.0594662 0.0664747 0.514154 0.120286 0.0757005 0.587085
          0.0716709 0.0749929 0.578483 -0.00848475 0.0649001 0.590354
          0.198498 0.0519682 0.0225208 0.262343 0.0583567 0.0517336
          0.192396 0.0511354 0.0569261 0.159365 0.0442869 -0.00337952
          0.176831 0.00185096 -0.511452 0.227329 0.00478569 -0.482107
          0.175681 -0.00370727 -0.508049 0.203477 -0.00152772 -0.523147
          0.102143 -0.0120732 -0.59422 0.112614 -0.0109344 -0.605291
          0.1144 -0.0159403 -0.605091 0.118368 -0.00951325 -0.595495
          0.0407461 -0.00197492 -0.0545277 0.0368505 -0.00613969 -0.0433125
          0.0114538 -0.00385626 -0.0309387 0.0165473 -0.00617679 -0.0509829
          -0.0227859 -0.00193359 -0.0184177 -0.00310213 -0.00244935 -0.0142378
          0.00020316 -0.00504482 -0.026493 -0.00441511 -0.00222472 -0.0122332
          0.207948 0.0972424 0.9111 0.198685 0.0945086 0.918357
          0.209922 0.09271 0.859342 0.272881 0.101595 0.900105
          0.00069831 -0.0122989 -0.0909205 0.0290398 -0.0139909 -0.0689169
          0.0347523 -0.014953 -0.10816 0.0303649 -0.0119405 -0.0807488
          0.102322 0.0639772 0.375425 0.15796 0.0626744 0.270179
          0.0590932 0.0607576 0.34242 0.179831 0.069947 0.368224
          0.25679 0.05184 -0.0499682 0.274803 0.0541389 -0.0163549
          0.262343 0.0583567 0.0517336 0.198498 0.0519682 0.0225208
          0.247533 0.0529727 0.133991 0.267528 0.060776 0.191131
          0.344461 0.0653814 0.18953 0.254682 0.0561024 0.122055
          0.130792 -0.000960639 -0.550484 0.147387 0.00173919 -0.514186
          0.135703 0.0025933 -0.49578 0.110675 -0.00367405 -0.515213
          0.0742199 -0.00934427 -0.556536 0.0937691 -0.0138029 -0.549149
          0.0979294 -0.0116895 -0.552479 0.0670694 -0.0106223 -0.51427
          0.0878253 -0.0163672 -0.510375 0.0908379 -0.0141968 -0.513139
          0.0894282 -0.0157141 -0.475633 0.114044 -0.0144426 -0.516593
          0.0769836 -0.0103014 -0.421409 0.130047 -0.0108439 -0.391734
          0.120268 -0.0101949 -0.41947 0.084756 -0.00847522 -0.397233
          0.251013 0.0330087 -0.116421 0.185795 0.0311586 -0.1008
          0.23391 0.0395448 -0.0669595 0.199466 0.0297779 -0.163731
          0.126597 0.045842 0.0973606 0.0939533 0.0506828 0.181751
          0.0799235 0.0462954 0.15972 0.165241 0.0545551 0.192337
          0.133475 0.0765293 0.818985 0.0668794 0.0646988 0.817607
          0.102717 0.0704512 0.892847 0.101095 0.0763853 0.812186
          0.107034 0.0785431 0.954037 0.0792191 0.0683723 0.922832
          0.117288 0.0824418 0.964402 0.137992 0.0809897 0.939445
          0.351348 0.111747 0.869577 0.299471 0.10761 0.905539
          0.341816 0.112732 0.920067 0.272881 0.101595 0.900105
          0.112637 -0.0103711 -0.611269 0.113746 -0.0145598 -0.606765
          0.106885 -0.0166778 -0.610537 0.112644 -0.0104976 -0.615798
          0.204548 0.0340728 -0.161825 0.163842 0.0365633 -0.0716904
          0.16095 0.0298942 -0.151939 0.243931 0.0382422 -0.120107
          0.0338639 -0.00745357 -0.153426 0.0608994 -0.00221483 -0.159693
          0.0698431 -0.00822036 -0.18142 0.0502169 -0.00470133 -0.188891
          0.0974821 -0.012431 -0.598996 0.106885 -0.0166778 -0.610537
          0.0875997 -0.0177313 -0.597244 0.0984941 -0.0173699 -0.601281
          0.0875997 -0.0177313 -0.597244 0.0770825 -0.0209682 -0.589541
          0.073427 -0.0150233 -0.582338 0.0984941 -0.0173699 -0.601281
          0.00156437 -0.00480447 -0.0194943 -0.0184737 -0.00268011 -0.0251174
          -0.00354797 -0.000992811 -0.00468258 -0.00310213 -0.00244935 -0.0142378
          0.10517 -0.0159049 -0.610222 0.106885 -0.0166778 -0.610537
          0.114469 -0.00938039 -0.604088 0.0984941 -0.0173699 -0.601281
          0.0987473 -0.0156323 -0.593287 0.101268 -0.0133311 -0.59472
          0.0995078 -0.0148368 -0.598679 0.0836865 -0.0155189 -0.576022
          0.0995078 -0.0148368 -0.598679 0.0987473 -0.0156323 -0.593287
          0.107318 -0.0140032 -0.607226 0.101268 -0.0133311 -0.59472
          0.0259847 -0.00747016 -0.269956 0.0623433 -0.00899144 -0.27071
          0.0491411 -0.00599707 -0.241803 0.0444503 -0.00882003 -0.221329
          0.16095 0.0298942 -0.151939 0.163842 0.0365633 -0.0716904
          0.199466 0.0297779 -0.163731 0.243931 0.0382422 -0.120107
          0.179763 0.00577853 -0.528465 0.163709 -0.000792662 -0.549448
          0.147387 0.00173919 -0.514186 0.15353 0.000570539 -0.562779
          0.118528 -0.0149838 -0.308486 0.113705 -0.0175004 -0.293712
          0.150518 -0.0153733 -0.270885 0.114861 -0.0179139 -0.253853
          0.111776 -0.0247358 -0.601291 0.0819398 -0.0260363 -0.591521
          0.107518 -0.0214738 -0.605715 0.0864786 -0.020683 -0.591283
          0.100508 -0.0172467 -0.594197 0.1144 -0.0159403 -0.605091
          0.0995078 -0.0148368 -0.598679 0.0864786 -0.020683 -0.591283
          0.0603935 -0.0166081 -0.565105 0.0728637 -0.00800935 -0.538075
          0.0554554 -0.00994833 -0.555061 0.0885485 -0.0107869 -0.567941
          0.0746342 -0.0182243 -0.408703 0.0864608 -0.0150371 -0.385583
          0.116094 -0.0159618 -0.415128 0.0782603 -0.0163881 -0.431469
          0.258085 0.0955726 0.819384 0.179768 0.0976013 0.825329
          0.217678 0.0968129 0.834652 0.209525 0.0981286 0.870041
          0.101199 -0.0169444 -0.331952 0.0679743 -0.0153294 -0.306575
          0.118528 -0.0149838 -0.308486 0.0858781 -0.0155531 -0.346023
          0.111468 -0.0123134 -0.602749 0.118476 -0.0115173 -0.589823
          0.119576 -0.00659314 -0.600207 0.125346 -0.0111707 -0.593521
          0.0159097 -0.00071185 -0.0210781 0.00322887 -0.000798352 -0.00798877
          0.0105776 0.00504842 -0.00736282 0.0062396 0.00749469 -0.00317775
          0.049462 0.0234903 -0.116728 0.0540385 0.0279604 -0.0683123
          -0.0273946 0.023484 -0.0637811 0.023489 0.0297041 -0.0166612
          0.0615568 -0.00927245 -0.319052 0.0242242 -0.010768 -0.269019
          0.0259847 -0.00747016 -0.269956 0.00691554 -0.00994981 -0.300825
          0.0615568 -0.00927245 -0.319052 0.0327647 -0.0109596 -0.337261
          0.00691554 -0.00994981 -0.300825 0.0343041 -0.00708722 -0.315142
          0.196146 0.0872112 0.6934 0.27145 0.0922475 0.715046
          0.302232 0.0971933 0.769835 0.186567 0.0895988 0.781783
          0.135136 -0.0161269 -0.592202 0.100508 -0.0172467 -0.594197
          0.1144 -0.0159403 -0.605091 0.118368 -0.00951325 -0.595495
          -0.0388781 -0.0110417 -0.128993 -0.0116154 -0.0127112 -0.160316
          -0.0398427 -0.0112934 -0.139971 0.00182056 -0.0115354 -0.128416
          0.190515 0.00181038 -0.453267 0.227329 0.00478569 -0.482107
          0.175681 -0.00370727 -0.508049 0.160387 0.00185887 -0.476443
          0.282707 0.0780598 0.447798 0.15877 0.0654663 0.366123
          0.185822 0.0722326 0.453532 0.240365 0.0719055 0.361752
          0.127146 -0.00193784 -0.605756 0.10517 -0.0159049 -0.610222
          0.114469 -0.00938039 -0.604088 0.10914 -0.00942437 -0.584649
          -0.0405949 -0.0121653 -0.220618 -0.0425719 -0.0113411 -0.197009
          -0.0417754 -0.0127901 -0.19048 0.0125049 -0.0101035 -0.180202
          0.104946 0.0435662 0.0577277 0.163459 0.0542829 0.132925
          0.100178 0.0521232 0.164525 0.0583242 0.0419076 0.088712
          0.303862 0.0937414 0.696053 0.260232 0.0884996 0.60553
          0.319563 0.0916535 0.59525 0.316173 0.0897648 0.554729
          0.00182056 -0.0115354 -0.128416 -0.00895024 -0.0104179 -0.0974204
          -0.0129988 -0.0132636 -0.152133 0.0150799 -0.0144693 -0.140254
          0.133529 -0.0122415 -0.442996 0.165145 -0.0139856 -0.453798
          0.11878 -0.011999 -0.4627 0.120268 -0.0101949 -0.41947
          0.280246 0.0724522 0.393062 0.185828 0.0648493 0.366047
          0.282707 0.0780598 0.447798 0.240365 0.0719055 0.361752
          0.0732646 -0.0135404 -0.135977 0.105846 -0.0102429 -0.126556
          0.11946 -0.0121716 -0.160773 0.0825549 -0.00948852 -0.155184
          0.137108 0.0320141 -0.0853689 0.0887729 0.0367918 0.00698102
          0.0692071 0.0290328 -0.0736489 0.0540385 0.0279604 -0.0683123
          0 0 0 0.0105776 0.00504842 -0.00736282
          0.013461 -0.00348063 -0.0158737 0.0159097 -0.00071185 -0.0210781
          0.0982553 -0.0211777 -0.602659 0.0914105 -0.0189928 -0.58394
          0.103987 -0.0142188 -0.596435 0.0987473 -0.0156323 -0.593287
          0.0742199 -0.00934427 -0.556536 0.0865935 -0.00428175 -0.59029
          0.0925113 -0.0100672 -0.58693 0.0715879 -0.0107643 -0.570157
          0.0825549 -0.00948852 -0.155184 0.0667859 -0.00492085 -0.132948
          0.0698431 -0.00822036 -0.18142 0.0345143 -0.0101269 -0.131573
          0.0982553 -0.0211777 -0.602659 0.103987 -0.0142188 -0.596435
          0.104386 -0.0161113 -0.608847 0.0987473 -0.0156323 -0.593287
          0.15796 0.0626744 0.270179 0.17999 0.0712148 0.342808
          0.0876554 0.0583691 0.26528 0.11408 0.0677137 0.376145
          -0.0211321 -0.00227591 -0.0131021 -0.0227859 -0.00193359 -0.0184177
          -0.00310213 -0.00244935 -0.0142378 0 0 0
          0.168513 0.0943187 0.953422 0.216196 0.0956329 0.913168
          0.207948 0.0972424 0.9111 0.153439 0.0976263 0.896305
          0.121685 -0.0166017 -0.597055 0.136736 -0.0134479 -0.580147
          0.134646 -0.0196971 -0.587951 0.11977 -0.0145272 -0.59394
          0.101199 -0.0169444 -0.331952 0.0798418 -0.0176947 -0.264202
          0.113705 -0.0175004 -0.293712 0.0679743 -0.0153294 -0.306575
          0.109413 -0.00731356 -0.560632 0.0998489 -0.00965086 -0.589306
          0.120205 -0.0074673 -0.574662 0.119123 -0.00951806 -0.581108
          0.243538 0.045937 -0.0299528 0.163842 0.0365633 -0.0716904
          0.243931 0.0382422 -0.120107 0.23391 0.0395448 -0.0669595
          0.0688902 0.018373 -0.205679 0.0250181 0.0101551 -0.238931
          0.0619518 0.0109529 -0.275906 0.000458692 0.00569362 -0.263183
          0.0611862 0.0391504 0.0429092 0.134692 0.0456868 0.0266296
          0.141569 0.0485009 0.0692919 0.159365 0.0442869 -0.00337952
          0.0275312 0.0035501 -0.0515769 0.0418506 0.000676097 -0.0697344
          0.0540152 0.00252499 -0.0946214 0.0452555 0.00867015 -0.051966
          0.0410239 -0.0180549 -0.471625 0.0118425 -0.0240072 -0.475595
          0.0172693 -0.0198767 -0.502773 0.049659 -0.0222241 -0.516821
          0.222148 0.100112 0.994249 0.166592 0.0943382 0.957611
          0.149803 0.0947307 0.967832 0.216313 0.0984366 0.955905
          0.24751 0.0759489 0.490251 0.282707 0.0780598 0.447798
          0.293499 0.0841291 0.540835 0.376057 0.088585 0.525818
          0.110055 -0.0119697 -0.4245 0.126251 -0.0140065 -0.477368
          0.132605 -0.0129756 -0.428618 0.0896834 -0.01342 -0.474792
          0.216196 0.0956329 0.913168 0.217678 0.0968129 0.834652
          0.153439 0.0976263 0.896305 0.141876 0.0985264 0.846848
          0.0150799 -0.0144693 -0.140254 0.0341126 -0.0125083 -0.114873
          0.00182056 -0.0115354 -0.128416 0.0347523 -0.014953 -0.10816
          0.262565 0.0127976 -0.353888 0.205526 0.00822017 -0.38119
          0.215632 0.0156658 -0.31289 0.272434 0.0195054 -0.327936
          0.227347 0.0341367 -0.239023 0.130885 0.0226921 -0.239709
          0.167838 0.0206599 -0.322149 0.173823 0.0246422 -0.254984
          0.384031 0.0961793 0.70697 0.34366 0.0948321 0.759262
          0.331863 0.0933791 0.681261 0.303862 0.0937414 0.696053
          0.384031 0.0961793 0.70697 0.380329 0.099153 0.71259
          0.371492 0.0993781 0.80277 0.303862 0.0937414 0.696053
          0.268238 0.0953534 0.771063 0.272704 0.0935405 0.736088
          0.303862 0.0937414 0.696053 0.217441 0.0908349 0.694364
          0.0608181 -0.012833 -0.282402 0.102925 -0.01385 -0.339323
          0.0927891 -0.0138988 -0.27258 0.0679743 -0.0153294 -0.306575
          0.124138 0.0125122 -0.349927 0.0832282 0.0038756 -0.376847
          0.122749 0.0083212 -0.401283 0.0919653 0.00584569 -0.369417
          0.073581 -0.012766 -0.382787 0.0689447 -0.0128604 -0.335303
          0.102925 -0.01385 -0.339323 0.120859 -0.0118386 -0.3705
          0.0603935 -0.0166081 -0.565105 0.0885485 -0.0107869 -0.567941
          0.0554554 -0.00994833 -0.555061 0.073427 -0.0150233 -0.582338
          -0.0388781 -0.0110417 -0.128993 -0.0129988 -0.0132636 -0.152133
          -0.0116154 -0.0127112 -0.160316 0.00182056 -0.0115354 -0.128416
          0.108992 -0.0122948 -0.606635 0.0995078 -0.0148368 -0.598679
          0.101268 -0.0133311 -0.59472 0.0998671 -0.00980449 -0.59992
          0.108992 -0.0122948 -0.606635 0.101268 -0.0133311 -0.59472
          0.107431 -0.00998447 -0.605534 0.0998671 -0.00980449 -0.59992
          0.0105776 0.00504842 -0.00736282 0.0255033 0.00090171 -0.0220747
          0.0514059 0.00594786 -0.0423778 0.0311991 0.0147318 -0.021768
          0.260232 0.0884996 0.60553 0.271522 0.0837749 0.481467
          0.171272 0.0778226 0.475443 0.199691 0.0849973 0.580698
          0.0559069 -0.00708235 -0.53041 0.0349748 -0.00214796 -0.509131
          0.0758985 -0.00839467 -0.497359 0.0741411 -0.00504061 -0.54589
          -0.0036987 0.0700438 0.47369 0.0595115 0.0667901 0.408272
          0.0846141 0.0787166 0.528453 -0.00991763 0.0660669 0.456629
          0.102221 -0.0132634 -0.576693 0.0979294 -0.0116895 -0.552479
          0.11472 -0.0137039 -0.576103 0.105112 -0.0109623 -0.591591
          0.11472 -0.0137039 -0.576103 0.0979294 -0.0116895 -0.552479
          0.103554 -0.0102896 -0.583544 0.105112 -0.0109623 -0.591591
          0.10517 -0.0159049 -0.610222 0.106885 -0.0166778 -0.610537
          0.102214 -0.0221425 -0.614932 0.112472 -0.00908123 -0.617884
          0.288612 0.101508 1.08839 0.239193 0.0983216 1.08158
          0.222064 0.0922335 1.0378 0.262572 0.0985842 1.02395
          0.153746 -0.0166346 -0.580158 0.137741 -0.00834925 -0.591306
          0.130566 -0.0141443 -0.594765 0.137254 -0.010044 -0.578733
          0.107566 -0.0128015 -0.607479 0.121685 -0.0166017 -0.597055
          0.114294 -0.0146101 -0.600231 0.104713 -0.0169045 -0.601903
          0.0165473 -0.00617679 -0.0509829 0.0407461 -0.00197492 -0.0545277
          0.0567513 -0.00688996 -0.0800162 0.0389648 -0.00539303 -0.0891458
          0.269623 0.0833918 0.439675 0.300097 0.0831428 0.404996
          0.222461 0.0782877 0.41735 0.221318 0.0782606 0.38677
          -0.00714448 0.0494386 0.23525 0.039149 0.0478322 0.166498
          0.060043 0.0568305 0.259679 0.0635172 0.0515351 0.19353
          0.123047 -0.00843312 -0.371754 0.162928 -0.0101426 -0.361795
          0.120603 -0.00930884 -0.326509 0.130047 -0.0108439 -0.391734
          0.248309 0.07594 0.362052 0.17999 0.0712148 0.342808
          0.222461 0.0782877 0.41735 0.276815 0.0802136 0.346431
          0.125164 0.0053151 -0.431484 0.0919653 0.00584569 -0.369417
          0.122749 0.0083212 -0.401283 0.0657571 -0.0031679 -0.428833
          0.300097 0.0831428 0.404996 0.248309 0.07594 0.362052
          0.271522 0.0837749 0.481467 0.222461 0.0782877 0.41735
          0.0261287 -0.0124198 -0.465925 0.0664855 -0.0026124 -0.453424
          0.0352309 -0.0128731 -0.503908 0.0948104 -0.00236865 -0.481413
          0.0784527 -0.00597124 -0.0773241 0.0514059 0.00594786 -0.0423778
          0.0811874 0.0034827 -0.0826292 0.0407461 -0.00197492 -0.0545277
          0.191072 0.0185475 -0.420765 0.261623 0.0282334 -0.421171
          0.277362 0.0316763 -0.363672 0.214694 0.0186287 -0.384992
          0.110055 -0.0119697 -0.4245 0.132605 -0.0129756 -0.428618
          0.0801865 -0.0129857 -0.431223 0.0896834 -0.01342 -0.474792
          0.0954823 -0.0039651 -0.106414 0.0784527 -0.00597124 -0.0773241
          0.0811874 0.0034827 -0.0826292 0.0567513 -0.00688996 -0.0800162
          -0.0184737 -0.00268011 -0.0251174 -0.0218483 -0.00148098 -0.00984418
          -0.00310213 -0.00244935 -0.0142378 -0.0227859 -0.00193359 -0.0184177
          0.0954823 -0.0039651 -0.106414 0.0695339 -0.0077584 -0.112705
          0.0567513 -0.00688996 -0.0800162 0.0680056 -0.0011597 -0.0994993
          0.0654843 -0.00281992 -0.4944 0.0877043 -0.0027958 -0.528633
          0.0764351 -0.00495617 -0.53841 0.128315 -0.00339795 -0.511432
          0.0907144 0.0927309 0.71224 0.127105 0.0876495 0.701116
          0.0201388 0.0872946 0.682538 0.0754783 0.0822369 0.620429
          0.272881 0.101595 0.900105 0.198685 0.0945086 0.918357
          0.254201 0.103492 0.959385 0.207948 0.0972424 0.9111
          0.130862 -0.00448618 -0.596049 0.137741 -0.00834925 -0.591306
          0.145549 -0.00508143 -0.577714 0.112396 -0.00944941 -0.595416
          0.0816163 -2.51321e-05 -0.451585 0.0654843 -0.00281992 -0.4944
          0.0696074 -0.00701453 -0.503281 0.0975595 -0.00451818 -0.516903
          0.0966303 -0.0151294 -0.230152 0.101464 -0.0152337 -0.183591
          0.0755101 -0.0174151 -0.181463 0.10478 -0.018128 -0.212972
          0.0991005 0.026316 -0.14341 0.168288 0.0375999 -0.0873447
          0.14323 0.027128 -0.191288 0.120774 0.030637 -0.123642
          0.185822 0.0722326 0.453532 0.179831 0.069947 0.368224
          0.189954 0.0762057 0.471849 0.240365 0.0719055 0.361752
          0.243931 0.0382422 -0.120107 0.324155 0.0518298 -0.0383277
          0.31346 0.0448283 -0.141522 0.257162 0.0452472 -0.0826948
          0.336045 0.105767 1.0392 0.315064 0.107581 1.09375
          0.335042 0.104922 1.07194 0.298929 0.101482 1.04991
          0.156081 0.0102825 -0.594759 0.1544 0.00590663 -0.591654
          0.1297 9.87133e-05 -0.605701 0.13511 0.00860607 -0.600893
          0.118728 -0.0117847 -0.327695 0.102925 -0.01385 -0.339323
          0.160203 -0.0119435 -0.337823 0.118528 -0.0149838 -0.308486
          0.000458692 0.00569362 -0.263183 0.0203376 0.00322875 -0.300681
          0.0619518 0.0109529 -0.275906 0.0638506 0.00594671 -0.330755
          0.158421 0.0496291 0.0897101 0.172727 0.0572523 0.179964
          0.185124 0.05297 0.131345 0.25535 0.057476 0.0852052
          0.106363 -0.00870799 -0.608749 0.104386 -0.0161113 -0.608847
          0.114299 -0.00953216 -0.601565 0.111468 -0.0123134 -0.602749
          0.106363 -0.00870799 -0.608749 0.114299 -0.00953216 -0.601565
          0.119576 -0.00659314 -0.600207 0.111468 -0.0123134 -0.602749
          0.107566 -0.0128015 -0.607479 0.106885 -0.0166778 -0.610537
          0.0875997 -0.0177313 -0.597244 0.0974821 -0.012431 -0.598996
          0.00213241 -0.0128252 -0.289606 0.00402628 -0.0122154 -0.223718
          0.0242242 -0.010768 -0.269019 -0.0364058 -0.0121714 -0.271789
          0 0 0 0 0 0
          -0.00441511 -0.00222472 -0.0122332 0 0 0
          0.0254341 -0.00812965 -0.517394 0.00880291 -0.00779109 -0.477707
          0.0444074 -0.00740716 -0.491207 0.0271315 -0.00354039 -0.522255
          0.102221 -0.0132634 -0.576693 0.11977 -0.0145272 -0.59394
          0.124799 -0.0135258 -0.574159 0.109724 -0.0136582 -0.587157
          0.160002 -0.0117775 -0.507128 0.131259 -0.0138379 -0.510261
          0.137233 -0.0135718 -0.504352 0.154852 -0.0116642 -0.533339
          0 0 0 0.0316418 -0.00827242 -0.00712274
          0.0220256 -0.0109318 -0.0199872 0.0303958 -0.0025765 -0.00444756
          0.199036 0.0230983 -0.364512 0.277362 0.0316763 -0.363672
          0.249315 0.0320911 -0.328099 0.214694 0.0186287 -0.384992
          0.0863681 -0.0147362 -0.0821753 0.0423499 -0.0114026 -0.055377
          0.0619345 -0.0102839 -0.0527576 0.0784527 -0.00597124 -0.0773241
          0.258085 0.0955726 0.819384 0.217678 0.0968129 0.834652
          0.27271 0.0964002 0.88158 0.209525 0.0981286 0.870041
          -0.0417754 -0.0127901 -0.19048 0.0125049 -0.0101035 -0.180202
          -0.0048344 -0.0120173 -0.183844 -0.0405949 -0.0121653 -0.220618
          0 0 0 0 0 0
          0 0 0 -0.00700115 -0.00345964 -0.0120442
          0.359488 0.0745767 0.226421 0.358776 0.0740713 0.182399
          0.293523 0.0709724 0.187424 0.297489 0.0760461 0.273847
          0.163842 0.0365633 -0.0716904 0.0692071 0.0290328 -0.0736489
          0.100967 0.0376856 -0.0124784 0.168288 0.0375999 -0.0873447
          0.218704 0.0214812 -0.457714 0.261623 0.0282334 -0.421171
          0.214694 0.0186287 -0.384992 0.249124 0.0204591 -0.440537
          0.0341126 -0.0125083 -0.114873 0.0508293 -0.0107902 -0.0918145
          0.0732646 -0.0135404 -0.135977 0.0345143 -0.0101269 -0.131573
          0.100789 0.0866501 0.753101 0.100937 0.0804062 0.671573
          0.00350164 0.0727373 0.630668 0.0137284 0.080901 0.667222
          0.341624 0.10169 0.94404 0.337395 0.104296 0.987774
          0.282294 0.0987585 0.988705 0.339454 0.105555 0.957672
          0.168513 0.0943187 0.953422 0.141182 0.0902565 0.952366
          0.207948 0.0972424 0.9111 0.216313 0.0984366 0.955905
          0.0150799 -0.0144693 -0.140254 0.0425612 -0.0137818 -0.154251
          0.0341126 -0.0125083 -0.114873 0.0347523 -0.014953 -0.10816
          0.155927 0.000251628 -0.585031 0.137741 -0.00834925 -0.591306
          0.162 -0.00546711 -0.577397 0.145549 -0.00508143 -0.577714
          0.110675 -0.00367405 -0.515213 0.147387 0.00173919 -0.514186
          0.134062 0.00401747 -0.464844 0.124809 5.29779e-05 -0.483101
          0.0425612 -0.0137818 -0.154251 0.0347523 -0.014953 -0.10816
          0.0686171 -0.0179506 -0.138966 0.0341126 -0.0125083 -0.114873
          0.300097 0.0831428 0.404996 0.221318 0.0782606 0.38677
          0.269623 0.0833918 0.439675 0.276815 0.0802136 0.346431
          0.10517 -0.0159049 -0.610222 0.0984941 -0.0173699 -0.601281
          0.114469 -0.00938039 -0.604088 0.0974886 -0.0130007 -0.586673
          0.114469 -0.00938039 -0.604088 0.0984941 -0.0173699 -0.601281
          0.109254 -0.0117923 -0.604306 0.0974886 -0.0130007 -0.586673
          0.0125049 -0.0101035 -0.180202 0.0450636 -0.0111888 -0.184676
          0.0508684 -0.0116704 -0.233291 0.0444503 -0.00882003 -0.221329
          0.154929 -0.0155281 -0.542343 0.132045 -0.0137283 -0.536958
          0.130132 -0.0142512 -0.513988 0.12387 -0.0137173 -0.55443
          0.0688902 0.018373 -0.205679 0.14323 0.027128 -0.191288
          0.0991005 0.026316 -0.14341 0.109294 0.0209412 -0.217591
          0.12824 0.0807888 0.747178 0.100789 0.0866501 0.753101
          0.186567 0.0895988 0.781783 0.100937 0.0804062 0.671573
          0.332879 0.110851 0.961753 0.289994 0.106625 0.941827
          0.294293 0.110603 0.96798 0.264721 0.107082 0.998789
          0.0567513 -0.00688996 -0.0800162 0.0784527 -0.00597124 -0.0773241
          0.0931616 -0.0105415 -0.0987839 0.0954823 -0.0039651 -0.106414
          0.0927891 -0.0138988 -0.27258 0.0508684 -0.0116704 -0.233291
          0.0556986 -0.0149003 -0.231736 0.0983677 -0.0115942 -0.227508
          0.152841 -0.0122022 -0.551974 0.134573 -0.00903642 -0.561118
          0.166017 -0.00832996 -0.548618 0.129355 -0.0141182 -0.578393
          0.00562483 -0.00357756 -0.0126354 0.013461 -0.00348063 -0.0158737
          0.0182165 -0.00767366 -0.0242749 0.0159097 -0.00071185 -0.0210781
          -0.0158773 0.0100494 -0.249103 0.0508163 0.00841701 -0.326806
          0.0202828 0.0114123 -0.276286 -0.0139035 0.00686604 -0.302569
          0.249124 0.0204591 -0.440537 0.177759 0.0101018 -0.451713
          0.218704 0.0214812 -0.457714 0.18131 0.00998128 -0.509551
          -0.00934244 0.0266212 -0.0334379 0.0689865 0.0290619 -0.0831016
          -0.00559399 0.0202761 -0.1029 0.0217851 0.0294766 -0.0339357
          0 0 0 0 0 0
          0.013461 -0.00348063 -0.0158737 0.0159097 -0.00071185 -0.0210781
          0.00562483 -0.00357756 -0.0126354 0 0 0
          0.013461 -0.00348063 -0.0158737 0.0159097 -0.00071185 -0.0210781
          0.0875997 -0.0177313 -0.597244 0.0770825 -0.0209682 -0.589541
          0.0984941 -0.0173699 -0.601281 0.0925816 -0.0217264 -0.601484
          0.204548 0.0340728 -0.161825 0.16095 0.0298942 -0.151939
          0.137752 0.021662 -0.228365 0.240943 0.0331244 -0.188792
          0.0449238 0.0339339 0.00411554 0.0583242 0.0419076 0.088712
          0.0611862 0.0391504 0.0429092 -0.0157458 0.0323379 0.0389614
          0.0994822 0.0329572 -0.0324757 0.185795 0.0311586 -0.1008
          0.132813 0.0247032 -0.151924 0.137108 0.0320141 -0.0853689
          0.110675 -0.00367405 -0.515213 0.124809 5.29779e-05 -0.483101
          0.0948104 -0.00236865 -0.481413 0.0696074 -0.00701453 -0.503281
          0.204543 0.0383668 -0.0282422 0.23391 0.0395448 -0.0669595
          0.185795 0.0311586 -0.1008 0.137108 0.0320141 -0.0853689
          0.271522 0.0837749 0.481467 0.248309 0.07594 0.362052
          0.301397 0.0779443 0.365474 0.298245 0.0824615 0.466509
          0.0979294 -0.0116895 -0.552479 0.0908379 -0.0141968 -0.513139
          0.113639 -0.0132619 -0.522822 0.0670694 -0.0106223 -0.51427
          0.0598204 0.00789755 -0.317222 0.0919653 0.00584569 -0.369417
          0.128141 0.0092244 -0.36495 0.0688967 0.00260366 -0.397242
          0.0894282 -0.0157141 -0.475633 0.0896834 -0.01342 -0.474792
          0.126251 -0.0140065 -0.477368 0.0908379 -0.0141968 -0.513139
          0.0908379 -0.0141968 -0.513139 0.0665471 -0.0159942 -0.505201
          0.0937691 -0.0138029 -0.549149 0.0821186 -0.0163022 -0.547193
          0.316173 0.0897648 0.554729 0.199691 0.0849973 0.580698
          0.237426 0.086149 0.538209 0.271522 0.0837749 0.481467
          0.0801865 -0.0129857 -0.431223 0.0896834 -0.01342 -0.474792
          0.0943749 -0.0110955 -0.459335 0.110055 -0.0119697 -0.4245
          0.146166 0.0938949 1.01979 0.0992901 0.104541 0.989552
          0.15053 0.0943226 0.984227 0.148758 0.0957216 0.968415
          0.0998489 -0.00965086 -0.589306 0.106057 -0.0116458 -0.606543
          0.0974821 -0.012431 -0.598996 0.112396 -0.00944941 -0.595416
          0.0689865 0.0290619 -0.0831016 0.168288 0.0375999 -0.0873447
          0.120774 0.030637 -0.123642 0.159365 0.0442869 -0.00337952
          -0.0386929 -0.00973485 -0.0876329 -0.010015 -0.0095234 -0.104158
          -0.0152809 -0.00864801 -0.0931318 -0.0014031 -0.00719991 -0.0748949
          0.0157321 -0.0143898 -0.251108 0.00727071 -0.0159958 -0.292999
          0.00213241 -0.0128252 -0.289606 0.0331346 -0.0139518 -0.311202
          0.0171833 0.0535705 0.315495 0.0519335 0.0584848 0.350848
          0.060929 0.0538991 0.266939 -0.0268066 0.0509021 0.288966
          0.00069831 -0.0122989 -0.0909205 0.0126215 -0.00998045 -0.0546027
          0.0290398 -0.0139909 -0.0689169 0.0303649 -0.0119405 -0.0807488
          0.120286 0.0757005 0.587085 0.181436 0.0819169 0.673158
          0.100937 0.0804062 0.671573 0.0746714 0.0731584 0.661841
          0.0746714 0.0731584 0.661841 0.0594662 0.0664747 0.514154
          -0.00848475 0.0649001 0.590354 0.120286 0.0757005 0.587085
          -0.011625 0.0608921 0.603092 0.0679001 0.0684276 0.660272
          -0.00848475 0.0649001 0.590354 0.0746714 0.0731584 0.661841
          0.00322887 -0.000798352 -0.00798877 0.00220275 0.00061746 -0.00693662
          0.0062396 0.00749469 -0.00317775 0.0161469 0.00429153 -0.0295316
          0.162928 -0.0101426 -0.361795 0.161751 -0.00820863 -0.358657
          0.158708 -0.0108474 -0.413742 0.130047 -0.0108439 -0.391734
          0.125961 -0.00727612 -0.600585 0.110097 -0.00503266 -0.59666
          0.112614 -0.0109344 -0.605291 0.114543 -0.00627446 -0.607233
          0.0525426 0.0870027 0.823583 0.0647625 0.0955917 0.842871
          0.0820273 0.0897636 0.875404 0.109382 0.0908914 0.835634
          0.165257 0.0931675 0.813209 0.100789 0.0866501 0.753101
          0.108162 0.0929403 0.778368 0.127105 0.0876495 0.701116
          0.121685 -0.0166017 -0.597055 0.11977 -0.0145272 -0.59394
          0.113746 -0.0145598 -0.606765 0.112241 -0.0126718 -0.604121
          0.109382 0.0908914 0.835634 0.0612522 0.0739216 0.829945
          0.0896431 0.0734616 0.892396 0.0525426 0.0870027 0.823583
          0.12824 0.0807888 0.747178 0.181436 0.0819169 0.673158
          0.204122 0.0875869 0.77037 0.149244 0.0766639 0.750003
          0.181436 0.0819169 0.673158 0.24719 0.0906245 0.746051
          0.204122 0.0875869 0.77037 0.149244 0.0766639 0.750003
          0.229061 0.0449968 -0.0778743 0.323171 0.0510428 -0.116229
          0.331839 0.0569946 -0.0477761 0.257162 0.0452472 -0.0826948
          0.0615568 -0.00927245 -0.319052 0.00691554 -0.00994981 -0.300825
          0.0259847 -0.00747016 -0.269956 0.0343041 -0.00708722 -0.315142
          0.125961 -0.00727612 -0.600585 0.1297 9.87133e-05 -0.605701
          0.114543 -0.00627446 -0.607233 0.120129 -0.00615696 -0.608411
          0.238454 0.0638716 0.176386 0.209017 0.0680971 0.26482
          0.267607 0.0706221 0.272312 0.297489 0.0760461 0.273847
          0.30514 0.0391761 -0.236674 0.292862 0.0326986 -0.268318
          0.229906 0.0269602 -0.297914 0.280167 0.0290173 -0.330448
          0.119042 -0.0136001 -0.539299 0.132045 -0.0137283 -0.536958
          0.118801 -0.0139847 -0.559433 0.102378 -0.0147507 -0.539178
          0.203901 0.0897619 1.07521 0.211651 0.0894452 1.02033
          0.222064 0.0922335 1.0378 0.1552 0.0906953 1.03528
          0.107318 -0.0140032 -0.607226 0.111468 -0.0123134 -0.602749
          0.112241 -0.0126718 -0.604121 0.108992 -0.0122948 -0.606635
          -0.00102808 0.0614825 0.371555 -0.0118951 0.0528332 0.283342
          0.0851486 0.064407 0.331217 -0.0117722 0.0584996 0.359025
          0.134646 -0.0196971 -0.587951 0.11977 -0.0145272 -0.59394
          0.145529 -0.0171154 -0.571117 0.12041 -0.0170253 -0.596519
          0.11977 -0.0145272 -0.59394 0.118768 -0.0128463 -0.594283
          0.121685 -0.0166017 -0.597055 0.136736 -0.0134479 -0.580147
          0.0803818 0.0694965 0.739584 0.101095 0.0763853 0.812186
          0.133475 0.0765293 0.818985 0.149244 0.0766639 0.750003
          0.0689865 0.0290619 -0.0831016 0.0692071 0.0290328 -0.0736489
          0.100967 0.0376856 -0.0124784 -0.0143431 0.0252607 -0.0446928
          0.0801865 -0.0129857 -0.431223 0.0896834 -0.01342 -0.474792
          0.0769836 -0.0103014 -0.421409 0.0943749 -0.0110955 -0.459335
          0.302232 0.0971933 0.769835 0.317504 0.0992951 0.814724
          0.367966 0.104195 0.7975 0.380329 0.099153 0.71259
          0.125164 0.0053151 -0.431484 0.153324 0.009434 -0.465698
          0.191072 0.0185475 -0.420765 0.177759 0.0101018 -0.451713
          0.0882954 0.0139789 -0.275434 0.0944564 0.0146023 -0.27546
          0.137752 0.021662 -0.228365 0.109294 0.0209412 -0.217591
          0.0337169 0.0592017 0.420383 0.0594662 0.0664747 0.514154
          -0.0211191 0.0597525 0.441455 -0.0169867 0.0583781 0.508089
          0.109294 0.0209412 -0.217591 0.0882954 0.0139789 -0.275434
          0.115975 0.0128998 -0.314557 0.137752 0.021662 -0.228365
          0.0732646 -0.0135404 -0.135977 0.0695339 -0.0077584 -0.112705
          0.105846 -0.0102429 -0.126556 0.0825549 -0.00948852 -0.155184
          0.0345143 -0.0101269 -0.131573 -0.000871435 -0.0111273 -0.144184
          0.0338639 -0.00745357 -0.153426 0.0125049 -0.0101035 -0.180202
          0.0345143 -0.0101269 -0.131573 0.00270117 -0.00839904 -0.122071
          0.0338639 -0.00745357 -0.153426 -0.000871435 -0.0111273 -0.144184
          0.0881059 -0.0270881 -0.606613 0.0770825 -0.0209682 -0.589541
          0.0984941 -0.0173699 -0.601281 0.09246 -0.0181342 -0.59445
          0.0647625 0.0955917 0.842871 0.0987851 0.0961257 0.918228
          0.153439 0.0976263 0.896305 0.0838931 0.102285 0.893233
          0.0820273 0.0897636 0.875404 0.0987851 0.0961257 0.918228
          0.145903 0.092674 0.919067 0.153439 0.0976263 0.896305
          0.0647625 0.0955917 0.842871 0.0820273 0.0897636 0.875404
          0.153439 0.0976263 0.896305 0.0987851 0.0961257 0.918228
          0.146451 -0.00498123 -0.540931 0.128315 -0.00339795 -0.511432
          0.160387 0.00185887 -0.476443 0.124087 -0.00488907 -0.541258
          0.146451 -0.00498123 -0.540931 0.124087 -0.00488907 -0.541258
          0.109413 -0.00731356 -0.560632 0.128315 -0.00339795 -0.511432
          0.369769 0.0801117 0.315608 0.297489 0.0760461 0.273847
          0.378097 0.0840946 0.326979 0.368693 0.0796129 0.22943
          0.135582 0.0211458 -0.209163 0.0734512 0.0151683 -0.243691
          0.135072 0.0117331 -0.321953 0.123789 0.014183 -0.274253
          0.319563 0.0916535 0.59525 0.260232 0.0884996 0.60553
          0.262492 0.0911611 0.652694 0.316173 0.0897648 0.554729
          0.117833 0.067363 0.48689 0.201989 0.0793398 0.615495
          0.178795 0.0768006 0.555971 0.116441 0.0700373 0.586952
          0.109617 -0.00182166 -0.493723 0.122207 0.000471272 -0.462474
          0.0677674 -0.000179497 -0.487995 0.0932756 0.00212624 -0.445271
          0.139514 0.000511914 -0.444654 0.122207 0.000471272 -0.462474
          0.109617 -0.00182166 -0.493723 0.0932756 0.00212624 -0.445271
          -0.0124161 0.00998805 -0.238023 -0.00630596 0.0047323 -0.294327
          0.0445276 0.00929873 -0.294244 -0.00773479 0.00474989 -0.315558
          0.112637 -0.0103711 -0.611269 0.113683 -0.00346981 -0.617295
          0.112644 -0.0104976 -0.615798 0.112472 -0.00908123 -0.617884
          0.122207 0.000471272 -0.462474 0.109617 -0.00182166 -0.493723
          0.151141 -0.00421154 -0.490188 0.139514 0.000511914 -0.444654
          0.160387 0.00185887 -0.476443 0.124809 5.29779e-05 -0.483101
          0.128315 -0.00339795 -0.511432 0.122207 0.000471272 -0.462474
          0.16095 0.0298942 -0.151939 0.199466 0.0297779 -0.163731
          0.135582 0.0211458 -0.209163 0.137752 0.021662 -0.228365
          0.00182056 -0.0115354 -0.128416 -0.0116154 -0.0127112 -0.160316
          0.0171834 -0.0131376 -0.175025 0.0150799 -0.0144693 -0.140254
          -0.0438624 -0.0112966 -0.125053 -0.0255505 -0.00966033 -0.133725
          -0.0295031 -0.0100554 -0.0861512 -0.0152809 -0.00864801 -0.0931318
          0.155675 0.013872 -0.375313 0.177759 0.0101018 -0.451713
          0.214694 0.0186287 -0.384992 0.171681 0.0118168 -0.394107
          0.069771 -0.0176787 -0.359571 0.0858781 -0.0155531 -0.346023
          0.121041 -0.0164017 -0.361831 0.0864608 -0.0150371 -0.385583
          0.104713 -0.0169045 -0.601903 0.106077 -0.011639 -0.601787
          0.0974821 -0.012431 -0.598996 0.0910021 -0.00774906 -0.595565
          0.104713 -0.0169045 -0.601903 0.0910021 -0.00774906 -0.595565
          0.0974821 -0.012431 -0.598996 0.0875997 -0.0177313 -0.597244
          0.191072 0.0185475 -0.420765 0.277362 0.0316763 -0.363672
          0.199036 0.0230983 -0.364512 0.214694 0.0186287 -0.384992
          0.0742199 -0.00934427 -0.556536 0.0559069 -0.00708235 -0.53041
          0.0741411 -0.00504061 -0.54589 0.0659989 -0.00118024 -0.559713
          -0.038764 -0.0152156 -0.219229 0.0213185 -0.0168699 -0.245591
          -0.00275804 -0.0140178 -0.20773 4.09269e-05 -0.015154 -0.187651
          0.189171 0.00696049 -0.46894 0.124809 5.29779e-05 -0.483101
          0.131645 0.00478053 -0.424531 0.134062 0.00401747 -0.464844
          0.141147 0.100371 0.938067 0.143039 0.100997 0.951491
          0.124962 0.103705 0.917689 0.107308 0.105929 0.93937
          0.0490511 -0.0173693 -0.279308 0.0556986 -0.0149003 -0.231736
          0.0798418 -0.0176947 -0.264202 0.0679743 -0.0153294 -0.306575
          0.163956 0.0390901 -0.0880543 0.237712 0.0442774 -0.120025
          0.25679 0.05184 -0.0499682 0.229061 0.0449968 -0.0778743
          0.163956 0.0390901 -0.0880543 0.229061 0.0449968 -0.0778743
          0.25679 0.05184 -0.0499682 0.162043 0.0441457 -0.0289436
          0.076987 -0.00403773 -0.579963 0.0801628 -0.00822523 -0.571445
          0.0843502 -0.00391901 -0.563047 0.0992329 -0.00753719 -0.587347
          0.272881 0.101595 0.900105 0.24564 0.0977652 0.878842
          0.299471 0.10761 0.905539 0.247261 0.101271 0.929042
          0.120603 -0.00930884 -0.326509 0.101176 -0.00783675 -0.284289
          0.102812 -0.00669444 -0.317028 0.0615568 -0.00927245 -0.319052
          0.380329 0.099153 0.71259 0.378687 0.0993396 0.685729
          0.290993 0.0932419 0.690529 0.384595 0.0956412 0.62046
          0.196146 0.0872112 0.6934 0.204122 0.0875869 0.77037
          0.186567 0.0895988 0.781783 0.12824 0.0807888 0.747178
          0.132188 -0.00369529 -0.201109 0.147637 -0.00749906 -0.261287
          0.134593 -0.00711215 -0.20878 0.0962148 -0.00593256 -0.21049
          0.196146 0.0872112 0.6934 0.12824 0.0807888 0.747178
          0.186567 0.0895988 0.781783 0.100937 0.0804062 0.671573
          0.0423499 -0.0114026 -0.055377 0.0385235 -0.0105734 -0.0388337
          0.0182165 -0.00767366 -0.0242749 0.021377 -0.0104381 -0.0359205
          0.0135894 -0.016901 -0.492048 0.0481888 -0.0126734 -0.4751
          0.0665471 -0.0159942 -0.505201 0.0510099 -0.0126816 -0.511239
          -0.0357635 -0.00911502 -0.0589362 -0.0102802 -0.00591698 -0.0432173
          -0.0014031 -0.00719991 -0.0748949 -0.0383281 -0.0105095 -0.0693774
          -0.00102808 0.0614825 0.371555 0.0851486 0.064407 0.331217
          0.0700909 0.0705525 0.428527 0.0595115 0.0667901 0.408272
          0.0410239 -0.0180549 -0.471625 0.0481888 -0.0126734 -0.4751
          0.0665471 -0.0159942 -0.505201 0.0135894 -0.016901 -0.492048
          -0.0357635 -0.00911502 -0.0589362 -0.0335928 -0.00987119 -0.0475263
          -0.0102802 -0.00591698 -0.0432173 -0.0383281 -0.0105095 -0.0693774
          0.0829969 -0.0109702 -0.307637 0.102925 -0.01385 -0.339323
          0.0608181 -0.012833 -0.282402 0.0689447 -0.0128604 -0.335303
          0.118768 -0.0128463 -0.594283 0.13808 -0.0101082 -0.579112
          0.125346 -0.0111707 -0.593521 0.136736 -0.0134479 -0.580147
          -0.0160427 0.0608877 0.4158 0.0595115 0.0667901 0.408272
          0.11408 0.0677137 0.376145 0.0590932 0.0607576 0.34242
          0.0914105 -0.0189928 -0.58394 0.064645 -0.0229194 -0.556744
          0.0821186 -0.0163022 -0.547193 0.0653537 -0.018359 -0.55754
          0.18707 0.1075 1.04546 0.14422 0.101679 1.03743
          0.190655 0.112281 1.08595 0.168881 0.100418 1.06673
          0.0240896 0.00249727 -0.466643 0.0246036 -0.00641771 -0.486264
          0.0101279 -0.00173324 -0.425111 0.0654843 -0.00281992 -0.4944
          0.190968 0.0892035 0.6277 0.199691 0.0849973 0.580698
          0.127105 0.0876495 0.701116 0.0754783 0.0822369 0.620429
          0.0740235 0.0117361 -0.29873 0.0734512 0.0151683 -0.243691
          0.123789 0.014183 -0.274253 0.135072 0.0117331 -0.321953
          0.0754783 0.0822369 0.620429 0.164032 0.0827915 0.545908
          0.190968 0.0892035 0.6277 0.199691 0.0849973 0.580698
          0.00965275 -0.00343188 -0.0436944 0.00322887 -0.000798352 -0.00798877
          0.0247822 0.00224888 -0.0362098 0.0161469 0.00429153 -0.0295316
          0.135072 0.0117331 -0.321953 0.0740235 0.0117361 -0.29873
          0.135405 0.00710339 -0.365193 0.123789 0.014183 -0.274253
          -0.0270274 -0.00466195 -0.0349902 -0.0292533 -0.00563442 -0.0335524
          0.00020316 -0.00504482 -0.026493 -0.00896293 -0.00640648 -0.0407497
          0.370712 0.103799 0.763024 0.27145 0.0922475 0.715046
          0.378687 0.0993396 0.685729 0.368553 0.104122 0.745728
          0.0510099 -0.0126816 -0.511239 0.0254341 -0.00812965 -0.517394
          0.0670694 -0.0106223 -0.51427 0.0559069 -0.00708235 -0.53041
          0.0510099 -0.0126816 -0.511239 0.0559069 -0.00708235 -0.53041
          0.0670694 -0.0106223 -0.51427 0.0742199 -0.00934427 -0.556536
          0.0640031 0.0178233 -0.205846 0.0202828 0.0114123 -0.276286
          0.0734512 0.0151683 -0.243691 0.0740235 0.0117361 -0.29873
          0.0983677 -0.0115942 -0.227508 0.0508684 -0.0116704 -0.233291
          0.0698431 -0.00822036 -0.18142 0.0910404 -0.00871713 -0.248485
          0.0210138 -0.00977568 -0.00900036 0.016022 -0.0112065 -0.0373548
          0.00765602 -0.0064143 -0.0148698 0.0292423 -0.0145331 -0.0274994
          0.0581534 -0.0202491 -0.482959 0.0894282 -0.0157141 -0.475633
          0.0793457 -0.0182685 -0.45509 0.0845509 -0.0178131 -0.501965
          0.0603935 -0.0166081 -0.565105 0.0728637 -0.00800935 -0.538075
          0.0885485 -0.0107869 -0.567941 0.0970682 -0.00880874 -0.546836
          0.0751999 0.00105064 -0.137564 0.0680056 -0.0011597 -0.0994993
          0.0667859 -0.00492085 -0.132948 0.104426 0.00262799 -0.127086
          0.103987 -0.0142188 -0.596435 0.0998571 -0.0152705 -0.572757
          0.0987473 -0.0156323 -0.593287 0.0914105 -0.0189928 -0.58394
          0.0421184 -0.0116166 -0.5242 0.0246036 -0.00641771 -0.486264
          0.0696074 -0.00701453 -0.503281 0.0237723 -0.00750152 -0.472728
          0.254201 0.103492 0.959385 0.201574 0.0974581 0.951197
          0.209054 0.100802 0.973437 0.198685 0.0945086 0.918357
          0.293523 0.0709724 0.187424 0.238454 0.0638716 0.176386
          0.267607 0.0706221 0.272312 0.297489 0.0760461 0.273847
          0.131259 -0.0138379 -0.510261 0.10645 -0.0155909 -0.489206
          0.102378 -0.0147507 -0.539178 0.119042 -0.0136001 -0.539299
          0.215632 0.0156658 -0.31289 0.135072 0.0117331 -0.321953
          0.177392 0.0114892 -0.3605 0.187876 0.0115894 -0.319623
          0.228106 -0.00172237 -0.461908 0.188102 -0.00147667 -0.451478
          0.246998 0.00343406 -0.395046 0.190515 0.00181038 -0.453267
          0.0688902 0.018373 -0.205679 0.0882954 0.0139789 -0.275434
          0.109294 0.0209412 -0.217591 0.0567087 0.0165835 -0.211871
          0.0865935 -0.00428175 -0.59029 0.0859557 -0.0131762 -0.586375
          0.0796746 -0.00510329 -0.588382 0.0998671 -0.00980449 -0.59992
          -0.00458031 0.00720486 -0.248147 0.0598204 0.00789755 -0.317222
          0.0882954 0.0139789 -0.275434 0.0567087 0.0165835 -0.211871
          0.109294 0.0209412 -0.217591 0.16095 0.0298942 -0.151939
          0.14323 0.027128 -0.191288 0.0991005 0.026316 -0.14341
          0.00753595 -0.0138764 -0.340524 0.00727071 -0.0159958 -0.292999
          -0.0312485 -0.0147393 -0.307478 0.0101504 -0.0167399 -0.34114
          -0.000402004 -0.0101472 -0.218544 -0.0396832 -0.0112706 -0.242638
          0.00022389 -0.00790277 -0.232947 -0.00778128 -0.00821885 -0.267441
          0.0746342 -0.0182243 -0.408703 0.0228868 -0.0175449 -0.410755
          0.0326146 -0.0205887 -0.428346 0.0406751 -0.0188984 -0.381652
          0.107318 -0.0140032 -0.607226 0.112241 -0.0126718 -0.604121
          0.106057 -0.0116458 -0.606543 0.108992 -0.0122948 -0.606635
          0.0834431 -0.0103708 -0.372283 0.0424382 -0.00742649 -0.369547
          0.0769836 -0.0103014 -0.421409 0.0558022 -0.0109937 -0.389167
          0.0974821 -0.012431 -0.598996 0.106077 -0.011639 -0.601787
          0.106057 -0.0116458 -0.606543 0.104248 -0.00998517 -0.60549
          0.0674725 -0.0100434 -0.47284 0.0772562 -0.00829571 -0.449559
          0.0769836 -0.0103014 -0.421409 0.0943749 -0.0110955 -0.459335
          0.0276634 -0.0124395 -0.381452 0.0249799 -0.00927824 -0.386426
          0.0558022 -0.0109937 -0.389167 0.049198 -0.0109875 -0.426503
          0.216483 0.0943034 0.778517 0.298834 0.0968458 0.818175
          0.272704 0.0935405 0.736088 0.258085 0.0955726 0.819384
          0.237126 0.0794021 0.50115 0.298245 0.0824615 0.466509
          0.189954 0.0762057 0.471849 0.296192 0.0875151 0.559671
          0.15053 0.0943226 0.984227 0.0992901 0.104541 0.989552
          0.146166 0.0938949 1.01979 0.111359 0.103038 1.02849
          0.166124 -0.0132648 -0.456047 0.108289 -0.0142089 -0.434857
          0.124448 -0.0143225 -0.471353 0.16614 -0.0138481 -0.427097
          0.165688 0.0612821 0.281712 0.172727 0.0572523 0.179964
          0.15796 0.0626744 0.270179 0.239744 0.0627337 0.215118
          0.0595115 0.0667901 0.408272 -0.0117722 0.0584996 0.359025
          0.11408 0.0677137 0.376145 0.0590932 0.0607576 0.34242
          0.064645 -0.0229194 -0.556744 0.0283937 -0.0250899 -0.531799
          0.0535114 -0.0187996 -0.526146 0.0653537 -0.018359 -0.55754
          0.0914105 -0.0189928 -0.58394 0.0653537 -0.018359 -0.55754
          0.0998571 -0.0152705 -0.572757 0.0836865 -0.0155189 -0.576022
          0.290993 0.0932419 0.690529 0.217441 0.0908349 0.694364
          0.196146 0.0872112 0.6934 0.268238 0.0953534 0.771063
          0.120286 0.0757005 0.587085 0.181436 0.0819169 0.673158
          0.178795 0.0768006 0.555971 0.252053 0.0846894 0.591048
          0.0345143 -0.0101269 -0.131573 0.0667859 -0.00492085 -0.132948
          0.0698431 -0.00822036 -0.18142 0.0338639 -0.00745357 -0.153426
          0.0970682 -0.00880874 -0.546836 0.124087 -0.00488907 -0.541258
          0.0885485 -0.0107869 -0.567941 0.120205 -0.0074673 -0.574662
          0.229906 0.0269602 -0.297914 0.213557 0.025394 -0.25746
          0.216692 0.0189193 -0.322874 0.292862 0.0326986 -0.268318
          0.0341126 -0.0125083 -0.114873 0.073345 -0.0152032 -0.0979749
          0.0732646 -0.0135404 -0.135977 0.0508293 -0.0107902 -0.0918145
          0.228849 0.0575983 0.213013 0.165688 0.0612821 0.281712
          0.239777 0.0639908 0.300576 0.27609 0.0684555 0.293154
          0.149803 0.0947307 0.967832 0.165145 0.0940771 1.01785
          0.220738 0.0983866 1.03044 0.174536 0.092526 0.994842
          0.115205 0.101212 0.962865 0.0967532 0.0787728 0.992186
          0.165145 0.0940771 1.01785 0.110551 0.0973971 1.01445
          0.0979294 -0.0116895 -0.552479 0.0742199 -0.00934427 -0.556536
          0.0855552 -0.00604505 -0.571251 0.105112 -0.0109623 -0.591591
          0.0865935 -0.00428175 -0.59029 0.0855552 -0.00604505 -0.571251
          0.097403 -0.00460077 -0.593334 0.0805224 -0.000891983 -0.581501
          0.0742199 -0.00934427 -0.556536 0.0741411 -0.00504061 -0.54589
          0.0855552 -0.00604505 -0.571251 0.0659989 -0.00118024 -0.559713
          0.0203376 0.00322875 -0.300681 0.0364287 -0.00142277 -0.359323
          0.0638506 0.00594671 -0.330755 0.00441796 -0.000796769 -0.324265
          0.00441796 -0.000796769 -0.324265 0.0638506 0.00594671 -0.330755
          -0.00458031 0.00720486 -0.248147 0.00379622 2.43316e-05 -0.336744
          0.0689865 0.0290619 -0.0831016 -0.00726708 0.0149956 -0.161331
          0.0991005 0.026316 -0.14341 0.0437957 0.0214384 -0.141935
          0.352832 0.0701436 0.265476 0.326695 0.0694075 0.312661
          0.364544 0.0778847 0.37568 0.27609 0.0684555 0.293154
          0.121298 -0.0203243 -0.601592 0.126913 -0.0224445 -0.601183
          0.110326 -0.021099 -0.615295 0.113746 -0.0145598 -0.606765
          0.133529 -0.0122415 -0.442996 0.165818 -0.0119508 -0.421795
          0.158708 -0.0108474 -0.413742 0.130047 -0.0108439 -0.391734
          0.165688 0.0612821 0.281712 0.0939533 0.0506828 0.181751
          0.172727 0.0572523 0.179964 0.165241 0.0545551 0.192337
          0.0276634 -0.0124395 -0.381452 0.0249799 -0.00927824 -0.386426
          -0.0183776 -0.0107372 -0.385427 -0.0228156 -0.00921044 -0.364747
          0.12041 -0.0170253 -0.596519 0.107431 -0.00998447 -0.605534
          0.116001 -0.0152121 -0.60849 0.113746 -0.0145598 -0.606765
          -0.0161031 0.0543238 0.317271 -0.0155251 0.0493815 0.243135
          0.0590932 0.0607576 0.34242 0.0689063 0.0561299 0.274001
          0.169989 0.0988924 1.0076 0.0967532 0.0787728 0.992186
          0.148946 0.0951903 0.97766 0.14422 0.101679 1.03743
          0.16371 0.00418987 -0.421372 0.176877 0.00304432 -0.402251
          0.135405 0.00710339 -0.365193 0.139514 0.000511914 -0.444654
          0.00379622 2.43316e-05 -0.336744 0.0638506 0.00594671 -0.330755
          -0.00458031 0.00720486 -0.248147 0.0598204 0.00789755 -0.317222
          0.177392 0.0114892 -0.3605 0.16371 0.00418987 -0.421372
          0.135405 0.00710339 -0.365193 0.11452 0.00584169 -0.393886
          0.332017 0.109344 1.02927 0.330875 0.112426 1.07607
          0.336045 0.105767 1.0392 0.289143 0.105429 1.04493
          0.00069831 -0.0122989 -0.0909205 0.0303649 -0.0119405 -0.0807488
          0.0341126 -0.0125083 -0.114873 -0.00895024 -0.0104179 -0.0974204
          0.0995078 -0.0148368 -0.598679 0.0982553 -0.0211777 -0.602659
          0.1144 -0.0159403 -0.605091 0.107318 -0.0140032 -0.607226
          0.0583685 -0.00316609 -0.0516314 0.0425707 -0.0036721 -0.0331096
          0.0303638 -0.00158471 -0.0321671 0.0368505 -0.00613969 -0.0433125
          0.0583685 -0.00316609 -0.0516314 0.0303638 -0.00158471 -0.0321671
          0.0407461 -0.00197492 -0.0545277 0.0368505 -0.00613969 -0.0433125
          -0.0387419 -0.00986348 -0.100418 -0.0396448 -0.0102092 -0.109624
          -0.00895024 -0.0104179 -0.0974204 0.00182056 -0.0115354 -0.128416
          0.341479 0.110086 0.924588 0.285884 0.101867 0.926939
          0.344688 0.105742 0.919014 0.349887 0.106809 0.885922
          0.0502169 -0.00470133 -0.188891 0.0819989 -0.00422975 -0.217356
          0.0444503 -0.00882003 -0.221329 0.0491411 -0.00599707 -0.241803
          0.0830577 0.0694311 0.477071 0.179831 0.069947 0.368224
          0.189954 0.0762057 0.471849 0.102322 0.0639772 0.375425
          0.185822 0.0722326 0.453532 0.102322 0.0639772 0.375425
          0.189954 0.0762057 0.471849 0.179831 0.069947 0.368224
          0.165688 0.0612821 0.281712 0.240365 0.0719055 0.361752
          0.15796 0.0626744 0.270179 0.179831 0.069947 0.368224
          0.11452 0.00584169 -0.393886 0.122207 0.000471272 -0.462474
          0.139514 0.000511914 -0.444654 0.0932756 0.00212624 -0.445271
          -0.00726708 0.0149956 -0.161331 0.000458692 0.00569362 -0.263183
          0.0688902 0.018373 -0.205679 -0.00458031 0.00720486 -0.248147
          0.387982 0.0910084 0.486622 0.298245 0.0824615 0.466509
          0.271522 0.0837749 0.481467 0.379682 0.0859182 0.404263
          -0.00559399 0.0202761 -0.1029 -0.0143431 0.0252607 -0.0446928
          0.0689865 0.0290619 -0.0831016 -0.00934244 0.0266212 -0.0334379
          -0.00559399 0.0202761 -0.1029 -0.0152553 0.0199927 -0.106234
          0.0689865 0.0290619 -0.0831016 -0.0143431 0.0252607 -0.0446928
          0.158421 0.0496291 0.0897101 0.185124 0.05297 0.131345
          0.215481 0.0468155 0.0269334 0.271213 0.0549191 0.0653578
          0.298245 0.0824615 0.466509 0.373022 0.0833251 0.422228
          0.381656 0.0918153 0.550721 0.376057 0.088585 0.525818
          0.101199 -0.0169444 -0.331952 0.113705 -0.0175004 -0.293712
          0.142066 -0.0162666 -0.339489 0.118528 -0.0149838 -0.308486
          0.104664 -0.012164 -0.609688 0.0975384 -0.0068226 -0.604124
          0.103294 -0.00986613 -0.605495 0.104248 -0.00998517 -0.60549
          0.118476 -0.0115173 -0.589823 0.130971 -0.00575554 -0.588593
          0.13808 -0.0101082 -0.579112 0.122016 -0.0103725 -0.580307
          0.216313 0.0984366 0.955905 0.258775 0.10035 0.992022
          0.251644 0.0986556 0.9563 0.216996 0.0946768 0.982276
          0.120859 -0.0118386 -0.3705 0.118728 -0.0117847 -0.327695
          0.160203 -0.0119435 -0.337823 0.162928 -0.0101426 -0.361795
          0.216313 0.0984366 0.955905 0.222148 0.100112 0.994249
          0.258775 0.10035 0.992022 0.216996 0.0946768 0.982276
          0.213557 0.025394 -0.25746 0.175406 0.0171797 -0.332993
          0.216692 0.0189193 -0.322874 0.149133 0.0161199 -0.296868
          0.121216 -0.0034695 -0.167938 0.0825549 -0.00948852 -0.155184
          0.126891 -0.00861598 -0.183665 0.112393 -0.0041933 -0.142377
          0.1297 9.87133e-05 -0.605701 0.156081 0.0102825 -0.594759
          0.123019 0.00231494 -0.613989 0.127146 -0.00193784 -0.605756
          0.166592 0.0943382 0.957611 0.148946 0.0951903 0.97766
          0.141182 0.0902565 0.952366 0.117288 0.0824418 0.964402
          0.00156437 -0.00480447 -0.0194943 0.016022 -0.0112065 -0.0373548
          0.00765602 -0.0064143 -0.0148698 0.0210138 -0.00977568 -0.00900036
          0.101199 -0.0169444 -0.331952 0.142066 -0.0162666 -0.339489
          0.121041 -0.0164017 -0.361831 0.118528 -0.0149838 -0.308486
          0.298929 0.101482 1.04991 0.289143 0.105429 1.04493
          0.315064 0.107581 1.09375 0.288612 0.101508 1.08839
          0.34366 0.0948321 0.759262 0.371492 0.0993781 0.80277
          0.328598 0.0951257 0.835047 0.298834 0.0968458 0.818175
          0.0845509 -0.0178131 -0.501965 0.0894282 -0.0157141 -0.475633
          0.0793457 -0.0182685 -0.45509 0.10645 -0.0155909 -0.489206
          0.120286 0.0757005 0.587085 0.181436 0.0819169 0.673158
          0.196146 0.0872112 0.6934 0.100937 0.0804062 0.671573
          0.100937 0.0804062 0.671573 0.181436 0.0819169 0.673158
          0.196146 0.0872112 0.6934 0.12824 0.0807888 0.747178
          0.102214 -0.0221425 -0.614932 0.106885 -0.0166778 -0.610537
          0.10517 -0.0159049 -0.610222 0.0984941 -0.0173699 -0.601281
          0.0554554 -0.00994833 -0.555061 0.0421184 -0.0116166 -0.5242
          0.0391397 -0.00499197 -0.525882 0.0728637 -0.00800935 -0.538075
          0.304914 0.0388482 -0.161189 0.324155 0.0518298 -0.0383277
          0.31346 0.0448283 -0.141522 0.243931 0.0382422 -0.120107
          0.171272 0.0778226 0.475443 0.150391 0.0775013 0.461281
          0.0846141 0.0787166 0.528453 0.164032 0.0827915 0.545908
          0.198539 0.0823455 0.576957 0.237126 0.0794021 0.50115
          0.178795 0.0768006 0.555971 0.12867 0.0712302 0.495567
          0.133596 -0.0181632 -0.590032 0.114991 -0.0139796 -0.594954
          0.130566 -0.0141443 -0.594765 0.120838 -0.0201982 -0.603292
          0.178795 0.0768006 0.555971 0.237126 0.0794021 0.50115
          0.252053 0.0846894 0.591048 0.293499 0.0841291 0.540835
          0.107318 -0.0140032 -0.607226 0.106057 -0.0116458 -0.606543
          0.118662 -0.0118541 -0.601902 0.115624 -0.00953853 -0.606174
          0.182105 0.0194951 -0.264953 0.137752 0.021662 -0.228365
          0.199466 0.0297779 -0.163731 0.230788 0.0275463 -0.219076
          0.129355 -0.0141182 -0.578393 0.114991 -0.0139796 -0.594954
          0.130566 -0.0141443 -0.594765 0.133596 -0.0181632 -0.590032
          0.172727 0.0572523 0.179964 0.25535 0.057476 0.0852052
          0.238454 0.0638716 0.176386 0.28714 0.0650225 0.175661
          0.103987 -0.0142188 -0.596435 0.118476 -0.0115173 -0.589823
          0.0998571 -0.0152705 -0.572757 0.122016 -0.0103725 -0.580307
          0.0998571 -0.0152705 -0.572757 0.0821186 -0.0163022 -0.547193
          0.0937691 -0.0138029 -0.549149 0.0836865 -0.0155189 -0.576022
          0.109724 -0.0136582 -0.587157 0.0987473 -0.0156323 -0.593287
          0.0998571 -0.0152705 -0.572757 0.0836865 -0.0155189 -0.576022
          0.0998571 -0.0152705 -0.572757 0.118801 -0.0139847 -0.559433
          0.0937691 -0.0138029 -0.549149 0.0821186 -0.0163022 -0.547193
          0.293523 0.0709724 0.187424 0.279083 0.0740901 0.226445
          0.297489 0.0760461 0.273847 0.368693 0.0796129 0.22943
          0 0 0 0.0311991 0.0147318 -0.021768
          0 0 0 0.0105776 0.00504842 -0.00736282
          -0.02311 -0.0128779 -0.364239 0.0327647 -0.0109596 -0.337261
          -0.0309792 -0.01305 -0.314827 0.00753595 -0.0138764 -0.340524
          0.113901 -0.0112095 -0.282981 0.147637 -0.00749906 -0.261287
          0.154866 -0.00903024 -0.300863 0.101176 -0.00783675 -0.284289
          0.27609 0.0684555 0.293154 0.228849 0.0575983 0.213013
          0.315243 0.0628785 0.222664 0.239777 0.0639908 0.300576
          0.122016 -0.0103725 -0.580307 0.0998571 -0.0152705 -0.572757
          0.0994754 -0.0162388 -0.56772 0.118801 -0.0139847 -0.559433
          0.0445276 0.00929873 -0.294244 -0.00630596 0.0047323 -0.294327
          0.0598204 0.00789755 -0.317222 0.000364435 0.000322241 -0.360076
          -0.0129809 0.041583 0.147286 0.0640984 0.0457958 0.114738
          -0.0095751 0.0449849 0.183895 0.0635172 0.0515351 0.19353
          0.0887729 0.0367918 0.00698102 -0.0258321 0.0283266 0.00106752
          0.0359137 0.0362804 0.0463107 -0.0199145 0.0267211 -0.024701
          0 0 0 0 0 0
          0 0 0 0.0105776 0.00504842 -0.00736282
          0.0914105 -0.0189928 -0.58394 0.064645 -0.0229194 -0.556744
          0.0994754 -0.0162388 -0.56772 0.0821186 -0.0163022 -0.547193
          0.0994754 -0.0162388 -0.56772 0.064645 -0.0229194 -0.556744
          0.0828441 -0.0184706 -0.529701 0.0821186 -0.0163022 -0.547193
          0.0270565 -0.014071 -0.52226 0.0129194 -0.0132095 -0.492054
          0.0510099 -0.0126816 -0.511239 0.0254341 -0.00812965 -0.517394
          0.0647985 -0.0129255 -0.545036 0.0908379 -0.0141968 -0.513139
          0.0937691 -0.0138029 -0.549149 0.0510099 -0.0126816 -0.511239
          0.296192 0.0875151 0.559671 0.381656 0.0918153 0.550721
          0.316074 0.0917422 0.635195 0.252053 0.0846894 0.591048
          0.0274925 0.0101144 -0.0279686 0.0105776 0.00504842 -0.00736282
          0.0514059 0.00594786 -0.0423778 0.0311991 0.0147318 -0.021768
          0.0159097 -0.00071185 -0.0210781 0.00322887 -0.000798352 -0.00798877
          0 0 0 0.0105776 0.00504842 -0.00736282
          -0.00458031 0.00720486 -0.248147 -0.00630596 0.0047323 -0.294327
          0.0567087 0.0165835 -0.211871 -0.0124161 0.00998805 -0.238023
          0.00350164 0.0727373 0.630668 -0.00151333 0.0741555 0.554507
          0.0716709 0.0749929 0.578483 -0.0101049 0.0672179 0.524128
          0.0137284 0.080901 0.667222 -0.00151333 0.0741555 0.554507
          0.0716709 0.0749929 0.578483 0.00350164 0.0727373 0.630668
          0.0808134 0.0722704 0.485717 0.0716709 0.0749929 0.578483
          -0.0101049 0.0672179 0.524128 0.0830577 0.0694311 0.477071
          0.109413 -0.00731356 -0.560632 0.117073 -0.00842294 -0.561124
          0.0843502 -0.00391901 -0.563047 0.0992329 -0.00753719 -0.587347
          0.216313 0.0984366 0.955905 0.284969 0.105508 0.994064
          0.258775 0.10035 0.992022 0.222148 0.100112 0.994249
          0.0925816 -0.0217264 -0.601484 0.1081 -0.0209799 -0.606824
          0.0881059 -0.0270881 -0.606613 0.102214 -0.0221425 -0.614932
          0.0512157 -0.0221583 -0.559286 0.0337951 -0.0196446 -0.535277
          0.0653537 -0.018359 -0.55754 0.0480688 -0.0136174 -0.554683
          0.0732646 -0.0135404 -0.135977 0.110093 -0.0200852 -0.141493
          0.12208 -0.0160632 -0.164258 0.108133 -0.015707 -0.125203
          0.0732646 -0.0135404 -0.135977 0.108133 -0.015707 -0.125203
          0.12208 -0.0160632 -0.164258 0.11946 -0.0121716 -0.160773
          0.130862 -0.00448618 -0.596049 0.114469 -0.00938039 -0.604088
          0.116074 -0.00889233 -0.591783 0.127413 -0.00533943 -0.584442
          0.290993 0.0932419 0.690529 0.260232 0.0884996 0.60553
          0.196146 0.0872112 0.6934 0.217441 0.0908349 0.694364
          0.0796746 -0.00510329 -0.588382 0.0865935 -0.00428175 -0.59029
          0.0998671 -0.00980449 -0.59992 0.10082 -0.00345068 -0.604568
          0.0732646 -0.0135404 -0.135977 0.102126 -0.0189734 -0.170381
          0.12208 -0.0160632 -0.164258 0.110093 -0.0200852 -0.141493
          0.0732646 -0.0135404 -0.135977 0.108133 -0.015707 -0.125203
          0.11946 -0.0121716 -0.160773 0.105846 -0.0102429 -0.126556
          -0.0211321 -0.00227591 -0.0131021 -0.00441511 -0.00222472 -0.0122332
          -0.0198786 -0.00456851 -0.014675 0 0 0
          -0.02912 -0.0050596 -0.0467611 -0.0270274 -0.00466195 -0.0349902
          -0.00896293 -0.00640648 -0.0407497 -0.0347885 -0.00779776 -0.0616949
          -0.0123321 0.0364686 0.0853844 0.0583242 0.0419076 0.088712
          -0.0171148 0.0401223 0.136628 -0.0157458 0.0323379 0.0389614
          0.102717 0.0704512 0.892847 0.101095 0.0763853 0.812186
          0.0740493 0.0641616 0.883765 0.154107 0.0883189 0.857766
          0.108992 -0.0122948 -0.606635 0.112241 -0.0126718 -0.604121
          0.106057 -0.0116458 -0.606543 0.107566 -0.0128015 -0.607479
          0.101199 -0.0169444 -0.331952 0.0679743 -0.0153294 -0.306575
          0.0858781 -0.0155531 -0.346023 0.0386203 -0.0180922 -0.317802
          0.156753 0.0825092 0.929123 0.153914 0.0798208 0.88027
          0.102717 0.0704512 0.892847 0.137992 0.0809897 0.939445
          0.164177 -0.0141855 -0.483115 0.130132 -0.0142512 -0.513988
          0.126251 -0.0140065 -0.477368 0.121678 -0.0131649 -0.477031
          0.15796 0.0626744 0.270179 0.0689063 0.0561299 0.274001
          0.165688 0.0612821 0.281712 0.102322 0.0639772 0.375425
          0.215632 0.0156658 -0.31289 0.200648 0.0214733 -0.214665
          0.182105 0.0194951 -0.264953 0.187876 0.0115894 -0.319623
          -0.0101049 0.0672179 0.524128 -0.0211191 0.0597525 0.441455
          -0.0160427 0.0608877 0.4158 0.0830577 0.0694311 0.477071
          0.264155 0.0132645 -0.31677 0.246225 0.0190544 -0.257511
          0.215632 0.0156658 -0.31289 0.187876 0.0115894 -0.319623
          0.107318 -0.0140032 -0.607226 0.106057 -0.0116458 -0.606543
          0.115624 -0.00953853 -0.606174 0.108992 -0.0122948 -0.606635
          0.105112 -0.0109623 -0.591591 0.0855552 -0.00604505 -0.571251
          0.103554 -0.0102896 -0.583544 0.097403 -0.00460077 -0.593334
          0.00270117 -0.00839904 -0.122071 0.0338639 -0.00745357 -0.153426
          0.0125049 -0.0101035 -0.180202 -0.00603925 -0.00921344 -0.155231
          0.104248 -0.00998517 -0.60549 0.102285 -0.00418842 -0.60267
          0.0910021 -0.00774906 -0.595565 0.106077 -0.011639 -0.601787
          -0.0425719 -0.0113411 -0.197009 -0.0442204 -0.0113241 -0.160393
          -0.0417754 -0.0127901 -0.19048 0.0125049 -0.0101035 -0.180202
          0.102221 -0.0132634 -0.576693 0.0647985 -0.0129255 -0.545036
          0.0937691 -0.0138029 -0.549149 0.0715879 -0.0107643 -0.570157
          0.0896431 0.0734616 0.892396 0.101095 0.0763853 0.812186
          0.0740493 0.0641616 0.883765 0.0612522 0.0739216 0.829945
          0.129355 -0.0141182 -0.578393 0.119123 -0.00951806 -0.581108
          0.137254 -0.010044 -0.578733 0.114991 -0.0139796 -0.594954
          0.00441796 -0.000796769 -0.324265 0.00379622 2.43316e-05 -0.336744
          0.0116505 -0.0055628 -0.385172 0.0638506 0.00594671 -0.330755
          0.0249799 -0.00927824 -0.386426 0.0119736 -0.00702655 -0.341033
          0.0424382 -0.00742649 -0.369547 -0.0113336 -0.00627454 -0.364814
          0 0 0 0.0303958 -0.0025765 -0.00444756
          0.0274571 -0.00635234 -0.0179501 0 0 0
          0.384031 0.0961793 0.70697 0.371492 0.0993781 0.80277
          0.298834 0.0968458 0.818175 0.303862 0.0937414 0.696053
          -0.00726708 0.0149956 -0.161331 -0.00458031 0.00720486 -0.248147
          0.0567087 0.0165835 -0.211871 -0.0163625 0.013976 -0.178291
          0.24751 0.0759489 0.490251 0.293499 0.0841291 0.540835
          0.266947 0.0832243 0.575552 0.376057 0.088585 0.525818
          0.00562483 -0.00357756 -0.0126354 0 0 0
          0.0182165 -0.00767366 -0.0242749 0.013461 -0.00348063 -0.0158737
          0.166592 0.0943382 0.957611 0.148946 0.0951903 0.97766
          0.149803 0.0947307 0.967832 0.141182 0.0902565 0.952366
          0.153439 0.0976263 0.896305 0.168513 0.0943187 0.953422
          0.141147 0.100371 0.938067 0.141182 0.0902565 0.952366
          0.168513 0.0943187 0.953422 0.141182 0.0902565 0.952366
          0.216313 0.0984366 0.955905 0.166592 0.0943382 0.957611
          0.182702 0.0147905 -0.493674 0.179652 0.0134379 -0.536532
          0.18131 0.00998128 -0.509551 0.152841 0.00628365 -0.549552
          0.179652 0.0134379 -0.536532 0.152816 0.00527735 -0.573116
          0.15353 0.000570539 -0.562779 0.152841 0.00628365 -0.549552
          -0.00710968 0.0326024 0.0350586 0.0611862 0.0391504 0.0429092
          -0.00934244 0.0266212 -0.0334379 0.0217851 0.0294766 -0.0339357
          -0.00896293 -0.00640648 -0.0407497 -0.0292533 -0.00563442 -0.0335524
          -0.0075844 -0.00783516 -0.0507497 -0.0347885 -0.00779776 -0.0616949
          0.368553 0.104122 0.745728 0.293472 0.0994953 0.79386
          0.299233 0.103915 0.847262 0.359992 0.10765 0.826851
          0.216996 0.0946768 0.982276 0.220738 0.0983866 1.03044
          0.262572 0.0985842 1.02395 0.222064 0.0922335 1.0378
          0.153746 -0.0166346 -0.580158 0.133596 -0.0181632 -0.590032
          0.130566 -0.0141443 -0.594765 0.138138 -0.0232528 -0.593319
          0.199691 0.0849973 0.580698 0.164032 0.0827915 0.545908
          0.237426 0.086149 0.538209 0.171272 0.0778226 0.475443
          0.302232 0.0971933 0.769835 0.293221 0.100629 0.862298
          0.317504 0.0992951 0.814724 0.248601 0.0963202 0.818343
          0.145529 -0.0171154 -0.571117 0.128281 -0.014775 -0.553089
          0.147899 -0.0184525 -0.564006 0.11472 -0.0137039 -0.576103
          0.337395 0.104296 0.987774 0.336045 0.105767 1.0392
          0.31334 0.101594 1.01953 0.298929 0.101482 1.04991
          0.240365 0.0719055 0.361752 0.237126 0.0794021 0.50115
          0.189954 0.0762057 0.471849 0.185822 0.0722326 0.453532
          0.0559069 -0.00708235 -0.53041 0.0349748 -0.00214796 -0.509131
          0.0659989 -0.00118024 -0.559713 0.0398111 0.00126769 -0.547039
          0.0927891 -0.0138988 -0.27258 0.102925 -0.01385 -0.339323
          0.118728 -0.0117847 -0.327695 0.118528 -0.0149838 -0.308486
          0.12962 -0.0179958 -0.581327 0.11472 -0.0137039 -0.576103
          0.147899 -0.0184525 -0.564006 0.128281 -0.014775 -0.553089
          0.145529 -0.0171154 -0.571117 0.12387 -0.0137173 -0.55443
          0.128281 -0.014775 -0.553089 0.11472 -0.0137039 -0.576103
          0.0983677 -0.0115942 -0.227508 0.0508684 -0.0116704 -0.233291
          0.0556986 -0.0149003 -0.231736 0.0737005 -0.0132091 -0.182875
          0.274099 0.105261 1.08923 0.239193 0.0983216 1.08158
          0.220738 0.0983866 1.03044 0.233002 0.103482 1.08172
          0.0480306 -0.0184858 -0.532774 0.0970682 -0.00880874 -0.546836
          0.0817732 -0.00910394 -0.520643 0.0352309 -0.0128731 -0.503908
          0.0590884 -0.0139826 -0.503316 0.0817732 -0.00910394 -0.520643
          0.117983 -0.00211367 -0.53106 0.106478 -0.00164808 -0.472928
          0.0590884 -0.0139826 -0.503316 0.0817732 -0.00910394 -0.520643
          0.0821075 -0.013979 -0.552556 0.117983 -0.00211367 -0.53106
          0.35414 0.0709775 0.22333 0.359488 0.0745767 0.226421
          0.267607 0.0706221 0.272312 0.361653 0.0757261 0.29799
          0.247533 0.0529727 0.133991 0.344461 0.0653814 0.18953
          0.319326 0.0546587 0.103477 0.254682 0.0561024 0.122055
          -0.00275804 -0.0140178 -0.20773 0.0213185 -0.0168699 -0.245591
          0.0441608 -0.0145928 -0.191319 0.0475774 -0.0167668 -0.194693
          0.101095 0.0763853 0.812186 0.0803818 0.0694965 0.739584
          0.12824 0.0807888 0.747178 0.149244 0.0766639 0.750003
          0.254682 0.0561024 0.122055 0.344461 0.0653814 0.18953
          0.319326 0.0546587 0.103477 0.330856 0.0570944 0.0711169
          0.254682 0.0561024 0.122055 0.344461 0.0653814 0.18953
          0.330856 0.0570944 0.0711169 0.344346 0.0656273 0.127083
          0.337395 0.104296 0.987774 0.336045 0.105767 1.0392
          0.298929 0.101482 1.04991 0.282294 0.0987585 0.988705
          0.352832 0.0701436 0.265476 0.35414 0.0709775 0.22333
          0.27609 0.0684555 0.293154 0.361653 0.0757261 0.29799
          0.107566 -0.0128015 -0.607479 0.106057 -0.0116458 -0.606543
          0.109254 -0.0117923 -0.604306 0.0974821 -0.012431 -0.598996
          -0.0396448 -0.0102092 -0.109624 -0.0421975 -0.0121278 -0.149963
          -0.010015 -0.0095234 -0.104158 -0.000871435 -0.0111273 -0.144184
          0.204548 0.0340728 -0.161825 0.137752 0.021662 -0.228365
          0.173823 0.0246422 -0.254984 0.213557 0.025394 -0.25746
          0.0689865 0.0290619 -0.0831016 -0.0143431 0.0252607 -0.0446928
          0.100967 0.0376856 -0.0124784 -0.00934244 0.0266212 -0.0334379
          0.0508163 0.00841701 -0.326806 0.0548873 0.00331069 -0.396044
          0.01461 0.00723765 -0.34214 -0.0055242 0.00327003 -0.3614
          0.0754783 0.0822369 0.620429 0.13533 0.0805968 0.576606
          0.100937 0.0804062 0.671573 0.0716709 0.0749929 0.578483
          0.109724 -0.0136582 -0.587157 0.108096 -0.0129574 -0.595506
          0.102221 -0.0132634 -0.576693 0.11977 -0.0145272 -0.59394
          0.227293 0.112242 1.05647 0.18707 0.1075 1.04546
          0.22275 0.104812 1.04279 0.214788 0.10492 1.00424
          0.0245713 -0.00500875 -0.104985 0.00486514 -0.00518339 -0.0966911
          0.0176904 -0.00353163 -0.0727868 0.0159457 -0.000758185 -0.0663928
          -0.0384657 -0.00944187 -0.0839381 -0.0352411 -0.00732795 -0.0746054
          -0.0112473 -0.00867774 -0.0676795 -0.0347885 -0.00779776 -0.0616949
          0.0327647 -0.0109596 -0.337261 0.0424382 -0.00742649 -0.369547
          0.0834431 -0.0103708 -0.372283 0.0558022 -0.0109937 -0.389167
          0.177759 0.0101018 -0.451713 0.135703 0.0025933 -0.49578
          0.18131 0.00998128 -0.509551 0.147387 0.00173919 -0.514186
          0.0820273 0.0897636 0.875404 0.117288 0.0824418 0.964402
          0.117288 0.0824418 0.964402 0.145903 0.092674 0.919067
          0.049462 0.0234903 -0.116728 0.045572 0.0183116 -0.184803
          0.0540385 0.0279604 -0.0683123 0.086844 0.0241004 -0.145402
          0.135582 0.0211458 -0.209163 0.0640031 0.0178233 -0.205846
          0.0734512 0.0151683 -0.243691 0.123789 0.014183 -0.274253
          0.135582 0.0211458 -0.209163 0.199466 0.0297779 -0.163731
          0.182105 0.0194951 -0.264953 0.137752 0.021662 -0.228365
          0.18131 0.00998128 -0.509551 0.210773 0.0188651 -0.544008
          0.179652 0.0134379 -0.536532 0.236316 0.0246008 -0.485233
          0.209308 0.0137501 -0.529951 0.210773 0.0188651 -0.544008
          0.179652 0.0134379 -0.536532 0.18131 0.00998128 -0.509551
          0.158421 0.0496291 0.0897101 0.271213 0.0549191 0.0653578
          0.161268 0.0430777 0.00556753 0.25535 0.057476 0.0852052
          0.177759 0.0101018 -0.451713 0.135703 0.0025933 -0.49578
          0.182702 0.0147905 -0.493674 0.18131 0.00998128 -0.509551
          0.25535 0.057476 0.0852052 0.161268 0.0430777 0.00556753
          0.219222 0.0486119 -0.00572604 0.271213 0.0549191 0.0653578
          0.209308 0.0137501 -0.529951 0.210773 0.0188651 -0.544008
          0.18131 0.00998128 -0.509551 0.236316 0.0246008 -0.485233
          0.168513 0.0943187 0.953422 0.153439 0.0976263 0.896305
          0.207948 0.0972424 0.9111 0.145903 0.092674 0.919067
          0.0638506 0.00594671 -0.330755 0.0364287 -0.00142277 -0.359323
          0.0116505 -0.0055628 -0.385172 0.00441796 -0.000796769 -0.324265
          0.0150799 -0.0144693 -0.140254 0.00069831 -0.0122989 -0.0909205
          0.0347523 -0.014953 -0.10816 0.00182056 -0.0115354 -0.128416
          0.0715661 -0.0194334 -0.0566621 0.0605018 -0.0184435 -0.0762623
          0.0463084 -0.0174144 -0.0414897 0.0423499 -0.0114026 -0.055377
          0.045819 -0.00779774 -0.0366013 0.0368505 -0.00613969 -0.0433125
          0.0425707 -0.0036721 -0.0331096 0.0583685 -0.00316609 -0.0516314
          -0.0123321 0.0364686 0.0853844 -0.00710968 0.0326024 0.0350586
          0.0611862 0.0391504 0.0429092 -0.0157458 0.0323379 0.0389614
          0.0338639 -0.00745357 -0.153426 0.0334735 -0.00317254 -0.125435
          0.0502169 -0.00470133 -0.188891 0.00706416 -0.00670828 -0.137923
          0.063013 -0.0157642 -0.0456833 0.0385235 -0.0105734 -0.0388337
          0.046611 -0.0127395 -0.0281452 0.045819 -0.00779774 -0.0366013
          0.155675 0.013872 -0.375313 0.214694 0.0186287 -0.384992
          0.175406 0.0171797 -0.332993 0.171681 0.0118168 -0.394107
          0.0746342 -0.0182243 -0.408703 0.0615418 -0.0146903 -0.401189
          0.0782603 -0.0163881 -0.431469 0.0406751 -0.0188984 -0.381652
          -0.0387419 -0.00986348 -0.100418 -0.0396448 -0.0102092 -0.109624
          0.00182056 -0.0115354 -0.128416 -0.0398427 -0.0112934 -0.139971
          0.197509 0.00429118 -0.539182 0.15353 0.000570539 -0.562779
          0.171264 0.00623301 -0.573364 0.145549 -0.00508143 -0.577714
          0.0603935 -0.0166081 -0.565105 0.0871718 -0.0133081 -0.56754
          0.0885485 -0.0107869 -0.567941 0.0974886 -0.0130007 -0.586673
          0.0249799 -0.00927824 -0.386426 0.0276634 -0.0124395 -0.381452
          0.0327647 -0.0109596 -0.337261 -0.0228156 -0.00921044 -0.364747
          0.0918535 -0.00127327 -0.184187 0.120583 0.00142762 -0.16821
          0.0862894 -0.00400199 -0.166307 0.132188 -0.00369529 -0.201109
          0.0463084 -0.0174144 -0.0414897 0.0292423 -0.0145331 -0.0274994
          0.0385235 -0.0105734 -0.0388337 0.021377 -0.0104381 -0.0359205
          0.0233769 -0.015396 -0.171585 0.0150799 -0.0144693 -0.140254
          0.0425612 -0.0137818 -0.154251 0.0171834 -0.0131376 -0.175025
          0.0233769 -0.015396 -0.171585 0.0150799 -0.0144693 -0.140254
          0.0458732 -0.0163192 -0.155792 0.0425612 -0.0137818 -0.154251
          0.0345143 -0.0101269 -0.131573 0.0695339 -0.0077584 -0.112705
          0.0732646 -0.0135404 -0.135977 0.0825549 -0.00948852 -0.155184
          0.0603776 -0.0173095 -0.104529 0.0977345 -0.0202973 -0.106306
          0.110093 -0.0200852 -0.141493 0.073345 -0.0152032 -0.0979749
          0.0423568 -0.000690955 -0.520877 0.0843502 -0.00391901 -0.563047
          0.0764351 -0.00495617 -0.53841 0.0877043 -0.0027958 -0.528633
          0.00474097 0.0139395 -0.220345 -0.0206594 0.0140266 -0.187186
          0.045572 0.0183116 -0.184803 -0.0158773 0.0100494 -0.249103
          0.1297 9.87133e-05 -0.605701 0.13511 0.00860607 -0.600893
          0.123019 0.00231494 -0.613989 0.156081 0.0102825 -0.594759
          0.109555 -6.04137e-05 -0.59853 0.10082 -0.00345068 -0.604568
          0.1297 9.87133e-05 -0.605701 0.123019 0.00231494 -0.613989
          0.0444503 -0.00882003 -0.221329 0.0698431 -0.00822036 -0.18142
          0.0508684 -0.0116704 -0.233291 0.0910404 -0.00871713 -0.248485
          0.149133 0.0161199 -0.296868 0.137752 0.021662 -0.228365
          0.182105 0.0194951 -0.264953 0.213557 0.025394 -0.25746
          0.106478 -0.00164808 -0.472928 0.125164 0.0053151 -0.431484
          0.122749 0.0083212 -0.401283 0.0850406 -0.000287921 -0.429248
          0.15353 0.000570539 -0.562779 0.120205 -0.0074673 -0.574662
          0.124087 -0.00488907 -0.541258 0.130792 -0.000960639 -0.550484
          0.0173037 0.072694 0.712974 0.100937 0.0804062 0.671573
          0.00350164 0.0727373 0.630668 0.0337389 0.0794948 0.770988
          0.200648 0.0214733 -0.214665 0.135582 0.0211458 -0.209163
          0.182105 0.0194951 -0.264953 0.123789 0.014183 -0.274253
          0.0746342 -0.0182243 -0.408703 0.069771 -0.0176787 -0.359571
          0.0864608 -0.0150371 -0.385583 0.0406751 -0.0188984 -0.381652
          0.0548873 0.00331069 -0.396044 0.11452 0.00584169 -0.393886
          0.0764155 0.00741455 -0.357328 0.0932756 0.00212624 -0.445271
          0.0548873 0.00331069 -0.396044 0.0816163 -2.51321e-05 -0.451585
          0.11452 0.00584169 -0.393886 0.0932756 0.00212624 -0.445271
          0.112637 -0.0103711 -0.611269 0.112644 -0.0104976 -0.615798
          0.106885 -0.0166778 -0.610537 0.112472 -0.00908123 -0.617884
          0.060929 0.0538991 0.266939 0.0443352 0.0428983 0.124246
          0.0799235 0.0462954 0.15972 0.019031 0.0478604 0.222628
          0.116016 0.0552688 0.266951 0.060929 0.0538991 0.266939
          0.165688 0.0612821 0.281712 0.165241 0.0545551 0.192337
          0.0423568 -0.000690955 -0.520877 0.0654843 -0.00281992 -0.4944
          0.0240896 0.00249727 -0.466643 0.0677674 -0.000179497 -0.487995
          0.0877043 -0.0027958 -0.528633 0.0654843 -0.00281992 -0.4944
          0.0677674 -0.000179497 -0.487995 0.109617 -0.00182166 -0.493723
          -0.0055242 0.00327003 -0.3614 0.0101279 -0.00173324 -0.425111
          0.000364435 0.000322241 -0.360076 0.0548873 0.00331069 -0.396044
          0.0548873 0.00331069 -0.396044 0.0816163 -2.51321e-05 -0.451585
          0.0688967 0.00260366 -0.397242 0.11452 0.00584169 -0.393886
          0.312824 0.0949824 0.693554 0.296649 0.0901879 0.64528
          0.27145 0.0922475 0.715046 0.368553 0.104122 0.745728
          0.214694 0.0186287 -0.384992 0.261623 0.0282334 -0.421171
          0.277362 0.0316763 -0.363672 0.249124 0.0204591 -0.440537
          0.214694 0.0186287 -0.384992 0.249124 0.0204591 -0.440537
          0.277362 0.0316763 -0.363672 0.254645 0.0175491 -0.410354
          0.214694 0.0186287 -0.384992 0.277362 0.0316763 -0.363672
          0.280167 0.0290173 -0.330448 0.254645 0.0175491 -0.410354
          0.0689865 0.0290619 -0.0831016 0.0500145 0.0249025 -0.112389
          -0.00559399 0.0202761 -0.1029 0.0217851 0.0294766 -0.0339357
          -0.0228156 -0.00921044 -0.364747 -0.0308071 -0.0103616 -0.3191
          0.0119736 -0.00702655 -0.341033 -0.0113336 -0.00627454 -0.364814
          0.0275312 0.0035501 -0.0515769 0.0274925 0.0101144 -0.0279686
          0.0247822 0.00224888 -0.0362098 0.0452555 0.00867015 -0.051966
          0.0101279 -0.00173324 -0.425111 0.0170272 -0.008019 -0.442072
          0.00962742 -0.00493176 -0.396985 0.0688967 0.00260366 -0.397242
          0.0948509 0.00960777 -0.330541 0.11452 0.00584169 -0.393886
          0.128141 0.0092244 -0.36495 0.177392 0.0114892 -0.3605
          0.0173037 0.072694 0.712974 0.12824 0.0807888 0.747178
          0.100789 0.0866501 0.753101 0.0337389 0.0794948 0.770988
          0.256253 0.111304 1.03556 0.209269 0.102614 0.986222
          0.172295 0.10293 0.999356 0.214788 0.10492 1.00424
          0.137752 0.021662 -0.228365 0.0567087 0.0165835 -0.211871
          0.086844 0.0241004 -0.145402 0.16095 0.0298942 -0.151939
          0.344688 0.105742 0.919014 0.35665 0.103169 0.859128
          0.285884 0.101867 0.926939 0.35012 0.10216 0.905117
          0.220738 0.0983866 1.03044 0.289143 0.105429 1.04493
          0.274099 0.105261 1.08923 0.233002 0.103482 1.08172
          0.16549 -0.0131014 -0.449159 0.126251 -0.0140065 -0.477368
          0.132605 -0.0129756 -0.428618 0.121678 -0.0131649 -0.477031
          0.114469 -0.00938039 -0.604088 0.120129 -0.00615696 -0.608411
          0.119565 -0.00358364 -0.614347 0.127146 -0.00193784 -0.605756
          0.216692 0.0189193 -0.322874 0.272434 0.0195054 -0.327936
          0.267948 0.021667 -0.358312 0.285631 0.0272575 -0.283759
          0.120286 0.0757005 0.587085 0.198539 0.0823455 0.576957
          0.189954 0.0762057 0.471849 0.0830577 0.0694311 0.477071
          0.112637 -0.0103711 -0.611269 0.107566 -0.0128015 -0.607479
          0.115624 -0.00953853 -0.606174 0.109254 -0.0117923 -0.604306
          0.11452 0.00584169 -0.393886 0.0688967 0.00260366 -0.397242
          0.131645 0.00478053 -0.424531 0.0816163 -2.51321e-05 -0.451585
          0.0948509 0.00960777 -0.330541 0.135072 0.0117331 -0.321953
          0.11452 0.00584169 -0.393886 0.177392 0.0114892 -0.3605
          0.0126215 -0.00998045 -0.0546027 0.0423499 -0.0114026 -0.055377
          0.0165473 -0.00617679 -0.0509829 0.021377 -0.0104381 -0.0359205
          0.267948 0.021667 -0.358312 0.216692 0.0189193 -0.322874
          0.214694 0.0186287 -0.384992 0.171681 0.0118168 -0.394107
          0.168288 0.0375999 -0.0873447 0.0692071 0.0290328 -0.0736489
          0.100967 0.0376856 -0.0124784 0.0991005 0.026316 -0.14341
          0.131259 -0.0138379 -0.510261 0.10645 -0.0155909 -0.489206
          0.114044 -0.0144426 -0.516593 0.0878253 -0.0163672 -0.510375
          0.0647985 -0.0129255 -0.545036 0.0510099 -0.0126816 -0.511239
          0.0670694 -0.0106223 -0.51427 0.0742199 -0.00934427 -0.556536
          0.0647985 -0.0129255 -0.545036 0.0670694 -0.0106223 -0.51427
          0.0937691 -0.0138029 -0.549149 0.0742199 -0.00934427 -0.556536
          0.16371 0.00418987 -0.421372 0.190515 0.00181038 -0.453267
          0.139514 0.000511914 -0.444654 0.122207 0.000471272 -0.462474
          0.289143 0.105429 1.04493 0.260994 0.10922 1.08958
          0.330875 0.112426 1.07607 0.274099 0.105261 1.08923
          0.0864608 -0.0150371 -0.385583 0.069771 -0.0176787 -0.359571
          0.0487007 -0.016142 -0.343334 0.0406751 -0.0188984 -0.381652
          0.148758 0.0957216 0.968415 0.149803 0.0947307 0.967832
          0.168513 0.0943187 0.953422 0.174536 0.092526 0.994842
          0.216483 0.0943034 0.778517 0.158504 0.0967715 0.763692
          0.186477 0.0935983 0.764036 0.179768 0.0976013 0.825329
          0.211651 0.0894452 1.02033 0.222064 0.0922335 1.0378
          0.256621 0.0931621 1.063 0.203901 0.0897619 1.07521
          0.163709 -0.000792662 -0.549448 0.166017 -0.00832996 -0.548618
          0.146451 -0.00498123 -0.540931 0.137254 -0.010044 -0.578733
          0.125164 0.0053151 -0.431484 0.106478 -0.00164808 -0.472928
          0.122749 0.0083212 -0.401283 0.153324 0.009434 -0.465698
          0.122749 0.0083212 -0.401283 0.153324 0.009434 -0.465698
          0.191072 0.0185475 -0.420765 0.125164 0.0053151 -0.431484
          0.216996 0.0946768 0.982276 0.148758 0.0957216 0.968415
          0.168513 0.0943187 0.953422 0.174536 0.092526 0.994842
          0.113901 -0.0112095 -0.282981 0.0910404 -0.00871713 -0.248485
          0.0829969 -0.0109702 -0.307637 0.0608181 -0.012833 -0.282402
          0.0571961 -0.0189245 -0.5595 0.0603935 -0.0166081 -0.565105
          0.0970682 -0.00880874 -0.546836 0.0480306 -0.0184858 -0.532774
          -0.0386929 -0.00973485 -0.0876329 -0.0396448 -0.0102092 -0.109624
          -0.010015 -0.0095234 -0.104158 -0.0384657 -0.00944187 -0.0839381
          0.222064 0.0922335 1.0378 0.239193 0.0983216 1.08158
          0.161148 0.0923967 1.06649 0.220738 0.0983866 1.03044
          0.00402628 -0.0122154 -0.223718 0.0444503 -0.00882003 -0.221329
          0.0242242 -0.010768 -0.269019 -0.000402004 -0.0101472 -0.218544
          0.175681 -0.00370727 -0.508049 0.160387 0.00185887 -0.476443
          0.146451 -0.00498123 -0.540931 0.128315 -0.00339795 -0.511432
          0.335373 0.10664 1.00044 0.284969 0.105508 0.994064
          0.330412 0.111551 1.00014 0.332017 0.109344 1.02927
          0.284969 0.105508 0.994064 0.26761 0.10803 1.03604
          0.330412 0.111551 1.00014 0.332017 0.109344 1.02927
          0.0450636 -0.0111888 -0.184676 0.0508684 -0.0116704 -0.233291
          0.0698431 -0.00822036 -0.18142 0.0983677 -0.0115942 -0.227508
          0.252053 0.0846894 0.591048 0.296192 0.0875151 0.559671
          0.237126 0.0794021 0.50115 0.198539 0.0823455 0.576957
          0.0527092 0.00222036 -0.446413 0.0654843 -0.00281992 -0.4944
          0.0101279 -0.00173324 -0.425111 0.0816163 -2.51321e-05 -0.451585
          0.148895 0.0762001 0.66868 0.260233 0.0868215 0.649864
          0.201989 0.0793398 0.615495 0.181436 0.0819169 0.673158
          0.269623 0.0833918 0.439675 0.237426 0.086149 0.538209
          0.222461 0.0782877 0.41735 0.271522 0.0837749 0.481467
          -0.0104375 -0.0117784 -0.420885 -0.0126592 -0.0086086 -0.409138
          -0.0183776 -0.0107372 -0.385427 0.049198 -0.0109875 -0.426503
          0.101176 -0.00783675 -0.284289 0.0989644 -0.00439551 -0.258818
          0.102812 -0.00669444 -0.317028 0.0638979 -0.00680671 -0.289187
          0.0948104 -0.00236865 -0.481413 0.106478 -0.00164808 -0.472928
          0.125164 0.0053151 -0.431484 0.135703 0.0025933 -0.49578
          0.0259847 -0.00747016 -0.269956 0.0444503 -0.00882003 -0.221329
          0.0491411 -0.00599707 -0.241803 -0.000402004 -0.0101472 -0.218544
          0.15796 0.0626744 0.270179 0.0467083 0.0485772 0.184625
          0.0689063 0.0561299 0.274001 0.0876554 0.0583691 0.26528
          0.26761 0.10803 1.03604 0.220738 0.0983866 1.03044
          0.289143 0.105429 1.04493 0.222148 0.100112 0.994249
          0.174536 0.092526 0.994842 0.0992901 0.104541 0.989552
          0.146166 0.0938949 1.01979 0.148758 0.0957216 0.968415
          0.152841 0.00628365 -0.549552 0.152816 0.00527735 -0.573116
          0.130792 -0.000960639 -0.550484 0.129565 -0.00181342 -0.563005
          0.0862894 -0.00400199 -0.166307 0.132188 -0.00369529 -0.201109
          0.134593 -0.00711215 -0.20878 0.0962148 -0.00593256 -0.21049
          0.0862894 -0.00400199 -0.166307 0.121216 -0.0034695 -0.167938
          0.134593 -0.00711215 -0.20878 0.132188 -0.00369529 -0.201109
          -0.0396448 -0.0102092 -0.109624 -0.0431464 -0.0115306 -0.135303
          -0.042216 -0.0112982 -0.106801 -0.010015 -0.0095234 -0.104158
          0.261294 0.0163032 -0.376382 0.205526 0.00822017 -0.38119
          0.262565 0.0127976 -0.353888 0.272434 0.0195054 -0.327936
          0.204543 0.0383668 -0.0282422 0.149682 0.0387796 -0.00792568
          0.182741 0.0456925 0.0767849 0.251511 0.0450642 -0.00310106
          0.190515 0.00181038 -0.453267 0.151141 -0.00421154 -0.490188
          0.122207 0.000471272 -0.462474 0.160387 0.00185887 -0.476443
          0.257162 0.0452472 -0.0826948 0.168288 0.0375999 -0.0873447
          0.204548 0.0340728 -0.161825 0.163842 0.0365633 -0.0716904
          0.0623433 -0.00899144 -0.27071 0.0638979 -0.00680671 -0.289187
          0.101176 -0.00783675 -0.284289 0.0615568 -0.00927245 -0.319052
          0.219222 0.0486119 -0.00572604 0.168288 0.0375999 -0.0873447
          0.257162 0.0452472 -0.0826948 0.163842 0.0365633 -0.0716904
          -0.0421975 -0.0121278 -0.149963 -0.00603925 -0.00921344 -0.155231
          -0.0431464 -0.0115306 -0.135303 -0.000871435 -0.0111273 -0.144184
          0.0590932 0.0607576 0.34242 -0.0155251 0.0493815 0.243135
          0.0876554 0.0583691 0.26528 0.0689063 0.0561299 0.274001
          0.0277829 -0.0133178 -0.215086 0.0556986 -0.0149003 -0.231736
          0.0508684 -0.0116704 -0.233291 0.0450636 -0.0111888 -0.184676
          0.174536 0.092526 0.994842 0.165145 0.0940771 1.01785
          0.220738 0.0983866 1.03044 0.161148 0.0923967 1.06649
          0.0966303 -0.0151294 -0.230152 0.0755101 -0.0174151 -0.181463
          0.0475774 -0.0167668 -0.194693 0.10478 -0.018128 -0.212972
          0.207948 0.0972424 0.9111 0.154107 0.0883189 0.857766
          0.167438 0.0943679 0.871731 0.224695 0.0953553 0.846221
          0.124138 0.0125122 -0.349927 0.137117 0.0163716 -0.314393
          0.0919653 0.00584569 -0.369417 0.155675 0.013872 -0.375313
          0.0821186 -0.0163022 -0.547193 0.0665471 -0.0159942 -0.505201
          0.0937691 -0.0138029 -0.549149 0.0647985 -0.0129255 -0.545036
          0.00069831 -0.0122989 -0.0909205 -0.00484605 -0.00787858 -0.0492213
          0.0290398 -0.0139909 -0.0689169 -0.0112473 -0.00867774 -0.0676795
          -0.0143431 0.0252607 -0.0446928 0.0692071 0.0290328 -0.0736489
          0.0449238 0.0339339 0.00411554 -0.0199145 0.0267211 -0.024701
          0.0449238 0.0339339 0.00411554 0.0692071 0.0290328 -0.0736489
          0.0887729 0.0367918 0.00698102 -0.0199145 0.0267211 -0.024701
          0.0583242 0.0419076 0.088712 0.0449238 0.0339339 0.00411554
          -0.0240479 0.0354399 0.0821265 -0.0157458 0.0323379 0.0389614
          0.0647985 -0.0129255 -0.545036 0.0254341 -0.00812965 -0.517394
          0.0742199 -0.00934427 -0.556536 0.0439374 -0.00694747 -0.551364
          0.0270565 -0.014071 -0.52226 0.0254341 -0.00812965 -0.517394
          0.0647985 -0.0129255 -0.545036 0.0439374 -0.00694747 -0.551364
          0.0480688 -0.0136174 -0.554683 0.0270565 -0.014071 -0.52226
          0.0647985 -0.0129255 -0.545036 0.0439374 -0.00694747 -0.551364
          0.216313 0.0984366 0.955905 0.284969 0.105508 0.994064
          0.292096 0.102758 0.964551 0.258775 0.10035 0.992022
          -0.0157458 0.0323379 0.0389614 -0.0143431 0.0252607 -0.0446928
          0.0449238 0.0339339 0.00411554 -0.0199145 0.0267211 -0.024701
          0.0449238 0.0339339 0.00411554 -0.0199145 0.0267211 -0.024701
          -0.0240479 0.0354399 0.0821265 -0.0157458 0.0323379 0.0389614
          0.0647985 -0.0129255 -0.545036 0.0742199 -0.00934427 -0.556536
          0.0937691 -0.0138029 -0.549149 0.0715879 -0.0107643 -0.570157
          -0.011625 0.0608921 0.603092 0.0594662 0.0664747 0.514154
          -0.00848475 0.0649001 0.590354 0.0679001 0.0684276 0.660272
          -0.011625 0.0608921 0.603092 0.116441 0.0700373 0.586952
          0.0594662 0.0664747 0.514154 0.0679001 0.0684276 0.660272
          0.130862 -0.00448618 -0.596049 0.118662 -0.0118541 -0.601902
          0.112396 -0.00944941 -0.595416 0.115624 -0.00953853 -0.606174
          0.114543 -0.00627446 -0.607233 0.113683 -0.00346981 -0.617295
          0.107431 -0.00998447 -0.605534 0.112637 -0.0103711 -0.611269
          0.271522 0.0837749 0.481467 0.300097 0.0831428 0.404996
          0.379682 0.0859182 0.404263 0.301397 0.0779443 0.365474
          0.379682 0.0859182 0.404263 0.271522 0.0837749 0.481467
          0.387982 0.0910084 0.486622 0.300097 0.0831428 0.404996
          0.154929 -0.0155281 -0.542343 0.159245 -0.0136275 -0.519906
          0.159944 -0.0163887 -0.514976 0.130132 -0.0142512 -0.513988
          0.12387 -0.0137173 -0.55443 0.130132 -0.0142512 -0.513988
          0.128281 -0.014775 -0.553089 0.113639 -0.0132619 -0.522822
          0.121678 -0.0131649 -0.477031 0.130132 -0.0142512 -0.513988
          0.126251 -0.0140065 -0.477368 0.0896834 -0.01342 -0.474792
          0.12387 -0.0137173 -0.55443 0.114044 -0.0144426 -0.516593
          0.130132 -0.0142512 -0.513988 0.0908379 -0.0141968 -0.513139
          0.135136 -0.0161269 -0.592202 0.137741 -0.00834925 -0.591306
          0.138658 -0.00579803 -0.587756 0.118368 -0.00951325 -0.595495
          -0.0209697 0.0473978 0.229358 -0.0276234 0.0433722 0.194733
          0.0939533 0.0506828 0.181751 0.0689063 0.0561299 0.274001
          0.24564 0.0977652 0.878842 0.198685 0.0945086 0.918357
          0.200281 0.0922869 0.909085 0.247261 0.101271 0.929042
          0.0668794 0.0646988 0.817607 0.101095 0.0763853 0.812186
          0.0091938 0.0639893 0.725891 0.0612522 0.0739216 0.829945
          0.0391397 -0.00499197 -0.525882 0.0421184 -0.0116166 -0.5242
          0.0246036 -0.00641771 -0.486264 0.0728637 -0.00800935 -0.538075
          0.126251 -0.0140065 -0.477368 0.163383 -0.0132896 -0.490656
          0.130132 -0.0142512 -0.513988 0.164177 -0.0141855 -0.483115
          0.260232 0.0884996 0.60553 0.217441 0.0908349 0.694364
          0.303862 0.0937414 0.696053 0.262492 0.0911611 0.652694
          0.384031 0.0961793 0.70697 0.380329 0.099153 0.71259
          0.303862 0.0937414 0.696053 0.389693 0.0946005 0.585769
          0.0611862 0.0391504 0.0429092 -0.00934244 0.0266212 -0.0334379
          0.100967 0.0376856 -0.0124784 0.0449238 0.0339339 0.00411554
          0.0647985 -0.0129255 -0.545036 0.0665471 -0.0159942 -0.505201
          0.0937691 -0.0138029 -0.549149 0.0908379 -0.0141968 -0.513139
          0.0873117 -0.0085829 -0.529073 0.0670694 -0.0106223 -0.51427
          0.0964633 -0.0116014 -0.498097 0.0758985 -0.00839467 -0.497359
          0.110032 -0.012015 -0.542389 0.0979294 -0.0116895 -0.552479
          0.0964633 -0.0116014 -0.498097 0.0873117 -0.0085829 -0.529073
          0.163842 0.0365633 -0.0716904 0.137108 0.0320141 -0.0853689
          0.0692071 0.0290328 -0.0736489 0.086844 0.0241004 -0.145402
          0.163842 0.0365633 -0.0716904 0.0887729 0.0367918 0.00698102
          0.0692071 0.0290328 -0.0736489 0.137108 0.0320141 -0.0853689
          0.116016 0.0552688 0.266951 0.0799235 0.0462954 0.15972
          0.165241 0.0545551 0.192337 0.161857 0.0498687 0.153568
          0.228849 0.0575983 0.213013 0.165688 0.0612821 0.281712
          0.27609 0.0684555 0.293154 0.165241 0.0545551 0.192337
          0.171272 0.0778226 0.475443 0.13533 0.0805968 0.576606
          0.0846141 0.0787166 0.528453 0.0808134 0.0722704 0.485717
          0.116016 0.0552688 0.266951 0.161857 0.0498687 0.153568
          0.165241 0.0545551 0.192337 0.228849 0.0575983 0.213013
          0.0327647 -0.0109596 -0.337261 0.0424382 -0.00742649 -0.369547
          0.0558022 -0.0109937 -0.389167 0.0249799 -0.00927824 -0.386426
          0.127146 -0.00193784 -0.605756 0.114469 -0.00938039 -0.604088
          0.127413 -0.00533943 -0.584442 0.10914 -0.00942437 -0.584649
          0 0 0 0 0 0
          0 0 0 0.013461 -0.00348063 -0.0158737
          0.290993 0.0932419 0.690529 0.316074 0.0917422 0.635195
          0.384595 0.0956412 0.62046 0.378687 0.0993396 0.685729
          0.0737005 -0.0132091 -0.182875 0.101464 -0.0152337 -0.183591
          0.0825549 -0.00948852 -0.155184 0.0732646 -0.0135404 -0.135977
          0.0894282 -0.0157141 -0.475633 0.0896834 -0.01342 -0.474792
          0.108289 -0.0142089 -0.434857 0.126251 -0.0140065 -0.477368
          0.12387 -0.0137173 -0.55443 0.114044 -0.0144426 -0.516593
          0.0908379 -0.0141968 -0.513139 0.0937691 -0.0138029 -0.549149
          0.359488 0.0745767 0.226421 0.267607 0.0706221 0.272312
          0.369769 0.0801117 0.315608 0.297489 0.0760461 0.273847
          -0.0129101 -0.0150505 -0.411734 -0.0183776 -0.0107372 -0.385427
          -0.02311 -0.0128779 -0.364239 0.0276634 -0.0124395 -0.381452
          0.102378 -0.0147507 -0.539178 0.0878253 -0.0163672 -0.510375
          0.0821186 -0.0163022 -0.547193 0.0828441 -0.0184706 -0.529701
          0.254201 0.103492 0.959385 0.284969 0.105508 0.994064
          0.264721 0.107082 0.998789 0.330412 0.111551 1.00014
          0.122055 -0.0136552 -0.391712 0.102925 -0.01385 -0.339323
          0.133888 -0.0146771 -0.401768 0.163356 -0.0145944 -0.367459
          0.11452 0.00584169 -0.393886 0.131645 0.00478053 -0.424531
          0.177392 0.0114892 -0.3605 0.16371 0.00418987 -0.421372
          0.200281 0.0922869 0.909085 0.194109 0.0876825 0.84685
          0.209922 0.09271 0.859342 0.24564 0.0977652 0.878842
          0.0261287 -0.0124198 -0.465925 0.0170272 -0.008019 -0.442072
          0.0664855 -0.0026124 -0.453424 0.0657571 -0.0031679 -0.428833
          0.192891 0.0664681 0.226339 0.212417 0.073621 0.315974
          0.209017 0.0680971 0.26482 0.279083 0.0740901 0.226445
          0.0830577 0.0694311 0.477071 0.120286 0.0757005 0.587085
          0.0716709 0.0749929 0.578483 0.0594662 0.0664747 0.514154
          0.0137284 0.080901 0.667222 0.0716709 0.0749929 0.578483
          0.100937 0.0804062 0.671573 0.00350164 0.0727373 0.630668
          0.251644 0.0986556 0.9563 0.231761 0.0961351 0.92421
          0.289816 0.0991194 0.922122 0.216196 0.0956329 0.913168
          0.272272 0.0982259 0.871623 0.216196 0.0956329 0.913168
          0.289816 0.0991194 0.922122 0.27271 0.0964002 0.88158
          0.289816 0.0991194 0.922122 0.285884 0.101867 0.926939
          0.251644 0.0986556 0.9563 0.216196 0.0956329 0.913168
          0.341624 0.10169 0.94404 0.35012 0.10216 0.905117
          0.289816 0.0991194 0.922122 0.351746 0.0970161 0.893709
          0.184437 0.0145785 -0.571365 0.156081 0.0102825 -0.594759
          0.171264 0.00623301 -0.573364 0.150403 0.00210831 -0.583032
          0.272272 0.0982259 0.871623 0.285884 0.101867 0.926939
          0.289816 0.0991194 0.922122 0.216196 0.0956329 0.913168
          0.256007 0.0933328 1.02618 0.298929 0.101482 1.04991
          0.256621 0.0931621 1.063 0.262572 0.0985842 1.02395
          0.341624 0.10169 0.94404 0.289816 0.0991194 0.922122
          0.2938 0.0972136 0.929731 0.351746 0.0970161 0.893709
          0.112614 -0.0109344 -0.605291 0.107318 -0.0140032 -0.607226
          0.115624 -0.00953853 -0.606174 0.108992 -0.0122948 -0.606635
          0.264721 0.107082 0.998789 0.222148 0.100112 0.994249
          0.26761 0.10803 1.03604 0.284969 0.105508 0.994064
          0.000458692 0.00569362 -0.263183 0.0203376 0.00322875 -0.300681
          0.0638506 0.00594671 -0.330755 0.00441796 -0.000796769 -0.324265
          0.0992329 -0.00753719 -0.587347 0.110311 -0.011447 -0.600512
          0.114991 -0.0139796 -0.594954 0.103294 -0.00986613 -0.605495
          0.196146 0.0872112 0.6934 0.252053 0.0846894 0.591048
          0.290993 0.0932419 0.690529 0.27145 0.0922475 0.715046
          -0.00165095 -0.00443768 -0.0206394 -0.00700115 -0.00345964 -0.0120442
          -0.00608307 -0.00364772 -0.0122518 -0.00551033 -0.00413169 -0.0251656
          -0.0112473 -0.00867774 -0.0676795 -0.00896293 -0.00640648 -0.0407497
          0.0126215 -0.00998045 -0.0546027 -0.0075844 -0.00783516 -0.0507497
          0.0439374 -0.00694747 -0.551364 0.0559069 -0.00708235 -0.53041
          0.0659989 -0.00118024 -0.559713 0.0398111 0.00126769 -0.547039
          0.108289 -0.0142089 -0.434857 0.133888 -0.0146771 -0.401768
          0.132605 -0.0129756 -0.428618 0.122055 -0.0136552 -0.391712
          -0.00726708 0.0149956 -0.161331 0.0688902 0.018373 -0.205679
          0.0567087 0.0165835 -0.211871 -0.00458031 0.00720486 -0.248147
          -0.00726708 0.0149956 -0.161331 0.0688902 0.018373 -0.205679
          0.0991005 0.026316 -0.14341 0.0567087 0.0165835 -0.211871
          0.0894282 -0.0157141 -0.475633 0.124448 -0.0143225 -0.471353
          0.0793457 -0.0182685 -0.45509 0.10645 -0.0155909 -0.489206
          0.0688902 0.018373 -0.205679 0.0882954 0.0139789 -0.275434
          0.0567087 0.0165835 -0.211871 -0.00458031 0.00720486 -0.248147
          0.0508293 -0.0107902 -0.0918145 0.0256855 -0.00877047 -0.0769447
          0.0423499 -0.0114026 -0.055377 0.0567513 -0.00688996 -0.0800162
          0.150518 -0.0153733 -0.270885 0.113705 -0.0175004 -0.293712
          0.150465 -0.0175464 -0.284748 0.114861 -0.0179139 -0.253853
          0.0688902 0.018373 -0.205679 0.0500145 0.0249025 -0.112389
          0.109529 0.0267247 -0.164205 -0.000573831 0.0145488 -0.167424
          0.189171 0.00696049 -0.46894 0.179763 0.00577853 -0.528465
          0.147387 0.00173919 -0.514186 0.18131 0.00998128 -0.509551
          0.0987473 -0.0156323 -0.593287 0.118476 -0.0115173 -0.589823
          0.111468 -0.0123134 -0.602749 0.109724 -0.0136582 -0.587157
          0.0987473 -0.0156323 -0.593287 0.103987 -0.0142188 -0.596435
          0.111468 -0.0123134 -0.602749 0.118476 -0.0115173 -0.589823
          0 0 0 0.0105776 0.00504842 -0.00736282
          0 0 0 0 0 0
          -0.00458031 0.00720486 -0.248147 0.000458692 0.00569362 -0.263183
          0.0882954 0.0139789 -0.275434 0.0638506 0.00594671 -0.330755
          0.0692071 0.0290328 -0.0736489 -0.0199145 0.0267211 -0.024701
          0.0540385 0.0279604 -0.0683123 0.0887729 0.0367918 0.00698102
          0.256253 0.111304 1.03556 0.185509 0.107383 1.03394
          0.227293 0.112242 1.05647 0.214788 0.10492 1.00424
          0.0540385 0.0279604 -0.0683123 0.0887729 0.0367918 0.00698102
          0.023489 0.0297041 -0.0166612 0.0994822 0.0329572 -0.0324757
          0.369769 0.0801117 0.315608 0.301397 0.0779443 0.365474
          0.297489 0.0760461 0.273847 0.267607 0.0706221 0.272312
          0.023489 0.0297041 -0.0166612 -0.0273946 0.023484 -0.0637811
          -0.0258321 0.0283266 0.00106752 0.0540385 0.0279604 -0.0683123
          0.049659 -0.0222241 -0.516821 0.0581534 -0.0202491 -0.482959
          0.0665471 -0.0159942 -0.505201 0.0410239 -0.0180549 -0.471625
          0.0410239 -0.0180549 -0.471625 0.00408605 -0.0172167 -0.465409
          0.0172693 -0.0198767 -0.502773 0.0118425 -0.0240072 -0.475595
          0.0640031 0.0178233 -0.205846 0.0269824 0.0190862 -0.166782
          0.045572 0.0183116 -0.184803 0.00474097 0.0139395 -0.220345
          0.0937691 -0.0138029 -0.549149 0.12387 -0.0137173 -0.55443
          0.0979294 -0.0116895 -0.552479 0.113639 -0.0132619 -0.522822
          0.00069831 -0.0122989 -0.0909205 -0.0112473 -0.00867774 -0.0676795
          0.0290398 -0.0139909 -0.0689169 0.0126215 -0.00998045 -0.0546027
          0.0937691 -0.0138029 -0.549149 0.12387 -0.0137173 -0.55443
          0.11472 -0.0137039 -0.576103 0.0979294 -0.0116895 -0.552479
          0.185509 0.107383 1.03394 0.14422 0.101679 1.03743
          0.190655 0.112281 1.08595 0.18707 0.1075 1.04546
          0.0303649 -0.0119405 -0.0807488 0.0381607 -0.0153411 -0.0506569
          0.0423499 -0.0114026 -0.055377 0.021377 -0.0104381 -0.0359205
          -0.0163625 0.013976 -0.178291 0.0437957 0.0214384 -0.141935
          0.0567087 0.0165835 -0.211871 -0.00726708 0.0149956 -0.161331
          0.207948 0.0972424 0.9111 0.154107 0.0883189 0.857766
          0.209922 0.09271 0.859342 0.198685 0.0945086 0.918357
          0.352832 0.0701436 0.265476 0.27609 0.0684555 0.293154
          0.364544 0.0778847 0.37568 0.361653 0.0757261 0.29799
          0.0101279 -0.00173324 -0.425111 0.0664855 -0.0026124 -0.453424
          0.0170272 -0.008019 -0.442072 0.0688967 0.00260366 -0.397242
          0.049198 -0.0109875 -0.426503 0.030685 -0.00952224 -0.456825
          0.0368281 -0.00633565 -0.419251 0.0674725 -0.0100434 -0.47284
          0.115205 0.101212 0.962865 0.149803 0.0947307 0.967832
          0.174536 0.092526 0.994842 0.165145 0.0940771 1.01785
          0.149803 0.0947307 0.967832 0.165145 0.0940771 1.01785
          0.222148 0.100112 0.994249 0.220738 0.0983866 1.03044
          0.134646 -0.0196971 -0.587951 0.136736 -0.0134479 -0.580147
          0.145529 -0.0171154 -0.571117 0.11977 -0.0145272 -0.59394
          0.0368281 -0.00633565 -0.419251 0.030685 -0.00952224 -0.456825
          0.049198 -0.0109875 -0.426503 0.0249799 -0.00927824 -0.386426
          0.0173037 0.072694 0.712974 0.100789 0.0866501 0.753101
          0.100937 0.0804062 0.671573 0.0337389 0.0794948 0.770988
          0.0674725 -0.0100434 -0.47284 0.0442687 -0.00529419 -0.466267
          0.0368281 -0.00633565 -0.419251 0.0772562 -0.00829571 -0.449559
          -0.0211191 0.0597525 0.441455 -0.0213389 0.0540566 0.325313
          -0.0160427 0.0608877 0.4158 0.0590932 0.0607576 0.34242
          0.303862 0.0937414 0.696053 0.317504 0.0992951 0.814724
          0.371492 0.0993781 0.80277 0.268238 0.0953534 0.771063
          0.298834 0.0968458 0.818175 0.272272 0.0982259 0.871623
          0.27271 0.0964002 0.88158 0.217678 0.0968129 0.834652
          0.0381607 -0.0153411 -0.0506569 0.0292423 -0.0145331 -0.0274994
          0.0463084 -0.0174144 -0.0414897 0.021377 -0.0104381 -0.0359205
          0.0381607 -0.0153411 -0.0506569 0.0463084 -0.0174144 -0.0414897
          0.0423499 -0.0114026 -0.055377 0.021377 -0.0104381 -0.0359205
          0.258085 0.0955726 0.819384 0.298834 0.0968458 0.818175
          0.27271 0.0964002 0.88158 0.217678 0.0968129 0.834652
          0.216483 0.0943034 0.778517 0.217678 0.0968129 0.834652
          0.298834 0.0968458 0.818175 0.258085 0.0955726 0.819384
          0.371492 0.0993781 0.80277 0.317504 0.0992951 0.814724
          0.298834 0.0968458 0.818175 0.268238 0.0953534 0.771063
          0.1144 -0.0159403 -0.605091 0.0982553 -0.0211777 -0.602659
          0.107518 -0.0214738 -0.605715 0.107318 -0.0140032 -0.607226
          0.0746342 -0.0182243 -0.408703 0.0782603 -0.0163881 -0.431469
          0.0228868 -0.0175449 -0.410755 0.0406751 -0.0188984 -0.381652
          0.0341126 -0.0125083 -0.114873 0.0603776 -0.0173095 -0.104529
          0.0686171 -0.0179506 -0.138966 0.0732646 -0.0135404 -0.135977
          0.0347523 -0.014953 -0.10816 0.0603776 -0.0173095 -0.104529
          0.0686171 -0.0179506 -0.138966 0.0341126 -0.0125083 -0.114873
          0.102221 -0.0132634 -0.576693 0.12387 -0.0137173 -0.55443
          0.11472 -0.0137039 -0.576103 0.0937691 -0.0138029 -0.549149
          0.000362789 -0.0130793 -0.455538 0.030685 -0.00952224 -0.456825
          0.0257655 -0.0133371 -0.43445 0.0481888 -0.0126734 -0.4751
          0.130472 -0.0123001 -0.19356 0.101464 -0.0152337 -0.183591
          0.135107 -0.0174963 -0.199185 0.12208 -0.0160632 -0.164258
          0.213365 0.058239 0.10934 0.25535 0.057476 0.0852052
          0.238454 0.0638716 0.176386 0.163459 0.0542829 0.132925
          0.164468 0.103075 0.903438 0.141147 0.100371 0.938067
          0.153439 0.0976263 0.896305 0.216196 0.0956329 0.913168
          0.00270117 -0.00839904 -0.122071 0.0245713 -0.00500875 -0.104985
          0.0338639 -0.00745357 -0.153426 0.00706416 -0.00670828 -0.137923
          0.282707 0.0780598 0.447798 0.185828 0.0648493 0.366047
          0.24751 0.0759489 0.490251 0.185822 0.0722326 0.453532
          0.0638506 0.00594671 -0.330755 0.00379622 2.43316e-05 -0.336744
          0.0116505 -0.0055628 -0.385172 0.0919653 0.00584569 -0.369417
          0.209525 0.0981286 0.870041 0.141876 0.0985264 0.846848
          0.164468 0.103075 0.903438 0.179768 0.0976013 0.825329
          0.141876 0.0985264 0.846848 0.209525 0.0981286 0.870041
          0.164468 0.103075 0.903438 0.216196 0.0956329 0.913168
          0.0583965 0.0997503 0.826217 0.141876 0.0985264 0.846848
          0.11098 0.103607 0.870345 0.0838931 0.102285 0.893233
          -0.038764 -0.0152156 -0.219229 -0.0390216 -0.0145598 -0.228437
          -0.0410849 -0.0131109 -0.178468 -0.00275804 -0.0140178 -0.20773
          0.118528 -0.0149838 -0.308486 0.0798418 -0.0176947 -0.264202
          0.113705 -0.0175004 -0.293712 0.0927891 -0.0138988 -0.27258
          0.0679743 -0.0153294 -0.306575 0.0798418 -0.0176947 -0.264202
          0.118528 -0.0149838 -0.308486 0.0927891 -0.0138988 -0.27258
          -0.0227859 -0.00193359 -0.0184177 -0.00441511 -0.00222472 -0.0122332
          0.00020316 -0.00504482 -0.026493 -0.0292533 -0.00563442 -0.0335524
          -0.0227859 -0.00193359 -0.0184177 -0.0211321 -0.00227591 -0.0131021
          -0.00441511 -0.00222472 -0.0122332 -0.0292533 -0.00563442 -0.0335524
          0.0679743 -0.0153294 -0.306575 0.0556986 -0.0149003 -0.231736
          0.0798418 -0.0176947 -0.264202 0.0927891 -0.0138988 -0.27258
          -0.0390216 -0.0145598 -0.228437 -0.0410849 -0.0131109 -0.178468
          -0.00275804 -0.0140178 -0.20773 -0.0417754 -0.0127901 -0.19048
          0.00765602 -0.0064143 -0.0148698 0.00906148 -0.00396656 -0.00244451
          0 0 0 0 0 0
          0 0 0 0.00765602 -0.0064143 -0.0148698
          0 0 0 0 0 0
          0.11472 -0.0137039 -0.576103 0.112709 -0.0131223 -0.570554
          0.103554 -0.0102896 -0.583544 0.0979294 -0.0116895 -0.552479
          0.0979294 -0.0116895 -0.552479 0.112709 -0.0131223 -0.570554
          0.103554 -0.0102896 -0.583544 0.0855552 -0.00604505 -0.571251
          0.00765602 -0.0064143 -0.0148698 0 0 0
          0 0 0 0.00562483 -0.00357756 -0.0126354
          0.134573 -0.00903642 -0.561118 0.119123 -0.00951806 -0.581108
          0.137254 -0.010044 -0.578733 0.129355 -0.0141182 -0.578393
          0.0982553 -0.0211777 -0.602659 0.0987473 -0.0156323 -0.593287
          0.107318 -0.0140032 -0.607226 0.0995078 -0.0148368 -0.598679
          0.0825549 -0.00948852 -0.155184 0.105846 -0.0102429 -0.126556
          0.11946 -0.0121716 -0.160773 0.112393 -0.0041933 -0.142377
          0.217441 0.0908349 0.694364 0.196146 0.0872112 0.6934
          0.268238 0.0953534 0.771063 0.186567 0.0895988 0.781783
          0.217441 0.0908349 0.694364 0.205824 0.0927761 0.710946
          0.262492 0.0911611 0.652694 0.190968 0.0892035 0.6277
          0.217441 0.0908349 0.694364 0.272704 0.0935405 0.736088
          0.262492 0.0911611 0.652694 0.205824 0.0927761 0.710946
          0.165557 -0.0137598 -0.4616 0.16549 -0.0131014 -0.449159
          0.133529 -0.0122415 -0.442996 0.121678 -0.0131649 -0.477031
          0.165557 -0.0137598 -0.4616 0.165818 -0.0119508 -0.421795
          0.133529 -0.0122415 -0.442996 0.16549 -0.0131014 -0.449159
          0.0595115 0.0667901 0.408272 0.11408 0.0677137 0.376145
          0.0808134 0.0722704 0.485717 -0.0160427 0.0608877 0.4158
          0.086844 0.0241004 -0.145402 0.0437957 0.0214384 -0.141935
          0.0540385 0.0279604 -0.0683123 0.0692071 0.0290328 -0.0736489
          0.217441 0.0908349 0.694364 0.196146 0.0872112 0.6934
          0.127105 0.0876495 0.701116 0.13533 0.0805968 0.576606
          0.164468 0.103075 0.903438 0.141876 0.0985264 0.846848
          0.11098 0.103607 0.870345 0.179768 0.0976013 0.825329
          0.100789 0.0866501 0.753101 0.0137284 0.080901 0.667222
          0.0433159 0.0880509 0.781563 0.108162 0.0929403 0.778368
          0.0615568 -0.00927245 -0.319052 0.0834431 -0.0103708 -0.372283
          0.0689447 -0.0128604 -0.335303 0.0327647 -0.0109596 -0.337261
          0.216196 0.0956329 0.913168 0.285884 0.101867 0.926939
          0.251644 0.0986556 0.9563 0.207948 0.0972424 0.9111
          0.089927 0.0645819 0.43286 0.0830577 0.0694311 0.477071
          0.12867 0.0712302 0.495567 0.102322 0.0639772 0.375425
          0.182702 0.0147905 -0.493674 0.152841 0.00628365 -0.549552
          0.18131 0.00998128 -0.509551 0.135703 0.0025933 -0.49578
          -0.0036987 0.0700438 0.47369 -0.00102808 0.0614825 0.371555
          0.0700909 0.0705525 0.428527 0.0595115 0.0667901 0.408272
          -0.0036987 0.0700438 0.47369 0.0700909 0.0705525 0.428527
          0.0846141 0.0787166 0.528453 0.0595115 0.0667901 0.408272
          0.0171834 -0.0131376 -0.175025 0.00182056 -0.0115354 -0.128416
          0.0345143 -0.0101269 -0.131573 -0.000871435 -0.0111273 -0.144184
          0.00182056 -0.0115354 -0.128416 -0.000871435 -0.0111273 -0.144184
          -0.0398427 -0.0112934 -0.139971 -0.0396448 -0.0102092 -0.109624
          -0.000871435 -0.0111273 -0.144184 -0.0421975 -0.0121278 -0.149963
          -0.0398427 -0.0112934 -0.139971 -0.0396448 -0.0102092 -0.109624
          0.0135894 -0.016901 -0.492048 0.0481888 -0.0126734 -0.4751
          0.0129194 -0.0132095 -0.492054 0.00408605 -0.0172167 -0.465409
          0.0937691 -0.0138029 -0.549149 0.0742199 -0.00934427 -0.556536
          0.0979294 -0.0116895 -0.552479 0.102221 -0.0132634 -0.576693
          0.0937691 -0.0138029 -0.549149 0.0979294 -0.0116895 -0.552479
          0.11472 -0.0137039 -0.576103 0.102221 -0.0132634 -0.576693
          0.0165473 -0.00617679 -0.0509829 -0.0102802 -0.00591698 -0.0432173
          0.00965275 -0.00343188 -0.0436944 -0.0014031 -0.00719991 -0.0748949
          0.133475 0.0765293 0.818985 0.101095 0.0763853 0.812186
          0.153914 0.0798208 0.88027 0.154107 0.0883189 0.857766
          -0.000871435 -0.0111273 -0.144184 0.00270117 -0.00839904 -0.122071
          0.0338639 -0.00745357 -0.153426 0.0125049 -0.0101035 -0.180202
          0.115205 0.101212 0.962865 0.0992901 0.104541 0.989552
          0.148758 0.0957216 0.968415 0.115205 0.101212 0.962865
          0.0341126 -0.0125083 -0.114873 0.0425612 -0.0137818 -0.154251
          0.00182056 -0.0115354 -0.128416 0.0345143 -0.0101269 -0.131573
          -0.00659978 -0.00503852 -0.411353 -0.0228156 -0.00921044 -0.364747
          0.0249799 -0.00927824 -0.386426 -0.0113336 -0.00627454 -0.364814
          0.0657571 -0.0031679 -0.428833 0.0948104 -0.00236865 -0.481413
          0.106478 -0.00164808 -0.472928 0.125164 0.0053151 -0.431484
          0.132605 -0.0129756 -0.428618 0.122055 -0.0136552 -0.391712
          0.165496 -0.012174 -0.412527 0.120859 -0.0118386 -0.3705
          0.110055 -0.0119697 -0.4245 0.132605 -0.0129756 -0.428618
          0.122055 -0.0136552 -0.391712 0.073581 -0.012766 -0.382787
          0.192891 0.0664681 0.226339 0.209017 0.0680971 0.26482
          0.172426 0.0599948 0.182148 0.279083 0.0740901 0.226445
          0.199017 0.0610013 0.140613 0.279083 0.0740901 0.226445
          0.192891 0.0664681 0.226339 0.172426 0.0599948 0.182148
          0.0657571 -0.0031679 -0.428833 0.00962742 -0.00493176 -0.396985
          0.0919653 0.00584569 -0.369417 0.0116505 -0.0055628 -0.385172
          -0.000402004 -0.0101472 -0.218544 -0.0396832 -0.0112706 -0.242638
          -0.00778128 -0.00821885 -0.267441 0.0242242 -0.010768 -0.269019
          0.165496 -0.012174 -0.412527 0.120859 -0.0118386 -0.3705
          0.130047 -0.0108439 -0.391734 0.132605 -0.0129756 -0.428618
          0.085481 0.000932724 -0.594326 0.0711245 0.00679275 -0.587151
          0.0923287 0.000732152 -0.600877 0.0965191 0.00659027 -0.605155
          0.120859 -0.0118386 -0.3705 0.0829969 -0.0109702 -0.307637
          0.120603 -0.00930884 -0.326509 0.0834431 -0.0103708 -0.372283
          -0.0116991 -0.00495655 -0.029839 -0.0102802 -0.00591698 -0.0432173
          -0.0254388 -0.00647699 -0.0297218 -0.00165095 -0.00443768 -0.0206394
          0.109555 -6.04137e-05 -0.59853 0.0965191 0.00659027 -0.605155
          0.10082 -0.00345068 -0.604568 0.123019 0.00231494 -0.613989
          0.120603 -0.00930884 -0.326509 0.154866 -0.00903024 -0.300863
          0.160203 -0.0119435 -0.337823 0.162928 -0.0101426 -0.361795
          0.154866 -0.00903024 -0.300863 0.15653 -0.00651799 -0.313547
          0.162928 -0.0101426 -0.361795 0.120603 -0.00930884 -0.326509
          0.113901 -0.0112095 -0.282981 0.143208 -0.00900353 -0.241278
          0.154866 -0.00903024 -0.300863 0.147637 -0.00749906 -0.261287
          0.134692 0.0456868 0.0266296 0.159365 0.0442869 -0.00337952
          0.198498 0.0519682 0.0225208 0.141569 0.0485009 0.0692919
          0.113901 -0.0112095 -0.282981 0.143208 -0.00900353 -0.241278
          0.147637 -0.00749906 -0.261287 0.0910404 -0.00871713 -0.248485
          0.162928 -0.0101426 -0.361795 0.15653 -0.00651799 -0.313547
          0.161751 -0.00820863 -0.358657 0.120603 -0.00930884 -0.326509
          0.162928 -0.0101426 -0.361795 0.161751 -0.00820863 -0.358657
          0.123047 -0.00843312 -0.371754 0.120603 -0.00930884 -0.326509
          0.370712 0.103799 0.763024 0.368553 0.104122 0.745728
          0.359992 0.10765 0.826851 0.293472 0.0994953 0.79386
          0.0126215 -0.00998045 -0.0546027 0.0303649 -0.0119405 -0.0807488
          0.0423499 -0.0114026 -0.055377 0.021377 -0.0104381 -0.0359205
          0.106057 -0.0116458 -0.606543 0.111468 -0.0123134 -0.602749
          0.106077 -0.011639 -0.601787 0.107566 -0.0128015 -0.607479
          0.0679001 0.0684276 0.660272 0.116441 0.0700373 0.586952
          0.0594662 0.0664747 0.514154 0.0746714 0.0731584 0.661841
          0.0679001 0.0684276 0.660272 0.0594662 0.0664747 0.514154
          -0.00848475 0.0649001 0.590354 0.0746714 0.0731584 0.661841
          0.0303649 -0.0119405 -0.0807488 0.0290398 -0.0139909 -0.0689169
          0.0605018 -0.0184435 -0.0762623 0.0381607 -0.0153411 -0.0506569
          0.194109 0.0876825 0.84685 0.204122 0.0875869 0.77037
          0.133475 0.0765293 0.818985 0.209922 0.09271 0.859342
          0.0261287 -0.0124198 -0.465925 0.0664855 -0.0026124 -0.453424
          0.0948104 -0.00236865 -0.481413 0.0657571 -0.0031679 -0.428833
          0.204122 0.0875869 0.77037 0.194109 0.0876825 0.84685
          0.293472 0.0994953 0.79386 0.209922 0.09271 0.859342
          0.153914 0.0798208 0.88027 0.194109 0.0876825 0.84685
          0.209922 0.09271 0.859342 0.200281 0.0922869 0.909085
          0.0368281 -0.00633565 -0.419251 -0.00659978 -0.00503852 -0.411353
          0.0249799 -0.00927824 -0.386426 -0.0113336 -0.00627454 -0.364814
          -0.00804499 0.0392555 0.118445 -0.0123321 0.0364686 0.0853844
          0.0640984 0.0457958 0.114738 -0.0129809 0.041583 0.147286
          0.25679 0.05184 -0.0499682 0.262343 0.0583567 0.0517336
          0.313974 0.0649467 0.0409103 0.198498 0.0519682 0.0225208
          0.268008 0.0960197 0.961097 0.282294 0.0987585 0.988705
          0.254847 0.0942488 0.990392 0.216996 0.0946768 0.982276
          0.153439 0.0976263 0.896305 0.145903 0.092674 0.919067
          0.0820273 0.0897636 0.875404 0.109382 0.0908914 0.835634
          0.132813 0.0247032 -0.151924 0.086844 0.0241004 -0.145402
          0.135582 0.0211458 -0.209163 0.045572 0.0183116 -0.184803
          0.0119736 -0.00702655 -0.341033 -0.0308071 -0.0103616 -0.3191
          0.0327647 -0.0109596 -0.337261 0.00691554 -0.00994981 -0.300825
          0.227347 0.0341367 -0.239023 0.167838 0.0206599 -0.322149
          0.249315 0.0320911 -0.328099 0.229906 0.0269602 -0.297914
          0.279336 0.0377699 -0.265338 0.227347 0.0341367 -0.239023
          0.249315 0.0320911 -0.328099 0.229906 0.0269602 -0.297914
          0.229906 0.0269602 -0.297914 0.279336 0.0377699 -0.265338
          0.280167 0.0290173 -0.330448 0.249315 0.0320911 -0.328099
          0.229906 0.0269602 -0.297914 0.277362 0.0316763 -0.363672
          0.249315 0.0320911 -0.328099 0.280167 0.0290173 -0.330448
          0.214694 0.0186287 -0.384992 0.277362 0.0316763 -0.363672
          0.229906 0.0269602 -0.297914 0.280167 0.0290173 -0.330448
          0.214694 0.0186287 -0.384992 0.277362 0.0316763 -0.363672
          0.249315 0.0320911 -0.328099 0.229906 0.0269602 -0.297914
          0.229906 0.0269602 -0.297914 0.199036 0.0230983 -0.364512
          0.249315 0.0320911 -0.328099 0.214694 0.0186287 -0.384992
          0.203901 0.0897619 1.07521 0.239193 0.0983216 1.08158
          0.161148 0.0923967 1.06649 0.222064 0.0922335 1.0378
          0.0441608 -0.0145928 -0.191319 0.0171834 -0.0131376 -0.175025
          0.0425612 -0.0137818 -0.154251 0.0450636 -0.0111888 -0.184676
          0.167838 0.0206599 -0.322149 0.199036 0.0230983 -0.364512
          0.249315 0.0320911 -0.328099 0.229906 0.0269602 -0.297914
          0.14323 0.027128 -0.191288 0.173823 0.0246422 -0.254984
          0.227347 0.0341367 -0.239023 0.239664 0.0342104 -0.217622
          0.198539 0.0823455 0.576957 0.237126 0.0794021 0.50115
          0.12867 0.0712302 0.495567 0.189954 0.0762057 0.471849
          0.185822 0.0722326 0.453532 0.237126 0.0794021 0.50115
          0.12867 0.0712302 0.495567 0.178795 0.0768006 0.555971
          0.153439 0.0976263 0.896305 0.141182 0.0902565 0.952366
          0.141147 0.100371 0.938067 0.0987851 0.0961257 0.918228
          0.24751 0.0759489 0.490251 0.178795 0.0768006 0.555971
          0.266947 0.0832243 0.575552 0.293499 0.0841291 0.540835
          0.24751 0.0759489 0.490251 0.185822 0.0722326 0.453532
          0.178795 0.0768006 0.555971 0.293499 0.0841291 0.540835
          -0.0421975 -0.0121278 -0.149963 -0.0442204 -0.0113241 -0.160393
          -0.00603925 -0.00921344 -0.155231 0.0125049 -0.0101035 -0.180202
          0.0982184 0.0600215 0.359552 0.0519335 0.0584848 0.350848
          0.15877 0.0654663 0.366123 0.060929 0.0538991 0.266939
          0.114469 -0.00938039 -0.604088 0.130862 -0.00448618 -0.596049
          0.120129 -0.00615696 -0.608411 0.127146 -0.00193784 -0.605756
          -0.00165095 -0.00443768 -0.0206394 0.00322887 -0.000798352 -0.00798877
          0.0114538 -0.00385626 -0.0309387 0.00965275 -0.00343188 -0.0436944
          0.0801865 -0.0129857 -0.431223 0.049198 -0.0109875 -0.426503
          0.0276634 -0.0124395 -0.381452 0.0558022 -0.0109937 -0.389167
          0.224695 0.0953553 0.846221 0.186567 0.0895988 0.781783
          0.154107 0.0883189 0.857766 0.167438 0.0943679 0.871731
          0.216196 0.0956329 0.913168 0.224695 0.0953553 0.846221
          0.207948 0.0972424 0.9111 0.167438 0.0943679 0.871731
          0.302885 0.0378947 -0.208492 0.239664 0.0342104 -0.217622
          0.292862 0.0326986 -0.268318 0.213557 0.025394 -0.25746
          0.267948 0.021667 -0.358312 0.214694 0.0186287 -0.384992
          0.280167 0.0290173 -0.330448 0.254645 0.0175491 -0.410354
          0.238454 0.0638716 0.176386 0.25535 0.057476 0.0852052
          0.358776 0.0740713 0.182399 0.28714 0.0650225 0.175661
          0.159944 -0.0163887 -0.514976 0.165557 -0.0137598 -0.4616
          0.134357 -0.0146054 -0.509884 0.164177 -0.0141855 -0.483115
          0.293875 0.0479188 -0.149752 0.239664 0.0342104 -0.217622
          0.315148 0.0456464 -0.206792 0.314208 0.0450521 -0.177303
          0.239664 0.0342104 -0.217622 0.229906 0.0269602 -0.297914
          0.292862 0.0326986 -0.268318 0.213557 0.025394 -0.25746
          0.159944 -0.0163887 -0.514976 0.165557 -0.0137598 -0.4616
          0.157734 -0.0150762 -0.492321 0.134357 -0.0146054 -0.509884
          0.113746 -0.0145598 -0.606765 0.107566 -0.0128015 -0.607479
          0.108992 -0.0122948 -0.606635 0.112637 -0.0103711 -0.611269
          0.112637 -0.0103711 -0.611269 0.108992 -0.0122948 -0.606635
          0.113746 -0.0145598 -0.606765 0.107431 -0.00998447 -0.605534
          0.216196 0.0956329 0.913168 0.167438 0.0943679 0.871731
          0.207948 0.0972424 0.9111 0.153439 0.0976263 0.896305
          0.0101279 -0.00173324 -0.425111 0.0246036 -0.00641771 -0.486264
          0.0664855 -0.0026124 -0.453424 0.0816163 -2.51321e-05 -0.451585
          0.0737005 -0.0132091 -0.182875 0.0425612 -0.0137818 -0.154251
          0.0345143 -0.0101269 -0.131573 0.0450636 -0.0111888 -0.184676
          0.0737005 -0.0132091 -0.182875 0.0425612 -0.0137818 -0.154251
          0.0732646 -0.0135404 -0.135977 0.0345143 -0.0101269 -0.131573
          0.282707 0.0780598 0.447798 0.373022 0.0833251 0.422228
          0.298245 0.0824615 0.466509 0.376057 0.088585 0.525818
          0.282707 0.0780598 0.447798 0.366693 0.0817436 0.45118
          0.373022 0.0833251 0.422228 0.376057 0.088585 0.525818
          0.113901 -0.0112095 -0.282981 0.0508684 -0.0116704 -0.233291
          0.0983677 -0.0115942 -0.227508 0.0910404 -0.00871713 -0.248485
          0.113901 -0.0112095 -0.282981 0.143208 -0.00900353 -0.241278
          0.0910404 -0.00871713 -0.248485 0.0983677 -0.0115942 -0.227508
          -0.0360913 -0.0157609 -0.267026 -0.0312485 -0.0147393 -0.307478
          -0.0355365 -0.0141714 -0.273168 0.00727071 -0.0159958 -0.292999
          0.152768 -0.0128705 -0.286097 0.143208 -0.00900353 -0.241278
          0.154866 -0.00903024 -0.300863 0.113901 -0.0112095 -0.282981
          0.107034 0.0785431 0.954037 0.141182 0.0902565 0.952366
          0.117288 0.0824418 0.964402 0.166592 0.0943382 0.957611
          0.31334 0.101594 1.01953 0.298929 0.101482 1.04991
          0.291481 0.099271 1.04863 0.256007 0.0933328 1.02618
          0.173823 0.0246422 -0.254984 0.130885 0.0226921 -0.239709
          0.167838 0.0206599 -0.322149 0.137117 0.0163716 -0.314393
          0.243538 0.045937 -0.0299528 0.337898 0.0608716 0.0317743
          0.25535 0.057476 0.0852052 0.332187 0.0577736 0.0357389
          0.336045 0.105767 1.0392 0.289143 0.105429 1.04493
          0.315064 0.107581 1.09375 0.298929 0.101482 1.04991
          0.163842 0.0365633 -0.0716904 0.257162 0.0452472 -0.0826948
          0.219222 0.0486119 -0.00572604 0.243538 0.045937 -0.0299528
          0.22275 0.104812 1.04279 0.18707 0.1075 1.04546
          0.216442 0.11019 1.08311 0.19409 0.0993376 1.07089
          0.0277829 -0.0133178 -0.215086 0.00402628 -0.0122154 -0.223718
          0.0266702 -0.0125329 -0.259877 0.0157321 -0.0143898 -0.251108
          0.181436 0.0819169 0.673158 0.204122 0.0875869 0.77037
          0.196146 0.0872112 0.6934 0.12824 0.0807888 0.747178
          0.181436 0.0819169 0.673158 0.27145 0.0922475 0.715046
          0.196146 0.0872112 0.6934 0.204122 0.0875869 0.77037
          0.27145 0.0922475 0.715046 0.24719 0.0906245 0.746051
          0.204122 0.0875869 0.77037 0.181436 0.0819169 0.673158
          0.0481888 -0.0126734 -0.4751 0.049198 -0.0109875 -0.426503
          0.0801865 -0.0129857 -0.431223 0.0896834 -0.01342 -0.474792
          0.204122 0.0875869 0.77037 0.24719 0.0906245 0.746051
          0.194109 0.0876825 0.84685 0.149244 0.0766639 0.750003
          0.194109 0.0876825 0.84685 0.149244 0.0766639 0.750003
          0.133475 0.0765293 0.818985 0.204122 0.0875869 0.77037
          0.204122 0.0875869 0.77037 0.101095 0.0763853 0.812186
          0.133475 0.0765293 0.818985 0.154107 0.0883189 0.857766
          -0.00694388 -0.0196739 -0.43155 -0.00751634 -0.0214847 -0.407104
          0.0228868 -0.0175449 -0.410755 -0.0180461 -0.0179976 -0.382811
          0.145549 -0.00508143 -0.577714 0.118662 -0.0118541 -0.601902
          0.137254 -0.010044 -0.578733 0.112396 -0.00944941 -0.595416
          0.0974821 -0.012431 -0.598996 0.106057 -0.0116458 -0.606543
          0.109254 -0.0117923 -0.604306 0.112396 -0.00944941 -0.595416
          0.158421 0.0496291 0.0897101 0.0583242 0.0419076 0.088712
          0.172727 0.0572523 0.179964 0.100178 0.0521232 0.164525
          0.158421 0.0496291 0.0897101 0.0583242 0.0419076 0.088712
          0.0939533 0.0506828 0.181751 0.172727 0.0572523 0.179964
          0.0695339 -0.0077584 -0.112705 0.0931616 -0.0105415 -0.0987839
          0.105846 -0.0102429 -0.126556 0.0954823 -0.0039651 -0.106414
          0.0480306 -0.0184858 -0.532774 0.0352309 -0.0128731 -0.503908
          0.0817732 -0.00910394 -0.520643 0.0261287 -0.0124198 -0.465925
          0.172727 0.0572523 0.179964 0.0583242 0.0419076 0.088712
          0.0939533 0.0506828 0.181751 0.100178 0.0521232 0.164525
          0.172727 0.0572523 0.179964 0.15796 0.0626744 0.270179
          0.238454 0.0638716 0.176386 0.209017 0.0680971 0.26482
          0.172727 0.0572523 0.179964 0.15796 0.0626744 0.270179
          0.267607 0.0706221 0.272312 0.238454 0.0638716 0.176386
          0.24719 0.0906245 0.746051 0.312824 0.0949824 0.693554
          0.293472 0.0994953 0.79386 0.368553 0.104122 0.745728
          0.24719 0.0906245 0.746051 0.312824 0.0949824 0.693554
          0.27145 0.0922475 0.715046 0.293472 0.0994953 0.79386
          -0.00608307 -0.00364772 -0.0122518 0 0 0
          -0.0182313 -0.00555993 -0.0122023 -0.00700115 -0.00345964 -0.0120442
          -0.00441511 -0.00222472 -0.0122332 -0.00700115 -0.00345964 -0.0120442
          -0.0198786 -0.00456851 -0.014675 0 0 0
          0.220738 0.0983866 1.03044 0.19409 0.0993376 1.07089
          0.239193 0.0983216 1.08158 0.161148 0.0923967 1.06649
          0.303862 0.0937414 0.696053 0.290993 0.0932419 0.690529
          0.260232 0.0884996 0.60553 0.389693 0.0946005 0.585769
          0.303862 0.0937414 0.696053 0.262492 0.0911611 0.652694
          0.319563 0.0916535 0.59525 0.260232 0.0884996 0.60553
          0.290993 0.0932419 0.690529 0.217441 0.0908349 0.694364
          0.303862 0.0937414 0.696053 0.260232 0.0884996 0.60553
          0.149803 0.0947307 0.967832 0.220738 0.0983866 1.03044
          0.222148 0.100112 0.994249 0.174536 0.092526 0.994842
          0.290993 0.0932419 0.690529 0.268238 0.0953534 0.771063
          0.303862 0.0937414 0.696053 0.217441 0.0908349 0.694364
          0.0249799 -0.00927824 -0.386426 -0.0126592 -0.0086086 -0.409138
          -0.0183776 -0.0107372 -0.385427 -0.0228156 -0.00921044 -0.364747
          0.216996 0.0946768 0.982276 0.222148 0.100112 0.994249
          0.220738 0.0983866 1.03044 0.174536 0.092526 0.994842
          0.370712 0.103799 0.763024 0.368553 0.104122 0.745728
          0.293472 0.0994953 0.79386 0.27145 0.0922475 0.715046
          0.0240896 0.00249727 -0.466643 0.0654843 -0.00281992 -0.4944
          0.0101279 -0.00173324 -0.425111 0.0527092 0.00222036 -0.446413
          -0.00700115 -0.00345964 -0.0120442 -0.00441511 -0.00222472 -0.0122332
          0 0 0 0 0 0
          0.137233 -0.0135718 -0.504352 0.164278 -0.0127238 -0.470143
          0.124448 -0.0143225 -0.471353 0.131259 -0.0138379 -0.510261
          0.161268 0.0430777 0.00556753 0.100967 0.0376856 -0.0124784
          0.0449238 0.0339339 0.00411554 0.104946 0.0435662 0.0577277
          0.0259847 -0.00747016 -0.269956 0.0242242 -0.010768 -0.269019
          0.0444503 -0.00882003 -0.221329 -0.000402004 -0.0101472 -0.218544
          -0.000402004 -0.0101472 -0.218544 0.0444503 -0.00882003 -0.221329
          0.0491411 -0.00599707 -0.241803 0.00022389 -0.00790277 -0.232947
          0.254571 0.0422139 -0.140693 0.204548 0.0340728 -0.161825
          0.229061 0.0449968 -0.0778743 0.168288 0.0375999 -0.0873447
          -0.000402004 -0.0101472 -0.218544 -0.043366 -0.0100866 -0.19915
          0.00472803 -0.00759501 -0.177314 0.00022389 -0.00790277 -0.232947
          0.173823 0.0246422 -0.254984 0.115975 0.0128998 -0.314557
          0.175406 0.0171797 -0.332993 0.149133 0.0161199 -0.296868
          0.173823 0.0246422 -0.254984 0.137117 0.0163716 -0.314393
          0.175406 0.0171797 -0.332993 0.115975 0.0128998 -0.314557
          -0.0425719 -0.0113411 -0.197009 -0.043366 -0.0100866 -0.19915
          0.00472803 -0.00759501 -0.177314 -0.000402004 -0.0101472 -0.218544
          0.0715879 -0.0107643 -0.570157 0.0742199 -0.00934427 -0.556536
          0.0937691 -0.0138029 -0.549149 0.102221 -0.0132634 -0.576693
          -0.0116154 -0.0127112 -0.160316 0.0233769 -0.015396 -0.171585
          0.0171834 -0.0131376 -0.175025 0.0150799 -0.0144693 -0.140254
          0.0948104 -0.00236865 -0.481413 0.110675 -0.00367405 -0.515213
          0.134062 0.00401747 -0.464844 0.124809 5.29779e-05 -0.483101
          0.12387 -0.0137173 -0.55443 0.0908379 -0.0141968 -0.513139
          0.113639 -0.0132619 -0.522822 0.0937691 -0.0138029 -0.549149
          -0.0402609 -0.0132542 -0.172689 -0.0116154 -0.0127112 -0.160316
          -0.0410849 -0.0131109 -0.178468 -0.0398427 -0.0112934 -0.139971
          0.214788 0.10492 1.00424 0.185509 0.107383 1.03394
          0.18707 0.1075 1.04546 0.169989 0.0988924 1.0076
          -0.0143431 0.0252607 -0.0446928 0.0692071 0.0290328 -0.0736489
          0.100967 0.0376856 -0.0124784 0.0449238 0.0339339 0.00411554
          0.060043 0.0568305 0.259679 0.0635172 0.0515351 0.19353
          0.109208 0.0572903 0.209665 0.0876554 0.0583691 0.26528
          0.215481 0.0468155 0.0269334 0.149682 0.0387796 -0.00792568
          0.193616 0.0487549 0.0843481 0.126597 0.045842 0.0973606
          0.0410239 -0.0180549 -0.471625 -0.00694388 -0.0196739 -0.43155
          0.0118425 -0.0240072 -0.475595 0.0326146 -0.0205887 -0.428346
          0.199691 0.0849973 0.580698 0.271522 0.0837749 0.481467
          0.171272 0.0778226 0.475443 0.237426 0.086149 0.538209
          0.0273608 0.00523286 -0.404675 0.0240896 0.00249727 -0.466643
          0.0101279 -0.00173324 -0.425111 0.0527092 0.00222036 -0.446413
          0.00553736 -0.00949131 -0.0872548 -0.0112473 -0.00867774 -0.0676795
          -0.0075844 -0.00783516 -0.0507497 -0.0384657 -0.00944187 -0.0839381
          -0.0309792 -0.01305 -0.314827 0.0327647 -0.0109596 -0.337261
          0.00213241 -0.0128252 -0.289606 0.00753595 -0.0138764 -0.340524
          0.0583685 -0.00316609 -0.0516314 0.0425707 -0.0036721 -0.0331096
          0.0255033 0.00090171 -0.0220747 0.0303638 -0.00158471 -0.0321671
          0.160387 0.00185887 -0.476443 0.128315 -0.00339795 -0.511432
          0.151141 -0.00421154 -0.490188 0.122207 0.000471272 -0.462474
          0.0689865 0.0290619 -0.0831016 0.159365 0.0442869 -0.00337952
          0.120774 0.030637 -0.123642 0.103092 0.0367894 -0.0397778
          0.176831 0.00185096 -0.511452 0.203477 -0.00152772 -0.523147
          0.175681 -0.00370727 -0.508049 0.146451 -0.00498123 -0.540931
          0.109413 -0.00731356 -0.560632 0.0877043 -0.0027958 -0.528633
          0.117073 -0.00842294 -0.561124 0.128315 -0.00339795 -0.511432
          0.128315 -0.00339795 -0.511432 0.0877043 -0.0027958 -0.528633
          0.117073 -0.00842294 -0.561124 0.138348 -0.00834367 -0.530527
          0.128315 -0.00339795 -0.511432 0.0877043 -0.0027958 -0.528633
          0.138348 -0.00834367 -0.530527 0.109617 -0.00182166 -0.493723
          0.267948 0.021667 -0.358312 0.19211 0.00963681 -0.421164
          0.214694 0.0186287 -0.384992 0.254645 0.0175491 -0.410354
          0.180715 0.0976954 0.945894 0.141147 0.100371 0.938067
          0.124962 0.103705 0.917689 0.164468 0.103075 0.903438
          0.216692 0.0189193 -0.322874 0.177392 0.0114892 -0.3605
          0.171681 0.0118168 -0.394107 0.19211 0.00963681 -0.421164
          0.10517 -0.0159049 -0.610222 0.114469 -0.00938039 -0.604088
          0.10914 -0.00942437 -0.584649 0.09246 -0.0181342 -0.59445
          0.359488 0.0745767 0.226421 0.28714 0.0650225 0.175661
          0.267607 0.0706221 0.272312 0.238454 0.0638716 0.176386
          0.1144 -0.0159403 -0.605091 0.107318 -0.0140032 -0.607226
          0.118662 -0.0118541 -0.601902 0.112614 -0.0109344 -0.605291
          0.0170272 -0.008019 -0.442072 0.0237723 -0.00750152 -0.472728
          0.0352309 -0.0128731 -0.503908 0.0664855 -0.0026124 -0.453424
          0.0664855 -0.0026124 -0.453424 0.0237723 -0.00750152 -0.472728
          0.0352309 -0.0128731 -0.503908 0.0696074 -0.00701453 -0.503281
          0.28714 0.0650225 0.175661 0.25535 0.057476 0.0852052
          0.35358 0.070367 0.118803 0.344346 0.0656273 0.127083
          0.0664855 -0.0026124 -0.453424 0.0696074 -0.00701453 -0.503281
          0.0352309 -0.0128731 -0.503908 0.0948104 -0.00236865 -0.481413
          0.0261287 -0.0124198 -0.465925 0.0170272 -0.008019 -0.442072
          0.0352309 -0.0128731 -0.503908 0.0664855 -0.0026124 -0.453424
          0.0101279 -0.00173324 -0.425111 0.0664855 -0.0026124 -0.453424
          0.0688967 0.00260366 -0.397242 0.0816163 -2.51321e-05 -0.451585
          0.289143 0.105429 1.04493 0.274099 0.105261 1.08923
          0.330875 0.112426 1.07607 0.315064 0.107581 1.09375
          0.289143 0.105429 1.04493 0.330875 0.112426 1.07607
          0.336045 0.105767 1.0392 0.315064 0.107581 1.09375
          0.158504 0.0967715 0.763692 0.145798 0.090798 0.679028
          0.205824 0.0927761 0.710946 0.186477 0.0935983 0.764036
          0.289143 0.105429 1.04493 0.262572 0.0985842 1.02395
          0.336045 0.105767 1.0392 0.335373 0.10664 1.00044
          0.289143 0.105429 1.04493 0.274099 0.105261 1.08923
          0.315064 0.107581 1.09375 0.288612 0.101508 1.08839
          0.0450636 -0.0111888 -0.184676 0.0825549 -0.00948852 -0.155184
          0.0698431 -0.00822036 -0.18142 0.0345143 -0.0101269 -0.131573
          0.0345143 -0.0101269 -0.131573 0.0338639 -0.00745357 -0.153426
          0.0698431 -0.00822036 -0.18142 0.0450636 -0.0111888 -0.184676
          0.0171834 -0.0131376 -0.175025 -0.000871435 -0.0111273 -0.144184
          0.0345143 -0.0101269 -0.131573 0.0450636 -0.0111888 -0.184676
          0.0450636 -0.0111888 -0.184676 0.0125049 -0.0101035 -0.180202
          0.0508684 -0.0116704 -0.233291 0.00402628 -0.0122154 -0.223718
          0.103987 -0.0142188 -0.596435 0.0998571 -0.0152705 -0.572757
          0.118476 -0.0115173 -0.589823 0.0987473 -0.0156323 -0.593287
          0.0667859 -0.00492085 -0.132948 0.0695339 -0.0077584 -0.112705
          0.0825549 -0.00948852 -0.155184 0.112393 -0.0041933 -0.142377
          0.0695339 -0.0077584 -0.112705 0.105846 -0.0102429 -0.126556
          0.0825549 -0.00948852 -0.155184 0.112393 -0.0041933 -0.142377
          0.0695339 -0.0077584 -0.112705 0.0954823 -0.0039651 -0.106414
          0.105846 -0.0102429 -0.126556 0.112393 -0.0041933 -0.142377
          0.371492 0.0993781 0.80277 0.298834 0.0968458 0.818175
          0.35898 0.100297 0.86023 0.328598 0.0951257 0.835047
          0.0925113 -0.0100672 -0.58693 0.105112 -0.0109623 -0.591591
          0.0865935 -0.00428175 -0.59029 0.097403 -0.00460077 -0.593334
          0.107431 -0.00998447 -0.605534 0.0925113 -0.0100672 -0.58693
          0.0865935 -0.00428175 -0.59029 0.10082 -0.00345068 -0.604568
          0.315243 0.0628785 0.222664 0.239777 0.0639908 0.300576
          0.326695 0.0694075 0.312661 0.27609 0.0684555 0.293154
          0.326695 0.0694075 0.312661 0.27609 0.0684555 0.293154
          0.280246 0.0724522 0.393062 0.364544 0.0778847 0.37568
          0.239777 0.0639908 0.300576 0.185828 0.0648493 0.366047
          0.280246 0.0724522 0.393062 0.27609 0.0684555 0.293154
          0.107318 -0.0140032 -0.607226 0.0987473 -0.0156323 -0.593287
          0.104386 -0.0161113 -0.608847 0.111468 -0.0123134 -0.602749
          0.0987473 -0.0156323 -0.593287 0.103987 -0.0142188 -0.596435
          0.104386 -0.0161113 -0.608847 0.111468 -0.0123134 -0.602749
          0.326695 0.0694075 0.312661 0.239777 0.0639908 0.300576
          0.280246 0.0724522 0.393062 0.27609 0.0684555 0.293154
          -0.0198786 -0.00456851 -0.014675 -0.0280384 -0.00847588 -0.0277801
          -0.00700115 -0.00345964 -0.0120442 -0.0254388 -0.00647699 -0.0297218
          0.359488 0.0745767 0.226421 0.238454 0.0638716 0.176386
          0.267607 0.0706221 0.272312 0.293523 0.0709724 0.187424
          0.35414 0.0709775 0.22333 0.239744 0.0627337 0.215118
          0.267607 0.0706221 0.272312 0.28714 0.0650225 0.175661
          0.254645 0.0175491 -0.410354 0.189171 0.00696049 -0.46894
          0.19211 0.00963681 -0.421164 0.177759 0.0101018 -0.451713
          0.0638506 0.00594671 -0.330755 0.0882954 0.0139789 -0.275434
          -0.00458031 0.00720486 -0.248147 0.0598204 0.00789755 -0.317222
          -0.02311 -0.0128779 -0.364239 0.0327647 -0.0109596 -0.337261
          0.00753595 -0.0138764 -0.340524 0.0276634 -0.0124395 -0.381452
          0.266947 0.0832243 0.575552 0.178795 0.0768006 0.555971
          0.252053 0.0846894 0.591048 0.293499 0.0841291 0.540835
          0.160387 0.00185887 -0.476443 0.131645 0.00478053 -0.424531
          0.16371 0.00418987 -0.421372 0.19211 0.00963681 -0.421164
          0.146166 0.0938949 1.01979 0.211651 0.0894452 1.02033
          0.174536 0.092526 0.994842 0.1552 0.0906953 1.03528
          0.16371 0.00418987 -0.421372 0.131645 0.00478053 -0.424531
          0.177392 0.0114892 -0.3605 0.19211 0.00963681 -0.421164
          0.146166 0.0938949 1.01979 0.0992901 0.104541 0.989552
          0.106761 0.101082 1.02841 0.111359 0.103038 1.02849
          0.146166 0.0938949 1.01979 0.174536 0.092526 0.994842
          0.0992901 0.104541 0.989552 0.0992901 0.104541 0.989552
          0.1552 0.0906953 1.03528 0.146166 0.0938949 1.01979
          0.106761 0.101082 1.02841 0.111359 0.103038 1.02849
          0.146166 0.0938949 1.01979 0.0992901 0.104541 0.989552
          0.0992901 0.104541 0.989552 0.111359 0.103038 1.02849
          0.198539 0.0823455 0.576957 0.189954 0.0762057 0.471849
          0.171272 0.0778226 0.475443 0.271522 0.0837749 0.481467
          0.198539 0.0823455 0.576957 0.189954 0.0762057 0.471849
          0.13533 0.0805968 0.576606 0.171272 0.0778226 0.475443
          0.198539 0.0823455 0.576957 0.13533 0.0805968 0.576606
          0.189954 0.0762057 0.471849 0.0830577 0.0694311 0.477071
          0.198539 0.0823455 0.576957 0.196146 0.0872112 0.6934
          0.217441 0.0908349 0.694364 0.13533 0.0805968 0.576606
          0.198539 0.0823455 0.576957 0.100937 0.0804062 0.671573
          0.196146 0.0872112 0.6934 0.13533 0.0805968 0.576606
          0.243931 0.0382422 -0.120107 0.257162 0.0452472 -0.0826948
          0.31346 0.0448283 -0.141522 0.204548 0.0340728 -0.161825
          0.204548 0.0340728 -0.161825 0.163842 0.0365633 -0.0716904
          0.243931 0.0382422 -0.120107 0.257162 0.0452472 -0.0826948
          0.11472 -0.0137039 -0.576103 0.11977 -0.0145272 -0.59394
          0.124799 -0.0135258 -0.574159 0.102221 -0.0132634 -0.576693
          0.0830577 0.0694311 0.477071 0.11408 0.0677137 0.376145
          0.189954 0.0762057 0.471849 0.179831 0.069947 0.368224
          0.179831 0.069947 0.368224 0.189954 0.0762057 0.471849
          0.171272 0.0778226 0.475443 0.11408 0.0677137 0.376145
          0.173823 0.0246422 -0.254984 0.137117 0.0163716 -0.314393
          0.229906 0.0269602 -0.297914 0.175406 0.0171797 -0.332993
          0.167838 0.0206599 -0.322149 0.155675 0.013872 -0.375313
          0.229906 0.0269602 -0.297914 0.137117 0.0163716 -0.314393
          0.124138 0.0125122 -0.349927 0.137117 0.0163716 -0.314393
          0.155675 0.013872 -0.375313 0.167838 0.0206599 -0.322149
          0.272434 0.0195054 -0.327936 0.215632 0.0156658 -0.31289
          0.279438 0.0225269 -0.278857 0.216692 0.0189193 -0.322874
          0.15796 0.0626744 0.270179 0.248309 0.07594 0.362052
          0.209017 0.0680971 0.26482 0.179831 0.069947 0.368224
          0.109294 0.0209412 -0.217591 0.204548 0.0340728 -0.161825
          0.14323 0.027128 -0.191288 0.16095 0.0298942 -0.151939
          0.189954 0.0762057 0.471849 0.248309 0.07594 0.362052
          0.298245 0.0824615 0.466509 0.179831 0.069947 0.368224
          0.189954 0.0762057 0.471849 0.179831 0.069947 0.368224
          0.298245 0.0824615 0.466509 0.240365 0.0719055 0.361752
          0.161268 0.0430777 0.00556753 0.0449238 0.0339339 0.00411554
          0.0887729 0.0367918 0.00698102 0.104946 0.0435662 0.0577277
          0.165496 -0.012174 -0.412527 0.132605 -0.0129756 -0.428618
          0.130047 -0.0108439 -0.391734 0.110055 -0.0119697 -0.4245
          0.0638979 -0.00680671 -0.289187 0.0623433 -0.00899144 -0.27071
          0.0259847 -0.00747016 -0.269956 0.0615568 -0.00927245 -0.319052
          0.135072 0.0117331 -0.321953 0.0944564 0.0146023 -0.27546
          0.0734512 0.0151683 -0.243691 0.149133 0.0161199 -0.296868
          0.135072 0.0117331 -0.321953 0.0948509 0.00960777 -0.330541
          0.0944564 0.0146023 -0.27546 0.149133 0.0161199 -0.296868
          0.106363 -0.00870799 -0.608749 0.104664 -0.012164 -0.609688
          0.111468 -0.0123134 -0.602749 0.104248 -0.00998517 -0.60549
          0.158421 0.0496291 0.0897101 0.104946 0.0435662 0.0577277
          0.0887729 0.0367918 0.00698102 0.0583242 0.0419076 0.088712
          0.0817732 -0.00910394 -0.520643 0.0970682 -0.00880874 -0.546836
          0.0696074 -0.00701453 -0.503281 0.0352309 -0.0128731 -0.503908
          0.257162 0.0452472 -0.0826948 0.163842 0.0365633 -0.0716904
          0.243931 0.0382422 -0.120107 0.243538 0.045937 -0.0299528
          0.109254 -0.0117923 -0.604306 0.112637 -0.0103711 -0.611269
          0.114469 -0.00938039 -0.604088 0.120129 -0.00615696 -0.608411
          0.0975373 -0.00974557 -0.192492 0.0910404 -0.00871713 -0.248485
          0.0698431 -0.00822036 -0.18142 0.0962148 -0.00593256 -0.21049
          -0.0158773 0.0100494 -0.249103 0.0445276 0.00929873 -0.294244
          0.0508163 0.00841701 -0.326806 -0.0139035 0.00686604 -0.302569
          -0.0014031 -0.00719991 -0.0748949 -0.0096781 -0.00610029 -0.0620695
          0.00965275 -0.00343188 -0.0436944 0.0176904 -0.00353163 -0.0727868
          0.00156437 -0.00480447 -0.0194943 -0.00354797 -0.000992811 -0.00468258
          0.00906148 -0.00396656 -0.00244451 -0.00310213 -0.00244935 -0.0142378
          0.2938 0.0972136 0.929731 0.341624 0.10169 0.94404
          0.308147 0.0989408 0.97371 0.268008 0.0960197 0.961097
          0.1081 -0.0209799 -0.606824 0.113746 -0.0145598 -0.606765
          0.110326 -0.021099 -0.615295 0.106885 -0.0166778 -0.610537
          0.1081 -0.0209799 -0.606824 0.106885 -0.0166778 -0.610537
          0.110326 -0.021099 -0.615295 0.102214 -0.0221425 -0.614932
          0.102214 -0.0221425 -0.614932 0.106885 -0.0166778 -0.610537
          0.110326 -0.021099 -0.615295 0.112472 -0.00908123 -0.617884
          0.167438 0.0943679 0.871731 0.109382 0.0908914 0.835634
          0.153439 0.0976263 0.896305 0.165257 0.0931675 0.813209
          0.217678 0.0968129 0.834652 0.165257 0.0931675 0.813209
          0.167438 0.0943679 0.871731 0.153439 0.0976263 0.896305
          0.106885 -0.0166778 -0.610537 0.113746 -0.0145598 -0.606765
          0.112637 -0.0103711 -0.611269 0.107566 -0.0128015 -0.607479
          0.106885 -0.0166778 -0.610537 0.107566 -0.0128015 -0.607479
          0.112637 -0.0103711 -0.611269 0.109254 -0.0117923 -0.604306
          0.0746714 0.0731584 0.661841 0.181436 0.0819169 0.673158
          0.12824 0.0807888 0.747178 0.149244 0.0766639 0.750003
          0.0653537 -0.018359 -0.55754 0.0283937 -0.0250899 -0.531799
          0.0535114 -0.0187996 -0.526146 0.0337951 -0.0196446 -0.535277
          0.0653537 -0.018359 -0.55754 0.0535114 -0.0187996 -0.526146
          0.064645 -0.0229194 -0.556744 0.0821186 -0.0163022 -0.547193
          0.0410239 -0.0180549 -0.471625 0.0326146 -0.0205887 -0.428346
          0.0228868 -0.0175449 -0.410755 -0.00694388 -0.0196739 -0.43155
          0.0836865 -0.0155189 -0.576022 0.0653537 -0.018359 -0.55754
          0.0808666 -0.022248 -0.583 0.0914105 -0.0189928 -0.58394
          0.0334735 -0.00317254 -0.125435 0.0751999 0.00105064 -0.137564
          0.0667859 -0.00492085 -0.132948 0.0608994 -0.00221483 -0.159693
          0.31346 0.0448283 -0.141522 0.239664 0.0342104 -0.217622
          0.314208 0.0450521 -0.177303 0.302885 0.0378947 -0.208492
          0.238454 0.0638716 0.176386 0.25535 0.057476 0.0852052
          0.35358 0.070367 0.118803 0.358776 0.0740713 0.182399
          -0.0309792 -0.01305 -0.314827 0.00691554 -0.00994981 -0.300825
          -0.0364058 -0.0121714 -0.271789 0.00213241 -0.0128252 -0.289606
          -0.0355365 -0.0141714 -0.273168 0.00402628 -0.0122154 -0.223718
          0.00213241 -0.0128252 -0.289606 -0.0364058 -0.0121714 -0.271789
          0.0715879 -0.0107643 -0.570157 0.0859557 -0.0131762 -0.586375
          0.0796746 -0.00510329 -0.588382 0.0865935 -0.00428175 -0.59029
          0.19211 0.00963681 -0.421164 0.227329 0.00478569 -0.482107
          0.189171 0.00696049 -0.46894 0.239077 0.0121727 -0.458207
          0.073427 -0.0150233 -0.582338 0.074161 -0.0108072 -0.582806
          0.0875997 -0.0177313 -0.597244 0.0974821 -0.012431 -0.598996
          -0.0355365 -0.0141714 -0.273168 -0.0309792 -0.01305 -0.314827
          -0.0364058 -0.0121714 -0.271789 0.00213241 -0.0128252 -0.289606
          0.0974821 -0.012431 -0.598996 0.074161 -0.0108072 -0.582806
          0.0875997 -0.0177313 -0.597244 0.0910021 -0.00774906 -0.595565
          0.0512157 -0.0221583 -0.559286 0.0283937 -0.0250899 -0.531799
          0.064645 -0.0229194 -0.556744 0.0653537 -0.018359 -0.55754
          0.0512157 -0.0221583 -0.559286 0.0653537 -0.018359 -0.55754
          0.073082 -0.0182206 -0.580329 0.0480688 -0.0136174 -0.554683
          -0.0386929 -0.00973485 -0.0876329 -0.0384657 -0.00944187 -0.0839381
          -0.010015 -0.0095234 -0.104158 -0.0075844 -0.00783516 -0.0507497
          0.0746714 0.0731584 0.661841 0.116441 0.0700373 0.586952
          0.0594662 0.0664747 0.514154 0.120286 0.0757005 0.587085
          0.0746714 0.0731584 0.661841 0.116441 0.0700373 0.586952
          0.120286 0.0757005 0.587085 0.181436 0.0819169 0.673158
          0.0746714 0.0731584 0.661841 0.00350164 0.0727373 0.630668
          -0.00848475 0.0649001 0.590354 0.0173037 0.072694 0.712974
          -0.00848475 0.0649001 0.590354 0.0746714 0.0731584 0.661841
          0.0173037 0.072694 0.712974 0.0091938 0.0639893 0.725891
          0.100937 0.0804062 0.671573 0.00350164 0.0727373 0.630668
          0.0746714 0.0731584 0.661841 0.0173037 0.072694 0.712974
          0.282707 0.0780598 0.447798 0.373022 0.0833251 0.422228
          0.240365 0.0719055 0.361752 0.301397 0.0779443 0.365474
          0.301397 0.0779443 0.365474 0.267607 0.0706221 0.272312
          0.369769 0.0801117 0.315608 0.361653 0.0757261 0.29799
          0.373022 0.0833251 0.422228 0.301397 0.0779443 0.365474
          0.369769 0.0801117 0.315608 0.361653 0.0757261 0.29799
          0.0994822 0.0329572 -0.0324757 0.0887729 0.0367918 0.00698102
          0.0720016 0.0386142 0.0590978 0.130585 0.0390306 0.0287109
          0.130585 0.0390306 0.0287109 0.0887729 0.0367918 0.00698102
          0.0720016 0.0386142 0.0590978 0.126597 0.045842 0.0973606
          0.127413 -0.00533943 -0.584442 0.114469 -0.00938039 -0.604088
          0.116074 -0.00889233 -0.591783 0.0974886 -0.0130007 -0.586673
          -0.0276234 0.0433722 0.194733 -0.0240479 0.0354399 0.0821265
          0.0443352 0.0428983 0.124246 -0.0153192 0.0401373 0.139303
          0.019031 0.0478604 0.222628 -0.0276234 0.0433722 0.194733
          0.0443352 0.0428983 0.124246 -0.0153192 0.0401373 0.139303
          0.019031 0.0478604 0.222628 0.0443352 0.0428983 0.124246
          0.0799235 0.0462954 0.15972 -0.0153192 0.0401373 0.139303
          0.0228868 -0.0175449 -0.410755 -0.0180461 -0.0179976 -0.382811
          -0.0202432 -0.0154642 -0.375762 -0.0129101 -0.0150505 -0.411734
          0.130132 -0.0142512 -0.513988 0.154929 -0.0155281 -0.542343
          0.128281 -0.014775 -0.553089 0.113639 -0.0132619 -0.522822
          0.204122 0.0875869 0.77037 0.12824 0.0807888 0.747178
          0.101095 0.0763853 0.812186 0.154107 0.0883189 0.857766
          0.154107 0.0883189 0.857766 0.12824 0.0807888 0.747178
          0.101095 0.0763853 0.812186 0.109382 0.0908914 0.835634
          0.0640031 0.0178233 -0.205846 0.045572 0.0183116 -0.184803
          0.0734512 0.0151683 -0.243691 0.00474097 0.0139395 -0.220345
          0.154107 0.0883189 0.857766 0.101095 0.0763853 0.812186
          0.0612522 0.0739216 0.829945 0.109382 0.0908914 0.835634
          0.176831 0.00185096 -0.511452 0.124809 5.29779e-05 -0.483101
          0.160387 0.00185887 -0.476443 0.147387 0.00173919 -0.514186
          0.112241 -0.0126718 -0.604121 0.111468 -0.0123134 -0.602749
          0.106057 -0.0116458 -0.606543 0.107566 -0.0128015 -0.607479
          0.125961 -0.00727612 -0.600585 0.118368 -0.00951325 -0.595495
          0.112614 -0.0109344 -0.605291 0.110097 -0.00503266 -0.59666
          0.216692 0.0189193 -0.322874 0.177392 0.0114892 -0.3605
          0.175406 0.0171797 -0.332993 0.171681 0.0118168 -0.394107
          0.19211 0.00963681 -0.421164 0.171681 0.0118168 -0.394107
          0.214694 0.0186287 -0.384992 0.177759 0.0101018 -0.451713
          0.128141 0.0092244 -0.36495 0.125164 0.0053151 -0.431484
          0.171681 0.0118168 -0.394107 0.131645 0.00478053 -0.424531
          0.128141 0.0092244 -0.36495 0.125164 0.0053151 -0.431484
          0.155675 0.013872 -0.375313 0.171681 0.0118168 -0.394107
          0.197509 0.00429118 -0.539182 0.203477 -0.00152772 -0.523147
          0.21932 0.00944826 -0.501778 0.176831 0.00185096 -0.511452
          0.285884 0.101867 0.926939 0.216313 0.0984366 0.955905
          0.251644 0.0986556 0.9563 0.207948 0.0972424 0.9111
          0.285884 0.101867 0.926939 0.254201 0.103492 0.959385
          0.216313 0.0984366 0.955905 0.207948 0.0972424 0.9111
          0.254201 0.103492 0.959385 0.198685 0.0945086 0.918357
          0.216313 0.0984366 0.955905 0.207948 0.0972424 0.9111
          0.0979294 -0.0116895 -0.552479 0.0873117 -0.0085829 -0.529073
          0.112709 -0.0131223 -0.570554 0.0741411 -0.00504061 -0.54589
          0.216313 0.0984366 0.955905 0.198685 0.0945086 0.918357
          0.166592 0.0943382 0.957611 0.207948 0.0972424 0.9111
          0.216313 0.0984366 0.955905 0.145903 0.092674 0.919067
          0.207948 0.0972424 0.9111 0.166592 0.0943382 0.957611
          0.216313 0.0984366 0.955905 0.166592 0.0943382 0.957611
          0.149803 0.0947307 0.967832 0.168513 0.0943187 0.953422
          0.168513 0.0943187 0.953422 0.216313 0.0984366 0.955905
          0.207948 0.0972424 0.9111 0.216196 0.0956329 0.913168
          0.216313 0.0984366 0.955905 0.251644 0.0986556 0.9563
          0.207948 0.0972424 0.9111 0.216196 0.0956329 0.913168
          0.0754783 0.0822369 0.620429 0.0137284 0.080901 0.667222
          0.0201388 0.0872946 0.682538 -0.00151333 0.0741555 0.554507
          0.143039 0.100997 0.951491 0.115205 0.101212 0.962865
          0.15053 0.0943226 0.984227 0.107308 0.105929 0.93937
          0.120859 -0.0118386 -0.3705 0.073581 -0.012766 -0.382787
          0.0689447 -0.0128604 -0.335303 0.0834431 -0.0103708 -0.372283
          0.0615568 -0.00927245 -0.319052 0.0834431 -0.0103708 -0.372283
          0.0829969 -0.0109702 -0.307637 0.0689447 -0.0128604 -0.335303
          0.359992 0.10765 0.826851 0.293221 0.100629 0.862298
          0.272881 0.101595 0.900105 0.349887 0.106809 0.885922
          0.0654843 -0.00281992 -0.4944 0.0246036 -0.00641771 -0.486264
          0.0101279 -0.00173324 -0.425111 0.0816163 -2.51321e-05 -0.451585
          0.15353 0.000570539 -0.562779 0.124087 -0.00488907 -0.541258
          0.147387 0.00173919 -0.514186 0.130792 -0.000960639 -0.550484
          0.124087 -0.00488907 -0.541258 0.124809 5.29779e-05 -0.483101
          0.160387 0.00185887 -0.476443 0.176831 0.00185096 -0.511452
          0.285884 0.101867 0.926939 0.207948 0.0972424 0.9111
          0.272272 0.0982259 0.871623 0.293221 0.100629 0.862298
          0.285884 0.101867 0.926939 0.207948 0.0972424 0.9111
          0.293221 0.100629 0.862298 0.272881 0.101595 0.900105
          0.272881 0.101595 0.900105 0.285884 0.101867 0.926939
          0.349887 0.106809 0.885922 0.293221 0.100629 0.862298
          0.344688 0.105742 0.919014 0.292096 0.102758 0.964551
          0.339454 0.105555 0.957672 0.285884 0.101867 0.926939
          0.336675 0.107926 0.957762 0.292096 0.102758 0.964551
          0.344688 0.105742 0.919014 0.285884 0.101867 0.926939
          0.35012 0.10216 0.905117 0.344688 0.105742 0.919014
          0.339454 0.105555 0.957672 0.285884 0.101867 0.926939
          0.336675 0.107926 0.957762 0.292096 0.102758 0.964551
          0.339454 0.105555 0.957672 0.344688 0.105742 0.919014
          0.0882954 0.0139789 -0.275434 0.14323 0.027128 -0.191288
          0.130885 0.0226921 -0.239709 0.0688902 0.018373 -0.205679
          0.0882954 0.0139789 -0.275434 0.173823 0.0246422 -0.254984
          0.130885 0.0226921 -0.239709 0.14323 0.027128 -0.191288
          0.14323 0.027128 -0.191288 0.130885 0.0226921 -0.239709
          0.227347 0.0341367 -0.239023 0.173823 0.0246422 -0.254984
          0.124448 -0.0143225 -0.471353 0.166124 -0.0132648 -0.456047
          0.126251 -0.0140065 -0.477368 0.108289 -0.0142089 -0.434857
          0.124448 -0.0143225 -0.471353 0.166124 -0.0132648 -0.456047
          0.163383 -0.0132896 -0.490656 0.126251 -0.0140065 -0.477368
          0.113639 -0.0132619 -0.522822 0.134357 -0.0146054 -0.509884
          0.121768 -0.0132045 -0.506753 0.0964633 -0.0116014 -0.498097
          0.159944 -0.0163887 -0.514976 0.134357 -0.0146054 -0.509884
          0.130132 -0.0142512 -0.513988 0.164177 -0.0141855 -0.483115
          0.124448 -0.0143225 -0.471353 0.146533 -0.0142383 -0.451025
          0.164278 -0.0127238 -0.470143 0.16614 -0.0138481 -0.427097
          0.146533 -0.0142383 -0.451025 0.164278 -0.0127238 -0.470143
          0.131259 -0.0138379 -0.510261 0.124448 -0.0143225 -0.471353
          0.216692 0.0189193 -0.322874 0.149133 0.0161199 -0.296868
          0.177392 0.0114892 -0.3605 0.182105 0.0194951 -0.264953
          0.0567513 -0.00688996 -0.0800162 0.0695339 -0.0077584 -0.112705
          0.0508293 -0.0107902 -0.0918145 0.0389648 -0.00539303 -0.0891458
          0.0954823 -0.0039651 -0.106414 0.0567513 -0.00688996 -0.0800162
          0.0811874 0.0034827 -0.0826292 0.0680056 -0.0011597 -0.0994993
          0.175406 0.0171797 -0.332993 0.213557 0.025394 -0.25746
          0.216692 0.0189193 -0.322874 0.229906 0.0269602 -0.297914
          0.267948 0.021667 -0.358312 0.216692 0.0189193 -0.322874
          0.280167 0.0290173 -0.330448 0.214694 0.0186287 -0.384992
          0.229906 0.0269602 -0.297914 0.216692 0.0189193 -0.322874
          0.280167 0.0290173 -0.330448 0.292862 0.0326986 -0.268318
          0.216692 0.0189193 -0.322874 0.175406 0.0171797 -0.332993
          0.177392 0.0114892 -0.3605 0.149133 0.0161199 -0.296868
          0.173823 0.0246422 -0.254984 0.0882954 0.0139789 -0.275434
          0.137117 0.0163716 -0.314393 0.115975 0.0128998 -0.314557
          0.291481 0.099271 1.04863 0.298929 0.101482 1.04991
          0.256621 0.0931621 1.063 0.256007 0.0933328 1.02618
          -0.0116991 -0.00495655 -0.029839 -0.0254388 -0.00647699 -0.0297218
          -0.0198786 -0.00456851 -0.014675 -0.00700115 -0.00345964 -0.0120442
          0.171264 0.00623301 -0.573364 0.156081 0.0102825 -0.594759
          0.1544 0.00590663 -0.591654 0.150403 0.00210831 -0.583032
          0.00765602 -0.0064143 -0.0148698 0 0 0
          0 0 0 0.0182165 -0.00767366 -0.0242749
          0.145402 -0.0119491 -0.248543 0.0983677 -0.0115942 -0.227508
          0.113901 -0.0112095 -0.282981 0.0927891 -0.0138988 -0.27258
          0.102143 -0.0120732 -0.59422 0.0995078 -0.0148368 -0.598679
          0.1144 -0.0159403 -0.605091 0.112614 -0.0109344 -0.605291
          0.0864786 -0.020683 -0.591283 0.0853375 -0.0184729 -0.58789
          0.0995078 -0.0148368 -0.598679 0.0876484 -0.0143337 -0.588037
          0.106057 -0.0116458 -0.606543 0.0973108 -0.00874778 -0.600482
          0.0974821 -0.012431 -0.598996 0.0910021 -0.00774906 -0.595565
          0.35898 0.100297 0.86023 0.298834 0.0968458 0.818175
          0.27271 0.0964002 0.88158 0.328598 0.0951257 0.835047
          0.152768 -0.0128705 -0.286097 0.145402 -0.0119491 -0.248543
          0.113901 -0.0112095 -0.282981 0.0927891 -0.0138988 -0.27258
          -0.00714448 0.0494386 0.23525 -0.0095751 0.0449849 0.183895
          0.0635172 0.0515351 0.19353 -0.0118951 0.0528332 0.283342
          -0.0118951 0.0528332 0.283342 -0.00714448 0.0494386 0.23525
          0.060043 0.0568305 0.259679 0.0635172 0.0515351 0.19353
          0.073345 -0.0152032 -0.0979749 0.108133 -0.015707 -0.125203
          0.0732646 -0.0135404 -0.135977 0.105846 -0.0102429 -0.126556
          0.0648896 -0.00151987 -0.57823 0.0711245 0.00679275 -0.587151
          0.0865935 -0.00428175 -0.59029 0.085481 0.000932724 -0.594326
          0.164468 0.103075 0.903438 0.153439 0.0976263 0.896305
          0.11098 0.103607 0.870345 0.141876 0.0985264 0.846848
          0.115205 0.101212 0.962865 0.0992901 0.104541 0.989552
          0.0992901 0.104541 0.989552 0.148758 0.0957216 0.968415
          0.0925113 -0.0100672 -0.58693 0.0836865 -0.0155189 -0.576022
          0.0715879 -0.0107643 -0.570157 0.0859557 -0.0131762 -0.586375
          0.134062 0.00401747 -0.464844 0.131645 0.00478053 -0.424531
          0.125164 0.0053151 -0.431484 0.0945674 0.00212618 -0.424615
          0.132813 0.0247032 -0.151924 0.049462 0.0234903 -0.116728
          0.086844 0.0241004 -0.145402 0.045572 0.0183116 -0.184803
          0.165257 0.0931675 0.813209 0.141876 0.0985264 0.846848
          0.108162 0.0929403 0.778368 0.109382 0.0908914 0.835634
          0.0368281 -0.00633565 -0.419251 -0.00345285 -0.00674395 -0.445396
          -0.0126592 -0.0086086 -0.409138 -0.00659978 -0.00503852 -0.411353
          0.0368281 -0.00633565 -0.419251 0.00217083 -0.00368403 -0.456147
          -0.00345285 -0.00674395 -0.445396 -0.00659978 -0.00503852 -0.411353
          0.0442687 -0.00529419 -0.466267 0.00217083 -0.00368403 -0.456147
          -0.00345285 -0.00674395 -0.445396 0.0368281 -0.00633565 -0.419251
          0.0925113 -0.0100672 -0.58693 0.0859557 -0.0131762 -0.586375
          0.0998671 -0.00980449 -0.59992 0.101268 -0.0133311 -0.59472
          0.0925113 -0.0100672 -0.58693 0.0836865 -0.0155189 -0.576022
          0.0859557 -0.0131762 -0.586375 0.101268 -0.0133311 -0.59472
          0.013461 -0.00348063 -0.0158737 0.0105776 0.00504842 -0.00736282
          0.0255033 0.00090171 -0.0220747 0.0303638 -0.00158471 -0.0321671
          0.0255033 0.00090171 -0.0220747 0.0105776 0.00504842 -0.00736282
          0.0514059 0.00594786 -0.0423778 0.0303638 -0.00158471 -0.0321671
          0.0445276 0.00929873 -0.294244 0.0734512 0.0151683 -0.243691
          0.0567087 0.0165835 -0.211871 -0.0124161 0.00998805 -0.238023
          -0.0158773 0.0100494 -0.249103 -0.0124161 0.00998805 -0.238023
          0.0734512 0.0151683 -0.243691 0.0445276 0.00929873 -0.294244
          -0.0158773 0.0100494 -0.249103 0.0445276 0.00929873 -0.294244
          0.0734512 0.0151683 -0.243691 0.0508163 0.00841701 -0.326806
          0.112637 -0.0103711 -0.611269 0.113683 -0.00346981 -0.617295
          0.107431 -0.00998447 -0.605534 0.112644 -0.0104976 -0.615798
          0.0548873 0.00331069 -0.396044 0.0101279 -0.00173324 -0.425111
          0.0688967 0.00260366 -0.397242 0.0816163 -2.51321e-05 -0.451585
          0.0548873 0.00331069 -0.396044 0.0101279 -0.00173324 -0.425111
          0.000364435 0.000322241 -0.360076 0.0688967 0.00260366 -0.397242
          0.163842 0.0365633 -0.0716904 0.137108 0.0320141 -0.0853689
          0.086844 0.0241004 -0.145402 0.16095 0.0298942 -0.151939
          0.163842 0.0365633 -0.0716904 0.086844 0.0241004 -0.145402
          0.0692071 0.0290328 -0.0736489 0.16095 0.0298942 -0.151939
          0.163842 0.0365633 -0.0716904 0.16095 0.0298942 -0.151939
          0.0692071 0.0290328 -0.0736489 0.0991005 0.026316 -0.14341
          0.168288 0.0375999 -0.0873447 0.0991005 0.026316 -0.14341
          0.16095 0.0298942 -0.151939 0.163842 0.0365633 -0.0716904
          0.168288 0.0375999 -0.0873447 0.16095 0.0298942 -0.151939
          0.204548 0.0340728 -0.161825 0.163842 0.0365633 -0.0716904
          0.168288 0.0375999 -0.0873447 0.0991005 0.026316 -0.14341
          0.204548 0.0340728 -0.161825 0.16095 0.0298942 -0.151939
          0.16095 0.0298942 -0.151939 0.204548 0.0340728 -0.161825
          0.14323 0.027128 -0.191288 0.0991005 0.026316 -0.14341
          0.16095 0.0298942 -0.151939 0.086844 0.0241004 -0.145402
          0.0692071 0.0290328 -0.0736489 0.0991005 0.026316 -0.14341
          0.16095 0.0298942 -0.151939 0.0567087 0.0165835 -0.211871
          0.086844 0.0241004 -0.145402 0.0991005 0.026316 -0.14341
          -0.010015 -0.0095234 -0.104158 0.00182056 -0.0115354 -0.128416
          -0.000871435 -0.0111273 -0.144184 0.0345143 -0.0101269 -0.131573
          0.118476 -0.0115173 -0.589823 0.13808 -0.0101082 -0.579112
          0.124799 -0.0135258 -0.574159 0.118801 -0.0139847 -0.559433
          -0.010015 -0.0095234 -0.104158 0.00553736 -0.00949131 -0.0872548
          -0.0014031 -0.00719991 -0.0748949 -0.0075844 -0.00783516 -0.0507497
          -0.0335928 -0.00987119 -0.0475263 -0.029149 -0.00963848 -0.045854
          -0.0102802 -0.00591698 -0.0432173 -0.0383281 -0.0105095 -0.0693774
          -0.0102802 -0.00591698 -0.0432173 -0.029149 -0.00963848 -0.045854
          -0.0096781 -0.00610029 -0.0620695 -0.0383281 -0.0105095 -0.0693774
          -0.0014031 -0.00719991 -0.0748949 -0.0102802 -0.00591698 -0.0432173
          -0.0096781 -0.00610029 -0.0620695 -0.0383281 -0.0105095 -0.0693774
          -0.0014031 -0.00719991 -0.0748949 -0.0102802 -0.00591698 -0.0432173
          0.00965275 -0.00343188 -0.0436944 -0.0096781 -0.00610029 -0.0620695
          0.0615418 -0.0146903 -0.401189 0.108289 -0.0142089 -0.434857
          0.073581 -0.012766 -0.382787 0.0864608 -0.0150371 -0.385583
          -0.0102802 -0.00591698 -0.0432173 -0.029149 -0.00963848 -0.045854
          -0.00551033 -0.00413169 -0.0251656 -0.0096781 -0.00610029 -0.0620695
          -0.0102802 -0.00591698 -0.0432173 -0.0280384 -0.00847588 -0.0277801
          -0.00551033 -0.00413169 -0.0251656 -0.029149 -0.00963848 -0.045854
          0.209525 0.0981286 0.870041 0.217678 0.0968129 0.834652
          0.141876 0.0985264 0.846848 0.179768 0.0976013 0.825329
          0.165557 -0.0137598 -0.4616 0.165145 -0.0139856 -0.453798
          0.133529 -0.0122415 -0.442996 0.165818 -0.0119508 -0.421795
          0.133529 -0.0122415 -0.442996 0.165145 -0.0139856 -0.453798
          0.157734 -0.0150762 -0.492321 0.11878 -0.011999 -0.4627
          0.165818 -0.0119508 -0.421795 0.158708 -0.0108474 -0.413742
          0.165145 -0.0139856 -0.453798 0.133529 -0.0122415 -0.442996
          0.344461 0.0653814 0.18953 0.35414 0.0709775 0.22333
          0.267528 0.060776 0.191131 0.352832 0.0701436 0.265476
          0.35414 0.0709775 0.22333 0.344461 0.0653814 0.18953
          0.267528 0.060776 0.191131 0.28714 0.0650225 0.175661
          0.130792 -0.000960639 -0.550484 0.0817732 -0.00910394 -0.520643
          0.117983 -0.00211367 -0.53106 0.0970682 -0.00880874 -0.546836
          0.130792 -0.000960639 -0.550484 0.135703 0.0025933 -0.49578
          0.117983 -0.00211367 -0.53106 0.0817732 -0.00910394 -0.520643
          0.106478 -0.00164808 -0.472928 0.117983 -0.00211367 -0.53106
          0.135703 0.0025933 -0.49578 0.0817732 -0.00910394 -0.520643
          0.106478 -0.00164808 -0.472928 0.0817732 -0.00910394 -0.520643
          0.135703 0.0025933 -0.49578 0.0948104 -0.00236865 -0.481413
          0.0590884 -0.0139826 -0.503316 0.0480306 -0.0184858 -0.532774
          0.0821075 -0.013979 -0.552556 0.0817732 -0.00910394 -0.520643
          0.167838 0.0206599 -0.322149 0.199036 0.0230983 -0.364512
          0.229906 0.0269602 -0.297914 0.155675 0.013872 -0.375313
          0.0974821 -0.012431 -0.598996 0.104248 -0.00998517 -0.60549
          0.106057 -0.0116458 -0.606543 0.0910021 -0.00774906 -0.595565
          0.122749 0.0083212 -0.401283 0.191072 0.0185475 -0.420765
          0.199036 0.0230983 -0.364512 0.155675 0.013872 -0.375313
          0.122749 0.0083212 -0.401283 0.191072 0.0185475 -0.420765
          0.155675 0.013872 -0.375313 0.125164 0.0053151 -0.431484
          0.125164 0.0053151 -0.431484 0.191072 0.0185475 -0.420765
          0.155675 0.013872 -0.375313 0.177759 0.0101018 -0.451713
          0.0567513 -0.00688996 -0.0800162 0.0165473 -0.00617679 -0.0509829
          0.0368505 -0.00613969 -0.0433125 0.0407461 -0.00197492 -0.0545277
          0.0567513 -0.00688996 -0.0800162 0.0407461 -0.00197492 -0.0545277
          0.0368505 -0.00613969 -0.0433125 0.0784527 -0.00597124 -0.0773241
          0.155675 0.013872 -0.375313 0.191072 0.0185475 -0.420765
          0.214694 0.0186287 -0.384992 0.177759 0.0101018 -0.451713
          0.155675 0.013872 -0.375313 0.191072 0.0185475 -0.420765
          0.199036 0.0230983 -0.364512 0.214694 0.0186287 -0.384992
          0.155675 0.013872 -0.375313 0.199036 0.0230983 -0.364512
          0.229906 0.0269602 -0.297914 0.214694 0.0186287 -0.384992
          0.113901 -0.0112095 -0.282981 0.0910404 -0.00871713 -0.248485
          0.0608181 -0.012833 -0.282402 0.0508684 -0.0116704 -0.233291
          0.0927891 -0.0138988 -0.27258 0.113901 -0.0112095 -0.282981
          0.0608181 -0.012833 -0.282402 0.0508684 -0.0116704 -0.233291
          0.0608181 -0.012833 -0.282402 0.0508684 -0.0116704 -0.233291
          0.0556986 -0.0149003 -0.231736 0.0927891 -0.0138988 -0.27258
          0.180281 -0.00286856 -0.557066 0.172754 -0.00977107 -0.561995
          0.166017 -0.00832996 -0.548618 0.137254 -0.010044 -0.578733
          4.09269e-05 -0.015154 -0.187651 -0.00275804 -0.0140178 -0.20773
          0.0233769 -0.015396 -0.171585 0.0441608 -0.0145928 -0.191319
          -0.00165095 -0.00443768 -0.0206394 0.00562483 -0.00357756 -0.0126354
          0 0 0 -0.00441511 -0.00222472 -0.0122332
          0.00562483 -0.00357756 -0.0126354 0 0 0
          0 0 0 -0.00441511 -0.00222472 -0.0122332
          -0.00441511 -0.00222472 -0.0122332 0 0 0
          0.00765602 -0.0064143 -0.0148698 0.00562483 -0.00357756 -0.0126354
          0.00020316 -0.00504482 -0.026493 -0.00441511 -0.00222472 -0.0122332
          0.00765602 -0.0064143 -0.0148698 0.00562483 -0.00357756 -0.0126354
          0.0679743 -0.0153294 -0.306575 0.0798418 -0.0176947 -0.264202
          0.113705 -0.0175004 -0.293712 0.118528 -0.0149838 -0.308486
          0.101199 -0.0169444 -0.331952 0.0679743 -0.0153294 -0.306575
          0.113705 -0.0175004 -0.293712 0.118528 -0.0149838 -0.308486
          0.0108895 -0.00577718 -0.0287179 0.00765602 -0.0064143 -0.0148698
          0.021377 -0.0104381 -0.0359205 0.0182165 -0.00767366 -0.0242749
          0.021377 -0.0104381 -0.0359205 0.0423499 -0.0114026 -0.055377
          0.0108895 -0.00577718 -0.0287179 0.0182165 -0.00767366 -0.0242749
          0.021377 -0.0104381 -0.0359205 0.0423499 -0.0114026 -0.055377
          0.0165473 -0.00617679 -0.0509829 0.0108895 -0.00577718 -0.0287179
          0.0108895 -0.00577718 -0.0287179 0.0126215 -0.00998045 -0.0546027
          0.0165473 -0.00617679 -0.0509829 0.021377 -0.0104381 -0.0359205
          0.148946 0.0951903 0.97766 0.106311 0.0874838 0.977511
          0.0967532 0.0787728 0.992186 0.117288 0.0824418 0.964402
          0.149803 0.0947307 0.967832 0.148946 0.0951903 0.97766
          0.0967532 0.0787728 0.992186 0.117288 0.0824418 0.964402
          -0.0402609 -0.0132542 -0.172689 4.09269e-05 -0.015154 -0.187651
          -0.0116154 -0.0127112 -0.160316 -0.0129988 -0.0132636 -0.152133
          0.166592 0.0943382 0.957611 0.148946 0.0951903 0.97766
          0.117288 0.0824418 0.964402 0.107034 0.0785431 0.954037
          0.148946 0.0951903 0.97766 0.107034 0.0785431 0.954037
          0.166592 0.0943382 0.957611 0.137992 0.0809897 0.939445
          0.148946 0.0951903 0.97766 0.106311 0.0874838 0.977511
          0.117288 0.0824418 0.964402 0.107034 0.0785431 0.954037
          0.0979294 -0.0116895 -0.552479 0.0937691 -0.0138029 -0.549149
          0.0908379 -0.0141968 -0.513139 0.0670694 -0.0106223 -0.51427
          0.0979294 -0.0116895 -0.552479 0.0937691 -0.0138029 -0.549149
          0.113639 -0.0132619 -0.522822 0.0908379 -0.0141968 -0.513139
          0.0896834 -0.01342 -0.474792 0.0481888 -0.0126734 -0.4751
          0.0670694 -0.0106223 -0.51427 0.0908379 -0.0141968 -0.513139
          0.0228868 -0.0175449 -0.410755 0.0101504 -0.0167399 -0.34114
          -0.0180461 -0.0179976 -0.382811 0.00138579 -0.0197199 -0.365311
          0.0425707 -0.0036721 -0.0331096 0.045819 -0.00779774 -0.0366013
          0.0274571 -0.00635234 -0.0179501 0.013461 -0.00348063 -0.0158737
          -0.0158773 0.0100494 -0.249103 -0.0124161 0.00998805 -0.238023
          0.0445276 0.00929873 -0.294244 -0.00773479 0.00474989 -0.315558
          0.00553736 -0.00949131 -0.0872548 0.0126215 -0.00998045 -0.0546027
          -0.0075844 -0.00783516 -0.0507497 -0.0112473 -0.00867774 -0.0676795
          0.0927891 -0.0138988 -0.27258 0.0966303 -0.0151294 -0.230152
          0.114861 -0.0179139 -0.253853 0.150518 -0.0153733 -0.270885
          -0.0352411 -0.00732795 -0.0746054 -0.02912 -0.0050596 -0.0467611
          -0.0112473 -0.00867774 -0.0676795 -0.0347885 -0.00779776 -0.0616949
          -0.0352411 -0.00732795 -0.0746054 -0.02912 -0.0050596 -0.0467611
          -0.00484605 -0.00787858 -0.0492213 -0.0112473 -0.00867774 -0.0676795
          -0.0112473 -0.00867774 -0.0676795 -0.00484605 -0.00787858 -0.0492213
          0.0290398 -0.0139909 -0.0689169 0.0126215 -0.00998045 -0.0546027
          0.0217851 0.0294766 -0.0339357 0.0689865 0.0290619 -0.0831016
          0.103092 0.0367894 -0.0397778 0.0611862 0.0391504 0.0429092
          0.0713689 0.0401873 0.0354087 0.0217851 0.0294766 -0.0339357
          0.103092 0.0367894 -0.0397778 0.0611862 0.0391504 0.0429092
          0.120129 -0.00615696 -0.608411 0.115624 -0.00953853 -0.606174
          0.114543 -0.00627446 -0.607233 0.125961 -0.00727612 -0.600585
          0.117833 0.067363 0.48689 0.089927 0.0645819 0.43286
          0.0594662 0.0664747 0.514154 0.12867 0.0712302 0.495567
          -0.00896293 -0.00640648 -0.0407497 0.016022 -0.0112065 -0.0373548
          0.0126215 -0.00998045 -0.0546027 0.00020316 -0.00504482 -0.026493
          0.0410239 -0.0180549 -0.471625 0.0518296 -0.0153847 -0.436534
          0.0894282 -0.0157141 -0.475633 0.0705408 -0.0141881 -0.470342
          -0.0184737 -0.00268011 -0.0251174 -0.02912 -0.0050596 -0.0467611
          -0.0270274 -0.00466195 -0.0349902 -0.00896293 -0.00640648 -0.0407497
          0.089927 0.0645819 0.43286 0.12867 0.0712302 0.495567
          0.185822 0.0722326 0.453532 0.102322 0.0639772 0.375425
          -0.0095751 0.0449849 0.183895 -0.00804499 0.0392555 0.118445
          0.0640984 0.0457958 0.114738 -0.0129809 0.041583 0.147286
          0.0594662 0.0664747 0.514154 0.120286 0.0757005 0.587085
          0.12867 0.0712302 0.495567 0.0830577 0.0694311 0.477071
          -0.0095751 0.0449849 0.183895 -0.00804499 0.0392555 0.118445
          0.039149 0.0478322 0.166498 0.0640984 0.0457958 0.114738
          0.185822 0.0722326 0.453532 0.237126 0.0794021 0.50115
          0.189954 0.0762057 0.471849 0.12867 0.0712302 0.495567
          0.0713689 0.0401873 0.0354087 0.0640984 0.0457958 0.114738
          0.0611862 0.0391504 0.0429092 0.141569 0.0485009 0.0692919
          0.100178 0.0521232 0.164525 0.0640984 0.0457958 0.114738
          0.172426 0.0599948 0.182148 0.141569 0.0485009 0.0692919
          0.100178 0.0521232 0.164525 0.111056 0.0506082 0.116801
          0.172426 0.0599948 0.182148 0.0640984 0.0457958 0.114738
          0.116074 -0.00889233 -0.591783 0.120129 -0.00615696 -0.608411
          0.114469 -0.00938039 -0.604088 0.130862 -0.00448618 -0.596049
          0.0755101 -0.0174151 -0.181463 0.0458732 -0.0163192 -0.155792
          0.0686171 -0.0179506 -0.138966 0.0425612 -0.0137818 -0.154251
          0.107431 -0.00998447 -0.605534 0.0925113 -0.0100672 -0.58693
          0.10082 -0.00345068 -0.604568 0.0998671 -0.00980449 -0.59992
          0.107431 -0.00998447 -0.605534 0.0998671 -0.00980449 -0.59992
          0.10082 -0.00345068 -0.604568 0.114543 -0.00627446 -0.607233
          0.0165473 -0.00617679 -0.0509829 0.0114538 -0.00385626 -0.0309387
          0.00965275 -0.00343188 -0.0436944 -0.0102802 -0.00591698 -0.0432173
          0.0114538 -0.00385626 -0.0309387 -0.00165095 -0.00443768 -0.0206394
          0.00965275 -0.00343188 -0.0436944 -0.0102802 -0.00591698 -0.0432173
          0.00965275 -0.00343188 -0.0436944 0.00322887 -0.000798352 -0.00798877
          0.0114538 -0.00385626 -0.0309387 0.0247822 0.00224888 -0.0362098
          0.173823 0.0246422 -0.254984 0.167838 0.0206599 -0.322149
          0.229906 0.0269602 -0.297914 0.137117 0.0163716 -0.314393
          -0.0116991 -0.00495655 -0.029839 -0.00165095 -0.00443768 -0.0206394
          -0.0254388 -0.00647699 -0.0297218 -0.00700115 -0.00345964 -0.0120442
          0.134646 -0.0196971 -0.587951 0.12962 -0.0179958 -0.581327
          0.126913 -0.0224445 -0.601183 0.12041 -0.0170253 -0.596519
          0.149803 0.0947307 0.967832 0.169989 0.0988924 1.0076
          0.222148 0.100112 0.994249 0.165145 0.0940771 1.01785
          0.149803 0.0947307 0.967832 0.0967532 0.0787728 0.992186
          0.169989 0.0988924 1.0076 0.165145 0.0940771 1.01785
          0.0967532 0.0787728 0.992186 0.0967532 0.0787728 0.992186
          0.169989 0.0988924 1.0076 0.165145 0.0940771 1.01785
          0.0967532 0.0787728 0.992186 0.0967532 0.0787728 0.992186
          0.165145 0.0940771 1.01785 0.110551 0.0973971 1.01445
          0.169989 0.0988924 1.0076 0.0967532 0.0787728 0.992186
          0.168881 0.100418 1.06673 0.165145 0.0940771 1.01785
          0.19409 0.0993376 1.07089 0.169989 0.0988924 1.0076
          0.168881 0.100418 1.06673 0.165145 0.0940771 1.01785
          0.19409 0.0993376 1.07089 0.165145 0.0940771 1.01785
          0.168881 0.100418 1.06673 0.131919 0.0935166 1.0631
          0.165145 0.0940771 1.01785 0.0967532 0.0787728 0.992186
          0.168881 0.100418 1.06673 0.131919 0.0935166 1.0631
          0.174536 0.092526 0.994842 0.146166 0.0938949 1.01979
          0.15053 0.0943226 0.984227 0.148758 0.0957216 0.968415
          0.165145 0.0940771 1.01785 0.169989 0.0988924 1.0076
          0.222148 0.100112 0.994249 0.220738 0.0983866 1.03044
          0.165145 0.0940771 1.01785 0.110551 0.0973971 1.01445
          0.11299 0.0952604 1.06038 0.161148 0.0923967 1.06649
          0.085481 0.000932724 -0.594326 0.0865935 -0.00428175 -0.59029
          0.0796746 -0.00510329 -0.588382 0.10082 -0.00345068 -0.604568
          0.106885 -0.0166778 -0.610537 0.0925816 -0.0217264 -0.601484
          0.0875997 -0.0177313 -0.597244 0.0984941 -0.0173699 -0.601281
          0.107518 -0.0214738 -0.605715 0.0819398 -0.0260363 -0.591521
          0.0982553 -0.0211777 -0.602659 0.0864786 -0.020683 -0.591283
          0.303862 0.0937414 0.696053 0.268238 0.0953534 0.771063
          0.290993 0.0932419 0.690529 0.380329 0.099153 0.71259
          0.380329 0.099153 0.71259 0.384595 0.0956412 0.62046
          0.290993 0.0932419 0.690529 0.303862 0.0937414 0.696053
          0.380329 0.099153 0.71259 0.384595 0.0956412 0.62046
          0.303862 0.0937414 0.696053 0.389693 0.0946005 0.585769
          0.303862 0.0937414 0.696053 0.384595 0.0956412 0.62046
          0.290993 0.0932419 0.690529 0.389693 0.0946005 0.585769
          0.175406 0.0171797 -0.332993 0.149133 0.0161199 -0.296868
          0.213557 0.025394 -0.25746 0.173823 0.0246422 -0.254984
          0.130472 -0.0123001 -0.19356 0.0975373 -0.00974557 -0.192492
          0.126891 -0.00861598 -0.183665 0.134593 -0.00711215 -0.20878
          0.12824 0.0807888 0.747178 0.154107 0.0883189 0.857766
          0.186567 0.0895988 0.781783 0.109382 0.0908914 0.835634
          0.204122 0.0875869 0.77037 0.12824 0.0807888 0.747178
          0.154107 0.0883189 0.857766 0.186567 0.0895988 0.781783
          0.110097 -0.00503266 -0.59666 0.125961 -0.00727612 -0.600585
          0.118368 -0.00951325 -0.595495 0.137361 -0.000485042 -0.592
          0.00322887 -0.000798352 -0.00798877 -0.00608307 -0.00364772 -0.0122518
          0.000235171 0.000333111 0.000284983 0.00220275 0.00061746 -0.00693662
          0.169989 0.0988924 1.0076 0.168881 0.100418 1.06673
          0.18707 0.1075 1.04546 0.19409 0.0993376 1.07089
          0.196146 0.0872112 0.6934 0.100937 0.0804062 0.671573
          0.186567 0.0895988 0.781783 0.100789 0.0866501 0.753101
          0.0801865 -0.0129857 -0.431223 0.126251 -0.0140065 -0.477368
          0.108289 -0.0142089 -0.434857 0.0896834 -0.01342 -0.474792
          0.0801865 -0.0129857 -0.431223 0.108289 -0.0142089 -0.434857
          0.122055 -0.0136552 -0.391712 0.073581 -0.012766 -0.382787
          0.0277829 -0.0133178 -0.215086 0.0266702 -0.0125329 -0.259877
          0.0508684 -0.0116704 -0.233291 0.0157321 -0.0143898 -0.251108
          0.0764351 -0.00495617 -0.53841 0.0877043 -0.0027958 -0.528633
          0.109413 -0.00731356 -0.560632 0.128315 -0.00339795 -0.511432
          0.0975595 -0.00451818 -0.516903 0.0764351 -0.00495617 -0.53841
          0.109413 -0.00731356 -0.560632 0.128315 -0.00339795 -0.511432
          0.11452 0.00584169 -0.393886 0.131645 0.00478053 -0.424531
          0.16371 0.00418987 -0.421372 0.122207 0.000471272 -0.462474
          0.0556279 0.0119667 -0.0448786 0.0247822 0.00224888 -0.0362098
          0.0274925 0.0101144 -0.0279686 0.0452555 0.00867015 -0.051966
          0.152519 -0.00688212 -0.28843 0.145628 -0.00467209 -0.255181
          0.15653 -0.00651799 -0.313547 0.0989644 -0.00439551 -0.258818
          0.134692 0.0456868 0.0266296 0.162043 0.0441457 -0.0289436
          0.198498 0.0519682 0.0225208 0.159365 0.0442869 -0.00337952
          0.0274925 0.0101144 -0.0279686 0.0247822 0.00224888 -0.0362098
          0.0514059 0.00594786 -0.0423778 0.0105776 0.00504842 -0.00736282
          0.0556279 0.0119667 -0.0448786 0.0514059 0.00594786 -0.0423778
          0.0247822 0.00224888 -0.0362098 0.0452555 0.00867015 -0.051966
          0.0829969 -0.0109702 -0.307637 0.0608181 -0.012833 -0.282402
          0.0910404 -0.00871713 -0.248485 0.0623433 -0.00899144 -0.27071
          0.128315 -0.00339795 -0.511432 0.0975595 -0.00451818 -0.516903
          0.0654843 -0.00281992 -0.4944 0.122207 0.000471272 -0.462474
          0.124809 5.29779e-05 -0.483101 0.0975595 -0.00451818 -0.516903
          0.128315 -0.00339795 -0.511432 0.122207 0.000471272 -0.462474
          0.124809 5.29779e-05 -0.483101 0.0975595 -0.00451818 -0.516903
          0.122207 0.000471272 -0.462474 0.0816163 -2.51321e-05 -0.451585
          0.120774 0.030637 -0.123642 0.159365 0.0442869 -0.00337952
          0.163956 0.0390901 -0.0880543 0.103092 0.0367894 -0.0397778
          0.0161469 0.00429153 -0.0295316 0.0247822 0.00224888 -0.0362098
          0.0274925 0.0101144 -0.0279686 0.0062396 0.00749469 -0.00317775
          0.175681 -0.00370727 -0.508049 0.227329 0.00478569 -0.482107
          0.199929 -0.00871553 -0.521842 0.203477 -0.00152772 -0.523147
          0.120774 0.030637 -0.123642 0.163956 0.0390901 -0.0880543
          0.185682 0.0349137 -0.171147 0.109529 0.0267247 -0.164205
          0.175681 -0.00370727 -0.508049 0.160387 0.00185887 -0.476443
          0.128315 -0.00339795 -0.511432 0.151141 -0.00421154 -0.490188
          0.248601 0.0963202 0.818343 0.224695 0.0953553 0.846221
          0.272881 0.101595 0.900105 0.293221 0.100629 0.862298
          -0.00608307 -0.00364772 -0.0122518 -0.00700115 -0.00345964 -0.0120442
          -0.0182313 -0.00555993 -0.0122023 -0.00551033 -0.00413169 -0.0251656
          0.224695 0.0953553 0.846221 0.186567 0.0895988 0.781783
          0.268238 0.0953534 0.771063 0.248601 0.0963202 0.818343
          0.224695 0.0953553 0.846221 0.248601 0.0963202 0.818343
          0.154107 0.0883189 0.857766 0.186567 0.0895988 0.781783
          0.00270117 -0.00839904 -0.122071 0.00706416 -0.00670828 -0.137923
          -0.0255505 -0.00966033 -0.133725 -0.0152809 -0.00864801 -0.0931318
          0.0864786 -0.020683 -0.591283 0.107518 -0.0214738 -0.605715
          0.0995078 -0.0148368 -0.598679 0.0982553 -0.0211777 -0.602659
          0.224695 0.0953553 0.846221 0.207948 0.0972424 0.9111
          0.293221 0.100629 0.862298 0.272272 0.0982259 0.871623
          0.224695 0.0953553 0.846221 0.207948 0.0972424 0.9111
          0.272881 0.101595 0.900105 0.293221 0.100629 0.862298
          0.120205 -0.0074673 -0.574662 0.124087 -0.00488907 -0.541258
          0.109413 -0.00731356 -0.560632 0.146451 -0.00498123 -0.540931
          0.0885485 -0.0107869 -0.567941 0.124087 -0.00488907 -0.541258
          0.109413 -0.00731356 -0.560632 0.120205 -0.0074673 -0.574662
          0.130885 0.0226921 -0.239709 0.0688902 0.018373 -0.205679
          0.0619518 0.0109529 -0.275906 0.0882954 0.0139789 -0.275434
          0.124087 -0.00488907 -0.541258 0.0975595 -0.00451818 -0.516903
          0.109413 -0.00731356 -0.560632 0.128315 -0.00339795 -0.511432
          0.124087 -0.00488907 -0.541258 0.0975595 -0.00451818 -0.516903
          0.128315 -0.00339795 -0.511432 0.124809 5.29779e-05 -0.483101
          0.124087 -0.00488907 -0.541258 0.128315 -0.00339795 -0.511432
          0.160387 0.00185887 -0.476443 0.124809 5.29779e-05 -0.483101
          0.0696074 -0.00701453 -0.503281 0.0975595 -0.00451818 -0.516903
          0.124809 5.29779e-05 -0.483101 0.0816163 -2.51321e-05 -0.451585
          0.128315 -0.00339795 -0.511432 0.109617 -0.00182166 -0.493723
          0.151141 -0.00421154 -0.490188 0.122207 0.000471272 -0.462474
          0.16549 -0.0131014 -0.449159 0.166124 -0.0132648 -0.456047
          0.132605 -0.0129756 -0.428618 0.126251 -0.0140065 -0.477368
          0.132605 -0.0129756 -0.428618 0.16549 -0.0131014 -0.449159
          0.165496 -0.012174 -0.412527 0.166124 -0.0132648 -0.456047
          0.128315 -0.00339795 -0.511432 0.0654843 -0.00281992 -0.4944
          0.109617 -0.00182166 -0.493723 0.122207 0.000471272 -0.462474
          0.0062396 0.00749469 -0.00317775 0.0159097 -0.00071185 -0.0210781
          0.0247822 0.00224888 -0.0362098 0.0105776 0.00504842 -0.00736282
          0.215481 0.0468155 0.0269334 0.149682 0.0387796 -0.00792568
          0.182741 0.0456925 0.0767849 0.193616 0.0487549 0.0843481
          0.0062396 0.00749469 -0.00317775 0.0247822 0.00224888 -0.0362098
          0.0274925 0.0101144 -0.0279686 0.0105776 0.00504842 -0.00736282
          0.0161469 0.00429153 -0.0295316 0.0159097 -0.00071185 -0.0210781
          0.0247822 0.00224888 -0.0362098 0.0062396 0.00749469 -0.00317775
          0.0556279 0.0119667 -0.0448786 0.0514059 0.00594786 -0.0423778
          0.0274925 0.0101144 -0.0279686 0.0247822 0.00224888 -0.0362098
          0.0623433 -0.00899144 -0.27071 0.0508684 -0.0116704 -0.233291
          0.0444503 -0.00882003 -0.221329 0.0242242 -0.010768 -0.269019
          0.0638979 -0.00680671 -0.289187 0.0623433 -0.00899144 -0.27071
          0.0491411 -0.00599707 -0.241803 0.0259847 -0.00747016 -0.269956
          0.0638979 -0.00680671 -0.289187 0.0623433 -0.00899144 -0.27071
          0.0989644 -0.00439551 -0.258818 0.0491411 -0.00599707 -0.241803
          0.0803818 0.0694965 0.739584 0.0679001 0.0684276 0.660272
          0.0746714 0.0731584 0.661841 0.148895 0.0762001 0.66868
          0.0689865 0.0290619 -0.0831016 0.100967 0.0376856 -0.0124784
          0.159365 0.0442869 -0.00337952 0.103092 0.0367894 -0.0397778
          0.0803818 0.0694965 0.739584 0.148895 0.0762001 0.66868
          0.0746714 0.0731584 0.661841 0.149244 0.0766639 0.750003
          0.0819989 -0.00422975 -0.217356 0.0989644 -0.00439551 -0.258818
          0.0910404 -0.00871713 -0.248485 0.0623433 -0.00899144 -0.27071
          0.0819989 -0.00422975 -0.217356 0.0623433 -0.00899144 -0.27071
          0.0910404 -0.00871713 -0.248485 0.0491411 -0.00599707 -0.241803
          0.0819989 -0.00422975 -0.217356 0.0989644 -0.00439551 -0.258818
          0.0623433 -0.00899144 -0.27071 0.0491411 -0.00599707 -0.241803
          0.24719 0.0906245 0.746051 0.194109 0.0876825 0.84685
          0.293472 0.0994953 0.79386 0.204122 0.0875869 0.77037
          0.293472 0.0994953 0.79386 0.248601 0.0963202 0.818343
          0.272881 0.101595 0.900105 0.293221 0.100629 0.862298
          0.293472 0.0994953 0.79386 0.312824 0.0949824 0.693554
          0.27145 0.0922475 0.715046 0.368553 0.104122 0.745728
          0.135072 0.0117331 -0.321953 0.0764155 0.00741455 -0.357328
          0.135405 0.00710339 -0.365193 0.0740235 0.0117361 -0.29873
          0.130885 0.0226921 -0.239709 0.0619518 0.0109529 -0.275906
          0.0826533 0.00922241 -0.323018 0.0882954 0.0139789 -0.275434
          0.137992 0.0809897 0.939445 0.141182 0.0902565 0.952366
          0.166592 0.0943382 0.957611 0.145903 0.092674 0.919067
          0.199466 0.0297779 -0.163731 0.243931 0.0382422 -0.120107
          0.306307 0.0396681 -0.119836 0.296722 0.0330849 -0.195031
          0.29657 0.0342262 -0.144824 0.199466 0.0297779 -0.163731
          0.306307 0.0396681 -0.119836 0.296722 0.0330849 -0.195031
          0.109567 -0.0177132 -0.608718 0.107318 -0.0140032 -0.607226
          0.110311 -0.011447 -0.600512 0.1144 -0.0159403 -0.605091
          0.114469 -0.00938039 -0.604088 0.112637 -0.0103711 -0.611269
          0.106885 -0.0166778 -0.610537 0.112472 -0.00908123 -0.617884
          -0.00895024 -0.0104179 -0.0974204 -0.0387419 -0.00986348 -0.100418
          0.00182056 -0.0115354 -0.128416 -0.0388781 -0.0110417 -0.128993
          0.00182056 -0.0115354 -0.128416 -0.00895024 -0.0104179 -0.0974204
          -0.0388781 -0.0110417 -0.128993 -0.0129988 -0.0132636 -0.152133
          0.107318 -0.0140032 -0.607226 0.106057 -0.0116458 -0.606543
          0.110311 -0.011447 -0.600512 0.118662 -0.0118541 -0.601902
          -0.0309792 -0.01305 -0.314827 0.0327647 -0.0109596 -0.337261
          0.00691554 -0.00994981 -0.300825 0.00213241 -0.0128252 -0.289606
          0.0463084 -0.0174144 -0.0414897 0.0605018 -0.0184435 -0.0762623
          0.0381607 -0.0153411 -0.0506569 0.0423499 -0.0114026 -0.055377
          0.209922 0.09271 0.859342 0.207948 0.0972424 0.9111
          0.272881 0.101595 0.900105 0.224695 0.0953553 0.846221
          0.164468 0.103075 0.903438 0.180715 0.0976954 0.945894
          0.141147 0.100371 0.938067 0.204595 0.0961512 0.949524
          0.0233769 -0.015396 -0.171585 -0.00275804 -0.0140178 -0.20773
          0.0171834 -0.0131376 -0.175025 0.0441608 -0.0145928 -0.191319
          0.0159097 -0.00071185 -0.0210781 0.00322887 -0.000798352 -0.00798877
          0.0062396 0.00749469 -0.00317775 0.0161469 0.00429153 -0.0295316
          0.279083 0.0740901 0.226445 0.293523 0.0709724 0.187424
          0.310355 0.0708743 0.136241 0.368693 0.0796129 0.22943
          0.00965275 -0.00343188 -0.0436944 0.00405932 5.82853e-05 -0.0225702
          0.0161469 0.00429153 -0.0295316 0.0048109 -0.00256661 -0.0414316
          0.0048109 -0.00256661 -0.0414316 0.0161469 0.00429153 -0.0295316
          0.00965275 -0.00343188 -0.0436944 0.0275312 0.0035501 -0.0515769
          0.164177 -0.0141855 -0.483115 0.166124 -0.0132648 -0.456047
          0.16549 -0.0131014 -0.449159 0.126251 -0.0140065 -0.477368
          0.00322887 -0.000798352 -0.00798877 0 0 0
          0.0159097 -0.00071185 -0.0210781 0 0 0
          0 0 0 0 0 0
          0.00322887 -0.000798352 -0.00798877 0 0 0
          0 0 0 0 0 0
          0 0 0 0.00322887 -0.000798352 -0.00798877
          0 0 0 0.000235171 0.000333111 0.000284983
          0 0 0 0.00322887 -0.000798352 -0.00798877
          0 0 0 0 0 0
          0.000235171 0.000333111 0.000284983 0.00322887 -0.000798352 -0.00798877
          0.109294 0.0209412 -0.217591 0.173823 0.0246422 -0.254984
          0.0882954 0.0139789 -0.275434 0.14323 0.027128 -0.191288
          0 0 0 0.00562483 -0.00357756 -0.0126354
          -0.00165095 -0.00443768 -0.0206394 0.00322887 -0.000798352 -0.00798877
          0 0 0 0 0 0
          0.00562483 -0.00357756 -0.0126354 0.00322887 -0.000798352 -0.00798877
          0.00562483 -0.00357756 -0.0126354 0 0 0
          0.0159097 -0.00071185 -0.0210781 0.00322887 -0.000798352 -0.00798877
          0.302232 0.0971933 0.769835 0.186567 0.0895988 0.781783
          0.248601 0.0963202 0.818343 0.268238 0.0953534 0.771063
          0.00322887 -0.000798352 -0.00798877 0 0 0
          0 0 0 0.0062396 0.00749469 -0.00317775
          -0.00345285 -0.00674395 -0.445396 0.0444074 -0.00740716 -0.491207
          0.0442687 -0.00529419 -0.466267 0.030685 -0.00952224 -0.456825
          0.000362789 -0.0130793 -0.455538 0.00880291 -0.00779109 -0.477707
          0.030685 -0.00952224 -0.456825 0.0129194 -0.0132095 -0.492054
          0.030685 -0.00952224 -0.456825 0.0442687 -0.00529419 -0.466267
          -0.00345285 -0.00674395 -0.445396 0.0368281 -0.00633565 -0.419251
          0.0858781 -0.0155531 -0.346023 0.0864608 -0.0150371 -0.385583
          0.069771 -0.0176787 -0.359571 0.0487007 -0.016142 -0.343334
          -0.00345285 -0.00674395 -0.445396 0.00880291 -0.00779109 -0.477707
          0.0444074 -0.00740716 -0.491207 0.030685 -0.00952224 -0.456825
          0.118476 -0.0115173 -0.589823 0.13808 -0.0101082 -0.579112
          0.119576 -0.00659314 -0.600207 0.125346 -0.0111707 -0.593521
          0.118476 -0.0115173 -0.589823 0.103987 -0.0142188 -0.596435
          0.111468 -0.0123134 -0.602749 0.114299 -0.00953216 -0.601565
          0.0583242 0.0419076 0.088712 -0.0171148 0.0401223 0.136628
          0.0467083 0.0485772 0.184625 0.100178 0.0521232 0.164525
          0.268008 0.0960197 0.961097 0.289816 0.0991194 0.922122
          0.282294 0.0987585 0.988705 0.251644 0.0986556 0.9563
          0.251644 0.0986556 0.9563 0.231761 0.0961351 0.92421
          0.268008 0.0960197 0.961097 0.289816 0.0991194 0.922122
          0.172727 0.0572523 0.179964 0.100178 0.0521232 0.164525
          0.0467083 0.0485772 0.184625 0.15796 0.0626744 0.270179
          0.0964633 -0.0116014 -0.498097 0.0896834 -0.01342 -0.474792
          0.0943749 -0.0110955 -0.459335 0.0674725 -0.0100434 -0.47284
          0.127105 0.0876495 0.701116 0.0137284 0.080901 0.667222
          0.108162 0.0929403 0.778368 0.0201388 0.0872946 0.682538
          0.108162 0.0929403 0.778368 0.0137284 0.080901 0.667222
          0.0433159 0.0880509 0.781563 0.0201388 0.0872946 0.682538
          0.198498 0.0519682 0.0225208 0.262343 0.0583567 0.0517336
          0.313974 0.0649467 0.0409103 0.246247 0.0617354 0.0848547
          0.0817732 -0.00910394 -0.520643 0.0480306 -0.0184858 -0.532774
          0.0821075 -0.013979 -0.552556 0.0871718 -0.0133081 -0.56754
          0.111468 -0.0123134 -0.602749 0.118476 -0.0115173 -0.589823
          0.118768 -0.0128463 -0.594283 0.109724 -0.0136582 -0.587157
          0.115205 0.101212 0.962865 0.0992901 0.104541 0.989552
          0.174536 0.092526 0.994842 0.148758 0.0957216 0.968415
          0.0689063 0.0561299 0.274001 0.0590932 0.0607576 0.34242
          0.15796 0.0626744 0.270179 0.0876554 0.0583691 0.26528
          0.0830577 0.0694311 0.477071 -0.0211191 0.0597525 0.441455
          0.0590932 0.0607576 0.34242 0.102322 0.0639772 0.375425
          0.0590932 0.0607576 0.34242 0.11408 0.0677137 0.376145
          0.0830577 0.0694311 0.477071 0.102322 0.0639772 0.375425
          0.0647985 -0.0129255 -0.545036 0.0480688 -0.0136174 -0.554683
          0.0715879 -0.0107643 -0.570157 0.0836865 -0.0155189 -0.576022
          0.0480688 -0.0136174 -0.554683 0.0439374 -0.00694747 -0.551364
          0.0647985 -0.0129255 -0.545036 0.0715879 -0.0107643 -0.570157
          0.0480688 -0.0136174 -0.554683 0.0439374 -0.00694747 -0.551364
          0.0715879 -0.0107643 -0.570157 0.0683278 -0.00911235 -0.575633
          0.0992901 0.104541 0.989552 0.0992901 0.104541 0.989552
          0.174536 0.092526 0.994842 0.148758 0.0957216 0.968415
          0.124799 -0.0135258 -0.574159 0.132045 -0.0137283 -0.536958
          0.12387 -0.0137173 -0.55443 0.118801 -0.0139847 -0.559433
          0.132045 -0.0137283 -0.536958 0.114044 -0.0144426 -0.516593
          0.118801 -0.0139847 -0.559433 0.102378 -0.0147507 -0.539178
          0.1144 -0.0159403 -0.605091 0.112614 -0.0109344 -0.605291
          0.118662 -0.0118541 -0.601902 0.125961 -0.00727612 -0.600585
          0.130047 -0.0108439 -0.391734 0.162928 -0.0101426 -0.361795
          0.120603 -0.00930884 -0.326509 0.120859 -0.0118386 -0.3705
          0.165496 -0.012174 -0.412527 0.162928 -0.0101426 -0.361795
          0.130047 -0.0108439 -0.391734 0.120859 -0.0118386 -0.3705
          0.0257655 -0.0133371 -0.43445 0.000362789 -0.0130793 -0.455538
          0.0481888 -0.0126734 -0.4751 0.00408605 -0.0172167 -0.465409
          0.165496 -0.012174 -0.412527 0.130047 -0.0108439 -0.391734
          0.165818 -0.0119508 -0.421795 0.110055 -0.0119697 -0.4245
          0.165496 -0.012174 -0.412527 0.162928 -0.0101426 -0.361795
          0.165818 -0.0119508 -0.421795 0.130047 -0.0108439 -0.391734
          0.217441 0.0908349 0.694364 0.196146 0.0872112 0.6934
          0.186567 0.0895988 0.781783 0.186477 0.0935983 0.764036
          0.0865935 -0.00428175 -0.59029 0.097403 -0.00460077 -0.593334
          0.104453 -0.00438932 -0.60791 0.0923287 0.000732152 -0.600877
          0.0680056 -0.0011597 -0.0994993 0.0811874 0.0034827 -0.0826292
          0.0954823 -0.0039651 -0.106414 0.104426 0.00262799 -0.127086
          0.0680056 -0.0011597 -0.0994993 0.0954823 -0.0039651 -0.106414
          0.112393 -0.0041933 -0.142377 0.104426 0.00262799 -0.127086
          0.0680056 -0.0011597 -0.0994993 0.0954823 -0.0039651 -0.106414
          0.0695339 -0.0077584 -0.112705 0.112393 -0.0041933 -0.142377
          0.0865935 -0.00428175 -0.59029 0.0923287 0.000732152 -0.600877
          0.10082 -0.00345068 -0.604568 0.085481 0.000932724 -0.594326
          0.0680056 -0.0011597 -0.0994993 0.0811874 0.0034827 -0.0826292
          0.104426 0.00262799 -0.127086 0.0809459 0.00664006 -0.0918569
          0.217441 0.0908349 0.694364 0.186567 0.0895988 0.781783
          0.268238 0.0953534 0.771063 0.186477 0.0935983 0.764036
          0.0664855 -0.0026124 -0.453424 0.0170272 -0.008019 -0.442072
          0.0688967 0.00260366 -0.397242 0.00962742 -0.00493176 -0.396985
          0.0914105 -0.0189928 -0.58394 0.0821186 -0.0163022 -0.547193
          0.0994754 -0.0162388 -0.56772 0.0998571 -0.0152705 -0.572757
          0.27145 0.0922475 0.715046 0.252053 0.0846894 0.591048
          0.316074 0.0917422 0.635195 0.296649 0.0901879 0.64528
          0.198539 0.0823455 0.576957 0.252053 0.0846894 0.591048
          0.296192 0.0875151 0.559671 0.316074 0.0917422 0.635195
          0.198539 0.0823455 0.576957 0.316074 0.0917422 0.635195
          0.296192 0.0875151 0.559671 0.290993 0.0932419 0.690529
          0.316074 0.0917422 0.635195 0.378063 0.0956028 0.621907
          0.381656 0.0918153 0.550721 0.384595 0.0956412 0.62046
          0.0105776 0.00504842 -0.00736282 0 0 0
          0 0 0 0.013461 -0.00348063 -0.0158737
          0.0105776 0.00504842 -0.00736282 0.00322887 -0.000798352 -0.00798877
          0 0 0 0.0062396 0.00749469 -0.00317775
          0.378687 0.0993396 0.685729 0.27145 0.0922475 0.715046
          0.302232 0.0971933 0.769835 0.290993 0.0932419 0.690529
          -0.00608307 -0.00364772 -0.0122518 0 0 0
          0.000235171 0.000333111 0.000284983 -0.0182313 -0.00555993 -0.0122023
          0.282294 0.0987585 0.988705 0.262572 0.0985842 1.02395
          0.254847 0.0942488 0.990392 0.216996 0.0946768 0.982276
          0.335373 0.10664 1.00044 0.336045 0.105767 1.0392
          0.282294 0.0987585 0.988705 0.262572 0.0985842 1.02395
          0.335373 0.10664 1.00044 0.336045 0.105767 1.0392
          0.337395 0.104296 0.987774 0.282294 0.0987585 0.988705
          0.141569 0.0485009 0.0692919 0.192396 0.0511354 0.0569261
          0.163459 0.0542829 0.132925 0.104946 0.0435662 0.0577277
          0.308147 0.0989408 0.97371 0.337395 0.104296 0.987774
          0.31334 0.101594 1.01953 0.282294 0.0987585 0.988705
          0.0974886 -0.0130007 -0.586673 0.120205 -0.0074673 -0.574662
          0.0987772 -0.0110197 -0.589217 0.116074 -0.00889233 -0.591783
          0.0974886 -0.0130007 -0.586673 0.0987772 -0.0110197 -0.589217
          0.109254 -0.0117923 -0.604306 0.116074 -0.00889233 -0.591783
          0.22275 0.104812 1.04279 0.169989 0.0988924 1.0076
          0.19409 0.0993376 1.07089 0.165145 0.0940771 1.01785
          0.116074 -0.00889233 -0.591783 0.0987772 -0.0110197 -0.589217
          0.109254 -0.0117923 -0.604306 0.112396 -0.00944941 -0.595416
          0.119042 -0.0136001 -0.539299 0.118801 -0.0139847 -0.559433
          0.0994754 -0.0162388 -0.56772 0.102378 -0.0147507 -0.539178
          0.108096 -0.0129574 -0.595506 0.105112 -0.0109623 -0.591591
          0.11472 -0.0137039 -0.576103 0.12041 -0.0170253 -0.596519
          0.119042 -0.0136001 -0.539299 0.102378 -0.0147507 -0.539178
          0.0994754 -0.0162388 -0.56772 0.0828441 -0.0184706 -0.529701
          0.26761 0.10803 1.03604 0.260994 0.10922 1.08958
          0.289143 0.105429 1.04493 0.22275 0.104812 1.04279
          0.26761 0.10803 1.03604 0.289143 0.105429 1.04493
          0.220738 0.0983866 1.03044 0.22275 0.104812 1.04279
          0.22275 0.104812 1.04279 0.289143 0.105429 1.04493
          0.220738 0.0983866 1.03044 0.233002 0.103482 1.08172
          0.289143 0.105429 1.04493 0.22275 0.104812 1.04279
          0.274099 0.105261 1.08923 0.233002 0.103482 1.08172
          0.289143 0.105429 1.04493 0.260994 0.10922 1.08958
          0.274099 0.105261 1.08923 0.22275 0.104812 1.04279
          0.22275 0.104812 1.04279 0.260994 0.10922 1.08958
          0.274099 0.105261 1.08923 0.233002 0.103482 1.08172
          0.22275 0.104812 1.04279 0.216442 0.11019 1.08311
          0.260994 0.10922 1.08958 0.233002 0.103482 1.08172
          0.1544 0.00590663 -0.591654 0.1297 9.87133e-05 -0.605701
          0.155927 0.000251628 -0.585031 0.150403 0.00210831 -0.583032
          -0.010015 -0.0095234 -0.104158 0.00270117 -0.00839904 -0.122071
          -0.0014031 -0.00719991 -0.0748949 0.0188405 -0.00834344 -0.0945442
          -0.010015 -0.0095234 -0.104158 0.00270117 -0.00839904 -0.122071
          0.0188405 -0.00834344 -0.0945442 0.0345143 -0.0101269 -0.131573
          0.0801865 -0.0129857 -0.431223 0.0896834 -0.01342 -0.474792
          0.049198 -0.0109875 -0.426503 0.0769836 -0.0103014 -0.421409
          0.049198 -0.0109875 -0.426503 0.0674725 -0.0100434 -0.47284
          0.0368281 -0.00633565 -0.419251 0.0769836 -0.0103014 -0.421409
          0.049198 -0.0109875 -0.426503 0.0249799 -0.00927824 -0.386426
          0.0769836 -0.0103014 -0.421409 0.0368281 -0.00633565 -0.419251
          0.0249799 -0.00927824 -0.386426 0.0424382 -0.00742649 -0.369547
          0.0769836 -0.0103014 -0.421409 0.0368281 -0.00633565 -0.419251
          0.0769836 -0.0103014 -0.421409 0.0424382 -0.00742649 -0.369547
          0.084756 -0.00847522 -0.397233 0.0368281 -0.00633565 -0.419251
          0.0772562 -0.00829571 -0.449559 0.0769836 -0.0103014 -0.421409
          0.084756 -0.00847522 -0.397233 0.0368281 -0.00633565 -0.419251
          0.0769836 -0.0103014 -0.421409 0.0674725 -0.0100434 -0.47284
          0.0368281 -0.00633565 -0.419251 0.0772562 -0.00829571 -0.449559
          0.0948509 0.00960777 -0.330541 0.128141 0.0092244 -0.36495
          0.149133 0.0161199 -0.296868 0.177392 0.0114892 -0.3605
          0.249124 0.0204591 -0.440537 0.236316 0.0246008 -0.485233
          0.218704 0.0214812 -0.457714 0.261623 0.0282334 -0.421171
          0.110055 -0.0119697 -0.4245 0.130047 -0.0108439 -0.391734
          0.120268 -0.0101949 -0.41947 0.0769836 -0.0103014 -0.421409
          0.110055 -0.0119697 -0.4245 0.0834431 -0.0103708 -0.372283
          0.130047 -0.0108439 -0.391734 0.0769836 -0.0103014 -0.421409
          0.100789 0.0866501 0.753101 0.127105 0.0876495 0.701116
          0.100937 0.0804062 0.671573 0.0137284 0.080901 0.667222
          0.127105 0.0876495 0.701116 0.0137284 0.080901 0.667222
          0.100789 0.0866501 0.753101 0.108162 0.0929403 0.778368
          0.135072 0.0117331 -0.321953 0.149133 0.0161199 -0.296868
          0.0734512 0.0151683 -0.243691 0.182105 0.0194951 -0.264953
          0.135072 0.0117331 -0.321953 0.149133 0.0161199 -0.296868
          0.182105 0.0194951 -0.264953 0.177392 0.0114892 -0.3605
          0.135072 0.0117331 -0.321953 0.0948509 0.00960777 -0.330541
          0.149133 0.0161199 -0.296868 0.177392 0.0114892 -0.3605
          0.133529 -0.0122415 -0.442996 0.0769836 -0.0103014 -0.421409
          0.120268 -0.0101949 -0.41947 0.0943749 -0.0110955 -0.459335
          0.15796 0.0626744 0.270179 0.100178 0.0521232 0.164525
          0.0467083 0.0485772 0.184625 0.0876554 0.0583691 0.26528
          0.215481 0.0468155 0.0269334 0.193616 0.0487549 0.0843481
          0.185124 0.05297 0.131345 0.158421 0.0496291 0.0897101
          0.12867 0.0712302 0.495567 0.120286 0.0757005 0.587085
          0.189954 0.0762057 0.471849 0.0830577 0.0694311 0.477071
          0.149133 0.0161199 -0.296868 0.135582 0.0211458 -0.209163
          0.182105 0.0194951 -0.264953 0.137752 0.021662 -0.228365
          0.297489 0.0760461 0.273847 0.279083 0.0740901 0.226445
          0.345247 0.0849373 0.333469 0.368693 0.0796129 0.22943
          0.0518296 -0.0153847 -0.436534 0.0257655 -0.0133371 -0.43445
          0.0276634 -0.0124395 -0.381452 0.0801865 -0.0129857 -0.431223
          0.209017 0.0680971 0.26482 0.212417 0.073621 0.315974
          0.297489 0.0760461 0.273847 0.279083 0.0740901 0.226445
          0.35012 0.10216 0.905117 0.272272 0.0982259 0.871623
          0.285884 0.101867 0.926939 0.289816 0.0991194 0.922122
          0.35012 0.10216 0.905117 0.285884 0.101867 0.926939
          0.339454 0.105555 0.957672 0.289816 0.0991194 0.922122
          0.35012 0.10216 0.905117 0.339454 0.105555 0.957672
          0.341624 0.10169 0.94404 0.289816 0.0991194 0.922122
          0.341624 0.10169 0.94404 0.282294 0.0987585 0.988705
          0.289816 0.0991194 0.922122 0.339454 0.105555 0.957672
          0.104946 0.0435662 0.0577277 0.159365 0.0442869 -0.00337952
          0.141569 0.0485009 0.0692919 0.192396 0.0511354 0.0569261
          0.198498 0.0519682 0.0225208 0.192396 0.0511354 0.0569261
          0.213365 0.058239 0.10934 0.141569 0.0485009 0.0692919
          0.216196 0.0956329 0.913168 0.231761 0.0961351 0.92421
          0.289816 0.0991194 0.922122 0.27271 0.0964002 0.88158
          0.289816 0.0991194 0.922122 0.231761 0.0961351 0.92421
          0.2938 0.0972136 0.929731 0.27271 0.0964002 0.88158
          0.351746 0.0970161 0.893709 0.289816 0.0991194 0.922122
          0.2938 0.0972136 0.929731 0.27271 0.0964002 0.88158
          0.386449 0.0928267 0.549801 0.381656 0.0918153 0.550721
          0.384595 0.0956412 0.62046 0.296192 0.0875151 0.559671
          0.386449 0.0928267 0.549801 0.381656 0.0918153 0.550721
          0.296192 0.0875151 0.559671 0.381624 0.0883173 0.476281
          0.386449 0.0928267 0.549801 0.296192 0.0875151 0.559671
          0.298245 0.0824615 0.466509 0.381624 0.0883173 0.476281
          0.386449 0.0928267 0.549801 0.298245 0.0824615 0.466509
          0.296192 0.0875151 0.559671 0.387982 0.0910084 0.486622
          0.0389648 -0.00539303 -0.0891458 0.0680056 -0.0011597 -0.0994993
          0.0540152 0.00252499 -0.0946214 0.0418506 0.000676097 -0.0697344
          0.296192 0.0875151 0.559671 0.298245 0.0824615 0.466509
          0.271522 0.0837749 0.481467 0.387982 0.0910084 0.486622
          0.298245 0.0824615 0.466509 0.271522 0.0837749 0.481467
          0.189954 0.0762057 0.471849 0.296192 0.0875151 0.559671
          0.296192 0.0875151 0.559671 0.271522 0.0837749 0.481467
          0.189954 0.0762057 0.471849 0.198539 0.0823455 0.576957
          0.296192 0.0875151 0.559671 0.381656 0.0918153 0.550721
          0.298245 0.0824615 0.466509 0.381624 0.0883173 0.476281
          0.260232 0.0884996 0.60553 0.198539 0.0823455 0.576957
          0.199691 0.0849973 0.580698 0.171272 0.0778226 0.475443
          0.0967532 0.0787728 0.992186 0.111699 0.0872084 1.01616
          0.14422 0.101679 1.03743 0.0967532 0.0787728 0.992186
          0.0334735 -0.00317254 -0.125435 0.0540152 0.00252499 -0.0946214
          0.0245713 -0.00500875 -0.104985 0.0667859 -0.00492085 -0.132948
          0.0245713 -0.00500875 -0.104985 0.0540152 0.00252499 -0.0946214
          0.0334735 -0.00317254 -0.125435 0.0159457 -0.000758185 -0.0663928
          0.00486514 -0.00518339 -0.0966911 0.0245713 -0.00500875 -0.104985
          0.0334735 -0.00317254 -0.125435 0.0159457 -0.000758185 -0.0663928
          0.0245713 -0.00500875 -0.104985 0.00706416 -0.00670828 -0.137923
          0.00486514 -0.00518339 -0.0966911 0.0334735 -0.00317254 -0.125435
          0.0245713 -0.00500875 -0.104985 0.0667859 -0.00492085 -0.132948
          0.0680056 -0.0011597 -0.0994993 0.0389648 -0.00539303 -0.0891458
          0.0245713 -0.00500875 -0.104985 0.0345143 -0.0101269 -0.131573
          0.0667859 -0.00492085 -0.132948 0.0389648 -0.00539303 -0.0891458
          0.0389648 -0.00539303 -0.0891458 0.0345143 -0.0101269 -0.131573
          0.0188405 -0.00834344 -0.0945442 0.0245713 -0.00500875 -0.104985
          0.137233 -0.0135718 -0.504352 0.164278 -0.0127238 -0.470143
          0.163383 -0.0132896 -0.490656 0.124448 -0.0143225 -0.471353
          0.0245713 -0.00500875 -0.104985 0.0188405 -0.00834344 -0.0945442
          -0.0014031 -0.00719991 -0.0748949 0.00270117 -0.00839904 -0.122071
          0.0245713 -0.00500875 -0.104985 0.0345143 -0.0101269 -0.131573
          0.0188405 -0.00834344 -0.0945442 0.00270117 -0.00839904 -0.122071
          0.00270117 -0.00839904 -0.122071 0.0345143 -0.0101269 -0.131573
          0.0338639 -0.00745357 -0.153426 0.0245713 -0.00500875 -0.104985
          0.0338639 -0.00745357 -0.153426 0.0345143 -0.0101269 -0.131573
          0.0667859 -0.00492085 -0.132948 0.0245713 -0.00500875 -0.104985
          0.0523025 -0.0114998 -0.0165859 0.0303958 -0.0025765 -0.00444756
          0.046611 -0.0127395 -0.0281452 0.0220256 -0.0109318 -0.0199872
          0.0523025 -0.0114998 -0.0165859 0.0303958 -0.0025765 -0.00444756
          0.0220256 -0.0109318 -0.0199872 0.0316418 -0.00827242 -0.00712274
          0.172727 0.0572523 0.179964 0.28714 0.0650225 0.175661
          0.185124 0.05297 0.131345 0.25535 0.057476 0.0852052
          0.0292423 -0.0145331 -0.0274994 0.0316418 -0.00827242 -0.00712274
          0.0220256 -0.0109318 -0.0199872 0.0210138 -0.00977568 -0.00900036
          0.0210138 -0.00977568 -0.00900036 0.00765602 -0.0064143 -0.0148698
          0.0220256 -0.0109318 -0.0199872 0.0292423 -0.0145331 -0.0274994
          0.0220256 -0.0109318 -0.0199872 0.00765602 -0.0064143 -0.0148698
          0.0210138 -0.00977568 -0.00900036 0 0 0
          0 0 0 0.0220256 -0.0109318 -0.0199872
          0.0210138 -0.00977568 -0.00900036 0 0 0
          0.0182165 -0.00767366 -0.0242749 0.00765602 -0.0064143 -0.0148698
          0.0220256 -0.0109318 -0.0199872 0 0 0
          0.00765602 -0.0064143 -0.0148698 0.021377 -0.0104381 -0.0359205
          0.0182165 -0.00767366 -0.0242749 0.0220256 -0.0109318 -0.0199872
          0.00765602 -0.0064143 -0.0148698 0.021377 -0.0104381 -0.0359205
          0.0220256 -0.0109318 -0.0199872 0.0292423 -0.0145331 -0.0274994
          -0.00165095 -0.00443768 -0.0206394 0.00405932 5.82853e-05 -0.0225702
          0.00322887 -0.000798352 -0.00798877 0.00965275 -0.00343188 -0.0436944
          0.0615418 -0.0146903 -0.401189 0.0311669 -0.015471 -0.372513
          0.0228868 -0.0175449 -0.410755 0.0406751 -0.0188984 -0.381652
          0.0220256 -0.0109318 -0.0199872 0.0316418 -0.00827242 -0.00712274
          0 0 0 0.0210138 -0.00977568 -0.00900036
          0.315148 0.0456464 -0.206792 0.239664 0.0342104 -0.217622
          0.279336 0.0377699 -0.265338 0.30514 0.0391761 -0.236674
          0.314208 0.0450521 -0.177303 0.239664 0.0342104 -0.217622
          0.315148 0.0456464 -0.206792 0.30514 0.0391761 -0.236674
          0.314208 0.0450521 -0.177303 0.239664 0.0342104 -0.217622
          0.30514 0.0391761 -0.236674 0.302885 0.0378947 -0.208492
          0.30514 0.0391761 -0.236674 0.239664 0.0342104 -0.217622
          0.292862 0.0326986 -0.268318 0.302885 0.0378947 -0.208492
          0.30514 0.0391761 -0.236674 0.229906 0.0269602 -0.297914
          0.292862 0.0326986 -0.268318 0.239664 0.0342104 -0.217622
          0.30514 0.0391761 -0.236674 0.239664 0.0342104 -0.217622
          0.279336 0.0377699 -0.265338 0.229906 0.0269602 -0.297914
          0.239664 0.0342104 -0.217622 0.227347 0.0341367 -0.239023
          0.279336 0.0377699 -0.265338 0.229906 0.0269602 -0.297914
          0.0334735 -0.00317254 -0.125435 0.0608994 -0.00221483 -0.159693
          0.0338639 -0.00745357 -0.153426 0.0502169 -0.00470133 -0.188891
          -0.0309792 -0.01305 -0.314827 -0.0308071 -0.0103616 -0.3191
          -0.0364058 -0.0121714 -0.271789 0.00691554 -0.00994981 -0.300825
          -0.0308071 -0.0103616 -0.3191 -0.0386367 -0.00998593 -0.259364
          -0.0364058 -0.0121714 -0.271789 0.00691554 -0.00994981 -0.300825
          0.0882954 0.0139789 -0.275434 0.0944564 0.0146023 -0.27546
          0.115975 0.0128998 -0.314557 0.137752 0.021662 -0.228365
          0.394862 0.0940187 0.563365 0.319563 0.0916535 0.59525
          0.324902 0.0893821 0.507176 0.316173 0.0897648 0.554729
          0.392529 0.0915396 0.470357 0.324902 0.0893821 0.507176
          0.316173 0.0897648 0.554729 0.394862 0.0940187 0.563365
          0.319563 0.0916535 0.59525 0.316173 0.0897648 0.554729
          0.237426 0.086149 0.538209 0.324902 0.0893821 0.507176
          0.392529 0.0915396 0.470357 0.316173 0.0897648 0.554729
          0.387982 0.0910084 0.486622 0.394862 0.0940187 0.563365
          0.0425612 -0.0137818 -0.154251 0.0171834 -0.0131376 -0.175025
          0.0345143 -0.0101269 -0.131573 0.0450636 -0.0111888 -0.184676
          0.117833 0.067363 0.48689 0.185822 0.0722326 0.453532
          0.089927 0.0645819 0.43286 0.12867 0.0712302 0.495567
          0.109208 0.0572903 0.209665 0.111056 0.0506082 0.116801
          0.199017 0.0610013 0.140613 0.172426 0.0599948 0.182148
          0.172426 0.0599948 0.182148 0.111056 0.0506082 0.116801
          0.199017 0.0610013 0.140613 0.141569 0.0485009 0.0692919
          -0.00896293 -0.00640648 -0.0407497 0.00020316 -0.00504482 -0.026493
          0.0126215 -0.00998045 -0.0546027 -0.0075844 -0.00783516 -0.0507497
          -0.00310213 -0.00244935 -0.0142378 -0.0218483 -0.00148098 -0.00984418
          -0.0201014 -0.000736465 -0.00233419 -0.0227859 -0.00193359 -0.0184177
          -0.0227859 -0.00193359 -0.0184177 -0.0201014 -0.000736465 -0.00233419
          -0.00310213 -0.00244935 -0.0142378 0 0 0
          0.100178 0.0521232 0.164525 0.15796 0.0626744 0.270179
          0.172727 0.0572523 0.179964 0.172426 0.0599948 0.182148
          0.100178 0.0521232 0.164525 0.15796 0.0626744 0.270179
          0.172426 0.0599948 0.182148 0.0876554 0.0583691 0.26528
          0.172426 0.0599948 0.182148 0.15796 0.0626744 0.270179
          0.209017 0.0680971 0.26482 0.0876554 0.0583691 0.26528
          0.172426 0.0599948 0.182148 0.15796 0.0626744 0.270179
          0.172727 0.0572523 0.179964 0.209017 0.0680971 0.26482
          0.106057 -0.0116458 -0.606543 0.118662 -0.0118541 -0.601902
          0.112396 -0.00944941 -0.595416 0.110311 -0.011447 -0.600512
          0.0657571 -0.0031679 -0.428833 0.0170272 -0.008019 -0.442072
          0.0664855 -0.0026124 -0.453424 0.00962742 -0.00493176 -0.396985
          0.073581 -0.012766 -0.382787 0.0327647 -0.0109596 -0.337261
          0.0834431 -0.0103708 -0.372283 0.0558022 -0.0109937 -0.389167
          0.073581 -0.012766 -0.382787 0.0558022 -0.0109937 -0.389167
          0.0834431 -0.0103708 -0.372283 0.110055 -0.0119697 -0.4245
          0.124962 0.103705 0.917689 0.153439 0.0976263 0.896305
          0.141147 0.100371 0.938067 0.11098 0.103607 0.870345
          0.00965275 -0.00343188 -0.0436944 0.00405932 5.82853e-05 -0.0225702
          0.00322887 -0.000798352 -0.00798877 0.0161469 0.00429153 -0.0295316
          -0.0384657 -0.00944187 -0.0839381 -0.0396448 -0.0102092 -0.109624
          -0.010015 -0.0095234 -0.104158 0.00553736 -0.00949131 -0.0872548
          -0.0055242 0.00327003 -0.3614 0.0548873 0.00331069 -0.396044
          0.000364435 0.000322241 -0.360076 0.0508163 0.00841701 -0.326806
          0.0548873 0.00331069 -0.396044 0.0688967 0.00260366 -0.397242
          0.000364435 0.000322241 -0.360076 0.0508163 0.00841701 -0.326806
          0.0548873 0.00331069 -0.396044 0.0688967 0.00260366 -0.397242
          0.0508163 0.00841701 -0.326806 0.0948509 0.00960777 -0.330541
          0.0548873 0.00331069 -0.396044 0.0948509 0.00960777 -0.330541
          0.0508163 0.00841701 -0.326806 0.11452 0.00584169 -0.393886
          0.0548873 0.00331069 -0.396044 0.0508163 0.00841701 -0.326806
          0.0764155 0.00741455 -0.357328 0.11452 0.00584169 -0.393886
          0.0764155 0.00741455 -0.357328 0.0508163 0.00841701 -0.326806
          0.135072 0.0117331 -0.321953 0.11452 0.00584169 -0.393886
          0.0740235 0.0117361 -0.29873 0.0508163 0.00841701 -0.326806
          0.135072 0.0117331 -0.321953 0.0764155 0.00741455 -0.357328
          0.0740235 0.0117361 -0.29873 0.0764155 0.00741455 -0.357328
          0.01461 0.00723765 -0.34214 0.0508163 0.00841701 -0.326806
          0.0202828 0.0114123 -0.276286 0.0740235 0.0117361 -0.29873
          0.01461 0.00723765 -0.34214 0.0508163 0.00841701 -0.326806
          0.0202828 0.0114123 -0.276286 0.0508163 0.00841701 -0.326806
          0.01461 0.00723765 -0.34214 -0.0139035 0.00686604 -0.302569
          0.0734512 0.0151683 -0.243691 0.0740235 0.0117361 -0.29873
          0.0202828 0.0114123 -0.276286 0.0508163 0.00841701 -0.326806
          0.0740235 0.0117361 -0.29873 0.0508163 0.00841701 -0.326806
          0.0734512 0.0151683 -0.243691 0.135072 0.0117331 -0.321953
          0.0508163 0.00841701 -0.326806 0.0948509 0.00960777 -0.330541
          0.0734512 0.0151683 -0.243691 0.135072 0.0117331 -0.321953
          0.0508163 0.00841701 -0.326806 0.0948509 0.00960777 -0.330541
          0.135072 0.0117331 -0.321953 0.11452 0.00584169 -0.393886
          0.0801865 -0.0129857 -0.431223 0.0943749 -0.0110955 -0.459335
          0.0769836 -0.0103014 -0.421409 0.110055 -0.0119697 -0.4245
          0.106363 -0.00870799 -0.608749 0.104386 -0.0161113 -0.608847
          0.111468 -0.0123134 -0.602749 0.104664 -0.012164 -0.609688
          0.0445276 0.00929873 -0.294244 -0.0124161 0.00998805 -0.238023
          0.0567087 0.0165835 -0.211871 -0.00630596 0.0047323 -0.294327
          0.109617 -0.00182166 -0.493723 0.0654843 -0.00281992 -0.4944
          0.0677674 -0.000179497 -0.487995 0.122207 0.000471272 -0.462474
          0.122207 0.000471272 -0.462474 0.0654843 -0.00281992 -0.4944
          0.0677674 -0.000179497 -0.487995 0.0816163 -2.51321e-05 -0.451585
          0.122207 0.000471272 -0.462474 0.0816163 -2.51321e-05 -0.451585
          0.0677674 -0.000179497 -0.487995 0.0932756 0.00212624 -0.445271
          0.122207 0.000471272 -0.462474 0.0975595 -0.00451818 -0.516903
          0.0654843 -0.00281992 -0.4944 0.0816163 -2.51321e-05 -0.451585
          0.122207 0.000471272 -0.462474 0.131645 0.00478053 -0.424531
          0.160387 0.00185887 -0.476443 0.124809 5.29779e-05 -0.483101
          0.115205 0.101212 0.962865 0.115205 0.101212 0.962865
          0.141147 0.100371 0.938067 0.107308 0.105929 0.93937
          0.0137284 0.080901 0.667222 0.0754783 0.0822369 0.620429
          0.127105 0.0876495 0.701116 0.100937 0.0804062 0.671573
          -0.0116154 -0.0127112 -0.160316 4.09269e-05 -0.015154 -0.187651
          -0.00275804 -0.0140178 -0.20773 0.0171834 -0.0131376 -0.175025
          0.172727 0.0572523 0.179964 0.100178 0.0521232 0.164525
          0.163459 0.0542829 0.132925 0.158421 0.0496291 0.0897101
          0.115624 -0.00953853 -0.606174 0.108992 -0.0122948 -0.606635
          0.112637 -0.0103711 -0.611269 0.114543 -0.00627446 -0.607233
          0.112637 -0.0103711 -0.611269 0.107566 -0.0128015 -0.607479
          0.108992 -0.0122948 -0.606635 0.115624 -0.00953853 -0.606174
          -0.0211321 -0.00227591 -0.0131021 -0.00441511 -0.00222472 -0.0122332
          -0.0254388 -0.00647699 -0.0297218 -0.0198786 -0.00456851 -0.014675
          0.127105 0.0876495 0.701116 0.0137284 0.080901 0.667222
          0.0201388 0.0872946 0.682538 0.0754783 0.0822369 0.620429
          0.115205 0.101212 0.962865 0.143039 0.100997 0.951491
          0.141147 0.100371 0.938067 0.107308 0.105929 0.93937
          0.134062 0.00401747 -0.464844 0.189171 0.00696049 -0.46894
          0.124809 5.29779e-05 -0.483101 0.147387 0.00173919 -0.514186
          0.141147 0.100371 0.938067 0.153439 0.0976263 0.896305
          0.0838931 0.102285 0.893233 0.11098 0.103607 0.870345
          0.0608181 -0.012833 -0.282402 0.102925 -0.01385 -0.339323
          0.0679743 -0.0153294 -0.306575 0.0689447 -0.0128604 -0.335303
          0.102925 -0.01385 -0.339323 0.073581 -0.012766 -0.382787
          0.0864608 -0.0150371 -0.385583 0.0689447 -0.0128604 -0.335303
          0.0311669 -0.015471 -0.372513 0.0276634 -0.0124395 -0.381452
          0.00753595 -0.0138764 -0.340524 0.0689447 -0.0128604 -0.335303
          0.0276634 -0.0124395 -0.381452 0.0327647 -0.0109596 -0.337261
          0.00753595 -0.0138764 -0.340524 0.0689447 -0.0128604 -0.335303
          0.137992 0.0809897 0.939445 0.0896431 0.0734616 0.892396
          0.0740493 0.0641616 0.883765 0.117288 0.0824418 0.964402
          -0.0335928 -0.00987119 -0.0475263 -0.0280384 -0.00847588 -0.0277801
          -0.0254388 -0.00647699 -0.0297218 -0.0102802 -0.00591698 -0.0432173
          -0.0254388 -0.00647699 -0.0297218 -0.0280384 -0.00847588 -0.0277801
          -0.00700115 -0.00345964 -0.0120442 -0.0102802 -0.00591698 -0.0432173
          0.056846 -0.0207849 -0.553992 0.0480306 -0.0184858 -0.532774
          0.0821075 -0.013979 -0.552556 0.0590884 -0.0139826 -0.503316
          0.0918535 -0.00127327 -0.184187 0.0862894 -0.00400199 -0.166307
          0.0608994 -0.00221483 -0.159693 0.0962148 -0.00593256 -0.21049
          0.386422 0.0887192 0.408722 0.300097 0.0831428 0.404996
          0.392529 0.0915396 0.470357 0.345247 0.0849373 0.333469
          0.0948104 -0.00236865 -0.481413 0.110675 -0.00367405 -0.515213
          0.135703 0.0025933 -0.49578 0.134062 0.00401747 -0.464844
          0.134062 0.00401747 -0.464844 0.124809 5.29779e-05 -0.483101
          0.131645 0.00478053 -0.424531 0.0945674 0.00212618 -0.424615
          0.060929 0.0538991 0.266939 0.102322 0.0639772 0.375425
          0.165688 0.0612821 0.281712 0.0689063 0.0561299 0.274001
          0.0939533 0.0506828 0.181751 0.0689063 0.0561299 0.274001
          0.060929 0.0538991 0.266939 0.165688 0.0612821 0.281712
          0.060929 0.0538991 0.266939 0.0939533 0.0506828 0.181751
          0.165688 0.0612821 0.281712 0.165241 0.0545551 0.192337
          0.060929 0.0538991 0.266939 0.0799235 0.0462954 0.15972
          0.0939533 0.0506828 0.181751 0.165241 0.0545551 0.192337
          0.0939533 0.0506828 0.181751 0.0443352 0.0428983 0.124246
          0.0799235 0.0462954 0.15972 0.060929 0.0538991 0.266939
          0.0939533 0.0506828 0.181751 -0.0276234 0.0433722 0.194733
          0.0443352 0.0428983 0.124246 0.060929 0.0538991 0.266939
          0.0689063 0.0561299 0.274001 -0.0276234 0.0433722 0.194733
          0.0939533 0.0506828 0.181751 0.060929 0.0538991 0.266939
          -0.0209697 0.0473978 0.229358 -0.0276234 0.0433722 0.194733
          0.0689063 0.0561299 0.274001 0.060929 0.0538991 0.266939
          -0.0209697 0.0473978 0.229358 0.060929 0.0538991 0.266939
          0.0689063 0.0561299 0.274001 -0.0268066 0.0509021 0.288966
          -0.0209697 0.0473978 0.229358 -0.0276234 0.0433722 0.194733
          0.060929 0.0538991 0.266939 -0.0268066 0.0509021 0.288966
          0.126251 -0.0140065 -0.477368 0.130132 -0.0142512 -0.513988
          0.0908379 -0.0141968 -0.513139 0.0896834 -0.01342 -0.474792
          0.126251 -0.0140065 -0.477368 0.130132 -0.0142512 -0.513988
          0.114044 -0.0144426 -0.516593 0.0908379 -0.0141968 -0.513139
          0.179763 0.00577853 -0.528465 0.209308 0.0137501 -0.529951
          0.15353 0.000570539 -0.562779 0.179652 0.0134379 -0.536532
          0.137741 -0.00834925 -0.591306 0.1144 -0.0159403 -0.605091
          0.125961 -0.00727612 -0.600585 0.118368 -0.00951325 -0.595495
          0.0368505 -0.00613969 -0.0433125 0.013461 -0.00348063 -0.0158737
          0.0159097 -0.00071185 -0.0210781 0.0182165 -0.00767366 -0.0242749
          0.27145 0.0922475 0.715046 0.296649 0.0901879 0.64528
          0.316074 0.0917422 0.635195 0.378687 0.0993396 0.685729
          0.182741 0.0456925 0.0767849 0.161857 0.0498687 0.153568
          0.193616 0.0487549 0.0843481 0.126597 0.045842 0.0973606
          0.0423499 -0.0114026 -0.055377 0.0619345 -0.0102839 -0.0527576
          0.0784527 -0.00597124 -0.0773241 0.0368505 -0.00613969 -0.0433125
          0.120859 -0.0118386 -0.3705 0.120603 -0.00930884 -0.326509
          0.118728 -0.0117847 -0.327695 0.162928 -0.0101426 -0.361795
          0.107034 0.0785431 0.954037 0.117288 0.0824418 0.964402
          0.117288 0.0824418 0.964402 0.141182 0.0902565 0.952366
          0.153439 0.0976263 0.896305 0.168513 0.0943187 0.953422
          0.141182 0.0902565 0.952366 0.145903 0.092674 0.919067
          0.134062 0.00401747 -0.464844 0.147387 0.00173919 -0.514186
          0.135703 0.0025933 -0.49578 0.177759 0.0101018 -0.451713
          -0.00151333 0.0741555 0.554507 0.0716709 0.0749929 0.578483
          -0.0101049 0.0672179 0.524128 0.0808134 0.0722704 0.485717
          0.137254 -0.010044 -0.578733 0.130566 -0.0141443 -0.594765
          0.110311 -0.011447 -0.600512 0.118662 -0.0118541 -0.601902
          0.209054 0.100802 0.973437 0.198685 0.0945086 0.918357
          0.166592 0.0943382 0.957611 0.216313 0.0984366 0.955905
          0.00965275 -0.00343188 -0.0436944 0.0407461 -0.00197492 -0.0545277
          0.0165473 -0.00617679 -0.0509829 0.0176904 -0.00353163 -0.0727868
          0.214788 0.10492 1.00424 0.209269 0.102614 0.986222
          0.209054 0.100802 0.973437 0.264721 0.107082 0.998789
          0.1144 -0.0159403 -0.605091 0.130566 -0.0141443 -0.594765
          0.118662 -0.0118541 -0.601902 0.110311 -0.011447 -0.600512
          0.1144 -0.0159403 -0.605091 0.130566 -0.0141443 -0.594765
          0.110311 -0.011447 -0.600512 0.109567 -0.0177132 -0.608718
          0.0125049 -0.0101035 -0.180202 -0.00603925 -0.00921344 -0.155231
          0.0252408 -0.0079659 -0.186335 -0.000402004 -0.0101472 -0.218544
          0.0502169 -0.00470133 -0.188891 0.0698431 -0.00822036 -0.18142
          0.0338639 -0.00745357 -0.153426 0.0252408 -0.0079659 -0.186335
          0.0444503 -0.00882003 -0.221329 0.0252408 -0.0079659 -0.186335
          0.0502169 -0.00470133 -0.188891 0.0491411 -0.00599707 -0.241803
          0.130566 -0.0141443 -0.594765 0.114991 -0.0139796 -0.594954
          0.110311 -0.011447 -0.600512 0.109567 -0.0177132 -0.608718
          0.28714 0.0650225 0.175661 0.239744 0.0627337 0.215118
          0.267607 0.0706221 0.272312 0.238454 0.0638716 0.176386
          0.0228868 -0.0175449 -0.410755 0.0276634 -0.0124395 -0.381452
          -0.0129101 -0.0150505 -0.411734 0.0311669 -0.015471 -0.372513
          0.0598204 0.00789755 -0.317222 0.0445276 0.00929873 -0.294244
          0.0567087 0.0165835 -0.211871 -0.00630596 0.0047323 -0.294327
          0.0171834 -0.0131376 -0.175025 -0.0048344 -0.0120173 -0.183844
          0.0450636 -0.0111888 -0.184676 0.0277829 -0.0133178 -0.215086
          -0.00751634 -0.0214847 -0.407104 0.00138579 -0.0197199 -0.365311
          0.0228868 -0.0175449 -0.410755 -0.0180461 -0.0179976 -0.382811
          -0.00751634 -0.0214847 -0.407104 0.00138579 -0.0197199 -0.365311
          0.0326146 -0.0205887 -0.428346 0.0228868 -0.0175449 -0.410755
          0.0406751 -0.0188984 -0.381652 0.0228868 -0.0175449 -0.410755
          0.0326146 -0.0205887 -0.428346 0.00138579 -0.0197199 -0.365311
          0.0406751 -0.0188984 -0.381652 0.0311669 -0.015471 -0.372513
          0.0228868 -0.0175449 -0.410755 0.00138579 -0.0197199 -0.365311
          0.216996 0.0946768 0.982276 0.258775 0.10035 0.992022
          0.262572 0.0985842 1.02395 0.220738 0.0983866 1.03044
          0.272881 0.101595 0.900105 0.285884 0.101867 0.926939
          0.341479 0.110086 0.924588 0.349887 0.106809 0.885922
          0.0871718 -0.0133081 -0.56754 0.0480306 -0.0184858 -0.532774
          0.0571961 -0.0189245 -0.5595 0.0970682 -0.00880874 -0.546836
          0.0444503 -0.00882003 -0.221329 0.0962148 -0.00593256 -0.21049
          0.0698431 -0.00822036 -0.18142 0.0910404 -0.00871713 -0.248485
          0.0444503 -0.00882003 -0.221329 0.0819989 -0.00422975 -0.217356
          0.0962148 -0.00593256 -0.21049 0.0910404 -0.00871713 -0.248485
          0.0502169 -0.00470133 -0.188891 0.0819989 -0.00422975 -0.217356
          0.0962148 -0.00593256 -0.21049 0.0444503 -0.00882003 -0.221329
          0.0502169 -0.00470133 -0.188891 0.0962148 -0.00593256 -0.21049
          0.0698431 -0.00822036 -0.18142 0.0444503 -0.00882003 -0.221329
          0.190968 0.0892035 0.6277 0.127105 0.0876495 0.701116
          0.145798 0.090798 0.679028 0.0754783 0.0822369 0.620429
          0.0918535 -0.00127327 -0.184187 0.0962148 -0.00593256 -0.21049
          0.0502169 -0.00470133 -0.188891 0.0819989 -0.00422975 -0.217356
          0.0918535 -0.00127327 -0.184187 0.128242 -0.0011845 -0.215126
          0.0962148 -0.00593256 -0.21049 0.0819989 -0.00422975 -0.217356
          0.0918535 -0.00127327 -0.184187 0.128242 -0.0011845 -0.215126
          0.132188 -0.00369529 -0.201109 0.0962148 -0.00593256 -0.21049
          0.107034 0.0785431 0.954037 0.117288 0.0824418 0.964402
          0.141182 0.0902565 0.952366 0.137992 0.0809897 0.939445
          0.141147 0.100371 0.938067 0.168513 0.0943187 0.953422
          0.115205 0.101212 0.962865 0.141182 0.0902565 0.952366
          0.107034 0.0785431 0.954037 0.137992 0.0809897 0.939445
          0.141182 0.0902565 0.952366 0.166592 0.0943382 0.957611
          0.128242 -0.0011845 -0.215126 0.145628 -0.00467209 -0.255181
          0.132188 -0.00369529 -0.201109 0.0962148 -0.00593256 -0.21049
          0.128242 -0.0011845 -0.215126 0.145628 -0.00467209 -0.255181
          0.0962148 -0.00593256 -0.21049 0.0989644 -0.00439551 -0.258818
          0.128242 -0.0011845 -0.215126 0.0962148 -0.00593256 -0.21049
          0.0819989 -0.00422975 -0.217356 0.0989644 -0.00439551 -0.258818
          0.0819989 -0.00422975 -0.217356 0.0962148 -0.00593256 -0.21049
          0.0910404 -0.00871713 -0.248485 0.0989644 -0.00439551 -0.258818
          0.0962148 -0.00593256 -0.21049 0.145628 -0.00467209 -0.255181
          0.0910404 -0.00871713 -0.248485 0.0989644 -0.00439551 -0.258818
          0.0962148 -0.00593256 -0.21049 0.145628 -0.00467209 -0.255181
          0.147637 -0.00749906 -0.261287 0.0910404 -0.00871713 -0.248485
          0.0962148 -0.00593256 -0.21049 0.147637 -0.00749906 -0.261287
          0.143208 -0.00900353 -0.241278 0.0910404 -0.00871713 -0.248485
          0.216996 0.0946768 0.982276 0.222148 0.100112 0.994249
          0.258775 0.10035 0.992022 0.220738 0.0983866 1.03044
          0.262343 0.0583567 0.0517336 0.219222 0.0486119 -0.00572604
          0.192396 0.0511354 0.0569261 0.159365 0.0442869 -0.00337952
          0.132188 -0.00369529 -0.201109 0.145628 -0.00467209 -0.255181
          0.147637 -0.00749906 -0.261287 0.0962148 -0.00593256 -0.21049
          0.109555 -6.04137e-05 -0.59853 0.10082 -0.00345068 -0.604568
          0.114543 -0.00627446 -0.607233 0.1297 9.87133e-05 -0.605701
          0.1297 9.87133e-05 -0.605701 0.1544 0.00590663 -0.591654
          0.137361 -0.000485042 -0.592 0.13511 0.00860607 -0.600893
          0.204543 0.0383668 -0.0282422 0.0994822 0.0329572 -0.0324757
          0.130585 0.0390306 0.0287109 0.149682 0.0387796 -0.00792568
          0.204543 0.0383668 -0.0282422 0.130585 0.0390306 0.0287109
          0.182741 0.0456925 0.0767849 0.149682 0.0387796 -0.00792568
          0.137108 0.0320141 -0.0853689 0.149682 0.0387796 -0.00792568
          0.0540385 0.0279604 -0.0683123 0.0994822 0.0329572 -0.0324757
          0.137108 0.0320141 -0.0853689 0.0887729 0.0367918 0.00698102
          0.0540385 0.0279604 -0.0683123 0.149682 0.0387796 -0.00792568
          0.149682 0.0387796 -0.00792568 0.0887729 0.0367918 0.00698102
          0.0540385 0.0279604 -0.0683123 0.0994822 0.0329572 -0.0324757
          0.149682 0.0387796 -0.00792568 0.0887729 0.0367918 0.00698102
          0.126597 0.045842 0.0973606 0.161268 0.0430777 0.00556753
          0.373022 0.0833251 0.422228 0.298245 0.0824615 0.466509
          0.381624 0.0883173 0.476281 0.301397 0.0779443 0.365474
          0.373022 0.0833251 0.422228 0.301397 0.0779443 0.365474
          0.381624 0.0883173 0.476281 0.379682 0.0859182 0.404263
          0.373022 0.0833251 0.422228 0.301397 0.0779443 0.365474
          0.379682 0.0859182 0.404263 0.369769 0.0801117 0.315608
          0.301397 0.0779443 0.365474 0.298245 0.0824615 0.466509
          0.381624 0.0883173 0.476281 0.379682 0.0859182 0.404263
          0.179831 0.069947 0.368224 0.301397 0.0779443 0.365474
          0.298245 0.0824615 0.466509 0.240365 0.0719055 0.361752
          0.267607 0.0706221 0.272312 0.179831 0.069947 0.368224
          0.240365 0.0719055 0.361752 0.301397 0.0779443 0.365474
          0.240365 0.0719055 0.361752 0.27609 0.0684555 0.293154
          0.267607 0.0706221 0.272312 0.301397 0.0779443 0.365474
          0.240365 0.0719055 0.361752 0.27609 0.0684555 0.293154
          0.301397 0.0779443 0.365474 0.361653 0.0757261 0.29799
          0.301397 0.0779443 0.365474 0.27609 0.0684555 0.293154
          0.267607 0.0706221 0.272312 0.361653 0.0757261 0.29799
          0.267607 0.0706221 0.272312 0.179831 0.069947 0.368224
          0.301397 0.0779443 0.365474 0.248309 0.07594 0.362052
          0.301397 0.0779443 0.365474 0.248309 0.07594 0.362052
          0.297489 0.0760461 0.273847 0.267607 0.0706221 0.272312
          0.301397 0.0779443 0.365474 0.248309 0.07594 0.362052
          0.378097 0.0840946 0.326979 0.297489 0.0760461 0.273847
          0.179831 0.069947 0.368224 0.248309 0.07594 0.362052
          0.298245 0.0824615 0.466509 0.301397 0.0779443 0.365474
          -0.0442204 -0.0113241 -0.160393 -0.043366 -0.0100866 -0.19915
          -0.0255505 -0.00966033 -0.133725 -0.00603925 -0.00921344 -0.155231
          -0.0425719 -0.0113411 -0.197009 -0.0442204 -0.0113241 -0.160393
          -0.00603925 -0.00921344 -0.155231 -0.043366 -0.0100866 -0.19915
          -0.0425719 -0.0113411 -0.197009 -0.00603925 -0.00921344 -0.155231
          0.00472803 -0.00759501 -0.177314 -0.043366 -0.0100866 -0.19915
          -0.00603925 -0.00921344 -0.155231 -0.0425719 -0.0113411 -0.197009
          0.00472803 -0.00759501 -0.177314 -0.000402004 -0.0101472 -0.218544
          0.274803 0.0541389 -0.0163549 0.229061 0.0449968 -0.0778743
          0.257162 0.0452472 -0.0826948 0.219222 0.0486119 -0.00572604
          0.0125049 -0.0101035 -0.180202 -0.0425719 -0.0113411 -0.197009
          -0.00603925 -0.00921344 -0.155231 -0.000402004 -0.0101472 -0.218544
          0.0125049 -0.0101035 -0.180202 -0.0442204 -0.0113241 -0.160393
          -0.00603925 -0.00921344 -0.155231 -0.0425719 -0.0113411 -0.197009
          -0.0116154 -0.0127112 -0.160316 4.09269e-05 -0.015154 -0.187651
          0.0171834 -0.0131376 -0.175025 0.0233769 -0.015396 -0.171585
          0.168288 0.0375999 -0.0873447 0.185682 0.0349137 -0.171147
          0.229061 0.0449968 -0.0778743 0.254571 0.0422139 -0.140693
          -0.00603925 -0.00921344 -0.155231 -0.0255505 -0.00966033 -0.133725
          0.00706416 -0.00670828 -0.137923 0.00472803 -0.00759501 -0.177314
          -0.00603925 -0.00921344 -0.155231 -0.043366 -0.0100866 -0.19915
          -0.0255505 -0.00966033 -0.133725 0.00472803 -0.00759501 -0.177314
          0.109724 -0.0136582 -0.587157 0.0998571 -0.0152705 -0.572757
          0.102221 -0.0132634 -0.576693 0.0836865 -0.0155189 -0.576022
          0.109724 -0.0136582 -0.587157 0.0836865 -0.0155189 -0.576022
          0.102221 -0.0132634 -0.576693 0.101268 -0.0133311 -0.59472
          0.102221 -0.0132634 -0.576693 0.0998571 -0.0152705 -0.572757
          0.0937691 -0.0138029 -0.549149 0.0836865 -0.0155189 -0.576022
          0.0836865 -0.0155189 -0.576022 0.0647985 -0.0129255 -0.545036
          0.0937691 -0.0138029 -0.549149 0.102221 -0.0132634 -0.576693
          0.102221 -0.0132634 -0.576693 0.118801 -0.0139847 -0.559433
          0.0937691 -0.0138029 -0.549149 0.0998571 -0.0152705 -0.572757
          0.102221 -0.0132634 -0.576693 0.118801 -0.0139847 -0.559433
          0.12387 -0.0137173 -0.55443 0.0937691 -0.0138029 -0.549149
          0.049198 -0.0109875 -0.426503 0.030685 -0.00952224 -0.456825
          0.0674725 -0.0100434 -0.47284 0.0481888 -0.0126734 -0.4751
          0.0331346 -0.0139518 -0.311202 0.0487007 -0.016142 -0.343334
          0.0679743 -0.0153294 -0.306575 0.00727071 -0.0159958 -0.292999
          0.102221 -0.0132634 -0.576693 0.0742199 -0.00934427 -0.556536
          0.0979294 -0.0116895 -0.552479 0.0925113 -0.0100672 -0.58693
          0.0715879 -0.0107643 -0.570157 0.0742199 -0.00934427 -0.556536
          0.102221 -0.0132634 -0.576693 0.0925113 -0.0100672 -0.58693
          0.222148 0.100112 0.994249 0.209054 0.100802 0.973437
          0.216313 0.0984366 0.955905 0.254201 0.103492 0.959385
          0.344461 0.0653814 0.18953 0.267528 0.060776 0.191131
          0.315243 0.0628785 0.222664 0.352832 0.0701436 0.265476
          0.264721 0.107082 0.998789 0.209269 0.102614 0.986222
          0.209054 0.100802 0.973437 0.262803 0.108299 1.00082
          0.254201 0.103492 0.959385 0.222148 0.100112 0.994249
          0.209054 0.100802 0.973437 0.264721 0.107082 0.998789
          0.0418506 0.000676097 -0.0697344 0.0407461 -0.00197492 -0.0545277
          0.0176904 -0.00353163 -0.0727868 0.0389648 -0.00539303 -0.0891458
          0.349887 0.106809 0.885922 0.272881 0.101595 0.900105
          0.341816 0.112732 0.920067 0.341479 0.110086 0.924588
          0.0948104 -0.00236865 -0.481413 0.0696074 -0.00701453 -0.503281
          0.124809 5.29779e-05 -0.483101 0.0664855 -0.0026124 -0.453424
          0.064645 -0.0229194 -0.556744 0.0535114 -0.0187996 -0.526146
          0.0828441 -0.0184706 -0.529701 0.0821186 -0.0163022 -0.547193
          0.0535114 -0.0187996 -0.526146 0.0135894 -0.016901 -0.492048
          0.0665471 -0.0159942 -0.505201 0.0510099 -0.0126816 -0.511239
          0.0535114 -0.0187996 -0.526146 0.0665471 -0.0159942 -0.505201
          0.0821186 -0.0163022 -0.547193 0.0647985 -0.0129255 -0.545036
          0.0720016 0.0386142 0.0590978 0.0443352 0.0428983 0.124246
          0.126597 0.045842 0.0973606 0.0359137 0.0362804 0.0463107
          0.216313 0.0984366 0.955905 0.292096 0.102758 0.964551
          0.251644 0.0986556 0.9563 0.258775 0.10035 0.992022
          0.161268 0.0430777 0.00556753 0.100967 0.0376856 -0.0124784
          0.0887729 0.0367918 0.00698102 0.0449238 0.0339339 0.00411554
          0.109208 0.0572903 0.209665 0.0876554 0.0583691 0.26528
          0.0635172 0.0515351 0.19353 0.172426 0.0599948 0.182148
          0.049659 -0.0222241 -0.516821 0.0410239 -0.0180549 -0.471625
          0.0665471 -0.0159942 -0.505201 0.0535114 -0.0187996 -0.526146
          0.0535114 -0.0187996 -0.526146 0.0410239 -0.0180549 -0.471625
          0.0665471 -0.0159942 -0.505201 0.0135894 -0.016901 -0.492048
          0.0826533 0.00922241 -0.323018 0.137117 0.0163716 -0.314393
          0.0638506 0.00594671 -0.330755 0.124138 0.0125122 -0.349927
          0.101268 -0.0133311 -0.59472 0.0836865 -0.0155189 -0.576022
          0.0859557 -0.0131762 -0.586375 0.0995078 -0.0148368 -0.598679
          0.0129194 -0.0132095 -0.492054 0.00880291 -0.00779109 -0.477707
          0.0510099 -0.0126816 -0.511239 0.0254341 -0.00812965 -0.517394
          0.0481888 -0.0126734 -0.4751 0.00880291 -0.00779109 -0.477707
          0.0510099 -0.0126816 -0.511239 0.0129194 -0.0132095 -0.492054
          0.115205 0.101212 0.962865 0.165145 0.0940771 1.01785
          0.174536 0.092526 0.994842 0.0992901 0.104541 0.989552
          0.0908379 -0.0141968 -0.513139 0.0481888 -0.0126734 -0.4751
          0.0670694 -0.0106223 -0.51427 0.0510099 -0.0126816 -0.511239
          0.0510099 -0.0126816 -0.511239 0.0908379 -0.0141968 -0.513139
          0.0937691 -0.0138029 -0.549149 0.0670694 -0.0106223 -0.51427
          0.0908379 -0.0141968 -0.513139 0.0481888 -0.0126734 -0.4751
          0.0510099 -0.0126816 -0.511239 0.0665471 -0.0159942 -0.505201
          -0.0118951 0.0528332 0.283342 0.0635172 0.0515351 0.19353
          0.060043 0.0568305 0.259679 0.0876554 0.0583691 0.26528
          -0.0118951 0.0528332 0.283342 0.0635172 0.0515351 0.19353
          0.0876554 0.0583691 0.26528 -0.0155251 0.0493815 0.243135
          -0.0118951 0.0528332 0.283342 -0.0095751 0.0449849 0.183895
          0.0635172 0.0515351 0.19353 -0.0155251 0.0493815 0.243135
          -0.00714448 0.0494386 0.23525 0.039149 0.0478322 0.166498
          0.0635172 0.0515351 0.19353 -0.0095751 0.0449849 0.183895
          0.0987772 -0.0110197 -0.589217 0.120205 -0.0074673 -0.574662
          0.0885485 -0.0107869 -0.567941 0.0998489 -0.00965086 -0.589306
          0.116074 -0.00889233 -0.591783 0.120205 -0.0074673 -0.574662
          0.0987772 -0.0110197 -0.589217 0.112396 -0.00944941 -0.595416
          0.137254 -0.010044 -0.578733 0.119123 -0.00951806 -0.581108
          0.112396 -0.00944941 -0.595416 0.118662 -0.0118541 -0.601902
          0.137254 -0.010044 -0.578733 0.119123 -0.00951806 -0.581108
          0.120205 -0.0074673 -0.574662 0.112396 -0.00944941 -0.595416
          0.119123 -0.00951806 -0.581108 0.0998489 -0.00965086 -0.589306
          0.120205 -0.0074673 -0.574662 0.112396 -0.00944941 -0.595416
          0.119123 -0.00951806 -0.581108 0.0998489 -0.00965086 -0.589306
          0.112396 -0.00944941 -0.595416 0.110311 -0.011447 -0.600512
          0.119123 -0.00951806 -0.581108 0.110311 -0.011447 -0.600512
          0.112396 -0.00944941 -0.595416 0.118662 -0.0118541 -0.601902
          0.119123 -0.00951806 -0.581108 0.0992329 -0.00753719 -0.587347
          0.0998489 -0.00965086 -0.589306 0.110311 -0.011447 -0.600512
          0.119123 -0.00951806 -0.581108 0.0992329 -0.00753719 -0.587347
          0.110311 -0.011447 -0.600512 0.114991 -0.0139796 -0.594954
          0.119123 -0.00951806 -0.581108 0.114991 -0.0139796 -0.594954
          0.110311 -0.011447 -0.600512 0.130566 -0.0141443 -0.594765
          0.0716709 0.0749929 0.578483 0.100937 0.0804062 0.671573
          0.198539 0.0823455 0.576957 0.13533 0.0805968 0.576606
          0.0716709 0.0749929 0.578483 0.13533 0.0805968 0.576606
          0.198539 0.0823455 0.576957 0.0830577 0.0694311 0.477071
          0.120286 0.0757005 0.587085 0.0716709 0.0749929 0.578483
          0.198539 0.0823455 0.576957 0.0830577 0.0694311 0.477071
          0.120286 0.0757005 0.587085 0.100937 0.0804062 0.671573
          0.198539 0.0823455 0.576957 0.0716709 0.0749929 0.578483
          0.120286 0.0757005 0.587085 0.0716709 0.0749929 0.578483
          0.0746714 0.0731584 0.661841 0.100937 0.0804062 0.671573
          0.120286 0.0757005 0.587085 0.0716709 0.0749929 0.578483
          -0.00848475 0.0649001 0.590354 0.0746714 0.0731584 0.661841
          0.0716709 0.0749929 0.578483 0.00350164 0.0727373 0.630668
          -0.00848475 0.0649001 0.590354 0.0746714 0.0731584 0.661841
          0.0716709 0.0749929 0.578483 0.00350164 0.0727373 0.630668
          0.0746714 0.0731584 0.661841 0.100937 0.0804062 0.671573
          0.107566 -0.0128015 -0.607479 0.106057 -0.0116458 -0.606543
          0.115624 -0.00953853 -0.606174 0.109254 -0.0117923 -0.604306
          0.112396 -0.00944941 -0.595416 0.106057 -0.0116458 -0.606543
          0.109254 -0.0117923 -0.604306 0.115624 -0.00953853 -0.606174
          -0.0396832 -0.0112706 -0.242638 -0.0386367 -0.00998593 -0.259364
          0.00022389 -0.00790277 -0.232947 -0.00778128 -0.00821885 -0.267441
          0.00402628 -0.0122154 -0.223718 -0.000402004 -0.0101472 -0.218544
          0.0242242 -0.010768 -0.269019 -0.0396832 -0.0112706 -0.242638
          -0.0396832 -0.0112706 -0.242638 -0.043366 -0.0100866 -0.19915
          0.00022389 -0.00790277 -0.232947 -0.0386367 -0.00998593 -0.259364
          0.0664855 -0.0026124 -0.453424 0.0816163 -2.51321e-05 -0.451585
          0.131645 0.00478053 -0.424531 0.0688967 0.00260366 -0.397242
          0.0664855 -0.0026124 -0.453424 0.124809 5.29779e-05 -0.483101
          0.131645 0.00478053 -0.424531 0.0816163 -2.51321e-05 -0.451585
          0.0664855 -0.0026124 -0.453424 0.0696074 -0.00701453 -0.503281
          0.124809 5.29779e-05 -0.483101 0.0816163 -2.51321e-05 -0.451585
          0.0816163 -2.51321e-05 -0.451585 0.0664855 -0.0026124 -0.453424
          0.0696074 -0.00701453 -0.503281 0.0654843 -0.00281992 -0.4944
          0.0816163 -2.51321e-05 -0.451585 0.0246036 -0.00641771 -0.486264
          0.0664855 -0.0026124 -0.453424 0.0654843 -0.00281992 -0.4944
          0.0664855 -0.0026124 -0.453424 0.0246036 -0.00641771 -0.486264
          0.0696074 -0.00701453 -0.503281 0.0654843 -0.00281992 -0.4944
          0.0664855 -0.0026124 -0.453424 0.0246036 -0.00641771 -0.486264
          0.0237723 -0.00750152 -0.472728 0.0696074 -0.00701453 -0.503281
          0.132605 -0.0129756 -0.428618 0.126251 -0.0140065 -0.477368
          0.108289 -0.0142089 -0.434857 0.0801865 -0.0129857 -0.431223
          0.132605 -0.0129756 -0.428618 0.126251 -0.0140065 -0.477368
          0.0801865 -0.0129857 -0.431223 0.0896834 -0.01342 -0.474792
          0.132605 -0.0129756 -0.428618 0.166124 -0.0132648 -0.456047
          0.108289 -0.0142089 -0.434857 0.126251 -0.0140065 -0.477368
          0.108289 -0.0142089 -0.434857 0.16614 -0.0138481 -0.427097
          0.166124 -0.0132648 -0.456047 0.132605 -0.0129756 -0.428618
          0.302232 0.0971933 0.769835 0.27145 0.0922475 0.715046
          0.248601 0.0963202 0.818343 0.186567 0.0895988 0.781783
          0.27145 0.0922475 0.715046 0.302232 0.0971933 0.769835
          0.248601 0.0963202 0.818343 0.293472 0.0994953 0.79386
          0.27145 0.0922475 0.715046 0.370712 0.103799 0.763024
          0.302232 0.0971933 0.769835 0.293472 0.0994953 0.79386
          0.370712 0.103799 0.763024 0.293472 0.0994953 0.79386
          0.359992 0.10765 0.826851 0.302232 0.0971933 0.769835
          0.370712 0.103799 0.763024 0.302232 0.0971933 0.769835
          0.359992 0.10765 0.826851 0.367966 0.104195 0.7975
          0.370712 0.103799 0.763024 0.302232 0.0971933 0.769835
          0.367966 0.104195 0.7975 0.380329 0.099153 0.71259
          0.100508 -0.0172467 -0.594197 0.111776 -0.0247358 -0.601291
          0.107518 -0.0214738 -0.605715 0.0864786 -0.020683 -0.591283
          0.367966 0.104195 0.7975 0.302232 0.0971933 0.769835
          0.359992 0.10765 0.826851 0.293221 0.100629 0.862298
          0.302232 0.0971933 0.769835 0.293472 0.0994953 0.79386
          0.359992 0.10765 0.826851 0.293221 0.100629 0.862298
          0.302232 0.0971933 0.769835 0.248601 0.0963202 0.818343
          0.293472 0.0994953 0.79386 0.293221 0.100629 0.862298
          0.107518 -0.0214738 -0.605715 0.1144 -0.0159403 -0.605091
          0.0995078 -0.0148368 -0.598679 0.0982553 -0.0211777 -0.602659
          0 0 0 0 0 0
          0.00322887 -0.000798352 -0.00798877 -0.00700115 -0.00345964 -0.0120442
          0 0 0 -0.00700115 -0.00345964 -0.0120442
          0.00322887 -0.000798352 -0.00798877 -0.00165095 -0.00443768 -0.0206394
          -0.00165095 -0.00443768 -0.0206394 -0.00441511 -0.00222472 -0.0122332
          0 0 0 -0.00700115 -0.00345964 -0.0120442
          0.00322887 -0.000798352 -0.00798877 -0.00700115 -0.00345964 -0.0120442
          -0.00608307 -0.00364772 -0.0122518 -0.00165095 -0.00443768 -0.0206394
          0.00322887 -0.000798352 -0.00798877 -0.00700115 -0.00345964 -0.0120442
          0.000235171 0.000333111 0.000284983 -0.00608307 -0.00364772 -0.0122518
          0.00322887 -0.000798352 -0.00798877 0 0 0
          0.000235171 0.000333111 0.000284983 -0.00700115 -0.00345964 -0.0120442
          -0.00700115 -0.00345964 -0.0120442 0 0 0
          0.000235171 0.000333111 0.000284983 -0.00608307 -0.00364772 -0.0122518
          0 0 0 -0.0210681 -0.00282366 -0.00203494
          0 0 0 -0.00700115 -0.00345964 -0.0120442
          0 0 0 -0.0210681 -0.00282366 -0.00203494
          -0.00700115 -0.00345964 -0.0120442 -0.0198786 -0.00456851 -0.014675
          -0.0198786 -0.00456851 -0.014675 -0.0210681 -0.00282366 -0.00203494
          -0.00700115 -0.00345964 -0.0120442 -0.0280384 -0.00847588 -0.0277801
          -0.00700115 -0.00345964 -0.0120442 -0.0210681 -0.00282366 -0.00203494
          -0.0182313 -0.00555993 -0.0122023 -0.0280384 -0.00847588 -0.0277801
          -0.00700115 -0.00345964 -0.0120442 -0.0280384 -0.00847588 -0.0277801
          -0.0182313 -0.00555993 -0.0122023 -0.00551033 -0.00413169 -0.0251656
          -0.00700115 -0.00345964 -0.0120442 -0.0280384 -0.00847588 -0.0277801
          -0.00551033 -0.00413169 -0.0251656 -0.0102802 -0.00591698 -0.0432173
          0 0 0 -0.0210681 -0.00282366 -0.00203494
          -0.0182313 -0.00555993 -0.0122023 -0.00700115 -0.00345964 -0.0120442
          0.159365 0.0442869 -0.00337952 0.219222 0.0486119 -0.00572604
          0.192396 0.0511354 0.0569261 0.161268 0.0430777 0.00556753
          0.0410239 -0.0180549 -0.471625 0.0257655 -0.0133371 -0.43445
          0.00408605 -0.0172167 -0.465409 -0.00694388 -0.0196739 -0.43155
          0.0410239 -0.0180549 -0.471625 0.0228868 -0.0175449 -0.410755
          0.0257655 -0.0133371 -0.43445 -0.00694388 -0.0196739 -0.43155
          0.0410239 -0.0180549 -0.471625 0.0518296 -0.0153847 -0.436534
          0.0257655 -0.0133371 -0.43445 0.0228868 -0.0175449 -0.410755
          0.0518296 -0.0153847 -0.436534 0.0481888 -0.0126734 -0.4751
          0.0410239 -0.0180549 -0.471625 0.0257655 -0.0133371 -0.43445
          0.0518296 -0.0153847 -0.436534 0.0257655 -0.0133371 -0.43445
          0.0228868 -0.0175449 -0.410755 0.0311669 -0.015471 -0.372513
          0.0518296 -0.0153847 -0.436534 0.0276634 -0.0124395 -0.381452
          0.0257655 -0.0133371 -0.43445 0.0311669 -0.015471 -0.372513
          0.0257655 -0.0133371 -0.43445 0.0276634 -0.0124395 -0.381452
          0.0228868 -0.0175449 -0.410755 0.0311669 -0.015471 -0.372513
          0.0257655 -0.0133371 -0.43445 0.0276634 -0.0124395 -0.381452
          -0.0129101 -0.0150505 -0.411734 0.0228868 -0.0175449 -0.410755
          0.0257655 -0.0133371 -0.43445 0.0228868 -0.0175449 -0.410755
          -0.0129101 -0.0150505 -0.411734 -0.00694388 -0.0196739 -0.43155
          0.00408605 -0.0172167 -0.465409 0.0257655 -0.0133371 -0.43445
          -0.0129101 -0.0150505 -0.411734 -0.00694388 -0.0196739 -0.43155
          0.0257655 -0.0133371 -0.43445 -0.0129101 -0.0150505 -0.411734
          0.000362789 -0.0130793 -0.455538 0.00408605 -0.0172167 -0.465409
          0.120838 -0.0201982 -0.603292 0.114991 -0.0139796 -0.594954
          0.130566 -0.0141443 -0.594765 0.109567 -0.0177132 -0.608718
          0.217678 0.0968129 0.834652 0.165257 0.0931675 0.813209
          0.153439 0.0976263 0.896305 0.141876 0.0985264 0.846848
          0.0567087 0.0165835 -0.211871 0.0437957 0.0214384 -0.141935
          0.0991005 0.026316 -0.14341 -0.00726708 0.0149956 -0.161331
          0.000362789 -0.0130793 -0.455538 -0.0104375 -0.0117784 -0.420885
          -0.0129101 -0.0150505 -0.411734 0.0257655 -0.0133371 -0.43445
          0.000362789 -0.0130793 -0.455538 -0.00345285 -0.00674395 -0.445396
          -0.0104375 -0.0117784 -0.420885 0.030685 -0.00952224 -0.456825
          0.384031 0.0961793 0.70697 0.371492 0.0993781 0.80277
          0.34366 0.0948321 0.759262 0.298834 0.0968458 0.818175
          0.34366 0.0948321 0.759262 0.298834 0.0968458 0.818175
          0.328598 0.0951257 0.835047 0.258085 0.0955726 0.819384
          0.272704 0.0935405 0.736088 0.298834 0.0968458 0.818175
          0.34366 0.0948321 0.759262 0.258085 0.0955726 0.819384
          0.073345 -0.0152032 -0.0979749 0.0977345 -0.0202973 -0.106306
          0.0605018 -0.0184435 -0.0762623 0.0603776 -0.0173095 -0.104529
          -0.0355365 -0.0141714 -0.273168 0.0157321 -0.0143898 -0.251108
          0.0266702 -0.0125329 -0.259877 0.00402628 -0.0122154 -0.223718
          0.169989 0.0988924 1.0076 0.18707 0.1075 1.04546
          0.22275 0.104812 1.04279 0.19409 0.0993376 1.07089
          0.0894282 -0.0157141 -0.475633 0.0801865 -0.0129857 -0.431223
          0.0782603 -0.0163881 -0.431469 0.108289 -0.0142089 -0.434857
          0.0894282 -0.0157141 -0.475633 0.108289 -0.0142089 -0.434857
          0.0782603 -0.0163881 -0.431469 0.124448 -0.0143225 -0.471353
          0.0894282 -0.0157141 -0.475633 0.0782603 -0.0163881 -0.431469
          0.0793457 -0.0182685 -0.45509 0.124448 -0.0143225 -0.471353
          0.124448 -0.0143225 -0.471353 0.116094 -0.0159618 -0.415128
          0.0782603 -0.0163881 -0.431469 0.0793457 -0.0182685 -0.45509
          0.124448 -0.0143225 -0.471353 0.116094 -0.0159618 -0.415128
          0.108289 -0.0142089 -0.434857 0.0782603 -0.0163881 -0.431469
          0.0782603 -0.0163881 -0.431469 0.0864608 -0.0150371 -0.385583
          0.116094 -0.0159618 -0.415128 0.108289 -0.0142089 -0.434857
          0.0277829 -0.0133178 -0.215086 0.00402628 -0.0122154 -0.223718
          0.0508684 -0.0116704 -0.233291 0.0266702 -0.0125329 -0.259877
          0.238454 0.0638716 0.176386 0.163459 0.0542829 0.132925
          0.172426 0.0599948 0.182148 0.213365 0.058239 0.10934
          0.158421 0.0496291 0.0897101 0.25535 0.057476 0.0852052
          0.163459 0.0542829 0.132925 0.172727 0.0572523 0.179964
          0.134573 -0.00903642 -0.561118 0.128315 -0.00339795 -0.511432
          0.117073 -0.00842294 -0.561124 0.138348 -0.00834367 -0.530527
          0.0819398 -0.0260363 -0.591521 0.0853375 -0.0184729 -0.58789
          0.0864786 -0.020683 -0.591283 0.073082 -0.0182206 -0.580329
          0.0853375 -0.0184729 -0.58789 0.0808666 -0.022248 -0.583
          0.0914105 -0.0189928 -0.58394 0.0836865 -0.0155189 -0.576022
          0.138348 -0.00834367 -0.530527 0.134573 -0.00903642 -0.561118
          0.152841 -0.0122022 -0.551974 0.117073 -0.00842294 -0.561124
          0.146451 -0.00498123 -0.540931 0.128315 -0.00339795 -0.511432
          0.134573 -0.00903642 -0.561118 0.138348 -0.00834367 -0.530527
          0.11977 -0.0145272 -0.59394 0.108096 -0.0129574 -0.595506
          0.113746 -0.0145598 -0.606765 0.112241 -0.0126718 -0.604121
          0.109724 -0.0136582 -0.587157 0.101268 -0.0133311 -0.59472
          0.102221 -0.0132634 -0.576693 0.108096 -0.0129574 -0.595506
          0.109724 -0.0136582 -0.587157 0.108096 -0.0129574 -0.595506
          0.11977 -0.0145272 -0.59394 0.112241 -0.0126718 -0.604121
          0.11977 -0.0145272 -0.59394 0.108096 -0.0129574 -0.595506
          0.12041 -0.0170253 -0.596519 0.113746 -0.0145598 -0.606765
          -0.0117722 0.0584996 0.359025 0.0876554 0.0583691 0.26528
          0.0595115 0.0667901 0.408272 0.11408 0.0677137 0.376145
          -0.00102808 0.0614825 0.371555 0.0851486 0.064407 0.331217
          0.0595115 0.0667901 0.408272 -0.0117722 0.0584996 0.359025
          -0.0036987 0.0700438 0.47369 -0.00102808 0.0614825 0.371555
          0.0595115 0.0667901 0.408272 -0.00991763 0.0660669 0.456629
          0.0979294 -0.0116895 -0.552479 0.0670694 -0.0106223 -0.51427
          0.113639 -0.0132619 -0.522822 0.0964633 -0.0116014 -0.498097
          0.0979294 -0.0116895 -0.552479 0.0670694 -0.0106223 -0.51427
          0.0964633 -0.0116014 -0.498097 0.0873117 -0.0085829 -0.529073
          0.0964633 -0.0116014 -0.498097 0.0908379 -0.0141968 -0.513139
          0.0896834 -0.01342 -0.474792 0.0670694 -0.0106223 -0.51427
          0.0670694 -0.0106223 -0.51427 0.0896834 -0.01342 -0.474792
          0.0964633 -0.0116014 -0.498097 0.0674725 -0.0100434 -0.47284
          0.246225 0.0190544 -0.257511 0.200648 0.0214733 -0.214665
          0.256875 0.0270713 -0.182761 0.287691 0.0276488 -0.212564
          0.230788 0.0275463 -0.219076 0.200648 0.0214733 -0.214665
          0.287691 0.0276488 -0.212564 0.256875 0.0270713 -0.182761
          0.121768 -0.0132045 -0.506753 0.121678 -0.0131649 -0.477031
          0.11878 -0.011999 -0.4627 0.0964633 -0.0116014 -0.498097
          0.121768 -0.0132045 -0.506753 0.0964633 -0.0116014 -0.498097
          0.11878 -0.011999 -0.4627 0.0758985 -0.00839467 -0.497359
          0.0919653 0.00584569 -0.369417 0.125164 0.0053151 -0.431484
          0.155675 0.013872 -0.375313 0.128141 0.0092244 -0.36495
          0.0737005 -0.0132091 -0.182875 0.0975373 -0.00974557 -0.192492
          0.130472 -0.0123001 -0.19356 0.0983677 -0.0115942 -0.227508
          0.0863681 -0.0147362 -0.0821753 0.0567513 -0.00688996 -0.0800162
          0.0423499 -0.0114026 -0.055377 0.0784527 -0.00597124 -0.0773241
          -0.0276234 0.0433722 0.194733 -0.0227431 0.040404 0.146911
          0.0443352 0.0428983 0.124246 -0.0240479 0.0354399 0.0821265
          0.0567513 -0.00688996 -0.0800162 0.0368505 -0.00613969 -0.0433125
          0.0423499 -0.0114026 -0.055377 0.0784527 -0.00597124 -0.0773241
          0.0443352 0.0428983 0.124246 -0.0227431 0.040404 0.146911
          0.0583242 0.0419076 0.088712 -0.0240479 0.0354399 0.0821265
          -0.0227431 0.040404 0.146911 -0.0171148 0.0401223 0.136628
          0.0583242 0.0419076 0.088712 -0.0240479 0.0354399 0.0821265
          -0.0209697 0.0473978 0.229358 0.0467083 0.0485772 0.184625
          0.0939533 0.0506828 0.181751 -0.0276234 0.0433722 0.194733
          0.0689063 0.0561299 0.274001 0.0939533 0.0506828 0.181751
          -0.0209697 0.0473978 0.229358 0.0467083 0.0485772 0.184625
          0.0467083 0.0485772 0.184625 -0.0129809 0.041583 0.147286
          0.100178 0.0521232 0.164525 -0.0171148 0.0401223 0.136628
          -0.0155251 0.0493815 0.243135 -0.0129809 0.041583 0.147286
          0.0467083 0.0485772 0.184625 -0.0171148 0.0401223 0.136628
          0.12867 0.0712302 0.495567 0.0830577 0.0694311 0.477071
          0.189954 0.0762057 0.471849 0.102322 0.0639772 0.375425
          0.101095 0.0763853 0.812186 0.0173037 0.072694 0.712974
          0.0091938 0.0639893 0.725891 0.0612522 0.0739216 0.829945
          0.101095 0.0763853 0.812186 0.0173037 0.072694 0.712974
          0.0612522 0.0739216 0.829945 0.0337389 0.0794948 0.770988
          0.109382 0.0908914 0.835634 0.101095 0.0763853 0.812186
          0.0612522 0.0739216 0.829945 0.0337389 0.0794948 0.770988
          0.101095 0.0763853 0.812186 0.0337389 0.0794948 0.770988
          0.109382 0.0908914 0.835634 0.100789 0.0866501 0.753101
          0.12824 0.0807888 0.747178 0.101095 0.0763853 0.812186
          0.109382 0.0908914 0.835634 0.100789 0.0866501 0.753101
          0.12824 0.0807888 0.747178 0.0337389 0.0794948 0.770988
          0.101095 0.0763853 0.812186 0.100789 0.0866501 0.753101
          0.12824 0.0807888 0.747178 0.0173037 0.072694 0.712974
          0.101095 0.0763853 0.812186 0.0337389 0.0794948 0.770988
          0.0554554 -0.00994833 -0.555061 0.0728637 -0.00800935 -0.538075
          0.0391397 -0.00499197 -0.525882 0.0764351 -0.00495617 -0.53841
          0.0554554 -0.00994833 -0.555061 0.0885485 -0.0107869 -0.567941
          0.0728637 -0.00800935 -0.538075 0.0801628 -0.00822523 -0.571445
          0.107431 -0.00998447 -0.605534 0.097403 -0.00460077 -0.593334
          0.105112 -0.0109623 -0.591591 0.104453 -0.00438932 -0.60791
          0.105112 -0.0109623 -0.591591 0.097403 -0.00460077 -0.593334
          0.116001 -0.0152121 -0.60849 0.104453 -0.00438932 -0.60791
          0.105112 -0.0109623 -0.591591 0.103554 -0.0102896 -0.583544
          0.116001 -0.0152121 -0.60849 0.097403 -0.00460077 -0.593334
          0.0119736 -0.00702655 -0.341033 0.0327647 -0.0109596 -0.337261
          0.0343041 -0.00708722 -0.315142 0.00691554 -0.00994981 -0.300825
          0.00691554 -0.00994981 -0.300825 -0.0144376 -0.00790873 -0.306156
          0.0343041 -0.00708722 -0.315142 0.0119736 -0.00702655 -0.341033
          0.163956 0.0390901 -0.0880543 0.185682 0.0349137 -0.171147
          0.237712 0.0442774 -0.120025 0.229061 0.0449968 -0.0778743
          0.229061 0.0449968 -0.0778743 0.168288 0.0375999 -0.0873447
          0.257162 0.0452472 -0.0826948 0.219222 0.0486119 -0.00572604
          0.0277829 -0.0133178 -0.215086 -0.0048344 -0.0120173 -0.183844
          0.0450636 -0.0111888 -0.184676 0.00402628 -0.0122154 -0.223718
          0.00402628 -0.0122154 -0.223718 -0.00275804 -0.0140178 -0.20773
          0.0277829 -0.0133178 -0.215086 -0.0048344 -0.0120173 -0.183844
          -0.00275804 -0.0140178 -0.20773 0.0277829 -0.0133178 -0.215086
          0.0157321 -0.0143898 -0.251108 0.00402628 -0.0122154 -0.223718
          4.09269e-05 -0.015154 -0.187651 0.0441608 -0.0145928 -0.191319
          0.0233769 -0.015396 -0.171585 0.0475774 -0.0167668 -0.194693
          0.229061 0.0449968 -0.0778743 0.185682 0.0349137 -0.171147
          0.237712 0.0442774 -0.120025 0.254571 0.0422139 -0.140693
          -0.00275804 -0.0140178 -0.20773 0.0556986 -0.0149003 -0.231736
          0.0157321 -0.0143898 -0.251108 0.0277829 -0.0133178 -0.215086
          0.069771 -0.0176787 -0.359571 0.0386203 -0.0180922 -0.317802
          0.0487007 -0.016142 -0.343334 0.0406751 -0.0188984 -0.381652
          0.0487007 -0.016142 -0.343334 0.0386203 -0.0180922 -0.317802
          0.0679743 -0.0153294 -0.306575 0.00727071 -0.0159958 -0.292999
          0.0444074 -0.00740716 -0.491207 0.00217083 -0.00368403 -0.456147
          -0.00345285 -0.00674395 -0.445396 0.0442687 -0.00529419 -0.466267
          0.0444074 -0.00740716 -0.491207 0.00217083 -0.00368403 -0.456147
          0.0442687 -0.00529419 -0.466267 0.0349748 -0.00214796 -0.509131
          0.00880291 -0.00779109 -0.477707 0.00217083 -0.00368403 -0.456147
          0.0444074 -0.00740716 -0.491207 0.0349748 -0.00214796 -0.509131
          0.0444074 -0.00740716 -0.491207 0.00880291 -0.00779109 -0.477707
          0.0349748 -0.00214796 -0.509131 0.0271315 -0.00354039 -0.522255
          0.0638506 0.00594671 -0.330755 0.0657571 -0.0031679 -0.428833
          0.0919653 0.00584569 -0.369417 0.0116505 -0.0055628 -0.385172
          0.00880291 -0.00779109 -0.477707 0.00217083 -0.00368403 -0.456147
          -0.00345285 -0.00674395 -0.445396 0.0444074 -0.00740716 -0.491207
          0.0674725 -0.0100434 -0.47284 0.0444074 -0.00740716 -0.491207
          0.0442687 -0.00529419 -0.466267 0.0758985 -0.00839467 -0.497359
          0.0674725 -0.0100434 -0.47284 0.0670694 -0.0106223 -0.51427
          0.0444074 -0.00740716 -0.491207 0.0758985 -0.00839467 -0.497359
          0.0481888 -0.0126734 -0.4751 0.0444074 -0.00740716 -0.491207
          0.0674725 -0.0100434 -0.47284 0.0670694 -0.0106223 -0.51427
          0.0670694 -0.0106223 -0.51427 0.0758985 -0.00839467 -0.497359
          0.0873117 -0.0085829 -0.529073 0.0444074 -0.00740716 -0.491207
          0.0830577 0.0694311 0.477071 -0.0211191 0.0597525 0.441455
          -0.0160427 0.0608877 0.4158 0.0590932 0.0607576 0.34242
          -0.0160427 0.0608877 0.4158 0.11408 0.0677137 0.376145
          0.0830577 0.0694311 0.477071 0.0590932 0.0607576 0.34242
          -0.0160427 0.0608877 0.4158 -0.0117722 0.0584996 0.359025
          0.0590932 0.0607576 0.34242 -0.0161031 0.0543238 0.317271
          -0.0117722 0.0584996 0.359025 0.0876554 0.0583691 0.26528
          0.0590932 0.0607576 0.34242 -0.0161031 0.0543238 0.317271
          -0.0117722 0.0584996 0.359025 0.0876554 0.0583691 0.26528
          0.11408 0.0677137 0.376145 0.0590932 0.0607576 0.34242
          0.0590932 0.0607576 0.34242 0.11408 0.0677137 0.376145
          0.15796 0.0626744 0.270179 0.0876554 0.0583691 0.26528
          0.0590932 0.0607576 0.34242 0.15796 0.0626744 0.270179
          0.11408 0.0677137 0.376145 0.179831 0.069947 0.368224
          -0.0161031 0.0543238 0.317271 -0.0155251 0.0493815 0.243135
          0.0876554 0.0583691 0.26528 0.0590932 0.0607576 0.34242
          0.203901 0.0897619 1.07521 0.222064 0.0922335 1.0378
          0.146166 0.0938949 1.01979 0.1552 0.0906953 1.03528
          0.264155 0.0132645 -0.31677 0.215632 0.0156658 -0.31289
          0.279438 0.0225269 -0.278857 0.262565 0.0127976 -0.353888
          0.264155 0.0132645 -0.31677 0.246225 0.0190544 -0.257511
          0.279438 0.0225269 -0.278857 0.215632 0.0156658 -0.31289
          0.246225 0.0190544 -0.257511 0.182105 0.0194951 -0.264953
          0.279438 0.0225269 -0.278857 0.215632 0.0156658 -0.31289
          0.246225 0.0190544 -0.257511 0.200648 0.0214733 -0.214665
          0.182105 0.0194951 -0.264953 0.215632 0.0156658 -0.31289
          0.182105 0.0194951 -0.264953 0.135072 0.0117331 -0.321953
          0.177392 0.0114892 -0.3605 0.215632 0.0156658 -0.31289
          0.10082 -0.00345068 -0.604568 0.0923287 0.000732152 -0.600877
          0.113683 -0.00346981 -0.617295 0.0965191 0.00659027 -0.605155
          0.10082 -0.00345068 -0.604568 0.0965191 0.00659027 -0.605155
          0.113683 -0.00346981 -0.617295 0.123019 0.00231494 -0.613989
          0.10082 -0.00345068 -0.604568 0.0923287 0.000732152 -0.600877
          0.104453 -0.00438932 -0.60791 0.113683 -0.00346981 -0.617295
          0.10082 -0.00345068 -0.604568 0.104453 -0.00438932 -0.60791
          0.107431 -0.00998447 -0.605534 0.113683 -0.00346981 -0.617295
          0.0407461 -0.00197492 -0.0545277 0.0247822 0.00224888 -0.0362098
          0.00965275 -0.00343188 -0.0436944 0.0114538 -0.00385626 -0.0309387
          0.213365 0.058239 0.10934 0.172426 0.0599948 0.182148
          0.199017 0.0610013 0.140613 0.141569 0.0485009 0.0692919
          0.199017 0.0610013 0.140613 0.198498 0.0519682 0.0225208
          0.213365 0.058239 0.10934 0.141569 0.0485009 0.0692919
          0.199017 0.0610013 0.140613 0.198498 0.0519682 0.0225208
          0.246247 0.0617354 0.0848547 0.213365 0.058239 0.10934
          0.1297 9.87133e-05 -0.605701 0.123019 0.00231494 -0.613989
          0.120129 -0.00615696 -0.608411 0.119565 -0.00358364 -0.614347
          0.213365 0.058239 0.10934 0.246247 0.0617354 0.0848547
          0.310355 0.0708743 0.136241 0.262343 0.0583567 0.0517336
          0.112472 -0.00908123 -0.617884 0.114469 -0.00938039 -0.604088
          0.120129 -0.00615696 -0.608411 0.119565 -0.00358364 -0.614347
          0.262343 0.0583567 0.0517336 0.25535 0.057476 0.0852052
          0.35358 0.070367 0.118803 0.213365 0.058239 0.10934
          -0.0129809 0.041583 0.147286 0.0640984 0.0457958 0.114738
          0.100178 0.0521232 0.164525 -0.0171148 0.0401223 0.136628
          -0.0129809 0.041583 0.147286 -0.0123321 0.0364686 0.0853844
          0.0640984 0.0457958 0.114738 -0.0171148 0.0401223 0.136628
          0.198498 0.0519682 0.0225208 0.262343 0.0583567 0.0517336
          0.246247 0.0617354 0.0848547 0.213365 0.058239 0.10934
          0.137361 -0.000485042 -0.592 0.138658 -0.00579803 -0.587756
          0.155927 0.000251628 -0.585031 0.125961 -0.00727612 -0.600585
          -0.00441511 -0.00222472 -0.0122332 -0.00310213 -0.00244935 -0.0142378
          0 0 0 0 0 0
          -0.00310213 -0.00244935 -0.0142378 0 0 0
          0 0 0 0 0 0
          -0.00310213 -0.00244935 -0.0142378 -0.0201014 -0.000736465 -0.00233419
          0 0 0 0 0 0
          -0.00310213 -0.00244935 -0.0142378 -0.0201014 -0.000736465 -0.00233419
          -0.00354797 -0.000992811 -0.00468258 0 0 0
          -0.00310213 -0.00244935 -0.0142378 -0.00354797 -0.000992811 -0.00468258
          0.00906148 -0.00396656 -0.00244451 0 0 0
          0.00765602 -0.0064143 -0.0148698 -0.00310213 -0.00244935 -0.0142378
          0.00906148 -0.00396656 -0.00244451 0 0 0
          -0.00310213 -0.00244935 -0.0142378 0.00765602 -0.0064143 -0.0148698
          0 0 0 0 0 0
          -0.0218483 -0.00148098 -0.00984418 -0.0201014 -0.000736465 -0.00233419
          -0.00354797 -0.000992811 -0.00468258 -0.00310213 -0.00244935 -0.0142378
          -0.0184737 -0.00268011 -0.0251174 -0.0218483 -0.00148098 -0.00984418
          -0.00354797 -0.000992811 -0.00468258 -0.00310213 -0.00244935 -0.0142378
          0.18704 -0.0084688 -0.503135 0.166017 -0.00832996 -0.548618
          0.152841 -0.0122022 -0.551974 0.175681 -0.00370727 -0.508049
          0.159421 -0.0147054 -0.329643 0.113705 -0.0175004 -0.293712
          0.150465 -0.0175464 -0.284748 0.118528 -0.0149838 -0.308486
          0.159421 -0.0147054 -0.329643 0.118528 -0.0149838 -0.308486
          0.150465 -0.0175464 -0.284748 0.150518 -0.0153733 -0.270885
          0.118528 -0.0149838 -0.308486 0.113705 -0.0175004 -0.293712
          0.150465 -0.0175464 -0.284748 0.150518 -0.0153733 -0.270885
          0.0851486 0.064407 0.331217 0.11408 0.0677137 0.376145
          0.17999 0.0712148 0.342808 0.156872 0.0725458 0.373258
          0.0851486 0.064407 0.331217 0.17999 0.0712148 0.342808
          0.143321 0.0656661 0.27956 0.156872 0.0725458 0.373258
          0.0851486 0.064407 0.331217 0.17999 0.0712148 0.342808
          0.0876554 0.0583691 0.26528 0.143321 0.0656661 0.27956
          0.0851486 0.064407 0.331217 0.11408 0.0677137 0.376145
          0.0876554 0.0583691 0.26528 0.17999 0.0712148 0.342808
          0.0876554 0.0583691 0.26528 0.209017 0.0680971 0.26482
          0.143321 0.0656661 0.27956 0.17999 0.0712148 0.342808
          0.143321 0.0656661 0.27956 0.209017 0.0680971 0.26482
          0.212417 0.073621 0.315974 0.17999 0.0712148 0.342808
          0.143321 0.0656661 0.27956 0.17999 0.0712148 0.342808
          0.212417 0.073621 0.315974 0.156872 0.0725458 0.373258
          0.17999 0.0712148 0.342808 0.212417 0.073621 0.315974
          0.276815 0.0802136 0.346431 0.209017 0.0680971 0.26482
          0.00727071 -0.0159958 -0.292999 0.00753595 -0.0138764 -0.340524
          -0.0312485 -0.0147393 -0.307478 0.0331346 -0.0139518 -0.311202
          0.0975373 -0.00974557 -0.192492 0.0910404 -0.00871713 -0.248485
          0.0962148 -0.00593256 -0.21049 0.143208 -0.00900353 -0.241278
          0.121678 -0.0131649 -0.477031 0.0943749 -0.0110955 -0.459335
          0.11878 -0.011999 -0.4627 0.0964633 -0.0116014 -0.498097
          0.130472 -0.0123001 -0.19356 0.0825549 -0.00948852 -0.155184
          0.126891 -0.00861598 -0.183665 0.0975373 -0.00974557 -0.192492
          0.189171 0.00696049 -0.46894 0.177759 0.0101018 -0.451713
          0.249124 0.0204591 -0.440537 0.231423 0.0159505 -0.487696
          0.0992329 -0.00753719 -0.587347 0.0973108 -0.00874778 -0.600482
          0.110311 -0.011447 -0.600512 0.103294 -0.00986613 -0.605495
          0.0992329 -0.00753719 -0.587347 0.0890549 -0.00504081 -0.59431
          0.0973108 -0.00874778 -0.600482 0.103294 -0.00986613 -0.605495
          0.0992329 -0.00753719 -0.587347 0.0998489 -0.00965086 -0.589306
          0.0973108 -0.00874778 -0.600482 0.0890549 -0.00504081 -0.59431
          0.0992329 -0.00753719 -0.587347 0.0998489 -0.00965086 -0.589306
          0.110311 -0.011447 -0.600512 0.0973108 -0.00874778 -0.600482
          0.110311 -0.011447 -0.600512 0.0973108 -0.00874778 -0.600482
          0.0998489 -0.00965086 -0.589306 0.106057 -0.0116458 -0.606543
          0.103294 -0.00986613 -0.605495 0.0975384 -0.0068226 -0.604124
          0.0890549 -0.00504081 -0.59431 0.0973108 -0.00874778 -0.600482
          0.0975384 -0.0068226 -0.604124 0.0890549 -0.00504081 -0.59431
          0.0973108 -0.00874778 -0.600482 0.0845377 -0.00382754 -0.593911
          0.0975384 -0.0068226 -0.604124 0.0973108 -0.00874778 -0.600482
          0.0910021 -0.00774906 -0.595565 0.0845377 -0.00382754 -0.593911
          0 0 0 0 0 0
          0.0182165 -0.00767366 -0.0242749 0.013461 -0.00348063 -0.0158737
          0.013461 -0.00348063 -0.0158737 0.0182165 -0.00767366 -0.0242749
          0.0220256 -0.0109318 -0.0199872 0 0 0
          0.118476 -0.0115173 -0.589823 0.13808 -0.0101082 -0.579112
          0.118768 -0.0128463 -0.594283 0.124799 -0.0135258 -0.574159
          0.0910021 -0.00774906 -0.595565 0.0973108 -0.00874778 -0.600482
          0.074161 -0.0108072 -0.582806 0.0845377 -0.00382754 -0.593911
          0.0973108 -0.00874778 -0.600482 0.074161 -0.0108072 -0.582806
          0.0974821 -0.012431 -0.598996 0.0910021 -0.00774906 -0.595565
          0.0973108 -0.00874778 -0.600482 0.0890549 -0.00504081 -0.59431
          0.074161 -0.0108072 -0.582806 0.0845377 -0.00382754 -0.593911
          0.0973108 -0.00874778 -0.600482 0.074161 -0.0108072 -0.582806
          0.0890549 -0.00504081 -0.59431 0.076987 -0.00403773 -0.579963
          0.0303649 -0.0119405 -0.0807488 -0.0112473 -0.00867774 -0.0676795
          0.0126215 -0.00998045 -0.0546027 0.00553736 -0.00949131 -0.0872548
          0.0657571 -0.0031679 -0.428833 0.0664855 -0.0026124 -0.453424
          0.0945674 0.00212618 -0.424615 0.00962742 -0.00493176 -0.396985
          0.0945674 0.00212618 -0.424615 0.124809 5.29779e-05 -0.483101
          0.131645 0.00478053 -0.424531 0.0664855 -0.0026124 -0.453424
          0.0664855 -0.0026124 -0.453424 0.131645 0.00478053 -0.424531
          0.0945674 0.00212618 -0.424615 0.0688967 0.00260366 -0.397242
          0.0945674 0.00212618 -0.424615 0.125164 0.0053151 -0.431484
          0.128141 0.0092244 -0.36495 0.131645 0.00478053 -0.424531
          0.128141 0.0092244 -0.36495 0.0945674 0.00212618 -0.424615
          0.131645 0.00478053 -0.424531 0.0688967 0.00260366 -0.397242
          0.0948104 -0.00236865 -0.481413 0.124809 5.29779e-05 -0.483101
          0.0945674 0.00212618 -0.424615 0.0664855 -0.0026124 -0.453424
          0.0948104 -0.00236865 -0.481413 0.0664855 -0.0026124 -0.453424
          0.0945674 0.00212618 -0.424615 0.0657571 -0.0031679 -0.428833
          0.073345 -0.0152032 -0.0979749 0.0508293 -0.0107902 -0.0918145
          0.0303649 -0.0119405 -0.0807488 0.0423499 -0.0114026 -0.055377
          0.073345 -0.0152032 -0.0979749 0.0303649 -0.0119405 -0.0807488
          0.0605018 -0.0184435 -0.0762623 0.0423499 -0.0114026 -0.055377
          0.0303649 -0.0119405 -0.0807488 0.073345 -0.0152032 -0.0979749
          0.0605018 -0.0184435 -0.0762623 0.0603776 -0.0173095 -0.104529
          0.0341126 -0.0125083 -0.114873 0.0603776 -0.0173095 -0.104529
          0.073345 -0.0152032 -0.0979749 0.0303649 -0.0119405 -0.0807488
          0.0341126 -0.0125083 -0.114873 0.0303649 -0.0119405 -0.0807488
          0.073345 -0.0152032 -0.0979749 0.0508293 -0.0107902 -0.0918145
          0.0303649 -0.0119405 -0.0807488 0.0603776 -0.0173095 -0.104529
          0.0347523 -0.014953 -0.10816 0.0341126 -0.0125083 -0.114873
          0.0864786 -0.020683 -0.591283 0.1144 -0.0159403 -0.605091
          0.0995078 -0.0148368 -0.598679 0.107518 -0.0214738 -0.605715
          0.303862 0.0937414 0.696053 0.371492 0.0993781 0.80277
          0.298834 0.0968458 0.818175 0.268238 0.0953534 0.771063
          0.1144 -0.0159403 -0.605091 0.107518 -0.0214738 -0.605715
          0.109567 -0.0177132 -0.608718 0.107318 -0.0140032 -0.607226
          0.303862 0.0937414 0.696053 0.380329 0.099153 0.71259
          0.371492 0.0993781 0.80277 0.317504 0.0992951 0.814724
          0.380329 0.099153 0.71259 0.367966 0.104195 0.7975
          0.371492 0.0993781 0.80277 0.317504 0.0992951 0.814724
          0.302232 0.0971933 0.769835 0.317504 0.0992951 0.814724
          0.224695 0.0953553 0.846221 0.248601 0.0963202 0.818343
          0.0653537 -0.018359 -0.55754 0.0821186 -0.0163022 -0.547193
          0.0998571 -0.0152705 -0.572757 0.0836865 -0.0155189 -0.576022
          0.0653537 -0.018359 -0.55754 0.0821186 -0.0163022 -0.547193
          0.0836865 -0.0155189 -0.576022 0.0647985 -0.0129255 -0.545036
          0.0653537 -0.018359 -0.55754 0.0647985 -0.0129255 -0.545036
          0.0836865 -0.0155189 -0.576022 0.0480688 -0.0136174 -0.554683
          0.0653537 -0.018359 -0.55754 0.0836865 -0.0155189 -0.576022
          0.073082 -0.0182206 -0.580329 0.0480688 -0.0136174 -0.554683
          0.0359137 0.0362804 0.0463107 -0.0240479 0.0354399 0.0821265
          0.0443352 0.0428983 0.124246 0.0583242 0.0419076 0.088712
          0.0359137 0.0362804 0.0463107 0.0443352 0.0428983 0.124246
          0.126597 0.045842 0.0973606 0.0583242 0.0419076 0.088712
          0.0443352 0.0428983 0.124246 0.0359137 0.0362804 0.0463107
          -0.0153192 0.0401373 0.139303 -0.0240479 0.0354399 0.0821265
          0.0359137 0.0362804 0.0463107 -0.0249977 0.0324135 0.0456061
          -0.0153192 0.0401373 0.139303 -0.0240479 0.0354399 0.0821265
          0.0359137 0.0362804 0.0463107 -0.0249977 0.0324135 0.0456061
          -0.0240479 0.0354399 0.0821265 -0.0258321 0.0283266 0.00106752
          0.0359137 0.0362804 0.0463107 -0.0258321 0.0283266 0.00106752
          -0.0240479 0.0354399 0.0821265 -0.0199145 0.0267211 -0.024701
          0.0359137 0.0362804 0.0463107 -0.0249977 0.0324135 0.0456061
          -0.0258321 0.0283266 0.00106752 0.023489 0.0297041 -0.0166612
          0.023489 0.0297041 -0.0166612 0.0540385 0.0279604 -0.0683123
          -0.0258321 0.0283266 0.00106752 0.0359137 0.0362804 0.0463107
          0.0987772 -0.0110197 -0.589217 0.0885485 -0.0107869 -0.567941
          0.074161 -0.0108072 -0.582806 0.0998489 -0.00965086 -0.589306
          0.0998571 -0.0152705 -0.572757 0.0994754 -0.0162388 -0.56772
          0.102378 -0.0147507 -0.539178 0.0821186 -0.0163022 -0.547193
          0.0998571 -0.0152705 -0.572757 0.0994754 -0.0162388 -0.56772
          0.118801 -0.0139847 -0.559433 0.102378 -0.0147507 -0.539178
          0.102378 -0.0147507 -0.539178 0.0821186 -0.0163022 -0.547193
          0.0994754 -0.0162388 -0.56772 0.0828441 -0.0184706 -0.529701
          0.0535114 -0.0187996 -0.526146 0.0135894 -0.016901 -0.492048
          0.0510099 -0.0126816 -0.511239 0.0270565 -0.014071 -0.52226
          0.108096 -0.0129574 -0.595506 0.107431 -0.00998447 -0.605534
          0.105112 -0.0109623 -0.591591 0.12041 -0.0170253 -0.596519
          0.11977 -0.0145272 -0.59394 0.102221 -0.0132634 -0.576693
          0.11472 -0.0137039 -0.576103 0.108096 -0.0129574 -0.595506
          0.0535114 -0.0187996 -0.526146 0.0172693 -0.0198767 -0.502773
          0.0135894 -0.016901 -0.492048 0.0270565 -0.014071 -0.52226
          0.102378 -0.0147507 -0.539178 0.0908379 -0.0141968 -0.513139
          0.0937691 -0.0138029 -0.549149 0.0821186 -0.0163022 -0.547193
          0.302885 0.0378947 -0.208492 0.239664 0.0342104 -0.217622
          0.213557 0.025394 -0.25746 0.240943 0.0331244 -0.188792
          0.191072 0.0185475 -0.420765 0.153324 0.009434 -0.465698
          0.218704 0.0214812 -0.457714 0.177759 0.0101018 -0.451713
          0.218704 0.0214812 -0.457714 0.153324 0.009434 -0.465698
          0.182702 0.0147905 -0.493674 0.177759 0.0101018 -0.451713
          0.218704 0.0214812 -0.457714 0.177759 0.0101018 -0.451713
          0.182702 0.0147905 -0.493674 0.18131 0.00998128 -0.509551
          0.16095 0.0298942 -0.151939 0.243931 0.0382422 -0.120107
          0.199466 0.0297779 -0.163731 0.240943 0.0331244 -0.188792
          0.191072 0.0185475 -0.420765 0.218704 0.0214812 -0.457714
          0.214694 0.0186287 -0.384992 0.177759 0.0101018 -0.451713
          0.18131 0.00998128 -0.509551 0.236316 0.0246008 -0.485233
          0.182702 0.0147905 -0.493674 0.218704 0.0214812 -0.457714
          0.231423 0.0159505 -0.487696 0.236316 0.0246008 -0.485233
          0.18131 0.00998128 -0.509551 0.218704 0.0214812 -0.457714
          0.304914 0.0388482 -0.161189 0.243931 0.0382422 -0.120107
          0.31346 0.0448283 -0.141522 0.240943 0.0331244 -0.188792
          0.291481 0.099271 1.04863 0.288612 0.101508 1.08839
          0.299437 0.101203 1.08532 0.256621 0.0931621 1.063
          0.0463084 -0.0174144 -0.0414897 0.0292423 -0.0145331 -0.0274994
          0.0220256 -0.0109318 -0.0199872 0.0385235 -0.0105734 -0.0388337
          0.176831 0.00185096 -0.511452 0.124087 -0.00488907 -0.541258
          0.147387 0.00173919 -0.514186 0.163709 -0.000792662 -0.549448
          0.176831 0.00185096 -0.511452 0.146451 -0.00498123 -0.540931
          0.124087 -0.00488907 -0.541258 0.163709 -0.000792662 -0.549448
          0.163709 -0.000792662 -0.549448 0.203477 -0.00152772 -0.523147
          0.176831 0.00185096 -0.511452 0.146451 -0.00498123 -0.540931
          0.282707 0.0780598 0.447798 0.185828 0.0648493 0.366047
          0.185822 0.0722326 0.453532 0.15877 0.0654663 0.366123
          0.282707 0.0780598 0.447798 0.185828 0.0648493 0.366047
          0.15877 0.0654663 0.366123 0.240365 0.0719055 0.361752
          0.117833 0.067363 0.48689 0.15877 0.0654663 0.366123
          0.185822 0.0722326 0.453532 0.185828 0.0648493 0.366047
          0.180281 -0.00286856 -0.557066 0.163709 -0.000792662 -0.549448
          0.145549 -0.00508143 -0.577714 0.137254 -0.010044 -0.578733
          0.145549 -0.00508143 -0.577714 0.163709 -0.000792662 -0.549448
          0.120205 -0.0074673 -0.574662 0.137254 -0.010044 -0.578733
          0.15353 0.000570539 -0.562779 0.163709 -0.000792662 -0.549448
          0.120205 -0.0074673 -0.574662 0.145549 -0.00508143 -0.577714
          0.15353 0.000570539 -0.562779 0.163709 -0.000792662 -0.549448
          0.124087 -0.00488907 -0.541258 0.120205 -0.0074673 -0.574662
          0.163709 -0.000792662 -0.549448 0.124087 -0.00488907 -0.541258
          0.147387 0.00173919 -0.514186 0.15353 0.000570539 -0.562779
          0.163709 -0.000792662 -0.549448 0.146451 -0.00498123 -0.540931
          0.124087 -0.00488907 -0.541258 0.120205 -0.0074673 -0.574662
          0.163709 -0.000792662 -0.549448 0.146451 -0.00498123 -0.540931
          0.120205 -0.0074673 -0.574662 0.137254 -0.010044 -0.578733
          0.117833 0.067363 0.48689 0.0982184 0.0600215 0.359552
          0.15877 0.0654663 0.366123 0.185828 0.0648493 0.366047
          0.125164 0.0053151 -0.431484 0.177759 0.0101018 -0.451713
          0.155675 0.013872 -0.375313 0.171681 0.0118168 -0.394107
          0.141569 0.0485009 0.0692919 0.0640984 0.0457958 0.114738
          0.0611862 0.0391504 0.0429092 0.104946 0.0435662 0.0577277
          0.0567513 -0.00688996 -0.0800162 0.0784527 -0.00597124 -0.0773241
          0.0811874 0.0034827 -0.0826292 0.0407461 -0.00197492 -0.0545277
          0.0567513 -0.00688996 -0.0800162 0.0407461 -0.00197492 -0.0545277
          0.0811874 0.0034827 -0.0826292 0.0680056 -0.0011597 -0.0994993
          0.186477 0.0935983 0.764036 0.272704 0.0935405 0.736088
          0.217441 0.0908349 0.694364 0.205824 0.0927761 0.710946
          0.0680056 -0.0011597 -0.0994993 0.0695339 -0.0077584 -0.112705
          0.0567513 -0.00688996 -0.0800162 0.0389648 -0.00539303 -0.0891458
          0.0863681 -0.0147362 -0.0821753 0.0508293 -0.0107902 -0.0918145
          0.0423499 -0.0114026 -0.055377 0.0567513 -0.00688996 -0.0800162
          0.0948104 -0.00236865 -0.481413 0.0945674 0.00212618 -0.424615
          0.125164 0.0053151 -0.431484 0.0657571 -0.0031679 -0.428833
          0.0567513 -0.00688996 -0.0800162 0.0165473 -0.00617679 -0.0509829
          0.0423499 -0.0114026 -0.055377 0.0368505 -0.00613969 -0.0433125
          0.107431 -0.00998447 -0.605534 0.0865935 -0.00428175 -0.59029
          0.104453 -0.00438932 -0.60791 0.10082 -0.00345068 -0.604568
          0.107431 -0.00998447 -0.605534 0.097403 -0.00460077 -0.593334
          0.104453 -0.00438932 -0.60791 0.0865935 -0.00428175 -0.59029
          0.0865935 -0.00428175 -0.59029 0.105112 -0.0109623 -0.591591
          0.107431 -0.00998447 -0.605534 0.097403 -0.00460077 -0.593334
          0.10082 -0.00345068 -0.604568 0.0865935 -0.00428175 -0.59029
          0.0998671 -0.00980449 -0.59992 0.0925113 -0.0100672 -0.58693
          0.0925113 -0.0100672 -0.58693 0.0865935 -0.00428175 -0.59029
          0.0998671 -0.00980449 -0.59992 0.0859557 -0.0131762 -0.586375
          0.0925113 -0.0100672 -0.58693 0.0715879 -0.0107643 -0.570157
          0.0865935 -0.00428175 -0.59029 0.0859557 -0.0131762 -0.586375
          0.145402 -0.0119491 -0.248543 0.143208 -0.00900353 -0.241278
          0.113901 -0.0112095 -0.282981 0.0983677 -0.0115942 -0.227508
          0.145402 -0.0119491 -0.248543 0.0927891 -0.0138988 -0.27258
          0.0966303 -0.0151294 -0.230152 0.0983677 -0.0115942 -0.227508
          -0.0228156 -0.00921044 -0.364747 0.0119736 -0.00702655 -0.341033
          0.0327647 -0.0109596 -0.337261 0.0249799 -0.00927824 -0.386426
          0.0865935 -0.00428175 -0.59029 0.0711245 0.00679275 -0.587151
          0.0805224 -0.000891983 -0.581501 0.0923287 0.000732152 -0.600877
          0.0865935 -0.00428175 -0.59029 0.0711245 0.00679275 -0.587151
          0.0923287 0.000732152 -0.600877 0.085481 0.000932724 -0.594326
          0.116074 -0.00889233 -0.591783 0.115624 -0.00953853 -0.606174
          0.120129 -0.00615696 -0.608411 0.130862 -0.00448618 -0.596049
          0.25679 0.05184 -0.0499682 0.323171 0.0510428 -0.116229
          0.229061 0.0449968 -0.0778743 0.237712 0.0442774 -0.120025
          0.0995078 -0.0148368 -0.598679 0.0853375 -0.0184729 -0.58789
          0.0987473 -0.0156323 -0.593287 0.0836865 -0.0155189 -0.576022
          0.0836865 -0.0155189 -0.576022 0.0853375 -0.0184729 -0.58789
          0.0859557 -0.0131762 -0.586375 0.0995078 -0.0148368 -0.598679
          0.0836865 -0.0155189 -0.576022 0.073082 -0.0182206 -0.580329
          0.0859557 -0.0131762 -0.586375 0.0853375 -0.0184729 -0.58789
          0.152768 -0.0128705 -0.286097 0.143208 -0.00900353 -0.241278
          0.113901 -0.0112095 -0.282981 0.145402 -0.0119491 -0.248543
          0.0864786 -0.020683 -0.591283 0.0853375 -0.0184729 -0.58789
          0.0982553 -0.0211777 -0.602659 0.0995078 -0.0148368 -0.598679
          0.0982553 -0.0211777 -0.602659 0.0853375 -0.0184729 -0.58789
          0.0987473 -0.0156323 -0.593287 0.0995078 -0.0148368 -0.598679
          0.0982553 -0.0211777 -0.602659 0.0853375 -0.0184729 -0.58789
          0.0914105 -0.0189928 -0.58394 0.0987473 -0.0156323 -0.593287
          0.0982553 -0.0211777 -0.602659 0.0808666 -0.022248 -0.583
          0.0914105 -0.0189928 -0.58394 0.0853375 -0.0184729 -0.58789
          0.19211 0.00963681 -0.421164 0.124809 5.29779e-05 -0.483101
          0.131645 0.00478053 -0.424531 0.189171 0.00696049 -0.46894
          0.19211 0.00963681 -0.421164 0.160387 0.00185887 -0.476443
          0.124809 5.29779e-05 -0.483101 0.189171 0.00696049 -0.46894
          0.0689865 0.0290619 -0.0831016 0.120774 0.030637 -0.123642
          0.168288 0.0375999 -0.0873447 0.0991005 0.026316 -0.14341
          0.227329 0.00478569 -0.482107 0.189171 0.00696049 -0.46894
          0.23316 0.00509314 -0.452771 0.19211 0.00963681 -0.421164
          0.0689865 0.0290619 -0.0831016 0.0688902 0.018373 -0.205679
          0.120774 0.030637 -0.123642 0.0991005 0.026316 -0.14341
          0.189171 0.00696049 -0.46894 0.227329 0.00478569 -0.482107
          0.160387 0.00185887 -0.476443 0.176831 0.00185096 -0.511452
          0.160387 0.00185887 -0.476443 0.176831 0.00185096 -0.511452
          0.147387 0.00173919 -0.514186 0.189171 0.00696049 -0.46894
          0.189171 0.00696049 -0.46894 0.160387 0.00185887 -0.476443
          0.124809 5.29779e-05 -0.483101 0.147387 0.00173919 -0.514186
          0.150403 0.00210831 -0.583032 0.155927 0.000251628 -0.585031
          0.171264 0.00623301 -0.573364 0.145549 -0.00508143 -0.577714
          0.141569 0.0485009 0.0692919 0.0640984 0.0457958 0.114738
          0.104946 0.0435662 0.0577277 0.100178 0.0521232 0.164525
          0.189171 0.00696049 -0.46894 0.227329 0.00478569 -0.482107
          0.176831 0.00185096 -0.511452 0.21932 0.00944826 -0.501778
          0.189171 0.00696049 -0.46894 0.21932 0.00944826 -0.501778
          0.18131 0.00998128 -0.509551 0.231423 0.0159505 -0.487696
          0.102925 -0.01385 -0.339323 0.0858781 -0.0155531 -0.346023
          0.0679743 -0.0153294 -0.306575 0.0689447 -0.0128604 -0.335303
          0.102925 -0.01385 -0.339323 0.0864608 -0.0150371 -0.385583
          0.0858781 -0.0155531 -0.346023 0.0689447 -0.0128604 -0.335303
          0.133475 0.0765293 0.818985 0.101095 0.0763853 0.812186
          0.102717 0.0704512 0.892847 0.153914 0.0798208 0.88027
          0.00727071 -0.0159958 -0.292999 -0.000947842 -0.0186037 -0.321454
          -0.0273646 -0.016129 -0.335138 0.0101504 -0.0167399 -0.34114
          0.204122 0.0875869 0.77037 0.209922 0.09271 0.859342
          0.293472 0.0994953 0.79386 0.248601 0.0963202 0.818343
          0.204122 0.0875869 0.77037 0.186567 0.0895988 0.781783
          0.209922 0.09271 0.859342 0.248601 0.0963202 0.818343
          0.204122 0.0875869 0.77037 0.186567 0.0895988 0.781783
          0.154107 0.0883189 0.857766 0.209922 0.09271 0.859342
          0.209922 0.09271 0.859342 0.204122 0.0875869 0.77037
          0.133475 0.0765293 0.818985 0.154107 0.0883189 0.857766
          0.209922 0.09271 0.859342 0.186567 0.0895988 0.781783
          0.154107 0.0883189 0.857766 0.248601 0.0963202 0.818343
          0.293472 0.0994953 0.79386 0.248601 0.0963202 0.818343
          0.209922 0.09271 0.859342 0.272881 0.101595 0.900105
          0.293472 0.0994953 0.79386 0.209922 0.09271 0.859342
          0.24564 0.0977652 0.878842 0.272881 0.101595 0.900105
          0.209922 0.09271 0.859342 0.194109 0.0876825 0.84685
          0.293472 0.0994953 0.79386 0.24564 0.0977652 0.878842
          -0.0438624 -0.0112966 -0.125053 -0.00603925 -0.00921344 -0.155231
          -0.0255505 -0.00966033 -0.133725 0.00270117 -0.00839904 -0.122071
          -0.0152809 -0.00864801 -0.0931318 0.00706416 -0.00670828 -0.137923
          -0.0255505 -0.00966033 -0.133725 0.00486514 -0.00518339 -0.0966911
          -0.0152809 -0.00864801 -0.0931318 -0.0255505 -0.00966033 -0.133725
          -0.0295031 -0.0100554 -0.0861512 0.00486514 -0.00518339 -0.0966911
          -0.0152809 -0.00864801 -0.0931318 0.00486514 -0.00518339 -0.0966911
          -0.0295031 -0.0100554 -0.0861512 -0.0096781 -0.00610029 -0.0620695
          0.160002 -0.0117775 -0.507128 0.164278 -0.0127238 -0.470143
          0.137233 -0.0135718 -0.504352 0.131259 -0.0138379 -0.510261
          0.101199 -0.0169444 -0.331952 0.0858781 -0.0155531 -0.346023
          0.069771 -0.0176787 -0.359571 0.0386203 -0.0180922 -0.317802
          0.118801 -0.0139847 -0.559433 0.13808 -0.0101082 -0.579112
          0.124799 -0.0135258 -0.574159 0.148566 -0.0137518 -0.555601
          0.130862 -0.00448618 -0.596049 0.118662 -0.0118541 -0.601902
          0.137741 -0.00834925 -0.591306 0.112396 -0.00944941 -0.595416
          0.124799 -0.0135258 -0.574159 0.118801 -0.0139847 -0.559433
          0.12387 -0.0137173 -0.55443 0.102221 -0.0132634 -0.576693
          0.124799 -0.0135258 -0.574159 0.148566 -0.0137518 -0.555601
          0.145529 -0.0171154 -0.571117 0.12387 -0.0137173 -0.55443
          0.136736 -0.0134479 -0.580147 0.148566 -0.0137518 -0.555601
          0.145529 -0.0171154 -0.571117 0.124799 -0.0135258 -0.574159
          0.124799 -0.0135258 -0.574159 0.13808 -0.0101082 -0.579112
          0.136736 -0.0134479 -0.580147 0.148566 -0.0137518 -0.555601
          0.030685 -0.00952224 -0.456825 -0.0126592 -0.0086086 -0.409138
          0.049198 -0.0109875 -0.426503 0.0249799 -0.00927824 -0.386426
          0.030685 -0.00952224 -0.456825 0.00880291 -0.00779109 -0.477707
          0.0481888 -0.0126734 -0.4751 0.0129194 -0.0132095 -0.492054
          0.030685 -0.00952224 -0.456825 0.00880291 -0.00779109 -0.477707
          0.0444074 -0.00740716 -0.491207 0.0481888 -0.0126734 -0.4751
          0.030685 -0.00952224 -0.456825 0.0444074 -0.00740716 -0.491207
          0.0674725 -0.0100434 -0.47284 0.0481888 -0.0126734 -0.4751
          0.030685 -0.00952224 -0.456825 0.0444074 -0.00740716 -0.491207
          0.0442687 -0.00529419 -0.466267 0.0674725 -0.0100434 -0.47284
          0.030685 -0.00952224 -0.456825 0.0442687 -0.00529419 -0.466267
          0.0368281 -0.00633565 -0.419251 0.0674725 -0.0100434 -0.47284
          0.0689865 0.0290619 -0.0831016 -0.00726708 0.0149956 -0.161331
          0.0437957 0.0214384 -0.141935 -0.0152553 0.0199927 -0.106234
          0.0689865 0.0290619 -0.0831016 0.0437957 0.0214384 -0.141935
          0.0991005 0.026316 -0.14341 0.0692071 0.0290328 -0.0736489
          0.179768 0.0976013 0.825329 0.141876 0.0985264 0.846848
          0.107324 0.0996718 0.805121 0.158504 0.0967715 0.763692
          0.179768 0.0976013 0.825329 0.141876 0.0985264 0.846848
          0.11098 0.103607 0.870345 0.107324 0.0996718 0.805121
          0.107324 0.0996718 0.805121 0.141876 0.0985264 0.846848
          0.11098 0.103607 0.870345 0.0583965 0.0997503 0.826217
          0.107324 0.0996718 0.805121 0.108162 0.0929403 0.778368
          0.141876 0.0985264 0.846848 0.0583965 0.0997503 0.826217
          0.141876 0.0985264 0.846848 0.108162 0.0929403 0.778368
          0.107324 0.0996718 0.805121 0.158504 0.0967715 0.763692
          0.049462 0.0234903 -0.116728 -0.0244421 0.0178141 -0.132669
          0.0540385 0.0279604 -0.0683123 0.045572 0.0183116 -0.184803
          0.0269824 0.0190862 -0.166782 0.045572 0.0183116 -0.184803
          -0.0206594 0.0140266 -0.187186 -0.0244421 0.0178141 -0.132669
          0.109382 0.0908914 0.835634 0.0337389 0.0794948 0.770988
          0.0525426 0.0870027 0.823583 0.100789 0.0866501 0.753101
          0.109382 0.0908914 0.835634 0.0612522 0.0739216 0.829945
          0.0525426 0.0870027 0.823583 0.0337389 0.0794948 0.770988
          0.141876 0.0985264 0.846848 0.153439 0.0976263 0.896305
          0.11098 0.103607 0.870345 0.0838931 0.102285 0.893233
          0.268008 0.0960197 0.961097 0.231761 0.0961351 0.92421
          0.2938 0.0972136 0.929731 0.289816 0.0991194 0.922122
          0.146871 0.00484992 -0.59224 0.1297 9.87133e-05 -0.605701
          0.150403 0.00210831 -0.583032 0.127146 -0.00193784 -0.605756
          0.150403 0.00210831 -0.583032 0.1297 9.87133e-05 -0.605701
          0.130862 -0.00448618 -0.596049 0.127146 -0.00193784 -0.605756
          0.156081 0.0102825 -0.594759 0.184437 0.0145785 -0.571365
          0.171264 0.00623301 -0.573364 0.1544 0.00590663 -0.591654
          0.0871718 -0.0133081 -0.56754 0.0970682 -0.00880874 -0.546836
          0.0885485 -0.0107869 -0.567941 0.0974886 -0.0130007 -0.586673
          0.0974886 -0.0130007 -0.586673 0.127413 -0.00533943 -0.584442
          0.0871718 -0.0133081 -0.56754 0.0970682 -0.00880874 -0.546836
          0.0974886 -0.0130007 -0.586673 0.127413 -0.00533943 -0.584442
          0.10914 -0.00942437 -0.584649 0.0871718 -0.0133081 -0.56754
          0.09246 -0.0181342 -0.59445 0.0974886 -0.0130007 -0.586673
          0.10914 -0.00942437 -0.584649 0.0871718 -0.0133081 -0.56754
          0.09246 -0.0181342 -0.59445 0.0871718 -0.0133081 -0.56754
          0.10914 -0.00942437 -0.584649 0.0821075 -0.013979 -0.552556
          0.09246 -0.0181342 -0.59445 0.0665122 -0.024018 -0.578377
          0.0871718 -0.0133081 -0.56754 0.0821075 -0.013979 -0.552556
          0.0665122 -0.024018 -0.578377 0.0871718 -0.0133081 -0.56754
          0.0821075 -0.013979 -0.552556 0.056846 -0.0207849 -0.553992
          0.0665122 -0.024018 -0.578377 0.0571961 -0.0189245 -0.5595
          0.0871718 -0.0133081 -0.56754 0.056846 -0.0207849 -0.553992
          0.056846 -0.0207849 -0.553992 0.0571961 -0.0189245 -0.5595
          0.0871718 -0.0133081 -0.56754 0.0480306 -0.0184858 -0.532774
          0.056846 -0.0207849 -0.553992 0.0871718 -0.0133081 -0.56754
          0.0821075 -0.013979 -0.552556 0.0480306 -0.0184858 -0.532774
          0.0871718 -0.0133081 -0.56754 0.129565 -0.00181342 -0.563005
          0.10914 -0.00942437 -0.584649 0.0821075 -0.013979 -0.552556
          0.129565 -0.00181342 -0.563005 0.0871718 -0.0133081 -0.56754
          0.117983 -0.00211367 -0.53106 0.0821075 -0.013979 -0.552556
          0.129565 -0.00181342 -0.563005 0.0970682 -0.00880874 -0.546836
          0.117983 -0.00211367 -0.53106 0.0871718 -0.0133081 -0.56754
          0.130792 -0.000960639 -0.550484 0.129565 -0.00181342 -0.563005
          0.0871718 -0.0133081 -0.56754 0.0970682 -0.00880874 -0.546836
          0.127413 -0.00533943 -0.584442 0.130792 -0.000960639 -0.550484
          0.0871718 -0.0133081 -0.56754 0.0970682 -0.00880874 -0.546836
          0.127413 -0.00533943 -0.584442 0.130792 -0.000960639 -0.550484
          0.10914 -0.00942437 -0.584649 0.0871718 -0.0133081 -0.56754
          0.130792 -0.000960639 -0.550484 0.129565 -0.00181342 -0.563005
          0.10914 -0.00942437 -0.584649 0.0871718 -0.0133081 -0.56754
          0.154107 0.0883189 0.857766 0.0896431 0.0734616 0.892396
          0.0740493 0.0641616 0.883765 0.137992 0.0809897 0.939445
          0.154107 0.0883189 0.857766 0.0896431 0.0734616 0.892396
          0.145903 0.092674 0.919067 0.109382 0.0908914 0.835634
          0.154107 0.0883189 0.857766 0.0896431 0.0734616 0.892396
          0.137992 0.0809897 0.939445 0.145903 0.092674 0.919067
          0.154107 0.0883189 0.857766 0.101095 0.0763853 0.812186
          0.0740493 0.0641616 0.883765 0.0896431 0.0734616 0.892396
          0.154107 0.0883189 0.857766 0.101095 0.0763853 0.812186
          0.0896431 0.0734616 0.892396 0.0612522 0.0739216 0.829945
          0.182702 0.0147905 -0.493674 0.152841 0.00628365 -0.549552
          0.135703 0.0025933 -0.49578 0.117983 -0.00211367 -0.53106
          0.0567087 0.0165835 -0.211871 0.045572 0.0183116 -0.184803
          0.086844 0.0241004 -0.145402 0.0437957 0.0214384 -0.141935
          0.324902 0.0893821 0.507176 0.316173 0.0897648 0.554729
          0.237426 0.086149 0.538209 0.271522 0.0837749 0.481467
          0.316173 0.0897648 0.554729 0.324902 0.0893821 0.507176
          0.392529 0.0915396 0.470357 0.271522 0.0837749 0.481467
          0.0680056 -0.0011597 -0.0994993 0.0811874 0.0034827 -0.0826292
          0.0809459 0.00664006 -0.0918569 0.0418506 0.000676097 -0.0697344
          0.0418506 0.000676097 -0.0697344 0.0567513 -0.00688996 -0.0800162
          0.0407461 -0.00197492 -0.0545277 0.0389648 -0.00539303 -0.0891458
          0.137233 -0.0135718 -0.504352 0.124448 -0.0143225 -0.471353
          0.114044 -0.0144426 -0.516593 0.10645 -0.0155909 -0.489206
          0.358776 0.0740713 0.182399 0.35358 0.070367 0.118803
          0.293523 0.0709724 0.187424 0.368693 0.0796129 0.22943
          0.131259 -0.0138379 -0.510261 0.124448 -0.0143225 -0.471353
          0.137233 -0.0135718 -0.504352 0.10645 -0.0155909 -0.489206
          0.216483 0.0943034 0.778517 0.186477 0.0935983 0.764036
          0.217678 0.0968129 0.834652 0.179768 0.0976013 0.825329
          0.217678 0.0968129 0.834652 0.186477 0.0935983 0.764036
          0.141876 0.0985264 0.846848 0.179768 0.0976013 0.825329
          0.217678 0.0968129 0.834652 0.186477 0.0935983 0.764036
          0.165257 0.0931675 0.813209 0.141876 0.0985264 0.846848
          0.186477 0.0935983 0.764036 0.108162 0.0929403 0.778368
          0.165257 0.0931675 0.813209 0.141876 0.0985264 0.846848
          0.186477 0.0935983 0.764036 0.108162 0.0929403 0.778368
          0.141876 0.0985264 0.846848 0.158504 0.0967715 0.763692
          0.179768 0.0976013 0.825329 0.186477 0.0935983 0.764036
          0.141876 0.0985264 0.846848 0.158504 0.0967715 0.763692
          0.158504 0.0967715 0.763692 0.127105 0.0876495 0.701116
          0.186477 0.0935983 0.764036 0.108162 0.0929403 0.778368
          0.256253 0.111304 1.03556 0.26761 0.10803 1.03604
          0.227293 0.112242 1.05647 0.250416 0.112338 1.09087
          0.186477 0.0935983 0.764036 0.127105 0.0876495 0.701116
          0.165257 0.0931675 0.813209 0.108162 0.0929403 0.778368
          0.127105 0.0876495 0.701116 0.196146 0.0872112 0.6934
          0.186477 0.0935983 0.764036 0.165257 0.0931675 0.813209
          0.186477 0.0935983 0.764036 0.196146 0.0872112 0.6934
          0.186567 0.0895988 0.781783 0.165257 0.0931675 0.813209
          0.186477 0.0935983 0.764036 0.186567 0.0895988 0.781783
          0.268238 0.0953534 0.771063 0.165257 0.0931675 0.813209
          0.0647985 -0.0129255 -0.545036 0.0559069 -0.00708235 -0.53041
          0.0510099 -0.0126816 -0.511239 0.0742199 -0.00934427 -0.556536
          0.266947 0.0832243 0.575552 0.376057 0.088585 0.525818
          0.293499 0.0841291 0.540835 0.342939 0.0904408 0.603744
          0.293499 0.0841291 0.540835 0.376057 0.088585 0.525818
          0.378063 0.0956028 0.621907 0.342939 0.0904408 0.603744
          0.0647985 -0.0129255 -0.545036 0.0254341 -0.00812965 -0.517394
          0.0510099 -0.0126816 -0.511239 0.0559069 -0.00708235 -0.53041
          0.293499 0.0841291 0.540835 0.376057 0.088585 0.525818
          0.381656 0.0918153 0.550721 0.378063 0.0956028 0.621907
          0.293499 0.0841291 0.540835 0.298245 0.0824615 0.466509
          0.381656 0.0918153 0.550721 0.376057 0.088585 0.525818
          0.293499 0.0841291 0.540835 0.381656 0.0918153 0.550721
          0.298245 0.0824615 0.466509 0.296192 0.0875151 0.559671
          0.0269824 0.0190862 -0.166782 -0.026268 0.0158844 -0.168531
          -0.0206594 0.0140266 -0.187186 0.00474097 0.0139395 -0.220345
          0.060043 0.0568305 0.259679 0.109208 0.0572903 0.209665
          0.143321 0.0656661 0.27956 0.0876554 0.0583691 0.26528
          0.00474097 0.0139395 -0.220345 0.0202828 0.0114123 -0.276286
          -0.0158773 0.0100494 -0.249103 0.0734512 0.0151683 -0.243691
          0.00474097 0.0139395 -0.220345 -0.0158773 0.0100494 -0.249103
          0.0202828 0.0114123 -0.276286 -0.0139035 0.00686604 -0.302569
          0.217441 0.0908349 0.694364 0.127105 0.0876495 0.701116
          0.190968 0.0892035 0.6277 0.199691 0.0849973 0.580698
          0.217441 0.0908349 0.694364 0.127105 0.0876495 0.701116
          0.199691 0.0849973 0.580698 0.13533 0.0805968 0.576606
          0.142066 -0.0162666 -0.339489 0.159421 -0.0147054 -0.329643
          0.163356 -0.0145944 -0.367459 0.118528 -0.0149838 -0.308486
          0.142066 -0.0162666 -0.339489 0.163356 -0.0145944 -0.367459
          0.121041 -0.0164017 -0.361831 0.118528 -0.0149838 -0.308486
          0.142066 -0.0162666 -0.339489 0.163356 -0.0145944 -0.367459
          0.148017 -0.0154864 -0.384611 0.121041 -0.0164017 -0.361831
          0.264155 0.0132645 -0.31677 0.187876 0.0115894 -0.319623
          0.215632 0.0156658 -0.31289 0.205526 0.00822017 -0.38119
          0.264155 0.0132645 -0.31677 0.205526 0.00822017 -0.38119
          0.215632 0.0156658 -0.31289 0.262565 0.0127976 -0.353888
          0.122055 -0.0136552 -0.391712 0.102925 -0.01385 -0.339323
          0.163356 -0.0145944 -0.367459 0.164565 -0.0133876 -0.382405
          0.205526 0.00822017 -0.38119 0.177392 0.0114892 -0.3605
          0.215632 0.0156658 -0.31289 0.272434 0.0195054 -0.327936
          0.187876 0.0115894 -0.319623 0.177392 0.0114892 -0.3605
          0.215632 0.0156658 -0.31289 0.205526 0.00822017 -0.38119
          0.118528 -0.0149838 -0.308486 0.163356 -0.0145944 -0.367459
          0.121041 -0.0164017 -0.361831 0.102925 -0.01385 -0.339323
          0.118528 -0.0149838 -0.308486 0.159421 -0.0147054 -0.329643
          0.163356 -0.0145944 -0.367459 0.102925 -0.01385 -0.339323
          0.102925 -0.01385 -0.339323 0.159421 -0.0147054 -0.329643
          0.163356 -0.0145944 -0.367459 0.164565 -0.0133876 -0.382405
          0.137752 0.021662 -0.228365 0.204548 0.0340728 -0.161825
          0.173823 0.0246422 -0.254984 0.109294 0.0209412 -0.217591
          0.300097 0.0831428 0.404996 0.269623 0.0833918 0.439675
          0.392529 0.0915396 0.470357 0.345247 0.0849373 0.333469
          0.324902 0.0893821 0.507176 0.269623 0.0833918 0.439675
          0.392529 0.0915396 0.470357 0.300097 0.0831428 0.404996
          0.324902 0.0893821 0.507176 0.300097 0.0831428 0.404996
          0.392529 0.0915396 0.470357 0.271522 0.0837749 0.481467
          0.324902 0.0893821 0.507176 0.269623 0.0833918 0.439675
          0.300097 0.0831428 0.404996 0.271522 0.0837749 0.481467
          0.0882954 0.0139789 -0.275434 0.0944564 0.0146023 -0.27546
          0.109294 0.0209412 -0.217591 0.0567087 0.0165835 -0.211871
          0.387982 0.0910084 0.486622 0.271522 0.0837749 0.481467
          0.392529 0.0915396 0.470357 0.300097 0.0831428 0.404996
          0.387982 0.0910084 0.486622 0.300097 0.0831428 0.404996
          0.392529 0.0915396 0.470357 0.386422 0.0887192 0.408722
          0.300097 0.0831428 0.404996 0.248309 0.07594 0.362052
          0.379682 0.0859182 0.404263 0.301397 0.0779443 0.365474
          0.100967 0.0376856 -0.0124784 0.159365 0.0442869 -0.00337952
          0.104946 0.0435662 0.0577277 0.192396 0.0511354 0.0569261
          0.113901 -0.0112095 -0.282981 0.154866 -0.00903024 -0.300863
          0.160203 -0.0119435 -0.337823 0.118728 -0.0117847 -0.327695
          0.113901 -0.0112095 -0.282981 0.154866 -0.00903024 -0.300863
          0.118728 -0.0117847 -0.327695 0.120603 -0.00930884 -0.326509
          0.0829969 -0.0109702 -0.307637 0.120603 -0.00930884 -0.326509
          0.113901 -0.0112095 -0.282981 0.118728 -0.0117847 -0.327695
          0.118728 -0.0117847 -0.327695 0.154866 -0.00903024 -0.300863
          0.160203 -0.0119435 -0.337823 0.120603 -0.00930884 -0.326509
          0.118728 -0.0117847 -0.327695 0.120603 -0.00930884 -0.326509
          0.160203 -0.0119435 -0.337823 0.162928 -0.0101426 -0.361795
          0.122055 -0.0136552 -0.391712 0.160203 -0.0119435 -0.337823
          0.118728 -0.0117847 -0.327695 0.102925 -0.01385 -0.339323
          0.122055 -0.0136552 -0.391712 0.118728 -0.0117847 -0.327695
          0.120859 -0.0118386 -0.3705 0.102925 -0.01385 -0.339323
          0.122055 -0.0136552 -0.391712 0.160203 -0.0119435 -0.337823
          0.120859 -0.0118386 -0.3705 0.118728 -0.0117847 -0.327695
          0.199929 -0.00871553 -0.521842 0.166017 -0.00832996 -0.548618
          0.172754 -0.00977107 -0.561995 0.164091 -0.018657 -0.566595
          0.199929 -0.00871553 -0.521842 0.203477 -0.00152772 -0.523147
          0.172754 -0.00977107 -0.561995 0.166017 -0.00832996 -0.548618
          0.175681 -0.00370727 -0.508049 0.203477 -0.00152772 -0.523147
          0.199929 -0.00871553 -0.521842 0.166017 -0.00832996 -0.548618
          0.164091 -0.018657 -0.566595 0.166017 -0.00832996 -0.548618
          0.172754 -0.00977107 -0.561995 0.137254 -0.010044 -0.578733
          0.164091 -0.018657 -0.566595 0.166017 -0.00832996 -0.548618
          0.137254 -0.010044 -0.578733 0.129355 -0.0141182 -0.578393
          0.164091 -0.018657 -0.566595 0.152841 -0.0122022 -0.551974
          0.166017 -0.00832996 -0.548618 0.129355 -0.0141182 -0.578393
          0.119042 -0.0136001 -0.539299 0.10645 -0.0155909 -0.489206
          0.0878253 -0.0163672 -0.510375 0.0845509 -0.0178131 -0.501965
          0.119042 -0.0136001 -0.539299 0.10645 -0.0155909 -0.489206
          0.102378 -0.0147507 -0.539178 0.0878253 -0.0163672 -0.510375
          0.102378 -0.0147507 -0.539178 0.0878253 -0.0163672 -0.510375
          0.0908379 -0.0141968 -0.513139 0.0821186 -0.0163022 -0.547193
          0.0878253 -0.0163672 -0.510375 0.10645 -0.0155909 -0.489206
          0.0894282 -0.0157141 -0.475633 0.0845509 -0.0178131 -0.501965
          0.0845509 -0.0178131 -0.501965 0.0581534 -0.0202491 -0.482959
          0.0894282 -0.0157141 -0.475633 0.0878253 -0.0163672 -0.510375
          0.116016 0.0552688 0.266951 0.185828 0.0648493 0.366047
          0.165688 0.0612821 0.281712 0.15877 0.0654663 0.366123
          0.239777 0.0639908 0.300576 0.165688 0.0612821 0.281712
          0.185828 0.0648493 0.366047 0.15877 0.0654663 0.366123
          0.239777 0.0639908 0.300576 0.15877 0.0654663 0.366123
          0.185828 0.0648493 0.366047 0.27609 0.0684555 0.293154
          0.239777 0.0639908 0.300576 0.165688 0.0612821 0.281712
          0.15877 0.0654663 0.366123 0.27609 0.0684555 0.293154
          0.27609 0.0684555 0.293154 0.165688 0.0612821 0.281712
          0.15877 0.0654663 0.366123 0.240365 0.0719055 0.361752
          0.27609 0.0684555 0.293154 0.15877 0.0654663 0.366123
          0.185828 0.0648493 0.366047 0.240365 0.0719055 0.361752
          0.165688 0.0612821 0.281712 0.240365 0.0719055 0.361752
          0.179831 0.069947 0.368224 0.15877 0.0654663 0.366123
          0.165688 0.0612821 0.281712 0.15877 0.0654663 0.366123
          0.179831 0.069947 0.368224 0.102322 0.0639772 0.375425
          0.152519 -0.00688212 -0.28843 0.147637 -0.00749906 -0.261287
          0.145628 -0.00467209 -0.255181 0.101176 -0.00783675 -0.284289
          0.152519 -0.00688212 -0.28843 0.101176 -0.00783675 -0.284289
          0.145628 -0.00467209 -0.255181 0.0989644 -0.00439551 -0.258818
          0.152519 -0.00688212 -0.28843 0.0989644 -0.00439551 -0.258818
          0.15653 -0.00651799 -0.313547 0.101176 -0.00783675 -0.284289
          0.120603 -0.00930884 -0.326509 0.152519 -0.00688212 -0.28843
          0.15653 -0.00651799 -0.313547 0.101176 -0.00783675 -0.284289
          0.120603 -0.00930884 -0.326509 0.101176 -0.00783675 -0.284289
          0.15653 -0.00651799 -0.313547 0.102812 -0.00669444 -0.317028
          0.101176 -0.00783675 -0.284289 0.0989644 -0.00439551 -0.258818
          0.15653 -0.00651799 -0.313547 0.102812 -0.00669444 -0.317028
          0.101176 -0.00783675 -0.284289 0.0910404 -0.00871713 -0.248485
          0.145628 -0.00467209 -0.255181 0.0989644 -0.00439551 -0.258818
          0.101176 -0.00783675 -0.284289 0.147637 -0.00749906 -0.261287
          0.145628 -0.00467209 -0.255181 0.0910404 -0.00871713 -0.248485
          0.159365 0.0442869 -0.00337952 0.168288 0.0375999 -0.0873447
          0.219222 0.0486119 -0.00572604 0.161268 0.0430777 0.00556753
          0.282294 0.0987585 0.988705 0.262572 0.0985842 1.02395
          0.256007 0.0933328 1.02618 0.254847 0.0942488 0.990392
          0.336675 0.107926 0.957762 0.254201 0.103492 0.959385
          0.284969 0.105508 0.994064 0.292096 0.102758 0.964551
          0.100967 0.0376856 -0.0124784 0.168288 0.0375999 -0.0873447
          0.159365 0.0442869 -0.00337952 0.161268 0.0430777 0.00556753
          0.0640984 0.0457958 0.114738 -0.00710968 0.0326024 0.0350586
          0.0611862 0.0391504 0.0429092 -0.0123321 0.0364686 0.0853844
          0.0611862 0.0391504 0.0429092 0.0640984 0.0457958 0.114738
          -0.0123321 0.0364686 0.0853844 0.0583242 0.0419076 0.088712
          0.336675 0.107926 0.957762 0.335373 0.10664 1.00044
          0.292096 0.102758 0.964551 0.284969 0.105508 0.994064
          0.0640984 0.0457958 0.114738 0.100178 0.0521232 0.164525
          -0.0171148 0.0401223 0.136628 0.0583242 0.0419076 0.088712
          -0.0123321 0.0364686 0.0853844 0.0640984 0.0457958 0.114738
          -0.0171148 0.0401223 0.136628 0.0583242 0.0419076 0.088712
          0.0640984 0.0457958 0.114738 0.111056 0.0506082 0.116801
          0.172426 0.0599948 0.182148 0.141569 0.0485009 0.0692919
          -0.00896293 -0.00640648 -0.0407497 0.00156437 -0.00480447 -0.0194943
          -0.00484605 -0.00787858 -0.0492213 0.016022 -0.0112065 -0.0373548
          -0.00484605 -0.00787858 -0.0492213 0.016022 -0.0112065 -0.0373548
          0.0126215 -0.00998045 -0.0546027 -0.00896293 -0.00640648 -0.0407497
          -0.0184737 -0.00268011 -0.0251174 -0.02912 -0.0050596 -0.0467611
          -0.00896293 -0.00640648 -0.0407497 -0.00484605 -0.00787858 -0.0492213
          -0.02912 -0.0050596 -0.0467611 -0.00896293 -0.00640648 -0.0407497
          -0.00484605 -0.00787858 -0.0492213 -0.0112473 -0.00867774 -0.0676795
          0.130675 -0.016316 -0.55811 0.128281 -0.014775 -0.553089
          0.152257 -0.0186162 -0.540096 0.143157 -0.016824 -0.518352
          0.0311669 -0.015471 -0.372513 -0.0273646 -0.016129 -0.335138
          0.00753595 -0.0138764 -0.340524 -0.0202432 -0.0154642 -0.375762
          0.161857 0.0498687 0.153568 0.228849 0.0575983 0.213013
          0.267528 0.060776 0.191131 0.165241 0.0545551 0.192337
          0.130885 0.0226921 -0.239709 0.078365 0.0183968 -0.220655
          0.0619518 0.0109529 -0.275906 0.0688902 0.018373 -0.205679
          0.118528 -0.0149838 -0.308486 0.113705 -0.0175004 -0.293712
          0.114861 -0.0179139 -0.253853 0.0927891 -0.0138988 -0.27258
          0.110055 -0.0119697 -0.4245 0.133529 -0.0122415 -0.442996
          0.165496 -0.012174 -0.412527 0.132605 -0.0129756 -0.428618
          0.133529 -0.0122415 -0.442996 0.132605 -0.0129756 -0.428618
          0.110055 -0.0119697 -0.4245 0.121678 -0.0131649 -0.477031
          0.29657 0.0342262 -0.144824 0.256875 0.0270713 -0.182761
          0.199466 0.0297779 -0.163731 0.287691 0.0276488 -0.212564
          0.110055 -0.0119697 -0.4245 0.0769836 -0.0103014 -0.421409
          0.120268 -0.0101949 -0.41947 0.133529 -0.0122415 -0.442996
          0.16549 -0.0131014 -0.449159 0.132605 -0.0129756 -0.428618
          0.133529 -0.0122415 -0.442996 0.121678 -0.0131649 -0.477031
          0.133529 -0.0122415 -0.442996 0.16549 -0.0131014 -0.449159
          0.165496 -0.012174 -0.412527 0.132605 -0.0129756 -0.428618
          0.16549 -0.0131014 -0.449159 0.165818 -0.0119508 -0.421795
          0.133529 -0.0122415 -0.442996 0.165496 -0.012174 -0.412527
          0.133529 -0.0122415 -0.442996 0.158708 -0.0108474 -0.413742
          0.165145 -0.0139856 -0.453798 0.120268 -0.0101949 -0.41947
          0.231423 0.0159505 -0.487696 0.236316 0.0246008 -0.485233
          0.218704 0.0214812 -0.457714 0.249124 0.0204591 -0.440537
          0.216692 0.0189193 -0.322874 0.215632 0.0156658 -0.31289
          0.279438 0.0225269 -0.278857 0.287792 0.0278946 -0.245922
          0.295685 0.0331866 -0.227221 0.292862 0.0326986 -0.268318
          0.285631 0.0272575 -0.283759 0.213557 0.025394 -0.25746
          0.285631 0.0272575 -0.283759 0.213557 0.025394 -0.25746
          0.287792 0.0278946 -0.245922 0.295685 0.0331866 -0.227221
          0.28714 0.0650225 0.175661 0.344346 0.0656273 0.127083
          0.35358 0.070367 0.118803 0.358776 0.0740713 0.182399
          0.358776 0.0740713 0.182399 0.25535 0.057476 0.0852052
          0.35358 0.070367 0.118803 0.28714 0.0650225 0.175661
          0.28714 0.0650225 0.175661 0.344346 0.0656273 0.127083
          0.358776 0.0740713 0.182399 0.359488 0.0745767 0.226421
          0.279438 0.0225269 -0.278857 0.230788 0.0275463 -0.219076
          0.287691 0.0276488 -0.212564 0.287792 0.0278946 -0.245922
          0.287792 0.0278946 -0.245922 0.215632 0.0156658 -0.31289
          0.279438 0.0225269 -0.278857 0.230788 0.0275463 -0.219076
          0.216692 0.0189193 -0.322874 0.215632 0.0156658 -0.31289
          0.287792 0.0278946 -0.245922 0.230788 0.0275463 -0.219076
          0.216692 0.0189193 -0.322874 0.230788 0.0275463 -0.219076
          0.287792 0.0278946 -0.245922 0.213557 0.025394 -0.25746
          0.216692 0.0189193 -0.322874 0.182105 0.0194951 -0.264953
          0.230788 0.0275463 -0.219076 0.213557 0.025394 -0.25746
          0.216692 0.0189193 -0.322874 0.215632 0.0156658 -0.31289
          0.230788 0.0275463 -0.219076 0.182105 0.0194951 -0.264953
          0.230788 0.0275463 -0.219076 0.215632 0.0156658 -0.31289
          0.279438 0.0225269 -0.278857 0.182105 0.0194951 -0.264953
          0.182105 0.0194951 -0.264953 0.137752 0.021662 -0.228365
          0.230788 0.0275463 -0.219076 0.213557 0.025394 -0.25746
          0.240943 0.0331244 -0.188792 0.230788 0.0275463 -0.219076
          0.137752 0.021662 -0.228365 0.213557 0.025394 -0.25746
          0.213557 0.025394 -0.25746 0.240943 0.0331244 -0.188792
          0.230788 0.0275463 -0.219076 0.295685 0.0331866 -0.227221
          0.213557 0.025394 -0.25746 0.230788 0.0275463 -0.219076
          0.287792 0.0278946 -0.245922 0.295685 0.0331866 -0.227221
          0.287792 0.0278946 -0.245922 0.230788 0.0275463 -0.219076
          0.296722 0.0330849 -0.195031 0.295685 0.0331866 -0.227221
          0.287792 0.0278946 -0.245922 0.230788 0.0275463 -0.219076
          0.287691 0.0276488 -0.212564 0.296722 0.0330849 -0.195031
          0.29657 0.0342262 -0.144824 0.230788 0.0275463 -0.219076
          0.296722 0.0330849 -0.195031 0.287691 0.0276488 -0.212564
          0.29657 0.0342262 -0.144824 0.199466 0.0297779 -0.163731
          0.230788 0.0275463 -0.219076 0.287691 0.0276488 -0.212564
          0.29657 0.0342262 -0.144824 0.199466 0.0297779 -0.163731
          0.296722 0.0330849 -0.195031 0.230788 0.0275463 -0.219076
          0.199466 0.0297779 -0.163731 0.243931 0.0382422 -0.120107
          0.296722 0.0330849 -0.195031 0.230788 0.0275463 -0.219076
          0.230788 0.0275463 -0.219076 0.243931 0.0382422 -0.120107
          0.296722 0.0330849 -0.195031 0.304914 0.0388482 -0.161189
          0.230788 0.0275463 -0.219076 0.304914 0.0388482 -0.161189
          0.296722 0.0330849 -0.195031 0.295685 0.0331866 -0.227221
          0.240943 0.0331244 -0.188792 0.304914 0.0388482 -0.161189
          0.230788 0.0275463 -0.219076 0.295685 0.0331866 -0.227221
          0.240943 0.0331244 -0.188792 0.243931 0.0382422 -0.120107
          0.230788 0.0275463 -0.219076 0.304914 0.0388482 -0.161189
          0.108289 -0.0142089 -0.434857 0.16614 -0.0138481 -0.427097
          0.132605 -0.0129756 -0.428618 0.133888 -0.0146771 -0.401768
          0.116094 -0.0159618 -0.415128 0.146533 -0.0142383 -0.451025
          0.124448 -0.0143225 -0.471353 0.133888 -0.0146771 -0.401768
          0.0864608 -0.0150371 -0.385583 0.102925 -0.01385 -0.339323
          0.133888 -0.0146771 -0.401768 0.122055 -0.0136552 -0.391712
          0.116094 -0.0159618 -0.415128 0.0864608 -0.0150371 -0.385583
          0.121041 -0.0164017 -0.361831 0.133888 -0.0146771 -0.401768
          0.116094 -0.0159618 -0.415128 0.121041 -0.0164017 -0.361831
          0.148017 -0.0154864 -0.384611 0.133888 -0.0146771 -0.401768
          0.116094 -0.0159618 -0.415128 0.133888 -0.0146771 -0.401768
          0.108289 -0.0142089 -0.434857 0.0864608 -0.0150371 -0.385583
          0.293499 0.0841291 0.540835 0.342939 0.0904408 0.603744
          0.378063 0.0956028 0.621907 0.296649 0.0901879 0.64528
          0.266947 0.0832243 0.575552 0.342939 0.0904408 0.603744
          0.293499 0.0841291 0.540835 0.296649 0.0901879 0.64528
          0.252053 0.0846894 0.591048 0.266947 0.0832243 0.575552
          0.293499 0.0841291 0.540835 0.296649 0.0901879 0.64528
          0.133888 -0.0146771 -0.401768 0.122055 -0.0136552 -0.391712
          0.108289 -0.0142089 -0.434857 0.0864608 -0.0150371 -0.385583
          0.201989 0.0793398 0.615495 0.266947 0.0832243 0.575552
          0.252053 0.0846894 0.591048 0.296649 0.0901879 0.64528
          0.201989 0.0793398 0.615495 0.266947 0.0832243 0.575552
          0.296649 0.0901879 0.64528 0.260233 0.0868215 0.649864
          0.266947 0.0832243 0.575552 0.342939 0.0904408 0.603744
          0.296649 0.0901879 0.64528 0.260233 0.0868215 0.649864
          0.296649 0.0901879 0.64528 0.312824 0.0949824 0.693554
          0.27145 0.0922475 0.715046 0.24719 0.0906245 0.746051
          0.0559069 -0.00708235 -0.53041 0.0758985 -0.00839467 -0.497359
          0.0873117 -0.0085829 -0.529073 0.0741411 -0.00504061 -0.54589
          0.0559069 -0.00708235 -0.53041 0.0873117 -0.0085829 -0.529073
          0.0979294 -0.0116895 -0.552479 0.0741411 -0.00504061 -0.54589
          0.0670694 -0.0106223 -0.51427 0.0873117 -0.0085829 -0.529073
          0.0979294 -0.0116895 -0.552479 0.0559069 -0.00708235 -0.53041
          0.0670694 -0.0106223 -0.51427 0.0444074 -0.00740716 -0.491207
          0.0873117 -0.0085829 -0.529073 0.0559069 -0.00708235 -0.53041
          0.0254341 -0.00812965 -0.517394 0.0444074 -0.00740716 -0.491207
          0.0670694 -0.0106223 -0.51427 0.0559069 -0.00708235 -0.53041
          0.0444074 -0.00740716 -0.491207 0.0758985 -0.00839467 -0.497359
          0.0873117 -0.0085829 -0.529073 0.0559069 -0.00708235 -0.53041
          0.0444074 -0.00740716 -0.491207 0.0349748 -0.00214796 -0.509131
          0.0758985 -0.00839467 -0.497359 0.0559069 -0.00708235 -0.53041
          0.0832282 0.0038756 -0.376847 0.0657571 -0.0031679 -0.428833
          0.0919653 0.00584569 -0.369417 0.0638506 0.00594671 -0.330755
          0.0638506 0.00594671 -0.330755 0.0832282 0.0038756 -0.376847
          0.124138 0.0125122 -0.349927 0.0919653 0.00584569 -0.369417
          0.0638506 0.00594671 -0.330755 0.137117 0.0163716 -0.314393
          0.0919653 0.00584569 -0.369417 0.124138 0.0125122 -0.349927
          0.00727071 -0.0159958 -0.292999 -0.0312485 -0.0147393 -0.307478
          0.00213241 -0.0128252 -0.289606 0.0331346 -0.0139518 -0.311202
          0.0975373 -0.00974557 -0.192492 0.0962148 -0.00593256 -0.21049
          0.134593 -0.00711215 -0.20878 0.143208 -0.00900353 -0.241278
          0.104248 -0.00998517 -0.60549 0.111468 -0.0123134 -0.602749
          0.119576 -0.00659314 -0.600207 0.106077 -0.011639 -0.601787
          0.104248 -0.00998517 -0.60549 0.107318 -0.0140032 -0.607226
          0.111468 -0.0123134 -0.602749 0.106057 -0.0116458 -0.606543
          0.0975384 -0.0068226 -0.604124 0.102285 -0.00418842 -0.60267
          0.0910021 -0.00774906 -0.595565 0.104248 -0.00998517 -0.60549
          0.0975384 -0.0068226 -0.604124 0.104248 -0.00998517 -0.60549
          0.0910021 -0.00774906 -0.595565 0.0973108 -0.00874778 -0.600482
          0.104248 -0.00998517 -0.60549 0.0975384 -0.0068226 -0.604124
          0.103294 -0.00986613 -0.605495 0.0973108 -0.00874778 -0.600482
          -0.0352411 -0.00732795 -0.0746054 -0.0387419 -0.00986348 -0.100418
          -0.0112473 -0.00867774 -0.0676795 -0.00895024 -0.0104179 -0.0974204
          0.106363 -0.00870799 -0.608749 0.102285 -0.00418842 -0.60267
          0.0975384 -0.0068226 -0.604124 0.104248 -0.00998517 -0.60549
          0.00765602 -0.0064143 -0.0148698 0.00562483 -0.00357756 -0.0126354
          0 0 0 0.0182165 -0.00767366 -0.0242749
          0.00765602 -0.0064143 -0.0148698 0.00562483 -0.00357756 -0.0126354
          0 0 0 0 0 0
          0.104713 -0.0169045 -0.601903 0.121685 -0.0166017 -0.597055
          0.121298 -0.0203243 -0.601592 0.113746 -0.0145598 -0.606765
          0.254682 0.0561024 0.122055 0.330856 0.0570944 0.0711169
          0.319326 0.0546587 0.103477 0.262653 0.0500391 0.0812999
          0.262653 0.0500391 0.0812999 0.330856 0.0570944 0.0711169
          0.319326 0.0546587 0.103477 0.271852 0.045926 0.0268448
          0.135405 0.0894653 0.972754 0.120177 0.0786899 0.945524
          0.107034 0.0785431 0.954037 0.137992 0.0809897 0.939445
          0.0668794 0.0646988 0.817607 0.0091938 0.0639893 0.725891
          0.101095 0.0763853 0.812186 0.0803818 0.0694965 0.739584
          0.0668794 0.0646988 0.817607 0.101095 0.0763853 0.812186
          0.133475 0.0765293 0.818985 0.0803818 0.0694965 0.739584
          0.00213241 -0.0128252 -0.289606 0.0419592 -0.0119604 -0.304688
          0.00691554 -0.00994981 -0.300825 0.0242242 -0.010768 -0.269019
          0.111468 -0.0123134 -0.602749 0.125346 -0.0111707 -0.593521
          0.118768 -0.0128463 -0.594283 0.118476 -0.0115173 -0.589823
          0.0803818 0.0694965 0.739584 0.0746714 0.0731584 0.661841
          0.12824 0.0807888 0.747178 0.149244 0.0766639 0.750003
          0.0803818 0.0694965 0.739584 0.0746714 0.0731584 0.661841
          0.0173037 0.072694 0.712974 0.12824 0.0807888 0.747178
          0.0944564 0.0146023 -0.27546 0.0734512 0.0151683 -0.243691
          0.137752 0.021662 -0.228365 0.0567087 0.0165835 -0.211871
          0.0970682 -0.00880874 -0.546836 0.0975595 -0.00451818 -0.516903
          0.0728637 -0.00800935 -0.538075 0.124087 -0.00488907 -0.541258
          0.0970682 -0.00880874 -0.546836 0.0728637 -0.00800935 -0.538075
          0.0885485 -0.0107869 -0.567941 0.124087 -0.00488907 -0.541258
          0.0885485 -0.0107869 -0.567941 0.0728637 -0.00800935 -0.538075
          0.109413 -0.00731356 -0.560632 0.124087 -0.00488907 -0.541258
          0.0728637 -0.00800935 -0.538075 0.0885485 -0.0107869 -0.567941
          0.109413 -0.00731356 -0.560632 0.0801628 -0.00822523 -0.571445
          0.0764351 -0.00495617 -0.53841 0.0728637 -0.00800935 -0.538075
          0.109413 -0.00731356 -0.560632 0.0801628 -0.00822523 -0.571445
          0.109413 -0.00731356 -0.560632 0.0728637 -0.00800935 -0.538075
          0.0764351 -0.00495617 -0.53841 0.0975595 -0.00451818 -0.516903
          0.0728637 -0.00800935 -0.538075 0.0975595 -0.00451818 -0.516903
          0.109413 -0.00731356 -0.560632 0.124087 -0.00488907 -0.541258
          0.0728637 -0.00800935 -0.538075 0.0654843 -0.00281992 -0.4944
          0.0764351 -0.00495617 -0.53841 0.0975595 -0.00451818 -0.516903
          0.0728637 -0.00800935 -0.538075 0.0696074 -0.00701453 -0.503281
          0.0654843 -0.00281992 -0.4944 0.0975595 -0.00451818 -0.516903
          0.0728637 -0.00800935 -0.538075 0.0696074 -0.00701453 -0.503281
          0.0246036 -0.00641771 -0.486264 0.0654843 -0.00281992 -0.4944
          0.0728637 -0.00800935 -0.538075 0.0421184 -0.0116166 -0.5242
          0.0246036 -0.00641771 -0.486264 0.0696074 -0.00701453 -0.503281
          0.0407461 -0.00197492 -0.0545277 0.0247822 0.00224888 -0.0362098
          0.0514059 0.00594786 -0.0423778 0.0452555 0.00867015 -0.051966
          0.0247822 0.00224888 -0.0362098 0.0407461 -0.00197492 -0.0545277
          0.0418506 0.000676097 -0.0697344 0.0452555 0.00867015 -0.051966
          0.213365 0.058239 0.10934 0.262343 0.0583567 0.0517336
          0.293523 0.0709724 0.187424 0.35358 0.070367 0.118803
          0.213365 0.058239 0.10934 0.262343 0.0583567 0.0517336
          0.310355 0.0708743 0.136241 0.293523 0.0709724 0.187424
          0.293523 0.0709724 0.187424 0.246247 0.0617354 0.0848547
          0.310355 0.0708743 0.136241 0.213365 0.058239 0.10934
          0.199017 0.0610013 0.140613 0.246247 0.0617354 0.0848547
          0.293523 0.0709724 0.187424 0.213365 0.058239 0.10934
          0.293523 0.0709724 0.187424 0.172426 0.0599948 0.182148
          0.199017 0.0610013 0.140613 0.213365 0.058239 0.10934
          0.199017 0.0610013 0.140613 0.279083 0.0740901 0.226445
          0.172426 0.0599948 0.182148 0.293523 0.0709724 0.187424
          0.199017 0.0610013 0.140613 0.293523 0.0709724 0.187424
          0.310355 0.0708743 0.136241 0.279083 0.0740901 0.226445
          0.199017 0.0610013 0.140613 0.246247 0.0617354 0.0848547
          0.310355 0.0708743 0.136241 0.293523 0.0709724 0.187424
          0.172426 0.0599948 0.182148 0.209017 0.0680971 0.26482
          0.293523 0.0709724 0.187424 0.279083 0.0740901 0.226445
          0.293523 0.0709724 0.187424 0.279083 0.0740901 0.226445
          0.209017 0.0680971 0.26482 0.297489 0.0760461 0.273847
          0.293523 0.0709724 0.187424 0.262343 0.0583567 0.0517336
          0.310355 0.0708743 0.136241 0.35358 0.070367 0.118803
          0.293523 0.0709724 0.187424 0.35358 0.070367 0.118803
          0.310355 0.0708743 0.136241 0.368693 0.0796129 0.22943
          0.130862 -0.00448618 -0.596049 0.115624 -0.00953853 -0.606174
          0.120129 -0.00615696 -0.608411 0.125961 -0.00727612 -0.600585
          0.130862 -0.00448618 -0.596049 0.1297 9.87133e-05 -0.605701
          0.120129 -0.00615696 -0.608411 0.127146 -0.00193784 -0.605756
          0.1297 9.87133e-05 -0.605701 0.123019 0.00231494 -0.613989
          0.114543 -0.00627446 -0.607233 0.120129 -0.00615696 -0.608411
          0.15877 0.0654663 0.366123 0.0519335 0.0584848 0.350848
          0.165688 0.0612821 0.281712 0.060929 0.0538991 0.266939
          0.15877 0.0654663 0.366123 0.102322 0.0639772 0.375425
          0.165688 0.0612821 0.281712 0.0519335 0.0584848 0.350848
          0.0519335 0.0584848 0.350848 0.102322 0.0639772 0.375425
          0.165688 0.0612821 0.281712 0.060929 0.0538991 0.266939
          0.102322 0.0639772 0.375425 0.0519335 0.0584848 0.350848
          0.0689063 0.0561299 0.274001 0.060929 0.0538991 0.266939
          0.102322 0.0639772 0.375425 0.0590932 0.0607576 0.34242
          0.0689063 0.0561299 0.274001 0.0519335 0.0584848 0.350848
          0.102322 0.0639772 0.375425 0.0590932 0.0607576 0.34242
          0.0519335 0.0584848 0.350848 -0.0213389 0.0540566 0.325313
          0.0519335 0.0584848 0.350848 0.0590932 0.0607576 0.34242
          0.0689063 0.0561299 0.274001 -0.0213389 0.0540566 0.325313
          -0.0213389 0.0540566 0.325313 0.0689063 0.0561299 0.274001
          0.0519335 0.0584848 0.350848 -0.0268066 0.0509021 0.288966
          0.0519335 0.0584848 0.350848 -0.0268066 0.0509021 0.288966
          0.0689063 0.0561299 0.274001 0.060929 0.0538991 0.266939
          0.108162 0.0929403 0.778368 0.109382 0.0908914 0.835634
          0.0647625 0.0955917 0.842871 0.0433159 0.0880509 0.781563
          0.108162 0.0929403 0.778368 0.109382 0.0908914 0.835634
          0.141876 0.0985264 0.846848 0.0647625 0.0955917 0.842871
          0.153439 0.0976263 0.896305 0.0647625 0.0955917 0.842871
          0.141876 0.0985264 0.846848 0.109382 0.0908914 0.835634
          0.153439 0.0976263 0.896305 0.0820273 0.0897636 0.875404
          0.0647625 0.0955917 0.842871 0.109382 0.0908914 0.835634
          0.0751999 0.00105064 -0.137564 0.104426 0.00262799 -0.127086
          0.0667859 -0.00492085 -0.132948 0.0862894 -0.00400199 -0.166307
          0.0751999 0.00105064 -0.137564 0.104426 0.00262799 -0.127086
          0.0862894 -0.00400199 -0.166307 0.120583 0.00142762 -0.16821
          0.0862894 -0.00400199 -0.166307 0.104426 0.00262799 -0.127086
          0.121216 -0.0034695 -0.167938 0.120583 0.00142762 -0.16821
          0.0862894 -0.00400199 -0.166307 0.120583 0.00142762 -0.16821
          0.121216 -0.0034695 -0.167938 0.132188 -0.00369529 -0.201109
          0.289143 0.105429 1.04493 0.220738 0.0983866 1.03044
          0.262572 0.0985842 1.02395 0.258775 0.10035 0.992022
          0.289143 0.105429 1.04493 0.258775 0.10035 0.992022
          0.262572 0.0985842 1.02395 0.335373 0.10664 1.00044
          0.0862894 -0.00400199 -0.166307 0.0825549 -0.00948852 -0.155184
          0.126891 -0.00861598 -0.183665 0.121216 -0.0034695 -0.167938
          0.121216 -0.0034695 -0.167938 0.0862894 -0.00400199 -0.166307
          0.0825549 -0.00948852 -0.155184 0.112393 -0.0041933 -0.142377
          0.0862894 -0.00400199 -0.166307 0.104426 0.00262799 -0.127086
          0.112393 -0.0041933 -0.142377 0.121216 -0.0034695 -0.167938
          0.0667859 -0.00492085 -0.132948 0.104426 0.00262799 -0.127086
          0.112393 -0.0041933 -0.142377 0.0862894 -0.00400199 -0.166307
          0.0862894 -0.00400199 -0.166307 0.0667859 -0.00492085 -0.132948
          0.0825549 -0.00948852 -0.155184 0.112393 -0.0041933 -0.142377
          0.115205 0.101212 0.962865 0.117288 0.0824418 0.964402
          0.141182 0.0902565 0.952366 0.117288 0.0824418 0.964402
          0.117288 0.0824418 0.964402 0.115205 0.101212 0.962865
          0.141182 0.0902565 0.952366 0.115205 0.101212 0.962865
          0.117288 0.0824418 0.964402 0.115205 0.101212 0.962865
          0.149803 0.0947307 0.967832 0.141182 0.0902565 0.952366
          0.141182 0.0902565 0.952366 0.148946 0.0951903 0.97766
          0.149803 0.0947307 0.967832 0.117288 0.0824418 0.964402
          0.115205 0.101212 0.962865 0.149803 0.0947307 0.967832
          0.141182 0.0902565 0.952366 0.148758 0.0957216 0.968415
          0.115205 0.101212 0.962865 0.148758 0.0957216 0.968415
          0.141182 0.0902565 0.952366 0.115205 0.101212 0.962865
          0.141182 0.0902565 0.952366 0.148758 0.0957216 0.968415
          0.168513 0.0943187 0.953422 0.115205 0.101212 0.962865
          0.141182 0.0902565 0.952366 0.149803 0.0947307 0.967832
          0.168513 0.0943187 0.953422 0.148758 0.0957216 0.968415
          0.141182 0.0902565 0.952366 0.145903 0.092674 0.919067
          0.207948 0.0972424 0.9111 0.216313 0.0984366 0.955905
          0.141182 0.0902565 0.952366 0.145903 0.092674 0.919067
          0.216313 0.0984366 0.955905 0.166592 0.0943382 0.957611
          0.171272 0.0778226 0.475443 0.11408 0.0677137 0.376145
          0.0595115 0.0667901 0.408272 0.156872 0.0725458 0.373258
          0.0595115 0.0667901 0.408272 0.0851486 0.064407 0.331217
          0.156872 0.0725458 0.373258 0.11408 0.0677137 0.376145
          0.0595115 0.0667901 0.408272 0.0876554 0.0583691 0.26528
          0.0851486 0.064407 0.331217 0.11408 0.0677137 0.376145
          -0.0117722 0.0584996 0.359025 0.0876554 0.0583691 0.26528
          0.0851486 0.064407 0.331217 0.0595115 0.0667901 0.408272
          0.0700909 0.0705525 0.428527 0.0851486 0.064407 0.331217
          0.156872 0.0725458 0.373258 0.0595115 0.0667901 0.408272
          0.0595115 0.0667901 0.408272 0.0700909 0.0705525 0.428527
          0.150391 0.0775013 0.461281 0.156872 0.0725458 0.373258
          0.0700909 0.0705525 0.428527 0.150391 0.0775013 0.461281
          0.0808134 0.0722704 0.485717 0.0595115 0.0667901 0.408272
          0.0700909 0.0705525 0.428527 0.0808134 0.0722704 0.485717
          0.0846141 0.0787166 0.528453 0.0595115 0.0667901 0.408272
          0.1081 -0.0209799 -0.606824 0.126913 -0.0224445 -0.601183
          0.110326 -0.021099 -0.615295 0.121298 -0.0203243 -0.601592
          -0.0276234 0.0433722 0.194733 0.0467083 0.0485772 0.184625
          0.0939533 0.0506828 0.181751 -0.0227431 0.040404 0.146911
          0.0443352 0.0428983 0.124246 -0.0227431 0.040404 0.146911
          0.0939533 0.0506828 0.181751 0.0583242 0.0419076 0.088712
          0.315675 0.0464779 -0.0557286 0.324155 0.0518298 -0.0383277
          0.243931 0.0382422 -0.120107 0.243538 0.045937 -0.0299528
          0.270051 0.0400479 -0.0453142 0.23391 0.0395448 -0.0669595
          0.314985 0.0475958 -0.0156401 0.306368 0.0405689 -0.0809527
          0.251013 0.0330087 -0.116421 0.306368 0.0405689 -0.0809527
          0.23391 0.0395448 -0.0669595 0.270051 0.0400479 -0.0453142
          0.251013 0.0330087 -0.116421 0.306368 0.0405689 -0.0809527
          0.29657 0.0342262 -0.144824 0.306307 0.0396681 -0.119836
          0.251013 0.0330087 -0.116421 0.306307 0.0396681 -0.119836
          0.23391 0.0395448 -0.0669595 0.306368 0.0405689 -0.0809527
          0.306368 0.0405689 -0.0809527 0.23391 0.0395448 -0.0669595
          0.315675 0.0464779 -0.0557286 0.306307 0.0396681 -0.119836
          0.306368 0.0405689 -0.0809527 0.23391 0.0395448 -0.0669595
          0.314985 0.0475958 -0.0156401 0.315675 0.0464779 -0.0557286
          0.0274571 -0.00635234 -0.0179501 0.0182165 -0.00767366 -0.0242749
          0.045819 -0.00779774 -0.0366013 0.0220256 -0.0109318 -0.0199872
          0.0619345 -0.0102839 -0.0527576 0.0368505 -0.00613969 -0.0433125
          0.045819 -0.00779774 -0.0366013 0.0583685 -0.00316609 -0.0516314
          0.0715661 -0.0194334 -0.0566621 0.0423499 -0.0114026 -0.055377
          0.063013 -0.0157642 -0.0456833 0.0863681 -0.0147362 -0.0821753
          -0.00165095 -0.00443768 -0.0206394 -0.00551033 -0.00413169 -0.0251656
          -0.00608307 -0.00364772 -0.0122518 0.00405932 5.82853e-05 -0.0225702
          0.0746342 -0.0182243 -0.408703 0.0864608 -0.0150371 -0.385583
          0.0615418 -0.0146903 -0.401189 0.0406751 -0.0188984 -0.381652
          -0.0048344 -0.0120173 -0.183844 0.0125049 -0.0101035 -0.180202
          0.00402628 -0.0122154 -0.223718 -0.000402004 -0.0101472 -0.218544
          -0.0405949 -0.0121653 -0.220618 -0.0048344 -0.0120173 -0.183844
          0.00402628 -0.0122154 -0.223718 -0.000402004 -0.0101472 -0.218544
          -0.0405949 -0.0121653 -0.220618 0.0125049 -0.0101035 -0.180202
          -0.0048344 -0.0120173 -0.183844 -0.000402004 -0.0101472 -0.218544
          -0.0048344 -0.0120173 -0.183844 -0.0442204 -0.0113241 -0.160393
          -0.0421975 -0.0121278 -0.149963 0.0125049 -0.0101035 -0.180202
          -0.0155251 0.0493815 0.243135 -0.0129809 0.041583 0.147286
          0.0635172 0.0515351 0.19353 0.0467083 0.0485772 0.184625
          0.0510099 -0.0126816 -0.511239 0.0481888 -0.0126734 -0.4751
          0.0129194 -0.0132095 -0.492054 0.0135894 -0.016901 -0.492048
          0.102221 -0.0132634 -0.576693 0.0925113 -0.0100672 -0.58693
          0.105112 -0.0109623 -0.591591 0.108096 -0.0129574 -0.595506
          0.102221 -0.0132634 -0.576693 0.0925113 -0.0100672 -0.58693
          0.108096 -0.0129574 -0.595506 0.101268 -0.0133311 -0.59472
          0.108096 -0.0129574 -0.595506 0.0925113 -0.0100672 -0.58693
          0.107431 -0.00998447 -0.605534 0.101268 -0.0133311 -0.59472
          0.108096 -0.0129574 -0.595506 0.101268 -0.0133311 -0.59472
          0.107431 -0.00998447 -0.605534 0.108992 -0.0122948 -0.606635
          0.108096 -0.0129574 -0.595506 0.107431 -0.00998447 -0.605534
          0.113746 -0.0145598 -0.606765 0.108992 -0.0122948 -0.606635
          0.112241 -0.0126718 -0.604121 0.108096 -0.0129574 -0.595506
          0.113746 -0.0145598 -0.606765 0.108992 -0.0122948 -0.606635
          0.112241 -0.0126718 -0.604121 0.101268 -0.0133311 -0.59472
          0.108096 -0.0129574 -0.595506 0.108992 -0.0122948 -0.606635
          0.108096 -0.0129574 -0.595506 0.107431 -0.00998447 -0.605534
          0.12041 -0.0170253 -0.596519 0.113746 -0.0145598 -0.606765
          0.153914 0.0798208 0.88027 0.154107 0.0883189 0.857766
          0.102717 0.0704512 0.892847 0.137992 0.0809897 0.939445
          0.198685 0.0945086 0.918357 0.137992 0.0809897 0.939445
          0.154107 0.0883189 0.857766 0.153914 0.0798208 0.88027
          0.194109 0.0876825 0.84685 0.209922 0.09271 0.859342
          0.133475 0.0765293 0.818985 0.153914 0.0798208 0.88027
          0.204548 0.0340728 -0.161825 0.31346 0.0448283 -0.141522
          0.254571 0.0422139 -0.140693 0.257162 0.0452472 -0.0826948
          0.31346 0.0448283 -0.141522 0.204548 0.0340728 -0.161825
          0.254571 0.0422139 -0.140693 0.240943 0.0331244 -0.188792
          0.31346 0.0448283 -0.141522 0.254571 0.0422139 -0.140693
          0.239664 0.0342104 -0.217622 0.240943 0.0331244 -0.188792
          0.31346 0.0448283 -0.141522 0.254571 0.0422139 -0.140693
          0.314208 0.0450521 -0.177303 0.239664 0.0342104 -0.217622
          0.254571 0.0422139 -0.140693 0.314208 0.0450521 -0.177303
          0.323171 0.0510428 -0.116229 0.31346 0.0448283 -0.141522
          0.254571 0.0422139 -0.140693 0.31346 0.0448283 -0.141522
          0.323171 0.0510428 -0.116229 0.257162 0.0452472 -0.0826948
          0.148895 0.0762001 0.66868 0.116441 0.0700373 0.586952
          0.0746714 0.0731584 0.661841 0.181436 0.0819169 0.673158
          0.254571 0.0422139 -0.140693 0.293875 0.0479188 -0.149752
          0.323171 0.0510428 -0.116229 0.314208 0.0450521 -0.177303
          0.293875 0.0479188 -0.149752 0.239664 0.0342104 -0.217622
          0.314208 0.0450521 -0.177303 0.254571 0.0422139 -0.140693
          0.239664 0.0342104 -0.217622 0.293875 0.0479188 -0.149752
          0.227347 0.0341367 -0.239023 0.254571 0.0422139 -0.140693
          0.239664 0.0342104 -0.217622 0.254571 0.0422139 -0.140693
          0.227347 0.0341367 -0.239023 0.185682 0.0349137 -0.171147
          0.185682 0.0349137 -0.171147 0.239664 0.0342104 -0.217622
          0.254571 0.0422139 -0.140693 0.204548 0.0340728 -0.161825
          0.254571 0.0422139 -0.140693 0.204548 0.0340728 -0.161825
          0.239664 0.0342104 -0.217622 0.240943 0.0331244 -0.188792
          0.254571 0.0422139 -0.140693 0.293875 0.0479188 -0.149752
          0.227347 0.0341367 -0.239023 0.185682 0.0349137 -0.171147
          0.185682 0.0349137 -0.171147 0.293875 0.0479188 -0.149752
          0.237712 0.0442774 -0.120025 0.254571 0.0422139 -0.140693
          0.160387 0.00185887 -0.476443 0.151141 -0.00421154 -0.490188
          0.175681 -0.00370727 -0.508049 0.190515 0.00181038 -0.453267
          0.190515 0.00181038 -0.453267 0.151141 -0.00421154 -0.490188
          0.139514 0.000511914 -0.444654 0.122207 0.000471272 -0.462474
          0.188102 -0.00147667 -0.451478 0.16371 0.00418987 -0.421372
          0.176877 0.00304432 -0.402251 0.190515 0.00181038 -0.453267
          0.188102 -0.00147667 -0.451478 0.190515 0.00181038 -0.453267
          0.139514 0.000511914 -0.444654 0.16371 0.00418987 -0.421372
          0.258775 0.10035 0.992022 0.262572 0.0985842 1.02395
          0.282294 0.0987585 0.988705 0.216996 0.0946768 0.982276
          0.0548873 0.00331069 -0.396044 0.0527092 0.00222036 -0.446413
          0.0101279 -0.00173324 -0.425111 0.0816163 -2.51321e-05 -0.451585
          0.113746 -0.0145598 -0.606765 0.107431 -0.00998447 -0.605534
          0.116001 -0.0152121 -0.60849 0.112644 -0.0104976 -0.615798
          0.107431 -0.00998447 -0.605534 0.105112 -0.0109623 -0.591591
          0.116001 -0.0152121 -0.60849 0.112644 -0.0104976 -0.615798
          0.107431 -0.00998447 -0.605534 0.105112 -0.0109623 -0.591591
          0.112644 -0.0104976 -0.615798 0.104453 -0.00438932 -0.60791
          0.113683 -0.00346981 -0.617295 0.104453 -0.00438932 -0.60791
          0.107431 -0.00998447 -0.605534 0.112644 -0.0104976 -0.615798
          0.112644 -0.0104976 -0.615798 0.105112 -0.0109623 -0.591591
          0.116001 -0.0152121 -0.60849 0.104453 -0.00438932 -0.60791
          0.207948 0.0972424 0.9111 0.154107 0.0883189 0.857766
          0.145903 0.092674 0.919067 0.167438 0.0943679 0.871731
          0.207948 0.0972424 0.9111 0.145903 0.092674 0.919067
          0.153439 0.0976263 0.896305 0.167438 0.0943679 0.871731
          0.167438 0.0943679 0.871731 0.145903 0.092674 0.919067
          0.153439 0.0976263 0.896305 0.109382 0.0908914 0.835634
          0.167438 0.0943679 0.871731 0.154107 0.0883189 0.857766
          0.145903 0.092674 0.919067 0.109382 0.0908914 0.835634
          0.186567 0.0895988 0.781783 0.154107 0.0883189 0.857766
          0.167438 0.0943679 0.871731 0.109382 0.0908914 0.835634
          0.186567 0.0895988 0.781783 0.167438 0.0943679 0.871731
          0.165257 0.0931675 0.813209 0.109382 0.0908914 0.835634
          0.0998671 -0.00980449 -0.59992 0.10082 -0.00345068 -0.604568
          0.114543 -0.00627446 -0.607233 0.110097 -0.00503266 -0.59666
          0.0948582 -0.0101546 -0.592337 0.10082 -0.00345068 -0.604568
          0.0998671 -0.00980449 -0.59992 0.110097 -0.00503266 -0.59666
          0.0948582 -0.0101546 -0.592337 0.10082 -0.00345068 -0.604568
          0.110097 -0.00503266 -0.59666 0.109555 -6.04137e-05 -0.59853
          0.110097 -0.00503266 -0.59666 0.10082 -0.00345068 -0.604568
          0.114543 -0.00627446 -0.607233 0.109555 -6.04137e-05 -0.59853
          0.110097 -0.00503266 -0.59666 0.109555 -6.04137e-05 -0.59853
          0.114543 -0.00627446 -0.607233 0.1297 9.87133e-05 -0.605701
          0.137361 -0.000485042 -0.592 0.109555 -6.04137e-05 -0.59853
          0.110097 -0.00503266 -0.59666 0.1297 9.87133e-05 -0.605701
          0.0705408 -0.0141881 -0.470342 0.0481888 -0.0126734 -0.4751
          0.0665471 -0.0159942 -0.505201 0.0410239 -0.0180549 -0.471625
          0.210773 0.0188651 -0.544008 0.184437 0.0145785 -0.571365
          0.209308 0.0137501 -0.529951 0.177732 0.0129794 -0.566982
          0.184437 0.0145785 -0.571365 0.156081 0.0102825 -0.594759
          0.146871 0.00484992 -0.59224 0.177732 0.0129794 -0.566982
          0.184437 0.0145785 -0.571365 0.146871 0.00484992 -0.59224
          0.150403 0.00210831 -0.583032 0.177732 0.0129794 -0.566982
          0.184437 0.0145785 -0.571365 0.150403 0.00210831 -0.583032
          0.15353 0.000570539 -0.562779 0.177732 0.0129794 -0.566982
          0.177732 0.0129794 -0.566982 0.184437 0.0145785 -0.571365
          0.209308 0.0137501 -0.529951 0.15353 0.000570539 -0.562779
          0.254682 0.0561024 0.122055 0.267528 0.060776 0.191131
          0.239744 0.0627337 0.215118 0.185124 0.05297 0.131345
          0.165241 0.0545551 0.192337 0.228849 0.0575983 0.213013
          0.267528 0.060776 0.191131 0.239744 0.0627337 0.215118
          0.161857 0.0498687 0.153568 0.228849 0.0575983 0.213013
          0.247533 0.0529727 0.133991 0.267528 0.060776 0.191131
          0.111468 -0.0123134 -0.602749 0.118768 -0.0128463 -0.594283
          0.114294 -0.0146101 -0.600231 0.112241 -0.0126718 -0.604121
          0.111468 -0.0123134 -0.602749 0.125346 -0.0111707 -0.593521
          0.114294 -0.0146101 -0.600231 0.118768 -0.0128463 -0.594283
          0.289994 0.106625 0.941827 0.198685 0.0945086 0.918357
          0.254201 0.103492 0.959385 0.272881 0.101595 0.900105
          0.254201 0.103492 0.959385 0.285884 0.101867 0.926939
          0.289994 0.106625 0.941827 0.272881 0.101595 0.900105
          0.254201 0.103492 0.959385 0.285884 0.101867 0.926939
          0.336675 0.107926 0.957762 0.289994 0.106625 0.941827
          0.013461 -0.00348063 -0.0158737 0 0 0
          0.0220256 -0.0109318 -0.0199872 0.0274571 -0.00635234 -0.0179501
          0 0 0 0 0 0
          0.0220256 -0.0109318 -0.0199872 0.0274571 -0.00635234 -0.0179501
          0 0 0 0.0303958 -0.0025765 -0.00444756
          0.0220256 -0.0109318 -0.0199872 0.0274571 -0.00635234 -0.0179501
          0.0220256 -0.0109318 -0.0199872 0.0303958 -0.0025765 -0.00444756
          0.046611 -0.0127395 -0.0281452 0.0274571 -0.00635234 -0.0179501
          0.130472 -0.0123001 -0.19356 0.101464 -0.0152337 -0.183591
          0.12208 -0.0160632 -0.164258 0.11946 -0.0121716 -0.160773
          0.185124 0.05297 0.131345 0.239744 0.0627337 0.215118
          0.254682 0.0561024 0.122055 0.28714 0.0650225 0.175661
          0.185124 0.05297 0.131345 0.0939533 0.0506828 0.181751
          0.158421 0.0496291 0.0897101 0.126597 0.045842 0.0973606
          0.0863681 -0.0147362 -0.0821753 0.108133 -0.015707 -0.125203
          0.073345 -0.0152032 -0.0979749 0.0931616 -0.0105415 -0.0987839
          0.0567513 -0.00688996 -0.0800162 0.0863681 -0.0147362 -0.0821753
          0.0931616 -0.0105415 -0.0987839 0.0784527 -0.00597124 -0.0773241
          0.0467083 0.0485772 0.184625 -0.0171148 0.0401223 0.136628
          0.0583242 0.0419076 0.088712 -0.0227431 0.040404 0.146911
          0.182741 0.0456925 0.0767849 0.161857 0.0498687 0.153568
          0.247533 0.0529727 0.133991 0.193616 0.0487549 0.0843481
          0.193616 0.0487549 0.0843481 0.130585 0.0390306 0.0287109
          0.182741 0.0456925 0.0767849 0.126597 0.045842 0.0973606
          0.182741 0.0456925 0.0767849 0.193616 0.0487549 0.0843481
          0.262653 0.0500391 0.0812999 0.251511 0.0450642 -0.00310106
          0.215481 0.0468155 0.0269334 0.193616 0.0487549 0.0843481
          0.254682 0.0561024 0.122055 0.185124 0.05297 0.131345
          0.013461 -0.00348063 -0.0158737 0.0255033 0.00090171 -0.0220747
          0 0 0 0.0425707 -0.0036721 -0.0331096
          0.013461 -0.00348063 -0.0158737 0 0 0
          0 0 0 0.0255033 0.00090171 -0.0220747
          0.0255033 0.00090171 -0.0220747 0 0 0
          0 0 0 0.0425707 -0.0036721 -0.0331096
          0.296649 0.0901879 0.64528 0.293499 0.0841291 0.540835
          0.316074 0.0917422 0.635195 0.378063 0.0956028 0.621907
          0.252053 0.0846894 0.591048 0.293499 0.0841291 0.540835
          0.316074 0.0917422 0.635195 0.296649 0.0901879 0.64528
          0.252053 0.0846894 0.591048 0.293499 0.0841291 0.540835
          0.381656 0.0918153 0.550721 0.316074 0.0917422 0.635195
          0.316074 0.0917422 0.635195 0.293499 0.0841291 0.540835
          0.381656 0.0918153 0.550721 0.378063 0.0956028 0.621907
          0.133888 -0.0146771 -0.401768 0.16614 -0.0138481 -0.427097
          0.132605 -0.0129756 -0.428618 0.122055 -0.0136552 -0.391712
          0.133888 -0.0146771 -0.401768 0.146533 -0.0142383 -0.451025
          0.124448 -0.0143225 -0.471353 0.16614 -0.0138481 -0.427097
          0.133888 -0.0146771 -0.401768 0.148017 -0.0154864 -0.384611
          0.146533 -0.0142383 -0.451025 0.16614 -0.0138481 -0.427097
          0.16614 -0.0138481 -0.427097 0.148017 -0.0154864 -0.384611
          0.163356 -0.0145944 -0.367459 0.133888 -0.0146771 -0.401768
          0.16614 -0.0138481 -0.427097 0.133888 -0.0146771 -0.401768
          0.163356 -0.0145944 -0.367459 0.164565 -0.0133876 -0.382405
          0.133888 -0.0146771 -0.401768 0.121041 -0.0164017 -0.361831
          0.148017 -0.0154864 -0.384611 0.163356 -0.0145944 -0.367459
          0.133888 -0.0146771 -0.401768 0.102925 -0.01385 -0.339323
          0.121041 -0.0164017 -0.361831 0.163356 -0.0145944 -0.367459
          0.0500145 0.0249025 -0.112389 0.0689865 0.0290619 -0.0831016
          0.120774 0.030637 -0.123642 0.103092 0.0367894 -0.0397778
          0.188102 -0.00147667 -0.451478 0.176877 0.00304432 -0.402251
          0.246998 0.00343406 -0.395046 0.205526 0.00822017 -0.38119
          0.246998 0.00343406 -0.395046 0.176877 0.00304432 -0.402251
          0.264155 0.0132645 -0.31677 0.205526 0.00822017 -0.38119
          0.205526 0.00822017 -0.38119 0.176877 0.00304432 -0.402251
          0.264155 0.0132645 -0.31677 0.187876 0.0115894 -0.319623
          0.187876 0.0115894 -0.319623 0.135405 0.00710339 -0.365193
          0.205526 0.00822017 -0.38119 0.176877 0.00304432 -0.402251
          0.187876 0.0115894 -0.319623 0.135405 0.00710339 -0.365193
          0.177392 0.0114892 -0.3605 0.205526 0.00822017 -0.38119
          0.177392 0.0114892 -0.3605 0.205526 0.00822017 -0.38119
          0.135405 0.00710339 -0.365193 0.16371 0.00418987 -0.421372
          0.205526 0.00822017 -0.38119 0.176877 0.00304432 -0.402251
          0.135405 0.00710339 -0.365193 0.16371 0.00418987 -0.421372
          0.145882 0.0938932 1.06259 0.146166 0.0938949 1.01979
          0.106761 0.101082 1.02841 0.1552 0.0906953 1.03528
          0.145882 0.0938932 1.06259 0.161148 0.0923967 1.06649
          0.106761 0.101082 1.02841 0.146166 0.0938949 1.01979
          0.11299 0.0952604 1.06038 0.146166 0.0938949 1.01979
          0.106761 0.101082 1.02841 0.161148 0.0923967 1.06649
          0.11299 0.0952604 1.06038 0.110551 0.0973971 1.01445
          0.146166 0.0938949 1.01979 0.161148 0.0923967 1.06649
          0.11299 0.0952604 1.06038 0.110551 0.0973971 1.01445
          0.0992901 0.104541 0.989552 0.146166 0.0938949 1.01979
          0.11299 0.0952604 1.06038 0.0992901 0.104541 0.989552
          0.106761 0.101082 1.02841 0.146166 0.0938949 1.01979
          0.0992901 0.104541 0.989552 0.110551 0.0973971 1.01445
          0.165145 0.0940771 1.01785 0.146166 0.0938949 1.01979
          0.174536 0.092526 0.994842 0.0992901 0.104541 0.989552
          0.165145 0.0940771 1.01785 0.146166 0.0938949 1.01979
          0.146166 0.0938949 1.01979 0.110551 0.0973971 1.01445
          0.165145 0.0940771 1.01785 0.161148 0.0923967 1.06649
          0.132045 -0.0137283 -0.536958 0.118801 -0.0139847 -0.559433
          0.148566 -0.0137518 -0.555601 0.154852 -0.0116642 -0.533339
          0.159245 -0.0136275 -0.519906 0.132045 -0.0137283 -0.536958
          0.148566 -0.0137518 -0.555601 0.154852 -0.0116642 -0.533339
          0.148566 -0.0137518 -0.555601 0.159245 -0.0136275 -0.519906
          0.154929 -0.0155281 -0.542343 0.132045 -0.0137283 -0.536958
          0.132045 -0.0137283 -0.536958 0.119042 -0.0136001 -0.539299
          0.118801 -0.0139847 -0.559433 0.154852 -0.0116642 -0.533339
          0.197509 0.00429118 -0.539182 0.209308 0.0137501 -0.529951
          0.15353 0.000570539 -0.562779 0.179763 0.00577853 -0.528465
          0.172754 -0.00977107 -0.561995 0.137254 -0.010044 -0.578733
          0.137741 -0.00834925 -0.591306 0.153746 -0.0166346 -0.580158
          0.172754 -0.00977107 -0.561995 0.137741 -0.00834925 -0.591306
          0.162 -0.00546711 -0.577397 0.153746 -0.0166346 -0.580158
          0.172754 -0.00977107 -0.561995 0.137254 -0.010044 -0.578733
          0.162 -0.00546711 -0.577397 0.137741 -0.00834925 -0.591306
          0.145549 -0.00508143 -0.577714 0.137741 -0.00834925 -0.591306
          0.162 -0.00546711 -0.577397 0.137254 -0.010044 -0.578733
          0.145549 -0.00508143 -0.577714 0.118662 -0.0118541 -0.601902
          0.137741 -0.00834925 -0.591306 0.137254 -0.010044 -0.578733
          0.137741 -0.00834925 -0.591306 0.118662 -0.0118541 -0.601902
          0.145549 -0.00508143 -0.577714 0.112396 -0.00944941 -0.595416
          0.137741 -0.00834925 -0.591306 0.118662 -0.0118541 -0.601902
          0.130566 -0.0141443 -0.594765 0.137254 -0.010044 -0.578733
          0.130566 -0.0141443 -0.594765 0.1144 -0.0159403 -0.605091
          0.118662 -0.0118541 -0.601902 0.137741 -0.00834925 -0.591306
          0.153746 -0.0166346 -0.580158 0.162 -0.00546711 -0.577397
          0.135136 -0.0161269 -0.592202 0.137741 -0.00834925 -0.591306
          0.137741 -0.00834925 -0.591306 0.162 -0.00546711 -0.577397
          0.135136 -0.0161269 -0.592202 0.138658 -0.00579803 -0.587756
          0.171264 0.00623301 -0.573364 0.1544 0.00590663 -0.591654
          0.155927 0.000251628 -0.585031 0.150403 0.00210831 -0.583032
          0.209269 0.102614 0.986222 0.209054 0.100802 0.973437
          0.172295 0.10293 0.999356 0.214788 0.10492 1.00424
          0.209054 0.100802 0.973437 0.148946 0.0951903 0.97766
          0.172295 0.10293 0.999356 0.214788 0.10492 1.00424
          0.209054 0.100802 0.973437 0.166592 0.0943382 0.957611
          0.148946 0.0951903 0.97766 0.214788 0.10492 1.00424
          0.240365 0.0719055 0.361752 0.298245 0.0824615 0.466509
          0.189954 0.0762057 0.471849 0.237126 0.0794021 0.50115
          0.282707 0.0780598 0.447798 0.298245 0.0824615 0.466509
          0.240365 0.0719055 0.361752 0.237126 0.0794021 0.50115
          0.239744 0.0627337 0.215118 0.267528 0.060776 0.191131
          0.254682 0.0561024 0.122055 0.28714 0.0650225 0.175661
          0.112709 -0.0131223 -0.570554 0.103554 -0.0102896 -0.583544
          0.12962 -0.0179958 -0.581327 0.12041 -0.0170253 -0.596519
          0.11472 -0.0137039 -0.576103 0.112709 -0.0131223 -0.570554
          0.12962 -0.0179958 -0.581327 0.12041 -0.0170253 -0.596519
          0.11472 -0.0137039 -0.576103 0.112709 -0.0131223 -0.570554
          0.12041 -0.0170253 -0.596519 0.105112 -0.0109623 -0.591591
          0.11472 -0.0137039 -0.576103 0.103554 -0.0102896 -0.583544
          0.112709 -0.0131223 -0.570554 0.105112 -0.0109623 -0.591591
          0.112709 -0.0131223 -0.570554 0.103554 -0.0102896 -0.583544
          0.12041 -0.0170253 -0.596519 0.105112 -0.0109623 -0.591591
          0.045572 0.0183116 -0.184803 0.0734512 0.0151683 -0.243691
          0.0567087 0.0165835 -0.211871 0.086844 0.0241004 -0.145402
          0.135582 0.0211458 -0.209163 0.086844 0.0241004 -0.145402
          0.0734512 0.0151683 -0.243691 0.045572 0.0183116 -0.184803
          0.135582 0.0211458 -0.209163 0.045572 0.0183116 -0.184803
          0.0734512 0.0151683 -0.243691 0.0640031 0.0178233 -0.205846
          0.086844 0.0241004 -0.145402 0.045572 0.0183116 -0.184803
          -0.0209827 0.0198814 -0.106826 0.0437957 0.0214384 -0.141935
          0.045572 0.0183116 -0.184803 -0.0209827 0.0198814 -0.106826
          0.0540385 0.0279604 -0.0683123 0.086844 0.0241004 -0.145402
          -0.0244421 0.0178141 -0.132669 -0.0209827 0.0198814 -0.106826
          0.0540385 0.0279604 -0.0683123 0.045572 0.0183116 -0.184803
          0.045572 0.0183116 -0.184803 -0.0163625 0.013976 -0.178291
          -0.0244421 0.0178141 -0.132669 -0.0209827 0.0198814 -0.106826
          0.045572 0.0183116 -0.184803 -0.0163625 0.013976 -0.178291
          -0.0209827 0.0198814 -0.106826 0.0437957 0.0214384 -0.141935
          0.045572 0.0183116 -0.184803 -0.0163625 0.013976 -0.178291
          -0.0206594 0.0140266 -0.187186 -0.0244421 0.0178141 -0.132669
          0.152841 0.00628365 -0.549552 0.129565 -0.00181342 -0.563005
          0.130792 -0.000960639 -0.550484 0.117983 -0.00211367 -0.53106
          0.0126215 -0.00998045 -0.0546027 0.00020316 -0.00504482 -0.026493
          0.0108895 -0.00577718 -0.0287179 -0.0075844 -0.00783516 -0.0507497
          0.0126215 -0.00998045 -0.0546027 0.0108895 -0.00577718 -0.0287179
          0.0165473 -0.00617679 -0.0509829 -0.0075844 -0.00783516 -0.0507497
          -0.0118951 0.0528332 0.283342 0.060043 0.0568305 0.259679
          0.0851486 0.064407 0.331217 0.0876554 0.0583691 0.26528
          0.0619518 0.0109529 -0.275906 0.0203376 0.00322875 -0.300681
          0.0826533 0.00922241 -0.323018 0.0638506 0.00594671 -0.330755
          0.114861 -0.0179139 -0.253853 0.0966303 -0.0151294 -0.230152
          0.144869 -0.0177062 -0.239967 0.150518 -0.0153733 -0.270885
          0.0108895 -0.00577718 -0.0287179 0.00562483 -0.00357756 -0.0126354
          -0.00165095 -0.00443768 -0.0206394 -0.00441511 -0.00222472 -0.0122332
          0.0882954 0.0139789 -0.275434 0.0619518 0.0109529 -0.275906
          0.0826533 0.00922241 -0.323018 0.0638506 0.00594671 -0.330755
          0.0423499 -0.0114026 -0.055377 0.0165473 -0.00617679 -0.0509829
          0.0108895 -0.00577718 -0.0287179 0.0368505 -0.00613969 -0.0433125
          0.0423499 -0.0114026 -0.055377 0.0108895 -0.00577718 -0.0287179
          0.0182165 -0.00767366 -0.0242749 0.0368505 -0.00613969 -0.0433125
          0.0368505 -0.00613969 -0.0433125 0.0182165 -0.00767366 -0.0242749
          0.0159097 -0.00071185 -0.0210781 0.0108895 -0.00577718 -0.0287179
          -0.00726708 0.0149956 -0.161331 -0.000573831 0.0145488 -0.167424
          0.0250181 0.0101551 -0.238931 0.000458692 0.00569362 -0.263183
          -0.00726708 0.0149956 -0.161331 0.0250181 0.0101551 -0.238931
          0.0688902 0.018373 -0.205679 0.000458692 0.00569362 -0.263183
          0.078365 0.0183968 -0.220655 0.0250181 0.0101551 -0.238931
          0.0619518 0.0109529 -0.275906 0.0688902 0.018373 -0.205679
          0.0689447 -0.0128604 -0.335303 0.0829969 -0.0109702 -0.307637
          0.0419592 -0.0119604 -0.304688 0.0608181 -0.012833 -0.282402
          0.0441608 -0.0145928 -0.191319 0.0213185 -0.0168699 -0.245591
          0.0556986 -0.0149003 -0.231736 0.0475774 -0.0167668 -0.194693
          0.0331346 -0.0139518 -0.311202 0.0689447 -0.0128604 -0.335303
          0.0419592 -0.0119604 -0.304688 0.0608181 -0.012833 -0.282402
          0.0615568 -0.00927245 -0.319052 0.0327647 -0.0109596 -0.337261
          0.0419592 -0.0119604 -0.304688 0.00691554 -0.00994981 -0.300825
          0.135405 0.0894653 0.972754 0.137992 0.0809897 0.939445
          0.166592 0.0943382 0.957611 0.158825 0.0903425 0.962158
          0.135405 0.0894653 0.972754 0.148946 0.0951903 0.97766
          0.158825 0.0903425 0.962158 0.166592 0.0943382 0.957611
          0.135405 0.0894653 0.972754 0.148946 0.0951903 0.97766
          0.172295 0.10293 0.999356 0.158825 0.0903425 0.962158
          0.158825 0.0903425 0.962158 0.148946 0.0951903 0.97766
          0.172295 0.10293 0.999356 0.209054 0.100802 0.973437
          0.209269 0.102614 0.986222 0.158825 0.0903425 0.962158
          0.172295 0.10293 0.999356 0.209054 0.100802 0.973437
          0.209269 0.102614 0.986222 0.158825 0.0903425 0.962158
          0.209054 0.100802 0.973437 0.201574 0.0974581 0.951197
          0.209054 0.100802 0.973437 0.201574 0.0974581 0.951197
          0.158825 0.0903425 0.962158 0.198685 0.0945086 0.918357
          0.209054 0.100802 0.973437 0.158825 0.0903425 0.962158
          0.166592 0.0943382 0.957611 0.198685 0.0945086 0.918357
          0.158825 0.0903425 0.962158 0.148946 0.0951903 0.97766
          0.209054 0.100802 0.973437 0.166592 0.0943382 0.957611
          0.158825 0.0903425 0.962158 0.166592 0.0943382 0.957611
          0.198685 0.0945086 0.918357 0.137992 0.0809897 0.939445
          0.158825 0.0903425 0.962158 0.137992 0.0809897 0.939445
          0.198685 0.0945086 0.918357 0.156753 0.0825092 0.929123
          0.201574 0.0974581 0.951197 0.158825 0.0903425 0.962158
          0.198685 0.0945086 0.918357 0.156753 0.0825092 0.929123
          0.251511 0.0450642 -0.00310106 0.149682 0.0387796 -0.00792568
          0.182741 0.0456925 0.0767849 0.215481 0.0468155 0.0269334
          0.251511 0.0450642 -0.00310106 0.149682 0.0387796 -0.00792568
          0.215481 0.0468155 0.0269334 0.23391 0.0395448 -0.0669595
          0.270051 0.0400479 -0.0453142 0.23391 0.0395448 -0.0669595
          0.251511 0.0450642 -0.00310106 0.314985 0.0475958 -0.0156401
          0.315675 0.0464779 -0.0557286 0.23391 0.0395448 -0.0669595
          0.251511 0.0450642 -0.00310106 0.32407 0.0527487 0.00931725
          0.251511 0.0450642 -0.00310106 0.215481 0.0468155 0.0269334
          0.243538 0.045937 -0.0299528 0.23391 0.0395448 -0.0669595
          0.0256855 -0.00877047 -0.0769447 0.0567513 -0.00688996 -0.0800162
          0.0508293 -0.0107902 -0.0918145 0.0389648 -0.00539303 -0.0891458
          0.0256855 -0.00877047 -0.0769447 0.0165473 -0.00617679 -0.0509829
          0.0423499 -0.0114026 -0.055377 0.0567513 -0.00688996 -0.0800162
          0.0165473 -0.00617679 -0.0509829 0.0567513 -0.00688996 -0.0800162
          0.0256855 -0.00877047 -0.0769447 0.0389648 -0.00539303 -0.0891458
          0.0615568 -0.00927245 -0.319052 0.0419592 -0.0119604 -0.304688
          0.0242242 -0.010768 -0.269019 0.00691554 -0.00994981 -0.300825
          0.317504 0.0992951 0.814724 0.293221 0.100629 0.862298
          0.224695 0.0953553 0.846221 0.248601 0.0963202 0.818343
          0.317504 0.0992951 0.814724 0.367966 0.104195 0.7975
          0.35665 0.103169 0.859128 0.293221 0.100629 0.862298
          0.371492 0.0993781 0.80277 0.367966 0.104195 0.7975
          0.35665 0.103169 0.859128 0.317504 0.0992951 0.814724
          0.317504 0.0992951 0.814724 0.371492 0.0993781 0.80277
          0.35898 0.100297 0.86023 0.35665 0.103169 0.859128
          0.107318 -0.0140032 -0.607226 0.0982553 -0.0211777 -0.602659
          0.107518 -0.0214738 -0.605715 0.104386 -0.0161113 -0.608847
          0.107318 -0.0140032 -0.607226 0.107518 -0.0214738 -0.605715
          0.109567 -0.0177132 -0.608718 0.104386 -0.0161113 -0.608847
          0.00691554 -0.00994981 -0.300825 -0.0144376 -0.00790873 -0.306156
          -0.00778128 -0.00821885 -0.267441 0.0343041 -0.00708722 -0.315142
          0.00691554 -0.00994981 -0.300825 -0.00778128 -0.00821885 -0.267441
          0.0259847 -0.00747016 -0.269956 0.0343041 -0.00708722 -0.315142
          -0.0144376 -0.00790873 -0.306156 -0.0386367 -0.00998593 -0.259364
          0.00691554 -0.00994981 -0.300825 -0.00778128 -0.00821885 -0.267441
          0.0674725 -0.0100434 -0.47284 0.0943749 -0.0110955 -0.459335
          0.0964633 -0.0116014 -0.498097 0.0758985 -0.00839467 -0.497359
          0.104664 -0.012164 -0.609688 0.104248 -0.00998517 -0.60549
          0.103294 -0.00986613 -0.605495 0.106057 -0.0116458 -0.606543
          0.0674725 -0.0100434 -0.47284 0.0772562 -0.00829571 -0.449559
          0.0943749 -0.0110955 -0.459335 0.0758985 -0.00839467 -0.497359
          -0.0124161 0.00998805 -0.238023 0.0734512 0.0151683 -0.243691
          0.0567087 0.0165835 -0.211871 0.045572 0.0183116 -0.184803
          -0.0163625 0.013976 -0.178291 -0.0124161 0.00998805 -0.238023
          0.0567087 0.0165835 -0.211871 0.045572 0.0183116 -0.184803
          0.045572 0.0183116 -0.184803 -0.0206594 0.0140266 -0.187186
          -0.0163625 0.013976 -0.178291 -0.0124161 0.00998805 -0.238023
          0.32407 0.0527487 0.00931725 0.271213 0.0549191 0.0653578
          0.330856 0.0570944 0.0711169 0.332187 0.0577736 0.0357389
          0.1081 -0.0209799 -0.606824 0.121298 -0.0203243 -0.601592
          0.110326 -0.021099 -0.615295 0.113746 -0.0145598 -0.606765
          0.215481 0.0468155 0.0269334 0.254682 0.0561024 0.122055
          0.330856 0.0570944 0.0711169 0.271213 0.0549191 0.0653578
          0.185124 0.05297 0.131345 0.254682 0.0561024 0.122055
          0.215481 0.0468155 0.0269334 0.271213 0.0549191 0.0653578
          0.185124 0.05297 0.131345 0.254682 0.0561024 0.122055
          0.271213 0.0549191 0.0653578 0.25535 0.057476 0.0852052
          0.25535 0.057476 0.0852052 0.28714 0.0650225 0.175661
          0.254682 0.0561024 0.122055 0.271213 0.0549191 0.0653578
          0.25535 0.057476 0.0852052 0.28714 0.0650225 0.175661
          0.271213 0.0549191 0.0653578 0.344346 0.0656273 0.127083
          0.271213 0.0549191 0.0653578 0.28714 0.0650225 0.175661
          0.254682 0.0561024 0.122055 0.344346 0.0656273 0.127083
          0.254682 0.0561024 0.122055 0.344346 0.0656273 0.127083
          0.330856 0.0570944 0.0711169 0.271213 0.0549191 0.0653578
          0.271213 0.0549191 0.0653578 0.344346 0.0656273 0.127083
          0.330856 0.0570944 0.0711169 0.332187 0.0577736 0.0357389
          0.298929 0.101482 1.04991 0.288612 0.101508 1.08839
          0.335042 0.104922 1.07194 0.299437 0.101203 1.08532
          0.291481 0.099271 1.04863 0.298929 0.101482 1.04991
          0.335042 0.104922 1.07194 0.299437 0.101203 1.08532
          0.291481 0.099271 1.04863 0.288612 0.101508 1.08839
          0.298929 0.101482 1.04991 0.299437 0.101203 1.08532
          0.291481 0.099271 1.04863 0.288612 0.101508 1.08839
          0.256621 0.0931621 1.063 0.298929 0.101482 1.04991
          0.0487702 -0.0173093 -0.0310522 0.0385235 -0.0105734 -0.0388337
          0.046611 -0.0127395 -0.0281452 0.063013 -0.0157642 -0.0456833
          0.298929 0.101482 1.04991 0.222064 0.0922335 1.0378
          0.256621 0.0931621 1.063 0.262572 0.0985842 1.02395
          0.288612 0.101508 1.08839 0.222064 0.0922335 1.0378
          0.298929 0.101482 1.04991 0.262572 0.0985842 1.02395
          0.262572 0.0985842 1.02395 0.274099 0.105261 1.08923
          0.298929 0.101482 1.04991 0.288612 0.101508 1.08839
          0.262572 0.0985842 1.02395 0.274099 0.105261 1.08923
          0.289143 0.105429 1.04493 0.298929 0.101482 1.04991
          0.298929 0.101482 1.04991 0.274099 0.105261 1.08923
          0.289143 0.105429 1.04493 0.288612 0.101508 1.08839
          0.288612 0.101508 1.08839 0.222064 0.0922335 1.0378
          0.256621 0.0931621 1.063 0.298929 0.101482 1.04991
          0.145798 0.090798 0.679028 0.127105 0.0876495 0.701116
          0.0907144 0.0927309 0.71224 0.0754783 0.0822369 0.620429
          0.145798 0.090798 0.679028 0.0754783 0.0822369 0.620429
          0.0907144 0.0927309 0.71224 0.0558778 0.0858855 0.622921
          0.0558778 0.0858855 0.622921 0.164032 0.0827915 0.545908
          0.145798 0.090798 0.679028 0.0754783 0.0822369 0.620429
          0.22275 0.104812 1.04279 0.216442 0.11019 1.08311
          0.227293 0.112242 1.05647 0.250416 0.112338 1.09087
          0.227293 0.112242 1.05647 0.216442 0.11019 1.08311
          0.24468 0.114842 1.09294 0.250416 0.112338 1.09087
          0.110675 -0.00367405 -0.515213 0.147387 0.00173919 -0.514186
          0.124809 5.29779e-05 -0.483101 0.124087 -0.00488907 -0.541258
          0.110675 -0.00367405 -0.515213 0.124087 -0.00488907 -0.541258
          0.124809 5.29779e-05 -0.483101 0.0975595 -0.00451818 -0.516903
          0.110675 -0.00367405 -0.515213 0.124809 5.29779e-05 -0.483101
          0.0696074 -0.00701453 -0.503281 0.0975595 -0.00451818 -0.516903
          0.110675 -0.00367405 -0.515213 0.0696074 -0.00701453 -0.503281
          0.0728637 -0.00800935 -0.538075 0.0975595 -0.00451818 -0.516903
          0.0970682 -0.00880874 -0.546836 0.110675 -0.00367405 -0.515213
          0.0728637 -0.00800935 -0.538075 0.0975595 -0.00451818 -0.516903
          0.0970682 -0.00880874 -0.546836 0.124087 -0.00488907 -0.541258
          0.110675 -0.00367405 -0.515213 0.0975595 -0.00451818 -0.516903
          0.0970682 -0.00880874 -0.546836 0.0696074 -0.00701453 -0.503281
          0.0728637 -0.00800935 -0.538075 0.110675 -0.00367405 -0.515213
          0.0734512 0.0151683 -0.243691 0.135582 0.0211458 -0.209163
          0.149133 0.0161199 -0.296868 0.0944564 0.0146023 -0.27546
          0.0734512 0.0151683 -0.243691 0.135582 0.0211458 -0.209163
          0.0944564 0.0146023 -0.27546 0.137752 0.021662 -0.228365
          0.0944564 0.0146023 -0.27546 0.135582 0.0211458 -0.209163
          0.149133 0.0161199 -0.296868 0.137752 0.021662 -0.228365
          0.0975373 -0.00974557 -0.192492 0.0825549 -0.00948852 -0.155184
          0.126891 -0.00861598 -0.183665 0.0862894 -0.00400199 -0.166307
          0.0698431 -0.00822036 -0.18142 0.0825549 -0.00948852 -0.155184
          0.0975373 -0.00974557 -0.192492 0.0862894 -0.00400199 -0.166307
          0.00553736 -0.00949131 -0.0872548 -0.0396448 -0.0102092 -0.109624
          -0.010015 -0.0095234 -0.104158 -0.00895024 -0.0104179 -0.0974204
          0.00553736 -0.00949131 -0.0872548 -0.00895024 -0.0104179 -0.0974204
          -0.010015 -0.0095234 -0.104158 0.00182056 -0.0115354 -0.128416
          0.107318 -0.0140032 -0.607226 0.106057 -0.0116458 -0.606543
          0.104664 -0.012164 -0.609688 0.110311 -0.011447 -0.600512
          0.104664 -0.012164 -0.609688 0.107318 -0.0140032 -0.607226
          0.104248 -0.00998517 -0.60549 0.106057 -0.0116458 -0.606543
          0.109567 -0.0177132 -0.608718 0.107318 -0.0140032 -0.607226
          0.104664 -0.012164 -0.609688 0.110311 -0.011447 -0.600512
          0.104664 -0.012164 -0.609688 0.106057 -0.0116458 -0.606543
          0.103294 -0.00986613 -0.605495 0.110311 -0.011447 -0.600512
          0.109567 -0.0177132 -0.608718 0.104664 -0.012164 -0.609688
          0.103294 -0.00986613 -0.605495 0.110311 -0.011447 -0.600512
          0.109567 -0.0177132 -0.608718 0.104386 -0.0161113 -0.608847
          0.104664 -0.012164 -0.609688 0.107318 -0.0140032 -0.607226
          0.0896834 -0.01342 -0.474792 0.0943749 -0.0110955 -0.459335
          0.110055 -0.0119697 -0.4245 0.121678 -0.0131649 -0.477031
          0.121678 -0.0131649 -0.477031 0.0943749 -0.0110955 -0.459335
          0.110055 -0.0119697 -0.4245 0.133529 -0.0122415 -0.442996
          0.0943749 -0.0110955 -0.459335 0.0769836 -0.0103014 -0.421409
          0.110055 -0.0119697 -0.4245 0.133529 -0.0122415 -0.442996
          0.0896834 -0.01342 -0.474792 0.0674725 -0.0100434 -0.47284
          0.049198 -0.0109875 -0.426503 0.0943749 -0.0110955 -0.459335
          0.0943749 -0.0110955 -0.459335 0.0772562 -0.00829571 -0.449559
          0.11878 -0.011999 -0.4627 0.0758985 -0.00839467 -0.497359
          0.0964633 -0.0116014 -0.498097 0.0943749 -0.0110955 -0.459335
          0.11878 -0.011999 -0.4627 0.0758985 -0.00839467 -0.497359
          0.0943749 -0.0110955 -0.459335 0.0772562 -0.00829571 -0.449559
          0.120268 -0.0101949 -0.41947 0.11878 -0.011999 -0.4627
          0.230788 0.0275463 -0.219076 0.256875 0.0270713 -0.182761
          0.287691 0.0276488 -0.212564 0.199466 0.0297779 -0.163731
          0.230788 0.0275463 -0.219076 0.200648 0.0214733 -0.214665
          0.256875 0.0270713 -0.182761 0.199466 0.0297779 -0.163731
          0.0701937 -0.00792453 -0.467995 0.0948104 -0.00236865 -0.481413
          0.0817732 -0.00910394 -0.520643 0.106478 -0.00164808 -0.472928
          0.0817732 -0.00910394 -0.520643 0.0261287 -0.0124198 -0.465925
          0.0948104 -0.00236865 -0.481413 0.0701937 -0.00792453 -0.467995
          0.0701937 -0.00792453 -0.467995 0.0657571 -0.0031679 -0.428833
          0.0850406 -0.000287921 -0.429248 0.0377969 -0.00734382 -0.416931
          0.204543 0.0383668 -0.0282422 0.149682 0.0387796 -0.00792568
          0.251511 0.0450642 -0.00310106 0.23391 0.0395448 -0.0669595
          0.148895 0.0762001 0.66868 0.181436 0.0819169 0.673158
          0.0746714 0.0731584 0.661841 0.149244 0.0766639 0.750003
          0.257162 0.0452472 -0.0826948 0.331839 0.0569946 -0.0477761
          0.274803 0.0541389 -0.0163549 0.324155 0.0518298 -0.0383277
          0.243538 0.045937 -0.0299528 0.257162 0.0452472 -0.0826948
          0.274803 0.0541389 -0.0163549 0.324155 0.0518298 -0.0383277
          0.243538 0.045937 -0.0299528 0.274803 0.0541389 -0.0163549
          0.337898 0.0608716 0.0317743 0.324155 0.0518298 -0.0383277
          0.274803 0.0541389 -0.0163549 0.331839 0.0569946 -0.0477761
          0.337898 0.0608716 0.0317743 0.324155 0.0518298 -0.0383277
          0.274803 0.0541389 -0.0163549 0.331839 0.0569946 -0.0477761
          0.313974 0.0649467 0.0409103 0.337898 0.0608716 0.0317743
          0.262343 0.0583567 0.0517336 0.274803 0.0541389 -0.0163549
          0.313974 0.0649467 0.0409103 0.337898 0.0608716 0.0317743
          0.274803 0.0541389 -0.0163549 0.219222 0.0486119 -0.00572604
          0.262343 0.0583567 0.0517336 0.198498 0.0519682 0.0225208
          -0.0421975 -0.0121278 -0.149963 -0.0442204 -0.0113241 -0.160393
          -0.0431464 -0.0115306 -0.135303 -0.00603925 -0.00921344 -0.155231
          0.249159 0.00900184 -0.406363 0.205526 0.00822017 -0.38119
          0.262565 0.0127976 -0.353888 0.261294 0.0163032 -0.376382
          0.249159 0.00900184 -0.406363 0.205526 0.00822017 -0.38119
          0.261294 0.0163032 -0.376382 0.19211 0.00963681 -0.421164
          0.249159 0.00900184 -0.406363 0.19211 0.00963681 -0.421164
          0.261294 0.0163032 -0.376382 0.254645 0.0175491 -0.410354
          -0.0431464 -0.0115306 -0.135303 -0.0442204 -0.0113241 -0.160393
          -0.0438624 -0.0112966 -0.125053 -0.00603925 -0.00921344 -0.155231
          -0.0431464 -0.0115306 -0.135303 -0.00603925 -0.00921344 -0.155231
          -0.0438624 -0.0112966 -0.125053 0.00270117 -0.00839904 -0.122071
          0.134357 -0.0146054 -0.509884 0.159944 -0.0163887 -0.514976
          0.152257 -0.0186162 -0.540096 0.143157 -0.016824 -0.518352
          0.128281 -0.014775 -0.553089 0.134357 -0.0146054 -0.509884
          0.152257 -0.0186162 -0.540096 0.143157 -0.016824 -0.518352
          0.134357 -0.0146054 -0.509884 0.128281 -0.014775 -0.553089
          0.130675 -0.016316 -0.55811 0.143157 -0.016824 -0.518352
          0.110032 -0.012015 -0.542389 0.134357 -0.0146054 -0.509884
          0.130675 -0.016316 -0.55811 0.143157 -0.016824 -0.518352
          0.110032 -0.012015 -0.542389 0.134357 -0.0146054 -0.509884
          0.143157 -0.016824 -0.518352 0.121768 -0.0132045 -0.506753
          0.110032 -0.012015 -0.542389 0.113639 -0.0132619 -0.522822
          0.134357 -0.0146054 -0.509884 0.121768 -0.0132045 -0.506753
          0.110032 -0.012015 -0.542389 0.113639 -0.0132619 -0.522822
          0.128281 -0.014775 -0.553089 0.134357 -0.0146054 -0.509884
          0.110032 -0.012015 -0.542389 0.128281 -0.014775 -0.553089
          0.130675 -0.016316 -0.55811 0.134357 -0.0146054 -0.509884
          0.113639 -0.0132619 -0.522822 0.159944 -0.0163887 -0.514976
          0.128281 -0.014775 -0.553089 0.134357 -0.0146054 -0.509884
          0.128281 -0.014775 -0.553089 0.159944 -0.0163887 -0.514976
          0.152257 -0.0186162 -0.540096 0.134357 -0.0146054 -0.509884
          0.143157 -0.016824 -0.518352 0.134357 -0.0146054 -0.509884
          0.157734 -0.0150762 -0.492321 0.121768 -0.0132045 -0.506753
          0.121768 -0.0132045 -0.506753 0.134357 -0.0146054 -0.509884
          0.157734 -0.0150762 -0.492321 0.11878 -0.011999 -0.4627
          0.121768 -0.0132045 -0.506753 0.121678 -0.0131649 -0.477031
          0.134357 -0.0146054 -0.509884 0.11878 -0.011999 -0.4627
          0.134357 -0.0146054 -0.509884 0.121678 -0.0131649 -0.477031
          0.121768 -0.0132045 -0.506753 0.0964633 -0.0116014 -0.498097
          0.134357 -0.0146054 -0.509884 0.121678 -0.0131649 -0.477031
          0.157734 -0.0150762 -0.492321 0.11878 -0.011999 -0.4627
          0.134357 -0.0146054 -0.509884 0.165557 -0.0137598 -0.4616
          0.157734 -0.0150762 -0.492321 0.121678 -0.0131649 -0.477031
          0.134357 -0.0146054 -0.509884 0.165557 -0.0137598 -0.4616
          0.121678 -0.0131649 -0.477031 0.164177 -0.0141855 -0.483115
          0.134357 -0.0146054 -0.509884 0.121678 -0.0131649 -0.477031
          0.130132 -0.0142512 -0.513988 0.164177 -0.0141855 -0.483115
          -0.0202432 -0.0154642 -0.375762 0.0276634 -0.0124395 -0.381452
          -0.02311 -0.0128779 -0.364239 0.00753595 -0.0138764 -0.340524
          0.00753595 -0.0138764 -0.340524 -0.0273646 -0.016129 -0.335138
          -0.02311 -0.0128779 -0.364239 -0.0202432 -0.0154642 -0.375762
          0.0598204 0.00789755 -0.317222 0.0688967 0.00260366 -0.397242
          0.0948509 0.00960777 -0.330541 0.0445276 0.00929873 -0.294244
          0.0948509 0.00960777 -0.330541 0.0944564 0.0146023 -0.27546
          0.0598204 0.00789755 -0.317222 0.0445276 0.00929873 -0.294244
          0.0948509 0.00960777 -0.330541 0.0734512 0.0151683 -0.243691
          0.0944564 0.0146023 -0.27546 0.0445276 0.00929873 -0.294244
          0.0948509 0.00960777 -0.330541 0.0734512 0.0151683 -0.243691
          0.0445276 0.00929873 -0.294244 0.0508163 0.00841701 -0.326806
          0.0508163 0.00841701 -0.326806 0.0688967 0.00260366 -0.397242
          0.0445276 0.00929873 -0.294244 0.0948509 0.00960777 -0.330541
          0.0508163 0.00841701 -0.326806 0.0688967 0.00260366 -0.397242
          0.000364435 0.000322241 -0.360076 0.0445276 0.00929873 -0.294244
          -0.00773479 0.00474989 -0.315558 0.0508163 0.00841701 -0.326806
          0.000364435 0.000322241 -0.360076 0.0445276 0.00929873 -0.294244
          -0.00773479 0.00474989 -0.315558 -0.00630596 0.0047323 -0.294327
          0.0445276 0.00929873 -0.294244 0.000364435 0.000322241 -0.360076
          0.0445276 0.00929873 -0.294244 -0.00773479 0.00474989 -0.315558
          0.0508163 0.00841701 -0.326806 -0.0139035 0.00686604 -0.302569
          0.0944564 0.0146023 -0.27546 0.0734512 0.0151683 -0.243691
          0.0567087 0.0165835 -0.211871 0.0445276 0.00929873 -0.294244
          0.0598204 0.00789755 -0.317222 0.0944564 0.0146023 -0.27546
          0.0567087 0.0165835 -0.211871 0.0445276 0.00929873 -0.294244
          -0.0396448 -0.0102092 -0.109624 -0.00895024 -0.0104179 -0.0974204
          0.00553736 -0.00949131 -0.0872548 -0.0384657 -0.00944187 -0.0839381
          -0.0396448 -0.0102092 -0.109624 -0.0387419 -0.00986348 -0.100418
          -0.00895024 -0.0104179 -0.0974204 -0.0384657 -0.00944187 -0.0839381
          -0.0384657 -0.00944187 -0.0839381 -0.0387419 -0.00986348 -0.100418
          -0.00895024 -0.0104179 -0.0974204 -0.0112473 -0.00867774 -0.0676795
          -0.0384657 -0.00944187 -0.0839381 -0.00895024 -0.0104179 -0.0974204
          0.00553736 -0.00949131 -0.0872548 -0.0112473 -0.00867774 -0.0676795
          -0.00895024 -0.0104179 -0.0974204 -0.0112473 -0.00867774 -0.0676795
          0.0303649 -0.0119405 -0.0807488 0.00553736 -0.00949131 -0.0872548
          -0.00895024 -0.0104179 -0.0974204 0.0303649 -0.0119405 -0.0807488
          0.0341126 -0.0125083 -0.114873 0.00553736 -0.00949131 -0.0872548
          -0.00895024 -0.0104179 -0.0974204 -0.0396448 -0.0102092 -0.109624
          -0.010015 -0.0095234 -0.104158 0.00182056 -0.0115354 -0.128416
          0.00182056 -0.0115354 -0.128416 0.00069831 -0.0122989 -0.0909205
          0.0347523 -0.014953 -0.10816 -0.00895024 -0.0104179 -0.0974204
          -0.0264292 -0.0092593 -0.0990623 -0.0387419 -0.00986348 -0.100418
          -0.00895024 -0.0104179 -0.0974204 -0.0388781 -0.0110417 -0.128993
          -0.00895024 -0.0104179 -0.0974204 -0.0264292 -0.0092593 -0.0990623
          -0.0388781 -0.0110417 -0.128993 -0.0129988 -0.0132636 -0.152133
          -0.00895024 -0.0104179 -0.0974204 -0.0264292 -0.0092593 -0.0990623
          -0.0129988 -0.0132636 -0.152133 0.0150799 -0.0144693 -0.140254
          0.0983677 -0.0115942 -0.227508 0.139728 -0.0146452 -0.224153
          0.130472 -0.0123001 -0.19356 0.101464 -0.0152337 -0.183591
          0.0983677 -0.0115942 -0.227508 0.130472 -0.0123001 -0.19356
          0.0737005 -0.0132091 -0.182875 0.101464 -0.0152337 -0.183591
          0.0983677 -0.0115942 -0.227508 0.101464 -0.0152337 -0.183591
          0.0737005 -0.0132091 -0.182875 0.0966303 -0.0151294 -0.230152
          0.0983677 -0.0115942 -0.227508 0.139728 -0.0146452 -0.224153
          0.101464 -0.0152337 -0.183591 0.0966303 -0.0151294 -0.230152
          0.101464 -0.0152337 -0.183591 0.10478 -0.018128 -0.212972
          0.135107 -0.0174963 -0.199185 0.102126 -0.0189734 -0.170381
          0.101464 -0.0152337 -0.183591 0.10478 -0.018128 -0.212972
          0.102126 -0.0189734 -0.170381 0.0755101 -0.0174151 -0.181463
          0.102126 -0.0189734 -0.170381 0.101464 -0.0152337 -0.183591
          0.0755101 -0.0174151 -0.181463 0.0686171 -0.0179506 -0.138966
          0.102126 -0.0189734 -0.170381 0.0732646 -0.0135404 -0.135977
          0.101464 -0.0152337 -0.183591 0.0686171 -0.0179506 -0.138966
          0.102126 -0.0189734 -0.170381 0.12208 -0.0160632 -0.164258
          0.101464 -0.0152337 -0.183591 0.0732646 -0.0135404 -0.135977
          0.101464 -0.0152337 -0.183591 0.0732646 -0.0135404 -0.135977
          0.12208 -0.0160632 -0.164258 0.11946 -0.0121716 -0.160773
          0.101464 -0.0152337 -0.183591 0.11946 -0.0121716 -0.160773
          0.0825549 -0.00948852 -0.155184 0.0732646 -0.0135404 -0.135977
          0.101464 -0.0152337 -0.183591 0.0425612 -0.0137818 -0.154251
          0.0686171 -0.0179506 -0.138966 0.0732646 -0.0135404 -0.135977
          0.0755101 -0.0174151 -0.181463 0.0425612 -0.0137818 -0.154251
          0.0686171 -0.0179506 -0.138966 0.101464 -0.0152337 -0.183591
          0.0558022 -0.0109937 -0.389167 0.0249799 -0.00927824 -0.386426
          0.0769836 -0.0103014 -0.421409 0.049198 -0.0109875 -0.426503
          0.0558022 -0.0109937 -0.389167 0.0424382 -0.00742649 -0.369547
          0.0769836 -0.0103014 -0.421409 0.0249799 -0.00927824 -0.386426
          0.00553736 -0.00949131 -0.0872548 0.0126215 -0.00998045 -0.0546027
          0.0303649 -0.0119405 -0.0807488 0.0256855 -0.00877047 -0.0769447
          -0.0014031 -0.00719991 -0.0748949 0.0256855 -0.00877047 -0.0769447
          0.0165473 -0.00617679 -0.0509829 -0.0075844 -0.00783516 -0.0507497
          0.351348 0.111747 0.869577 0.272881 0.101595 0.900105
          0.341816 0.112732 0.920067 0.349887 0.106809 0.885922
          0.359992 0.10765 0.826851 0.272881 0.101595 0.900105
          0.351348 0.111747 0.869577 0.349887 0.106809 0.885922
          0.359992 0.10765 0.826851 0.299233 0.103915 0.847262
          0.351348 0.111747 0.869577 0.272881 0.101595 0.900105
          0.368553 0.104122 0.745728 0.299233 0.103915 0.847262
          0.351348 0.111747 0.869577 0.359992 0.10765 0.826851
          0.0126215 -0.00998045 -0.0546027 0.0423499 -0.0114026 -0.055377
          0.0303649 -0.0119405 -0.0807488 0.0256855 -0.00877047 -0.0769447
          0.0126215 -0.00998045 -0.0546027 0.0423499 -0.0114026 -0.055377
          0.0256855 -0.00877047 -0.0769447 0.0165473 -0.00617679 -0.0509829
          0.0256855 -0.00877047 -0.0769447 0.0126215 -0.00998045 -0.0546027
          0.0165473 -0.00617679 -0.0509829 -0.0075844 -0.00783516 -0.0507497
          0.1144 -0.0159403 -0.605091 0.111776 -0.0247358 -0.601291
          0.120838 -0.0201982 -0.603292 0.107518 -0.0214738 -0.605715
          0.1144 -0.0159403 -0.605091 0.120838 -0.0201982 -0.603292
          0.109567 -0.0177132 -0.608718 0.107518 -0.0214738 -0.605715
          -0.00603925 -0.00921344 -0.155231 0.00706416 -0.00670828 -0.137923
          0.0338639 -0.00745357 -0.153426 0.0252408 -0.0079659 -0.186335
          0.0125049 -0.0101035 -0.180202 -0.00603925 -0.00921344 -0.155231
          0.0338639 -0.00745357 -0.153426 0.0252408 -0.0079659 -0.186335
          0.0338639 -0.00745357 -0.153426 0.0698431 -0.00822036 -0.18142
          0.0125049 -0.0101035 -0.180202 0.0252408 -0.0079659 -0.186335
          -0.00603925 -0.00921344 -0.155231 0.00706416 -0.00670828 -0.137923
          0.0252408 -0.0079659 -0.186335 0.00472803 -0.00759501 -0.177314
          0.0252408 -0.0079659 -0.186335 0.00706416 -0.00670828 -0.137923
          0.0502169 -0.00470133 -0.188891 0.00472803 -0.00759501 -0.177314
          0.0252408 -0.0079659 -0.186335 0.00472803 -0.00759501 -0.177314
          0.0502169 -0.00470133 -0.188891 0.0491411 -0.00599707 -0.241803
          0.0252408 -0.0079659 -0.186335 0.00472803 -0.00759501 -0.177314
          0.0491411 -0.00599707 -0.241803 0.00022389 -0.00790277 -0.232947
          0.237712 0.0442774 -0.120025 0.323171 0.0510428 -0.116229
          0.229061 0.0449968 -0.0778743 0.254571 0.0422139 -0.140693
          4.09269e-05 -0.015154 -0.187651 -0.00275804 -0.0140178 -0.20773
          0.0171834 -0.0131376 -0.175025 0.0233769 -0.015396 -0.171585
          0.238454 0.0638716 0.176386 0.172727 0.0572523 0.179964
          0.172426 0.0599948 0.182148 0.163459 0.0542829 0.132925
          0.172727 0.0572523 0.179964 0.100178 0.0521232 0.164525
          0.172426 0.0599948 0.182148 0.163459 0.0542829 0.132925
          0.172426 0.0599948 0.182148 0.100178 0.0521232 0.164525
          0.141569 0.0485009 0.0692919 0.163459 0.0542829 0.132925
          0.336675 0.107926 0.957762 0.254201 0.103492 0.959385
          0.292096 0.102758 0.964551 0.285884 0.101867 0.926939
          0.292096 0.102758 0.964551 0.254201 0.103492 0.959385
          0.216313 0.0984366 0.955905 0.285884 0.101867 0.926939
          0.163459 0.0542829 0.132925 0.158421 0.0496291 0.0897101
          0.100178 0.0521232 0.164525 0.0583242 0.0419076 0.088712
          0.0165473 -0.00617679 -0.0509829 0.0114538 -0.00385626 -0.0309387
          -0.0102802 -0.00591698 -0.0432173 -0.0075844 -0.00783516 -0.0507497
          0.0165473 -0.00617679 -0.0509829 -0.0116991 -0.00495655 -0.029839
          0.0114538 -0.00385626 -0.0309387 -0.0075844 -0.00783516 -0.0507497
          -0.0116991 -0.00495655 -0.029839 0.0114538 -0.00385626 -0.0309387
          0.0108895 -0.00577718 -0.0287179 0.0165473 -0.00617679 -0.0509829
          -0.0116991 -0.00495655 -0.029839 -0.00165095 -0.00443768 -0.0206394
          0.0108895 -0.00577718 -0.0287179 0.0114538 -0.00385626 -0.0309387
          0.0114538 -0.00385626 -0.0309387 -0.00165095 -0.00443768 -0.0206394
          -0.0102802 -0.00591698 -0.0432173 -0.0116991 -0.00495655 -0.029839
          0.0114538 -0.00385626 -0.0309387 -0.0116991 -0.00495655 -0.029839
          -0.0102802 -0.00591698 -0.0432173 -0.0075844 -0.00783516 -0.0507497
          -0.00165095 -0.00443768 -0.0206394 0.0108895 -0.00577718 -0.0287179
          0.0114538 -0.00385626 -0.0309387 0.00562483 -0.00357756 -0.0126354
          0.00322887 -0.000798352 -0.00798877 0.00562483 -0.00357756 -0.0126354
          -0.00165095 -0.00443768 -0.0206394 0.0114538 -0.00385626 -0.0309387
          0.00322887 -0.000798352 -0.00798877 0.00562483 -0.00357756 -0.0126354
          0.0114538 -0.00385626 -0.0309387 0.0159097 -0.00071185 -0.0210781
          0.0114538 -0.00385626 -0.0309387 0.00322887 -0.000798352 -0.00798877
          0.0159097 -0.00071185 -0.0210781 0.0247822 0.00224888 -0.0362098
          0.0114538 -0.00385626 -0.0309387 0.0108895 -0.00577718 -0.0287179
          0.0159097 -0.00071185 -0.0210781 0.00562483 -0.00357756 -0.0126354
          0.0368505 -0.00613969 -0.0433125 0.0108895 -0.00577718 -0.0287179
          0.0159097 -0.00071185 -0.0210781 0.0114538 -0.00385626 -0.0309387
          0.0368505 -0.00613969 -0.0433125 0.0108895 -0.00577718 -0.0287179
          0.0114538 -0.00385626 -0.0309387 0.0165473 -0.00617679 -0.0509829
          0.0688902 0.018373 -0.205679 -0.000573831 0.0145488 -0.167424
          0.109529 0.0267247 -0.164205 0.078365 0.0183968 -0.220655
          0.0688902 0.018373 -0.205679 -0.000573831 0.0145488 -0.167424
          0.078365 0.0183968 -0.220655 0.0250181 0.0101551 -0.238931
          -0.000573831 0.0145488 -0.167424 0.0500145 0.0249025 -0.112389
          0.109529 0.0267247 -0.164205 0.078365 0.0183968 -0.220655
          0.078365 0.0183968 -0.220655 0.14323 0.027128 -0.191288
          0.130885 0.0226921 -0.239709 0.109529 0.0267247 -0.164205
          0.0927891 -0.0138988 -0.27258 0.0798418 -0.0176947 -0.264202
          0.113705 -0.0175004 -0.293712 0.114861 -0.0179139 -0.253853
          0.0927891 -0.0138988 -0.27258 0.0798418 -0.0176947 -0.264202
          0.114861 -0.0179139 -0.253853 0.0966303 -0.0151294 -0.230152
          0.0798418 -0.0176947 -0.264202 0.10478 -0.018128 -0.212972
          0.114861 -0.0179139 -0.253853 0.0966303 -0.0151294 -0.230152
          0.0966303 -0.0151294 -0.230152 0.10478 -0.018128 -0.212972
          0.114861 -0.0179139 -0.253853 0.144869 -0.0177062 -0.239967
          0.146451 -0.00498123 -0.540931 0.134573 -0.00903642 -0.561118
          0.137254 -0.010044 -0.578733 0.166017 -0.00832996 -0.548618
          0.146451 -0.00498123 -0.540931 0.134573 -0.00903642 -0.561118
          0.109413 -0.00731356 -0.560632 0.137254 -0.010044 -0.578733
          0.146451 -0.00498123 -0.540931 0.109413 -0.00731356 -0.560632
          0.134573 -0.00903642 -0.561118 0.128315 -0.00339795 -0.511432
          0.134573 -0.00903642 -0.561118 0.109413 -0.00731356 -0.560632
          0.117073 -0.00842294 -0.561124 0.128315 -0.00339795 -0.511432
          0.134573 -0.00903642 -0.561118 0.117073 -0.00842294 -0.561124
          0.109413 -0.00731356 -0.560632 0.119123 -0.00951806 -0.581108
          0.134573 -0.00903642 -0.561118 0.119123 -0.00951806 -0.581108
          0.109413 -0.00731356 -0.560632 0.137254 -0.010044 -0.578733
          0.166017 -0.00832996 -0.548618 0.134573 -0.00903642 -0.561118
          0.152841 -0.0122022 -0.551974 0.138348 -0.00834367 -0.530527
          0.102378 -0.0147507 -0.539178 0.0845509 -0.0178131 -0.501965
          0.0878253 -0.0163672 -0.510375 0.0828441 -0.0184706 -0.529701
          0.049659 -0.0222241 -0.516821 0.0845509 -0.0178131 -0.501965
          0.0828441 -0.0184706 -0.529701 0.0878253 -0.0163672 -0.510375
          0.0535114 -0.0187996 -0.526146 0.049659 -0.0222241 -0.516821
          0.0828441 -0.0184706 -0.529701 0.0878253 -0.0163672 -0.510375
          0.0821186 -0.0163022 -0.547193 0.0535114 -0.0187996 -0.526146
          0.0828441 -0.0184706 -0.529701 0.0878253 -0.0163672 -0.510375
          0.0821186 -0.0163022 -0.547193 0.0535114 -0.0187996 -0.526146
          0.0878253 -0.0163672 -0.510375 0.0665471 -0.0159942 -0.505201
          0.0878253 -0.0163672 -0.510375 0.0665471 -0.0159942 -0.505201
          0.0908379 -0.0141968 -0.513139 0.0821186 -0.0163022 -0.547193
          0.0665471 -0.0159942 -0.505201 0.0908379 -0.0141968 -0.513139
          0.0894282 -0.0157141 -0.475633 0.0878253 -0.0163672 -0.510375
          0.0878253 -0.0163672 -0.510375 0.0410239 -0.0180549 -0.471625
          0.0894282 -0.0157141 -0.475633 0.0665471 -0.0159942 -0.505201
          0.0581534 -0.0202491 -0.482959 0.0410239 -0.0180549 -0.471625
          0.0878253 -0.0163672 -0.510375 0.0665471 -0.0159942 -0.505201
          0.049659 -0.0222241 -0.516821 0.0581534 -0.0202491 -0.482959
          0.0878253 -0.0163672 -0.510375 0.0665471 -0.0159942 -0.505201
          0.0535114 -0.0187996 -0.526146 0.049659 -0.0222241 -0.516821
          0.0878253 -0.0163672 -0.510375 0.0665471 -0.0159942 -0.505201
          0.049659 -0.0222241 -0.516821 0.0581534 -0.0202491 -0.482959
          0.0845509 -0.0178131 -0.501965 0.0878253 -0.0163672 -0.510375
          0.0581534 -0.0202491 -0.482959 0.0410239 -0.0180549 -0.471625
          0.0894282 -0.0157141 -0.475633 0.0878253 -0.0163672 -0.510375
          0.0876554 0.0583691 0.26528 0.0635172 0.0515351 0.19353
          0.0467083 0.0485772 0.184625 -0.0155251 0.0493815 0.243135
          0.0876554 0.0583691 0.26528 0.100178 0.0521232 0.164525
          0.0467083 0.0485772 0.184625 0.0635172 0.0515351 0.19353
          0.0635172 0.0515351 0.19353 0.0876554 0.0583691 0.26528
          0.100178 0.0521232 0.164525 0.172426 0.0599948 0.182148
          0.0635172 0.0515351 0.19353 0.111056 0.0506082 0.116801
          0.172426 0.0599948 0.182148 0.100178 0.0521232 0.164525
          0.0635172 0.0515351 0.19353 0.0640984 0.0457958 0.114738
          0.111056 0.0506082 0.116801 0.100178 0.0521232 0.164525
          -0.0129809 0.041583 0.147286 0.0640984 0.0457958 0.114738
          0.0635172 0.0515351 0.19353 0.100178 0.0521232 0.164525
          0.0635172 0.0515351 0.19353 -0.0129809 0.041583 0.147286
          0.100178 0.0521232 0.164525 0.0467083 0.0485772 0.184625
          0.0635172 0.0515351 0.19353 0.039149 0.0478322 0.166498
          0.111056 0.0506082 0.116801 0.0640984 0.0457958 0.114738
          0.060043 0.0568305 0.259679 0.039149 0.0478322 0.166498
          0.109208 0.0572903 0.209665 0.0635172 0.0515351 0.19353
          0.272881 0.101595 0.900105 0.299233 0.103915 0.847262
          0.299471 0.10761 0.905539 0.24564 0.0977652 0.878842
          0.00402628 -0.0122154 -0.223718 -0.0405949 -0.0121653 -0.220618
          -0.0396832 -0.0112706 -0.242638 -0.0364058 -0.0121714 -0.271789
          0.00402628 -0.0122154 -0.223718 -0.0405949 -0.0121653 -0.220618
          -0.000402004 -0.0101472 -0.218544 -0.0396832 -0.0112706 -0.242638
          -0.0405949 -0.0121653 -0.220618 -0.0425719 -0.0113411 -0.197009
          -0.000402004 -0.0101472 -0.218544 -0.0396832 -0.0112706 -0.242638
          -0.0425719 -0.0113411 -0.197009 -0.043366 -0.0100866 -0.19915
          -0.000402004 -0.0101472 -0.218544 -0.0396832 -0.0112706 -0.242638
          -0.000402004 -0.0101472 -0.218544 -0.043366 -0.0100866 -0.19915
          0.00022389 -0.00790277 -0.232947 -0.0396832 -0.0112706 -0.242638
          0.00691554 -0.00994981 -0.300825 -0.0396832 -0.0112706 -0.242638
          -0.0364058 -0.0121714 -0.271789 0.0242242 -0.010768 -0.269019
          -0.00778128 -0.00821885 -0.267441 -0.0396832 -0.0112706 -0.242638
          0.00691554 -0.00994981 -0.300825 0.0242242 -0.010768 -0.269019
          -0.00778128 -0.00821885 -0.267441 -0.0386367 -0.00998593 -0.259364
          0.00691554 -0.00994981 -0.300825 -0.0396832 -0.0112706 -0.242638
          0.00691554 -0.00994981 -0.300825 -0.0386367 -0.00998593 -0.259364
          -0.0364058 -0.0121714 -0.271789 -0.0396832 -0.0112706 -0.242638
          0.128141 0.0092244 -0.36495 0.0948509 0.00960777 -0.330541
          0.149133 0.0161199 -0.296868 0.115975 0.0128998 -0.314557
          0.128141 0.0092244 -0.36495 0.0948509 0.00960777 -0.330541
          0.115975 0.0128998 -0.314557 0.0598204 0.00789755 -0.317222
          0.0919653 0.00584569 -0.369417 0.0598204 0.00789755 -0.317222
          0.128141 0.0092244 -0.36495 0.115975 0.0128998 -0.314557
          0.0919653 0.00584569 -0.369417 0.155675 0.013872 -0.375313
          0.115975 0.0128998 -0.314557 0.128141 0.0092244 -0.36495
          0.115975 0.0128998 -0.314557 0.0948509 0.00960777 -0.330541
          0.0944564 0.0146023 -0.27546 0.0598204 0.00789755 -0.317222
          0.115975 0.0128998 -0.314557 0.0948509 0.00960777 -0.330541
          0.149133 0.0161199 -0.296868 0.0944564 0.0146023 -0.27546
          0.115975 0.0128998 -0.314557 0.0944564 0.0146023 -0.27546
          0.149133 0.0161199 -0.296868 0.137752 0.021662 -0.228365
          0.0983677 -0.0115942 -0.227508 0.0910404 -0.00871713 -0.248485
          0.0698431 -0.00822036 -0.18142 0.0975373 -0.00974557 -0.192492
          0.0975373 -0.00974557 -0.192492 0.0450636 -0.0111888 -0.184676
          0.0698431 -0.00822036 -0.18142 0.0983677 -0.0115942 -0.227508
          0.0975373 -0.00974557 -0.192492 0.0825549 -0.00948852 -0.155184
          0.0698431 -0.00822036 -0.18142 0.0450636 -0.0111888 -0.184676
          0.228106 -0.00172237 -0.461908 0.190515 0.00181038 -0.453267
          0.249159 0.00900184 -0.406363 0.23316 0.00509314 -0.452771
          0.228106 -0.00172237 -0.461908 0.23316 0.00509314 -0.452771
          0.175681 -0.00370727 -0.508049 0.190515 0.00181038 -0.453267
          0.228106 -0.00172237 -0.461908 0.175681 -0.00370727 -0.508049
          0.18704 -0.0084688 -0.503135 0.190515 0.00181038 -0.453267
          0.228106 -0.00172237 -0.461908 0.190515 0.00181038 -0.453267
          0.18704 -0.0084688 -0.503135 0.188102 -0.00147667 -0.451478
          0.190515 0.00181038 -0.453267 0.151141 -0.00421154 -0.490188
          0.18704 -0.0084688 -0.503135 0.188102 -0.00147667 -0.451478
          0.188102 -0.00147667 -0.451478 0.151141 -0.00421154 -0.490188
          0.139514 0.000511914 -0.444654 0.190515 0.00181038 -0.453267
          0.175681 -0.00370727 -0.508049 0.151141 -0.00421154 -0.490188
          0.18704 -0.0084688 -0.503135 0.190515 0.00181038 -0.453267
          0.23316 0.00509314 -0.452771 0.227329 0.00478569 -0.482107
          0.175681 -0.00370727 -0.508049 0.190515 0.00181038 -0.453267
          0.23316 0.00509314 -0.452771 0.19211 0.00963681 -0.421164
          0.190515 0.00181038 -0.453267 0.249159 0.00900184 -0.406363
          0.19211 0.00963681 -0.421164 0.205526 0.00822017 -0.38119
          0.190515 0.00181038 -0.453267 0.249159 0.00900184 -0.406363
          0.19211 0.00963681 -0.421164 0.205526 0.00822017 -0.38119
          0.16371 0.00418987 -0.421372 0.190515 0.00181038 -0.453267
          0.190515 0.00181038 -0.453267 0.16371 0.00418987 -0.421372
          0.176877 0.00304432 -0.402251 0.205526 0.00822017 -0.38119
          0.190515 0.00181038 -0.453267 0.205526 0.00822017 -0.38119
          0.246998 0.00343406 -0.395046 0.249159 0.00900184 -0.406363
          0.125164 0.0053151 -0.431484 0.134062 0.00401747 -0.464844
          0.171681 0.0118168 -0.394107 0.131645 0.00478053 -0.424531
          0.125164 0.0053151 -0.431484 0.177759 0.0101018 -0.451713
          0.171681 0.0118168 -0.394107 0.134062 0.00401747 -0.464844
          0.134062 0.00401747 -0.464844 0.177759 0.0101018 -0.451713
          0.171681 0.0118168 -0.394107 0.131645 0.00478053 -0.424531
          0.0611862 0.0391504 0.0429092 0.104946 0.0435662 0.0577277
          0.0640984 0.0457958 0.114738 0.0583242 0.0419076 0.088712
          0.104946 0.0435662 0.0577277 0.0583242 0.0419076 0.088712
          0.0611862 0.0391504 0.0429092 0.0449238 0.0339339 0.00411554
          0.104946 0.0435662 0.0577277 0.0449238 0.0339339 0.00411554
          0.0887729 0.0367918 0.00698102 0.0583242 0.0419076 0.088712
          0.150403 0.00210831 -0.583032 0.1297 9.87133e-05 -0.605701
          0.155927 0.000251628 -0.585031 0.130862 -0.00448618 -0.596049
          0.150403 0.00210831 -0.583032 0.130862 -0.00448618 -0.596049
          0.155927 0.000251628 -0.585031 0.145549 -0.00508143 -0.577714
          0.100967 0.0376856 -0.0124784 0.159365 0.0442869 -0.00337952
          0.141569 0.0485009 0.0692919 0.104946 0.0435662 0.0577277
          0.289816 0.0991194 0.922122 0.285884 0.101867 0.926939
          0.339454 0.105555 0.957672 0.292096 0.102758 0.964551
          0.337395 0.104296 0.987774 0.339454 0.105555 0.957672
          0.292096 0.102758 0.964551 0.282294 0.0987585 0.988705
          0.337395 0.104296 0.987774 0.292096 0.102758 0.964551
          0.335373 0.10664 1.00044 0.282294 0.0987585 0.988705
          0.337395 0.104296 0.987774 0.339454 0.105555 0.957672
          0.335373 0.10664 1.00044 0.292096 0.102758 0.964551
          0.258775 0.10035 0.992022 0.335373 0.10664 1.00044
          0.292096 0.102758 0.964551 0.282294 0.0987585 0.988705
          0.284969 0.105508 0.994064 0.335373 0.10664 1.00044
          0.292096 0.102758 0.964551 0.258775 0.10035 0.992022
          0.262343 0.0583567 0.0517336 0.192396 0.0511354 0.0569261
          0.25535 0.057476 0.0852052 0.213365 0.058239 0.10934
          0.262343 0.0583567 0.0517336 0.219222 0.0486119 -0.00572604
          0.25535 0.057476 0.0852052 0.192396 0.0511354 0.0569261
          0.192396 0.0511354 0.0569261 0.161268 0.0430777 0.00556753
          0.219222 0.0486119 -0.00572604 0.25535 0.057476 0.0852052
          0.213365 0.058239 0.10934 0.25535 0.057476 0.0852052
          0.163459 0.0542829 0.132925 0.192396 0.0511354 0.0569261
          0.213365 0.058239 0.10934 0.163459 0.0542829 0.132925
          0.141569 0.0485009 0.0692919 0.192396 0.0511354 0.0569261
          0.104946 0.0435662 0.0577277 0.161268 0.0430777 0.00556753
          0.192396 0.0511354 0.0569261 0.158421 0.0496291 0.0897101
          0.138658 -0.00579803 -0.587756 0.137741 -0.00834925 -0.591306
          0.162 -0.00546711 -0.577397 0.155927 0.000251628 -0.585031
          0.138658 -0.00579803 -0.587756 0.137741 -0.00834925 -0.591306
          0.155927 0.000251628 -0.585031 0.125961 -0.00727612 -0.600585
          0.130862 -0.00448618 -0.596049 0.137741 -0.00834925 -0.591306
          0.125961 -0.00727612 -0.600585 0.155927 0.000251628 -0.585031
          0.155927 0.000251628 -0.585031 0.1297 9.87133e-05 -0.605701
          0.125961 -0.00727612 -0.600585 0.130862 -0.00448618 -0.596049
          0.130862 -0.00448618 -0.596049 0.137741 -0.00834925 -0.591306
          0.155927 0.000251628 -0.585031 0.145549 -0.00508143 -0.577714
          0.216996 0.0946768 0.982276 0.211651 0.0894452 1.02033
          0.222064 0.0922335 1.0378 0.256007 0.0933328 1.02618
          0.216996 0.0946768 0.982276 0.256007 0.0933328 1.02618
          0.222064 0.0922335 1.0378 0.262572 0.0985842 1.02395
          0.216996 0.0946768 0.982276 0.256007 0.0933328 1.02618
          0.262572 0.0985842 1.02395 0.254847 0.0942488 0.990392
          0.216996 0.0946768 0.982276 0.211651 0.0894452 1.02033
          0.256007 0.0933328 1.02618 0.254847 0.0942488 0.990392
          0.0385235 -0.0105734 -0.0388337 0.0423499 -0.0114026 -0.055377
          0.0182165 -0.00767366 -0.0242749 0.0368505 -0.00613969 -0.0433125
          0.0385235 -0.0105734 -0.0388337 0.0182165 -0.00767366 -0.0242749
          0.045819 -0.00779774 -0.0366013 0.0368505 -0.00613969 -0.0433125
          0.0619345 -0.0102839 -0.0527576 0.0385235 -0.0105734 -0.0388337
          0.045819 -0.00779774 -0.0366013 0.0368505 -0.00613969 -0.0433125
          0.0619345 -0.0102839 -0.0527576 0.0423499 -0.0114026 -0.055377
          0.0385235 -0.0105734 -0.0388337 0.0368505 -0.00613969 -0.0433125
          0.0385235 -0.0105734 -0.0388337 0.0220256 -0.0109318 -0.0199872
          0.0182165 -0.00767366 -0.0242749 0.021377 -0.0104381 -0.0359205
          0.0385235 -0.0105734 -0.0388337 0.0292423 -0.0145331 -0.0274994
          0.0220256 -0.0109318 -0.0199872 0.021377 -0.0104381 -0.0359205
          0.0864608 -0.0150371 -0.385583 0.0615418 -0.0146903 -0.401189
          0.0311669 -0.015471 -0.372513 0.0487007 -0.016142 -0.343334
          -0.00608307 -0.00364772 -0.0122518 0.00405932 5.82853e-05 -0.0225702
          0.00220275 0.00061746 -0.00693662 0.00322887 -0.000798352 -0.00798877
          0.0176904 -0.00353163 -0.0727868 0.0048109 -0.00256661 -0.0414316
          0.00965275 -0.00343188 -0.0436944 0.0159457 -0.000758185 -0.0663928
          0.0176904 -0.00353163 -0.0727868 -0.0096781 -0.00610029 -0.0620695
          0.00965275 -0.00343188 -0.0436944 0.0048109 -0.00256661 -0.0414316
          0.00965275 -0.00343188 -0.0436944 -0.0102802 -0.00591698 -0.0432173
          0.0048109 -0.00256661 -0.0414316 -0.0096781 -0.00610029 -0.0620695
          0.00965275 -0.00343188 -0.0436944 -0.0102802 -0.00591698 -0.0432173
          -0.00551033 -0.00413169 -0.0251656 0.0048109 -0.00256661 -0.0414316
          0.0048109 -0.00256661 -0.0414316 -0.0102802 -0.00591698 -0.0432173
          -0.00551033 -0.00413169 -0.0251656 -0.0096781 -0.00610029 -0.0620695
          0.0518296 -0.0153847 -0.436534 0.0615418 -0.0146903 -0.401189
          0.0311669 -0.015471 -0.372513 0.0228868 -0.0175449 -0.410755
          0.0518296 -0.0153847 -0.436534 0.0276634 -0.0124395 -0.381452
          0.0311669 -0.015471 -0.372513 0.0615418 -0.0146903 -0.401189
          0.0518296 -0.0153847 -0.436534 0.0801865 -0.0129857 -0.431223
          0.0276634 -0.0124395 -0.381452 0.0615418 -0.0146903 -0.401189
          0.0518296 -0.0153847 -0.436534 0.0782603 -0.0163881 -0.431469
          0.0801865 -0.0129857 -0.431223 0.0615418 -0.0146903 -0.401189
          0.0782603 -0.0163881 -0.431469 0.108289 -0.0142089 -0.434857
          0.0801865 -0.0129857 -0.431223 0.0615418 -0.0146903 -0.401189
          0.0801865 -0.0129857 -0.431223 0.108289 -0.0142089 -0.434857
          0.073581 -0.012766 -0.382787 0.0615418 -0.0146903 -0.401189
          0.0615418 -0.0146903 -0.401189 0.0801865 -0.0129857 -0.431223
          0.0276634 -0.0124395 -0.381452 0.073581 -0.012766 -0.382787
          0.0615418 -0.0146903 -0.401189 0.0276634 -0.0124395 -0.381452
          0.0311669 -0.015471 -0.372513 0.073581 -0.012766 -0.382787
          0.0615418 -0.0146903 -0.401189 0.073581 -0.012766 -0.382787
          0.0311669 -0.015471 -0.372513 0.0689447 -0.0128604 -0.335303
          0.0487007 -0.016142 -0.343334 0.0615418 -0.0146903 -0.401189
          0.0311669 -0.015471 -0.372513 0.0689447 -0.0128604 -0.335303
          0.00213241 -0.0128252 -0.289606 0.0266702 -0.0125329 -0.259877
          0.0242242 -0.010768 -0.269019 0.00402628 -0.0122154 -0.223718
          0.0266702 -0.0125329 -0.259877 0.00402628 -0.0122154 -0.223718
          0.0444503 -0.00882003 -0.221329 0.0242242 -0.010768 -0.269019
          0.00213241 -0.0128252 -0.289606 0.0331346 -0.0139518 -0.311202
          0.0419592 -0.0119604 -0.304688 0.0266702 -0.0125329 -0.259877
          0.0441608 -0.0145928 -0.191319 0.0556986 -0.0149003 -0.231736
          0.0450636 -0.0111888 -0.184676 0.0737005 -0.0132091 -0.182875
          0.0277829 -0.0133178 -0.215086 0.0556986 -0.0149003 -0.231736
          0.0450636 -0.0111888 -0.184676 0.0441608 -0.0145928 -0.191319
          0.0171834 -0.0131376 -0.175025 0.0277829 -0.0133178 -0.215086
          0.0450636 -0.0111888 -0.184676 0.0441608 -0.0145928 -0.191319
          -0.00275804 -0.0140178 -0.20773 0.0277829 -0.0133178 -0.215086
          0.0171834 -0.0131376 -0.175025 0.0441608 -0.0145928 -0.191319
          -0.00275804 -0.0140178 -0.20773 0.0556986 -0.0149003 -0.231736
          0.0277829 -0.0133178 -0.215086 0.0441608 -0.0145928 -0.191319
          -0.00275804 -0.0140178 -0.20773 0.0213185 -0.0168699 -0.245591
          0.0556986 -0.0149003 -0.231736 0.0441608 -0.0145928 -0.191319
          0.0441608 -0.0145928 -0.191319 0.0425612 -0.0137818 -0.154251
          0.0755101 -0.0174151 -0.181463 0.0737005 -0.0132091 -0.182875
          0.0441608 -0.0145928 -0.191319 0.0737005 -0.0132091 -0.182875
          0.0755101 -0.0174151 -0.181463 0.0966303 -0.0151294 -0.230152
          0.0441608 -0.0145928 -0.191319 0.0755101 -0.0174151 -0.181463
          0.0475774 -0.0167668 -0.194693 0.0966303 -0.0151294 -0.230152
          0.0475774 -0.0167668 -0.194693 0.0441608 -0.0145928 -0.191319
          0.0458732 -0.0163192 -0.155792 0.0755101 -0.0174151 -0.181463
          0.0475774 -0.0167668 -0.194693 0.0233769 -0.015396 -0.171585
          0.0458732 -0.0163192 -0.155792 0.0441608 -0.0145928 -0.191319
          0.0441608 -0.0145928 -0.191319 0.0233769 -0.015396 -0.171585
          0.0458732 -0.0163192 -0.155792 0.0425612 -0.0137818 -0.154251
          0.0441608 -0.0145928 -0.191319 0.0425612 -0.0137818 -0.154251
          0.0458732 -0.0163192 -0.155792 0.0755101 -0.0174151 -0.181463
          0.254571 0.0422139 -0.140693 0.323171 0.0510428 -0.116229
          0.229061 0.0449968 -0.0778743 0.257162 0.0452472 -0.0826948
          0.254571 0.0422139 -0.140693 0.204548 0.0340728 -0.161825
          0.257162 0.0452472 -0.0826948 0.229061 0.0449968 -0.0778743
          0.229061 0.0449968 -0.0778743 0.204548 0.0340728 -0.161825
          0.257162 0.0452472 -0.0826948 0.168288 0.0375999 -0.0873447
          0.229061 0.0449968 -0.0778743 0.159365 0.0442869 -0.00337952
          0.25679 0.05184 -0.0499682 0.162043 0.0441457 -0.0289436
          0.314985 0.0475958 -0.0156401 0.251511 0.0450642 -0.00310106
          0.271852 0.045926 0.0268448 0.330856 0.0570944 0.0711169
          0.314985 0.0475958 -0.0156401 0.32407 0.0527487 0.00931725
          0.251511 0.0450642 -0.00310106 0.330856 0.0570944 0.0711169
          0.32407 0.0527487 0.00931725 0.251511 0.0450642 -0.00310106
          0.330856 0.0570944 0.0711169 0.271213 0.0549191 0.0653578
          0.32407 0.0527487 0.00931725 0.215481 0.0468155 0.0269334
          0.251511 0.0450642 -0.00310106 0.271213 0.0549191 0.0653578
          0.32407 0.0527487 0.00931725 0.215481 0.0468155 0.0269334
          0.243538 0.045937 -0.0299528 0.251511 0.0450642 -0.00310106
          0.251511 0.0450642 -0.00310106 0.215481 0.0468155 0.0269334
          0.330856 0.0570944 0.0711169 0.271213 0.0549191 0.0653578
          0.215481 0.0468155 0.0269334 0.330856 0.0570944 0.0711169
          0.254682 0.0561024 0.122055 0.251511 0.0450642 -0.00310106
          0.215481 0.0468155 0.0269334 0.251511 0.0450642 -0.00310106
          0.254682 0.0561024 0.122055 0.262653 0.0500391 0.0812999
          0.251511 0.0450642 -0.00310106 0.330856 0.0570944 0.0711169
          0.254682 0.0561024 0.122055 0.262653 0.0500391 0.0812999
          0.251511 0.0450642 -0.00310106 0.330856 0.0570944 0.0711169
          0.262653 0.0500391 0.0812999 0.271852 0.045926 0.0268448
          0.248309 0.07594 0.362052 0.189954 0.0762057 0.471849
          0.271522 0.0837749 0.481467 0.222461 0.0782877 0.41735
          0.222461 0.0782877 0.41735 0.189954 0.0762057 0.471849
          0.271522 0.0837749 0.481467 0.171272 0.0778226 0.475443
          0.222461 0.0782877 0.41735 0.237426 0.086149 0.538209
          0.171272 0.0778226 0.475443 0.271522 0.0837749 0.481467
          0.222461 0.0782877 0.41735 0.237426 0.086149 0.538209
          0.150391 0.0775013 0.461281 0.171272 0.0778226 0.475443
          0.222461 0.0782877 0.41735 0.171272 0.0778226 0.475443
          0.150391 0.0775013 0.461281 0.156872 0.0725458 0.373258
          0.221318 0.0782606 0.38677 0.222461 0.0782877 0.41735
          0.150391 0.0775013 0.461281 0.156872 0.0725458 0.373258
          0.221318 0.0782606 0.38677 0.17999 0.0712148 0.342808
          0.222461 0.0782877 0.41735 0.156872 0.0725458 0.373258
          0.222461 0.0782877 0.41735 0.17999 0.0712148 0.342808
          0.221318 0.0782606 0.38677 0.276815 0.0802136 0.346431
          0.222461 0.0782877 0.41735 0.17999 0.0712148 0.342808
          0.171272 0.0778226 0.475443 0.156872 0.0725458 0.373258
          0.17999 0.0712148 0.342808 0.222461 0.0782877 0.41735
          0.171272 0.0778226 0.475443 0.11408 0.0677137 0.376145
          0.17999 0.0712148 0.342808 0.179831 0.069947 0.368224
          0.222461 0.0782877 0.41735 0.11408 0.0677137 0.376145
          0.222461 0.0782877 0.41735 0.179831 0.069947 0.368224
          0.171272 0.0778226 0.475443 0.11408 0.0677137 0.376145
          0.222461 0.0782877 0.41735 0.189954 0.0762057 0.471849
          0.171272 0.0778226 0.475443 0.179831 0.069947 0.368224
          0.109294 0.0209412 -0.217591 0.0944564 0.0146023 -0.27546
          0.137752 0.021662 -0.228365 0.0567087 0.0165835 -0.211871
          0.293221 0.100629 0.862298 0.285884 0.101867 0.926939
          0.349887 0.106809 0.885922 0.344688 0.105742 0.919014
          0.293221 0.100629 0.862298 0.344688 0.105742 0.919014
          0.349887 0.106809 0.885922 0.35665 0.103169 0.859128
          0.293221 0.100629 0.862298 0.285884 0.101867 0.926939
          0.344688 0.105742 0.919014 0.35665 0.103169 0.859128
          0.0896834 -0.01342 -0.474792 0.0481888 -0.0126734 -0.4751
          0.0908379 -0.0141968 -0.513139 0.0705408 -0.0141881 -0.470342
          0.0481888 -0.0126734 -0.4751 0.0801865 -0.0129857 -0.431223
          0.0705408 -0.0141881 -0.470342 0.0896834 -0.01342 -0.474792
          0.0481888 -0.0126734 -0.4751 0.049198 -0.0109875 -0.426503
          0.0705408 -0.0141881 -0.470342 0.0801865 -0.0129857 -0.431223
          0.0481888 -0.0126734 -0.4751 0.049198 -0.0109875 -0.426503
          0.0257655 -0.0133371 -0.43445 0.0705408 -0.0141881 -0.470342
          0.0481888 -0.0126734 -0.4751 0.0257655 -0.0133371 -0.43445
          0.0518296 -0.0153847 -0.436534 0.0705408 -0.0141881 -0.470342
          0.0705408 -0.0141881 -0.470342 0.0257655 -0.0133371 -0.43445
          0.0518296 -0.0153847 -0.436534 0.0801865 -0.0129857 -0.431223
          0.0705408 -0.0141881 -0.470342 0.0801865 -0.0129857 -0.431223
          0.0518296 -0.0153847 -0.436534 0.0782603 -0.0163881 -0.431469
          0.0894282 -0.0157141 -0.475633 0.0705408 -0.0141881 -0.470342
          0.0518296 -0.0153847 -0.436534 0.0782603 -0.0163881 -0.431469
          0.0894282 -0.0157141 -0.475633 0.0801865 -0.0129857 -0.431223
          0.0705408 -0.0141881 -0.470342 0.0782603 -0.0163881 -0.431469
          0.0894282 -0.0157141 -0.475633 0.0705408 -0.0141881 -0.470342
          0.0801865 -0.0129857 -0.431223 0.108289 -0.0142089 -0.434857
          0.0894282 -0.0157141 -0.475633 0.0896834 -0.01342 -0.474792
          0.0705408 -0.0141881 -0.470342 0.108289 -0.0142089 -0.434857
          0.0705408 -0.0141881 -0.470342 0.0896834 -0.01342 -0.474792
          0.0801865 -0.0129857 -0.431223 0.108289 -0.0142089 -0.434857
          0.0705408 -0.0141881 -0.470342 0.049198 -0.0109875 -0.426503
          0.0257655 -0.0133371 -0.43445 0.0801865 -0.0129857 -0.431223
          0.18707 0.1075 1.04546 0.168881 0.100418 1.06673
          0.190655 0.112281 1.08595 0.216442 0.11019 1.08311
          0.18707 0.1075 1.04546 0.190655 0.112281 1.08595
          0.227293 0.112242 1.05647 0.216442 0.11019 1.08311
          0.227293 0.112242 1.05647 0.18707 0.1075 1.04546
          0.216442 0.11019 1.08311 0.22275 0.104812 1.04279
          0.18707 0.1075 1.04546 0.168881 0.100418 1.06673
          0.216442 0.11019 1.08311 0.19409 0.0993376 1.07089
          0.18707 0.1075 1.04546 0.14422 0.101679 1.03743
          0.168881 0.100418 1.06673 0.0967532 0.0787728 0.992186
          0.0984941 -0.0173699 -0.601281 0.0974886 -0.0130007 -0.586673
          0.0987772 -0.0110197 -0.589217 0.109254 -0.0117923 -0.604306
          0.0984941 -0.0173699 -0.601281 0.0987772 -0.0110197 -0.589217
          0.0974821 -0.012431 -0.598996 0.109254 -0.0117923 -0.604306
          0.0875997 -0.0177313 -0.597244 0.0984941 -0.0173699 -0.601281
          0.0987772 -0.0110197 -0.589217 0.0974821 -0.012431 -0.598996
          0.0875997 -0.0177313 -0.597244 0.0987772 -0.0110197 -0.589217
          0.073427 -0.0150233 -0.582338 0.0974821 -0.012431 -0.598996
          0.0875997 -0.0177313 -0.597244 0.0984941 -0.0173699 -0.601281
          0.073427 -0.0150233 -0.582338 0.0987772 -0.0110197 -0.589217
          0.0984941 -0.0173699 -0.601281 0.0770825 -0.0209682 -0.589541
          0.073427 -0.0150233 -0.582338 0.0987772 -0.0110197 -0.589217
          0.073427 -0.0150233 -0.582338 0.074161 -0.0108072 -0.582806
          0.0974821 -0.012431 -0.598996 0.0987772 -0.0110197 -0.589217
          0.073427 -0.0150233 -0.582338 0.0885485 -0.0107869 -0.567941
          0.074161 -0.0108072 -0.582806 0.0987772 -0.0110197 -0.589217
          0.0987772 -0.0110197 -0.589217 0.0974821 -0.012431 -0.598996
          0.109254 -0.0117923 -0.604306 0.112396 -0.00944941 -0.595416
          0.0796746 -0.00510329 -0.588382 0.0648896 -0.00151987 -0.57823
          0.0683278 -0.00911235 -0.575633 0.0715879 -0.0107643 -0.570157
          0.0715879 -0.0107643 -0.570157 0.0859557 -0.0131762 -0.586375
          0.0683278 -0.00911235 -0.575633 0.0796746 -0.00510329 -0.588382
          0.145402 -0.0119491 -0.248543 0.0927891 -0.0138988 -0.27258
          0.150518 -0.0153733 -0.270885 0.0966303 -0.0151294 -0.230152
          0.0983677 -0.0115942 -0.227508 0.0966303 -0.0151294 -0.230152
          0.145402 -0.0119491 -0.248543 0.139728 -0.0146452 -0.224153
          0.102143 -0.0120732 -0.59422 0.0948582 -0.0101546 -0.592337
          0.0998671 -0.00980449 -0.59992 0.112614 -0.0109344 -0.605291
          0.112614 -0.0109344 -0.605291 0.0948582 -0.0101546 -0.592337
          0.110097 -0.00503266 -0.59666 0.102143 -0.0120732 -0.59422
          0.0853375 -0.0184729 -0.58789 0.0876484 -0.0143337 -0.588037
          0.0859557 -0.0131762 -0.586375 0.0995078 -0.0148368 -0.598679
          0.0998671 -0.00980449 -0.59992 0.0995078 -0.0148368 -0.598679
          0.0859557 -0.0131762 -0.586375 0.0876484 -0.0143337 -0.588037
          0.0998671 -0.00980449 -0.59992 0.0876484 -0.0143337 -0.588037
          0.0859557 -0.0131762 -0.586375 0.0948582 -0.0101546 -0.592337
          0.0876484 -0.0143337 -0.588037 0.0948582 -0.0101546 -0.592337
          0.0998671 -0.00980449 -0.59992 0.102143 -0.0120732 -0.59422
          0.0995078 -0.0148368 -0.598679 0.0876484 -0.0143337 -0.588037
          0.0998671 -0.00980449 -0.59992 0.102143 -0.0120732 -0.59422
          0.0859557 -0.0131762 -0.586375 0.0876484 -0.0143337 -0.588037
          0.0683278 -0.00911235 -0.575633 0.0948582 -0.0101546 -0.592337
          0.0859557 -0.0131762 -0.586375 0.073082 -0.0182206 -0.580329
          0.0683278 -0.00911235 -0.575633 0.0876484 -0.0143337 -0.588037
          0.145402 -0.0119491 -0.248543 0.0983677 -0.0115942 -0.227508
          0.0975373 -0.00974557 -0.192492 0.143208 -0.00900353 -0.241278
          0.145402 -0.0119491 -0.248543 0.0975373 -0.00974557 -0.192492
          0.134593 -0.00711215 -0.20878 0.143208 -0.00900353 -0.241278
          0.130472 -0.0123001 -0.19356 0.0975373 -0.00974557 -0.192492
          0.134593 -0.00711215 -0.20878 0.145402 -0.0119491 -0.248543
          0.130472 -0.0123001 -0.19356 0.0983677 -0.0115942 -0.227508
          0.0975373 -0.00974557 -0.192492 0.145402 -0.0119491 -0.248543
          0.00753595 -0.0138764 -0.340524 0.00213241 -0.0128252 -0.289606
          -0.0309792 -0.01305 -0.314827 -0.0312485 -0.0147393 -0.307478
          0.0368505 -0.00613969 -0.0433125 0.013461 -0.00348063 -0.0158737
          0.0303638 -0.00158471 -0.0321671 0.0159097 -0.00071185 -0.0210781
          0.0368505 -0.00613969 -0.0433125 0.0303638 -0.00158471 -0.0321671
          0.0407461 -0.00197492 -0.0545277 0.0159097 -0.00071185 -0.0210781
          0.0159097 -0.00071185 -0.0210781 0.0247822 0.00224888 -0.0362098
          0.0303638 -0.00158471 -0.0321671 0.0407461 -0.00197492 -0.0545277
          0.0247822 0.00224888 -0.0362098 0.0159097 -0.00071185 -0.0210781
          0.0303638 -0.00158471 -0.0321671 0.0105776 0.00504842 -0.00736282
          0.0247822 0.00224888 -0.0362098 0.0303638 -0.00158471 -0.0321671
          0.0514059 0.00594786 -0.0423778 0.0105776 0.00504842 -0.00736282
          0.0303638 -0.00158471 -0.0321671 0.0247822 0.00224888 -0.0362098
          0.0514059 0.00594786 -0.0423778 0.0407461 -0.00197492 -0.0545277
          0.0303638 -0.00158471 -0.0321671 0.0425707 -0.0036721 -0.0331096
          0.013461 -0.00348063 -0.0158737 0.0368505 -0.00613969 -0.0433125
          0.149682 0.0387796 -0.00792568 0.130585 0.0390306 0.0287109
          0.193616 0.0487549 0.0843481 0.126597 0.045842 0.0973606
          0.149682 0.0387796 -0.00792568 0.130585 0.0390306 0.0287109
          0.182741 0.0456925 0.0767849 0.193616 0.0487549 0.0843481
          0.126597 0.045842 0.0973606 0.161857 0.0498687 0.153568
          0.193616 0.0487549 0.0843481 0.165241 0.0545551 0.192337
          0.126597 0.045842 0.0973606 0.193616 0.0487549 0.0843481
          0.185124 0.05297 0.131345 0.165241 0.0545551 0.192337
          0.193616 0.0487549 0.0843481 0.126597 0.045842 0.0973606
          0.185124 0.05297 0.131345 0.158421 0.0496291 0.0897101
          0.185124 0.05297 0.131345 0.193616 0.0487549 0.0843481
          0.254682 0.0561024 0.122055 0.165241 0.0545551 0.192337
          0.193616 0.0487549 0.0843481 0.165241 0.0545551 0.192337
          0.267528 0.060776 0.191131 0.254682 0.0561024 0.122055
          0.193616 0.0487549 0.0843481 0.267528 0.060776 0.191131
          0.247533 0.0529727 0.133991 0.254682 0.0561024 0.122055
          0.193616 0.0487549 0.0843481 0.254682 0.0561024 0.122055
          0.247533 0.0529727 0.133991 0.262653 0.0500391 0.0812999
          0.193616 0.0487549 0.0843481 0.215481 0.0468155 0.0269334
          0.254682 0.0561024 0.122055 0.262653 0.0500391 0.0812999
          0.193616 0.0487549 0.0843481 0.215481 0.0468155 0.0269334
          0.262653 0.0500391 0.0812999 0.251511 0.0450642 -0.00310106
          0.161857 0.0498687 0.153568 0.267528 0.060776 0.191131
          0.247533 0.0529727 0.133991 0.193616 0.0487549 0.0843481
          0.161857 0.0498687 0.153568 0.165241 0.0545551 0.192337
          0.267528 0.060776 0.191131 0.193616 0.0487549 0.0843481
          0.124799 -0.0135258 -0.574159 0.118768 -0.0128463 -0.594283
          0.11977 -0.0145272 -0.59394 0.136736 -0.0134479 -0.580147
          0.118768 -0.0128463 -0.594283 0.13808 -0.0101082 -0.579112
          0.136736 -0.0134479 -0.580147 0.124799 -0.0135258 -0.574159
          0.0858781 -0.0155531 -0.346023 0.118528 -0.0149838 -0.308486
          0.121041 -0.0164017 -0.361831 0.102925 -0.01385 -0.339323
          0.0858781 -0.0155531 -0.346023 0.102925 -0.01385 -0.339323
          0.121041 -0.0164017 -0.361831 0.133888 -0.0146771 -0.401768
          0.0858781 -0.0155531 -0.346023 0.0679743 -0.0153294 -0.306575
          0.118528 -0.0149838 -0.308486 0.102925 -0.01385 -0.339323
          0.0858781 -0.0155531 -0.346023 0.0386203 -0.0180922 -0.317802
          0.0679743 -0.0153294 -0.306575 0.0487007 -0.016142 -0.343334
        </DataArray>
      </PointData>
      <CellData Scalars="vonMisesStress_forMV_lambda140000_mu50000" Vectors="ScalarGradient" Tensors="Strain">
        <DataArray type="Float64" Name="Material Id" format="ascii" RangeMin="0" RangeMax="0">
          0 0 0 0 0 0
          0 0 0 0 0 0
          0 0 0 0 0 0
          0 0 0 0 0 0
          0 0 0 0 0 0
          0 0 0 0 0 0
          0 0 0 0 0 0
          0 0 0 0 0 0
          0 0 0 0 0 0
          0 0 0 0 0 0
          0 0 0 0 0 0
          0 0 0 0 0 0
          0 0 0 0 0 0
          0 0 0 0 0 0
          0 0 0 0 0 0
          0 0 0 0 0 0
          0 0 0 0 0 0
          0 0 0 0 0 0
          0 0 0 0 0 0
          0 0 0 0 0 0
          0 0 0 0 0 0
          0 0 0 0 0 0
          0 0 0 0 0 0
          0 0 0 0 0 0
          0 0 0 0 0 0
          0 0 0 0 0 0
          0 0 0 0 0 0
          0 0 0 0 0 0
          0 0 0 0 0 0
          0 0 0 0 0 0
          0 0 0 0 0 0
          0 0 0 0 0 0
          0 0 0 0 0 0
          0 0 0 0 0 0
          0 0 0 0 0 0
          0 0 0 0 0 0
          0 0 0 0 0 0
          0 0 0 0 0 0
          0 0 0 0 0 0
          0 0 0 0 0 0
          0 0 0 0 0 0
          0 0 0 0 0 0
          0 0 0 0 0 0
          0 0 0 0 0 0
          0 0 0 0 0 0
          0 0 0 0 0 0
          0 0 0 0 0 0
          0 0 0 0 0 0
          0 0 0 0 0 0
          0 0 0 0 0 0
          0 0 0 0 0 0
          0 0 0 0 0 0
          0 0 0 0 0 0
          0 0 0 0 0 0
          0 0 0 0 0 0
          0 0 0 0 0 0
          0 0 0 0 0 0
          0 0 0 0 0 0
          0 0 0 0 0 0
          0 0 0 0 0 0
          0 0 0 0 0 0
          0 0 0 0 0 0
          0 0 0 0 0 0
          0 0 0 0 0 0
          0 0 0 0 0 0
          0 0 0 0 0 0
          0 0 0 0 0 0
          0 0 0 0 0 0
          0 0 0 0 0 0
          0 0 0 0 0 0
          0 0 0 0 0 0
          0 0 0 0 0 0
          0 0 0 0 0 0
          0 0 0 0 0 0
          0 0 0 0 0 0
          0 0 0 0 0 0
          0 0 0 0 0 0
          0 0 0 0 0 0
          0 0 0 0 0 0
          0 0 0 0 0 0
          0 0 0 0 0 0
          0 0 0 0 0 0
          0 0 0 0 0 0
          0 0 0 0 0 0
          0 0 0 0 0 0
          0 0 0 0 0 0
          0 0 0 0 0 0
          0 0 0 0 0 0
          0 0 0 0 0 0
          0 0 0 0 0 0
          0 0 0 0 0 0
          0 0 0 0 0 0
          0 0 0 0 0 0
          0 0 0 0 0 0
          0 0 0 0 0 0
          0 0 0 0 0 0
          0 0 0 0 0 0
          0 0 0 0 0 0
          0 0 0 0 0 0
          0 0 0 0 0 0
          0 0 0 0 0 0
          0 0 0 0 0 0
          0 0 0 0 0 0
          0 0 0 0 0 0
          0 0 0 0 0 0
          0 0 0 0 0 0
          0 0 0 0 0 0
          0 0 0 0 0 0
          0 0 0 0 0 0
          0 0 0 0 0 0
          0 0 0 0 0 0
          0 0 0 0 0 0
          0 0 0 0 0 0
          0 0 0 0 0 0
          0 0 0 0 0 0
          0 0 0 0 0 0
          0 0 0 0 0 0
          0 0 0 0 0 0
          0 0 0 0 0 0
          0 0 0 0 0 0
          0 0 0 0 0 0
          0 0 0 0 0 0
          0 0 0 0 0 0
          0 0 0 0 0 0
          0 0 0 0 0 0
          0 0 0 0 0 0
          0 0 0 0 0 0
          0 0 0 0 0 0
          0 0 0 0 0 0
          0 0 0 0 0 0
          0 0 0 0 0 0
          0 0 0 0 0 0
          0 0 0 0 0 0
          0 0 0 0 0 0
          0 0 0 0 0 0
          0 0 0 0 0 0
          0 0 0 0 0 0
          0 0 0 0 0 0
          0 0 0 0 0 0
          0 0 0 0 0 0
          0 0 0 0 0 0
          0 0 0 0 0 0
          0 0 0 0 0 0
          0 0 0 0 0 0
          0 0 0 0 0 0
          0 0 0 0 0 0
          0 0 0 0 0 0
          0 0 0 0 0 0
          0 0 0 0 0 0
          0 0 0 0 0 0
          0 0 0 0 0 0
          0 0 0 0 0 0
          0 0 0 0 0 0
          0 0 0 0 0 0
          0 0 0 0 0 0
          0 0 0 0 0 0
          0 0 0 0 0 0
          0 0 0 0 0 0
          0 0 0 0 0 0
          0 0 0 0 0 0
          0 0 0 0 0 0
          0 0 0 0 0 0
          0 0 0 0 0 0
          0 0 0 0 0 0
          0 0 0 0 0 0
          0 0 0 0 0 0
          0 0 0 0 0 0
          0 0 0 0 0 0
          0 0 0 0 0 0
          0 0 0 0 0 0
          0 0 0 0 0 0
          0 0 0 0 0 0
          0 0 0 0 0 0
          0 0 0 0 0 0
          0 0 0 0 0 0
          0 0 0 0 0 0
          0 0 0 0 0 0
          0 0 0 0 0 0
          0 0 0 0 0 0
          0 0 0 0 0 0
          0 0 0 0 0 0
          0 0 0 0 0 0
          0 0 0 0 0 0
          0 0 0 0 0 0
          0 0 0 0 0 0
          0 0 0 0 0 0
          0 0 0 0 0 0
          0 0 0 0 0 0
          0 0 0 0 0 0
          0 0 0 0 0 0
          0 0 0 0 0 0
          0 0 0 0 0 0
          0 0 0 0 0 0
          0 0 0 0 0 0
          0 0 0 0 0 0
          0 0 0 0 0 0
          0 0 0 0 0 0
          0 0 0 0 0 0
          0 0 0 0 0 0
          0 0 0 0 0 0
          0 0 0 0 0 0
          0 0 0 0 0 0
          0 0 0 0 0 0
          0 0 0 0 0 0
          0 0 0 0 0 0
          0 0 0 0 0 0
          0 0 0 0 0 0
          0 0 0 0 0 0
          0 0 0 0 0 0
          0 0 0 0 0 0
          0 0 0 0 0 0
          0 0 0 0 0 0
          0 0 0 0 0 0
          0 0 0 0 0 0
          0 0 0 0 0 0
          0 0 0 0 0 0
          0 0 0 0 0 0
          0 0 0 0 0 0
          0 0 0 0 0 0
          0 0 0 0 0 0
          0 0 0 0 0 0
          0 0 0 0 0 0
          0 0 0 0 0 0
          0 0 0 0 0 0
          0 0 0 0 0 0
          0 0 0 0 0 0
          0 0 0 0 0 0
          0 0 0 0 0 0
          0 0 0 0 0 0
          0 0 0 0 0 0
          0 0 0 0 0 0
          0 0 0 0 0 0
          0 0 0 0 0 0
          0 0 0 0 0 0
          0 0 0 0 0 0
          0 0 0 0 0 0
          0 0 0 0 0 0
          0 0 0 0 0 0
          0 0 0 0 0 0
          0 0 0 0 0 0
          0 0 0 0 0 0
          0 0 0 0 0 0
          0 0 0 0 0 0
          0 0 0 0 0 0
          0 0 0 0 0 0
          0 0 0 0 0 0
          0 0 0 0 0 0
          0 0 0 0 0 0
          0 0 0 0 0 0
          0 0 0 0 0 0
          0 0 0 0 0 0
          0 0 0 0 0 0
          0 0 0 0 0 0
          0 0 0 0 0 0
          0 0 0 0 0 0
          0 0 0 0 0 0
          0 0 0 0 0 0
          0 0 0 0 0 0
          0 0 0 0 0 0
          0 0 0 0 0 0
          0 0 0 0 0 0
          0 0 0 0 0 0
          0 0 0 0 0 0
          0 0 0 0 0 0
          0 0 0 0 0 0
          0 0 0 0 0 0
          0 0 0 0 0 0
          0 0 0 0 0 0
          0 0 0 0 0 0
          0 0 0 0 0 0
          0 0 0 0 0 0
          0 0 0 0 0 0
          0 0 0 0 0 0
          0 0 0 0 0 0
          0 0 0 0 0 0
          0 0 0 0 0 0
          0 0 0 0 0 0
          0 0 0 0 0 0
          0 0 0 0 0 0
          0 0 0 0 0 0
          0 0 0 0 0 0
          0 0 0 0 0 0
          0 0 0 0 0 0
          0 0 0 0 0 0
          0 0 0 0 0 0
          0 0 0 0 0 0
          0 0 0 0 0 0
          0 0 0 0 0 0
          0 0 0 0 0 0
          0 0 0 0 0 0
          0 0 0 0 0 0
          0 0 0 0 0 0
          0 0 0 0 0 0
          0 0 0 0 0 0
          0 0 0 0 0 0
          0 0 0 0 0 0
          0 0 0 0 0 0
          0 0 0 0 0 0
          0 0 0 0 0 0
          0 0 0 0 0 0
          0 0 0 0 0 0
          0 0 0 0 0 0
          0 0 0 0 0 0
          0 0 0 0 0 0
          0 0 0 0 0 0
          0 0 0 0 0 0
          0 0 0 0 0 0
          0 0 0 0 0 0
          0 0 0 0 0 0
          0 0 0 0 0 0
          0 0 0 0 0 0
          0 0 0 0 0 0
          0 0 0 0 0 0
          0 0 0 0 0 0
          0 0 0 0 0 0
          0 0 0 0 0 0
          0 0 0 0 0 0
          0 0 0 0 0 0
          0 0 0 0 0 0
          0 0 0 0 0 0
          0 0 0 0 0 0
          0 0 0 0 0 0
          0 0 0 0 0 0
          0 0 0 0 0 0
          0 0 0 0 0 0
          0 0 0 0 0 0
          0 0 0 0 0 0
          0 0 0 0 0 0
          0 0 0 0 0 0
          0 0 0 0 0 0
          0 0 0 0 0 0
          0 0 0 0 0 0
          0 0 0 0 0 0
          0 0 0 0 0 0
          0 0 0 0 0 0
          0 0 0 0 0 0
          0 0 0 0 0 0
          0 0 0 0 0 0
          0 0 0 0 0 0
          0 0 0 0 0 0
          0 0 0 0 0 0
          0 0 0 0 0 0
          0 0 0 0 0 0
          0 0 0 0 0 0
          0 0 0 0 0 0
          0 0 0 0 0 0
          0 0 0 0 0 0
          0 0 0 0 0 0
          0 0 0 0 0 0
          0 0 0 0 0 0
          0 0 0 0 0 0
          0 0 0 0 0 0
          0 0 0 0 0 0
          0 0 0 0 0 0
          0 0 0 0 0 0
          0 0 0 0 0 0
          0 0 0 0 0 0
          0 0 0 0 0 0
          0 0 0 0 0 0
          0 0 0 0 0 0
          0 0 0 0 0 0
          0 0 0 0 0 0
          0 0 0 0 0 0
          0 0 0 0 0 0
          0 0 0 0 0 0
          0 0 0 0 0 0
          0 0 0 0 0 0
          0 0 0 0 0 0
          0 0 0 0 0 0
          0 0 0 0 0 0
          0 0 0 0 0 0
          0 0 0 0 0 0
          0 0 0 0 0 0
          0 0 0 0 0 0
          0 0 0 0 0 0
          0 0 0 0 0 0
          0 0 0 0 0 0
          0 0 0 0 0 0
          0 0 0 0 0 0
          0 0 0 0 0 0
          0 0 0 0 0 0
          0 0 0 0 0 0
          0 0 0 0 0 0
          0 0 0 0 0 0
          0 0 0 0 0 0
          0 0 0 0 0 0
          0 0 0 0 0 0
          0 0 0 0 0 0
          0 0 0 0 0 0
          0 0 0 0 0 0
          0 0 0 0 0 0
          0 0 0 0 0 0
          0 0 0 0 0 0
          0 0 0 0 0 0
          0 0 0 0 0 0
          0 0 0 0 0 0
          0 0 0 0 0 0
          0 0 0 0 0 0
          0 0 0 0 0 0
          0 0 0 0 0 0
          0 0 0 0 0 0
          0 0 0 0 0 0
          0 0 0 0 0 0
          0 0 0 0 0 0
          0 0 0 0 0 0
          0 0 0 0 0 0
          0 0 0 0 0 0
          0 0 0 0 0 0
          0 0 0 0 0 0
          0 0 0 0 0 0
          0 0 0 0 0 0
          0 0 0 0 0 0
          0 0 0 0 0 0
          0 0 0 0 0 0
          0 0 0 0 0 0
          0 0 0 0 0 0
          0 0 0 0 0 0
          0 0 0 0 0 0
          0 0 0 0 0 0
          0 0 0 0 0 0
          0 0 0 0 0 0
          0 0 0 0 0 0
          0 0 0 0 0 0
          0 0 0 0 0 0
          0 0 0 0 0 0
          0 0 0 0 0 0
          0 0 0 0 0 0
          0 0 0 0 0 0
          0 0 0 0 0 0
          0 0 0 0 0 0
          0 0 0 0 0 0
          0 0 0 0 0 0
          0 0 0 0 0 0
          0 0 0 0 0 0
          0 0 0 0 0 0
          0 0 0 0 0 0
          0 0 0 0 0 0
          0 0 0 0 0 0
          0 0 0 0 0 0
          0 0 0 0 0 0
          0 0 0 0 0 0
          0 0 0 0 0 0
          0 0 0 0 0 0
          0 0 0 0 0 0
          0 0 0 0 0 0
          0 0 0 0 0 0
          0 0 0 0 0 0
          0 0 0 0 0 0
          0 0 0 0 0 0
          0 0 0 0 0 0
          0 0 0 0 0 0
          0 0 0 0 0 0
          0 0 0 0 0 0
          0 0 0 0 0 0
          0 0 0 0 0 0
          0 0 0 0 0 0
          0 0 0 0 0 0
          0 0 0 0 0 0
          0 0 0 0 0 0
          0 0 0 0 0 0
          0 0 0 0 0 0
          0 0 0 0 0 0
          0 0 0 0 0 0
          0 0 0 0 0 0
          0 0 0 0 0 0
          0 0 0 0 0 0
          0 0 0 0 0 0
          0 0 0 0 0 0
          0 0 0 0 0 0
          0 0 0 0 0 0
          0 0 0 0 0 0
          0 0 0 0 0 0
          0 0 0 0 0 0
          0 0 0 0 0 0
          0 0 0 0 0 0
          0 0 0 0 0 0
          0 0 0 0 0 0
          0 0 0 0 0 0
          0 0 0 0 0 0
          0 0 0 0 0 0
          0 0 0 0 0 0
          0 0 0 0 0 0
          0 0 0 0 0 0
          0 0 0 0 0 0
          0 0 0 0 0 0
          0 0 0 0 0 0
          0 0 0 0 0 0
          0 0 0 0 0 0
          0 0 0 0 0 0
          0 0 0 0 0 0
          0 0 0 0 0 0
          0 0 0 0 0 0
          0 0 0 0 0 0
          0 0 0 0 0 0
          0 0 0 0 0 0
          0 0 0 0 0 0
          0 0 0 0 0 0
          0 0 0 0 0 0
          0 0 0 0 0 0
          0 0 0 0 0 0
          0 0 0 0 0 0
          0 0 0 0 0 0
          0 0 0 0 0 0
          0 0 0 0 0 0
          0 0 0 0 0 0
          0 0 0 0 0 0
          0 0 0 0 0 0
          0 0 0 0 0 0
          0 0 0 0 0 0
          0 0 0 0 0 0
          0 0 0 0 0 0
          0 0 0 0 0 0
          0 0 0 0 0 0
          0 0 0 0 0 0
          0 0 0 0 0 0
          0 0 0 0 0 0
          0 0 0 0 0 0
          0 0 0 0 0 0
          0 0 0 0 0 0
          0 0 0 0 0 0
          0 0 0 0 0 0
          0 0 0 0 0 0
          0 0 0 0 0 0
          0 0 0 0 0 0
          0 0 0 0 0 0
          0 0 0 0 0 0
          0 0 0 0 0 0
          0 0 0 0 0 0
          0 0 0 0 0 0
          0 0 0 0 0 0
          0 0 0 0 0 0
          0 0 0 0 0 0
          0 0 0 0 0 0
          0 0 0 0 0 0
          0 0 0 0 0 0
          0 0 0 0 0 0
          0 0 0 0 0 0
          0 0 0 0 0 0
          0 0 0 0 0 0
          0 0 0 0 0 0
          0 0 0 0 0 0
          0 0 0 0 0 0
          0 0 0 0 0 0
          0 0 0 0 0 0
          0 0 0 0 0 0
          0 0 0 0 0 0
          0 0 0 0 0 0
          0 0 0 0 0 0
          0 0 0 0 0 0
          0 0 0 0 0 0
          0 0 0 0 0 0
          0 0 0 0 0 0
          0 0 0 0 0 0
          0 0 0 0 0 0
          0 0 0 0 0 0
          0 0 0 0 0 0
          0 0 0 0 0 0
          0 0 0 0 0 0
          0 0 0 0 0 0
          0 0 0 0 0 0
          0 0 0 0 0 0
          0 0 0 0 0 0
          0 0 0 0 0 0
          0 0 0 0 0 0
          0 0 0 0 0 0
          0 0 0 0 0 0
          0 0 0 0 0 0
          0 0 0 0 0 0
          0 0 0 0 0 0
          0 0 0 0 0 0
          0 0 0 0 0 0
          0 0 0 0 0 0
          0 0 0 0 0 0
          0 0 0 0 0 0
          0 0 0 0 0 0
          0 0 0 0 0 0
          0 0 0 0 0 0
          0 0 0 0 0 0
          0 0 0 0 0 0
          0 0 0 0 0 0
          0 0 0 0 0 0
          0 0 0 0 0 0
          0 0 0 0 0 0
          0 0 0 0 0 0
          0 0 0 0 0 0
          0 0 0 0 0 0
          0 0 0 0 0 0
          0 0 0 0 0 0
          0 0 0 0 0 0
          0 0 0 0 0 0
          0 0 0 0 0 0
          0 0 0 0 0 0
          0 0 0 0 0 0
          0 0 0 0 0 0
          0 0 0 0 0 0
          0 0 0 0 0 0
          0 0 0 0 0 0
          0 0 0 0 0 0
          0 0 0 0 0 0
          0 0 0 0 0 0
          0 0 0 0 0 0
          0 0 0 0 0 0
          0 0 0 0 0 0
          0 0 0 0 0 0
          0 0 0 0 0 0
          0 0 0 0 0 0
          0 0 0 0 0 0
          0 0 0 0 0 0
          0 0 0 0 0 0
          0 0 0 0 0 0
          0 0 0 0 0 0
          0 0 0 0 0 0
          0 0 0 0 0 0
          0 0 0 0 0 0
          0 0 0 0 0 0
          0 0 0 0 0 0
          0 0 0 0 0 0
          0 0 0 0 0 0
          0 0 0 0 0 0
          0 0 0 0 0 0
          0 0 0 0 0 0
          0 0 0 0 0 0
          0 0 0 0 0 0
          0 0 0 0 0 0
          0 0 0 0 0 0
          0 0 0 0 0 0
          0 0 0 0 0 0
          0 0 0 0 0 0
          0 0 0 0 0 0
          0 0 0 0 0 0
          0 0 0 0 0 0
          0 0 0 0 0 0
          0 0 0 0 0 0
          0 0 0 0 0 0
          0 0 0 0 0 0
          0 0 0 0 0 0
          0 0 0 0 0 0
          0 0 0 0 0 0
          0 0 0 0 0 0
          0 0 0 0 0 0
          0 0 0 0 0 0
          0 0 0 0 0 0
          0 0 0 0 0 0
          0 0 0 0 0 0
          0 0 0 0 0 0
          0 0 0 0 0 0
          0 0 0 0 0 0
          0 0 0 0 0 0
          0 0 0 0 0 0
          0 0 0 0 0 0
          0 0 0 0 0 0
          0 0 0 0 0 0
          0 0 0 0 0 0
          0 0 0 0 0 0
          0 0 0 0 0 0
          0 0 0 0 0 0
          0 0 0 0 0 0
          0 0 0 0 0 0
          0 0 0 0 0 0
          0 0 0 0 0 0
          0 0 0 0 0 0
          0 0 0 0 0 0
          0 0 0 0 0 0
          0 0 0 0 0 0
          0 0 0 0 0 0
          0 0 0 0 0 0
          0 0 0 0 0 0
          0 0 0 0 0 0
          0 0 0 0 0 0
          0 0 0 0 0 0
          0 0 0 0 0 0
          0 0 0 0 0 0
          0 0 0 0 0 0
          0 0 0 0 0 0
          0 0 0 0 0 0
          0 0 0 0 0 0
          0 0 0 0 0 0
          0 0 0 0 0 0
          0 0 0 0 0 0
          0 0 0 0 0 0
          0 0 0 0 0 0
          0 0 0 0 0 0
          0 0 0 0 0 0
          0 0 0 0 0 0
          0 0 0 0 0 0
          0 0 0 0 0 0
          0 0 0 0 0 0
          0 0 0 0 0 0
          0 0 0 0 0 0
          0 0 0 0 0 0
          0 0 0 0 0 0
          0 0 0 0 0 0
          0 0 0 0 0 0
          0 0 0 0 0 0
          0 0 0 0 0 0
          0 0 0 0 0 0
          0 0 0 0 0 0
          0 0 0 0 0 0
          0 0 0 0 0 0
          0 0 0 0 0 0
          0 0 0 0 0 0
          0 0 0 0 0 0
          0 0 0 0 0 0
          0 0 0 0 0 0
          0 0 0 0 0 0
          0 0 0 0 0 0
          0 0 0 0 0 0
          0 0 0 0 0 0
          0 0 0 0 0 0
          0 0 0 0 0 0
          0 0 0 0 0 0
          0 0 0 0 0 0
          0 0 0 0 0 0
          0 0 0 0 0 0
          0 0 0 0 0 0
          0 0 0 0 0 0
          0 0 0 0 0 0
          0 0 0 0 0 0
          0 0 0 0 0 0
          0 0 0 0 0 0
          0 0 0 0 0 0
          0 0 0 0 0 0
          0 0 0 0 0 0
          0 0 0 0 0 0
          0 0 0 0 0 0
          0 0 0 0 0 0
          0 0 0 0 0 0
          0 0 0 0 0 0
          0 0 0 0 0 0
          0 0 0 0 0 0
          0 0 0 0 0 0
          0 0 0 0 0 0
          0 0 0 0 0 0
          0 0 0 0 0 0
          0 0 0 0 0 0
          0 0 0 0 0 0
          0 0 0 0 0 0
          0 0 0 0 0 0
          0 0 0 0 0 0
          0 0 0 0 0 0
          0 0 0 0 0 0
          0 0 0 0 0 0
          0 0 0 0 0 0
          0 0 0 0 0 0
          0 0 0 0 0 0
          0 0 0 0 0 0
          0 0 0 0 0 0
          0 0 0 0 0 0
          0 0 0 0 0 0
          0 0 0 0 0 0
          0 0 0 0 0 0
          0 0 0 0 0 0
          0 0 0 0 0 0
          0 0 0 0 0 0
          0 0 0 0 0 0
          0 0 0 0 0 0
          0 0 0 0 0 0
          0 0 0 0 0 0
          0 0 0 0 0 0
          0 0 0 0 0 0
          0 0 0 0 0 0
          0 0 0 0 0 0
          0 0 0 0 0 0
          0 0 0 0 0 0
          0 0 0 0 0 0
          0 0 0 0 0 0
          0 0 0 0 0 0
          0 0 0 0 0 0
          0 0 0 0 0 0
          0 0 0 0 0 0
          0 0 0 0 0 0
          0 0 0 0 0 0
          0 0 0 0 0 0
          0 0 0 0 0 0
          0 0 0 0 0 0
          0 0 0 0 0 0
          0 0 0 0 0 0
          0 0 0 0 0 0
          0 0 0 0 0 0
          0 0 0 0 0 0
          0 0 0 0 0 0
          0 0 0 0 0 0
          0 0 0 0 0 0
          0 0 0 0 0 0
          0 0 0 0 0 0
          0 0 0 0 0 0
          0 0 0 0 0 0
          0 0 0 0 0 0
          0 0 0 0 0 0
          0 0 0 0 0 0
          0 0 0 0 0 0
          0 0 0 0 0 0
          0 0 0 0 0 0
          0 0 0 0 0 0
          0 0 0 0 0 0
          0 0 0 0 0 0
          0 0 0 0 0 0
          0 0 0 0 0 0
          0 0 0 0 0 0
          0 0 0 0 0 0
          0 0 0 0 0 0
          0 0 0 0 0 0
          0 0 0 0 0 0
          0 0 0 0 0 0
          0 0 0 0 0 0
          0 0 0 0 0 0
          0 0 0 0 0 0
          0 0 0 0 0 0
          0 0 0 0 0 0
          0 0 0 0 0 0
          0 0 0 0 0 0
          0 0 0 0 0 0
          0 0 0 0 0 0
          0 0 0 0 0 0
          0 0 0 0 0 0
          0 0 0 0 0 0
          0 0 0 0 0 0
          0 0 0 0 0 0
          0 0 0 0 0 0
          0 0 0 0 0 0
          0 0 0 0 0 0
          0 0 0 0 0 0
          0 0 0 0 0 0
          0 0 0 0 0 0
          0 0 0 0 0 0
          0 0 0 0 0 0
          0 0 0 0 0 0
          0 0 0 0 0 0
          0 0 0 0 0 0
          0 0 0 0 0 0
          0 0 0 0 0 0
          0 0 0 0 0 0
          0 0 0 0 0 0
          0 0 0 0 0 0
          0 0 0 0 0 0
          0 0 0 0 0 0
          0 0 0 0 0 0
          0 0 0 0 0 0
          0 0 0 0 0 0
          0 0 0 0 0 0
          0 0 0 0 0 0
          0 0 0 0 0 0
          0 0 0 0 0 0
          0 0 0 0 0 0
          0 0 0 0 0 0
          0 0 0 0 0 0
          0 0 0 0 0 0
          0 0 0 0 0 0
          0 0 0 0 0 0
          0 0 0 0 0 0
          0 0 0 0 0 0
          0 0 0 0 0 0
          0 0 0 0 0 0
          0 0 0 0 0 0
          0 0 0 0 0 0
          0 0 0 0 0 0
          0 0 0 0 0 0
          0 0 0 0 0 0
          0 0 0 0 0 0
          0 0 0 0 0 0
          0 0 0 0 0 0
          0 0 0 0 0 0
          0 0 0 0 0 0
          0 0 0 0 0 0
          0 0 0 0 0 0
          0 0 0 0 0 0
          0 0 0 0 0 0
          0 0 0 0 0 0
          0 0 0 0 0 0
          0 0 0 0 0 0
          0 0 0 0 0 0
          0 0 0 0 0 0
          0 0 0 0 0 0
          0 0 0 0 0 0
          0 0 0 0 0 0
          0 0 0 0 0 0
          0 0 0 0 0 0
          0 0 0 0 0 0
          0 0 0 0 0 0
          0 0 0 0 0 0
          0 0 0 0 0 0
          0 0 0 0 0 0
          0 0 0 0 0 0
          0 0 0 0 0 0
          0 0 0 0 0 0
          0 0 0 0 0 0
          0 0 0 0 0 0
          0 0 0 0 0 0
          0 0 0 0 0 0
          0 0 0 0 0 0
          0 0 0 0 0 0
          0 0 0 0 0 0
          0 0 0 0 0 0
          0 0 0 0 0 0
          0 0 0 0 0 0
          0 0 0 0 0 0
          0 0 0 0 0 0
          0 0 0 0 0 0
          0 0 0 0 0 0
          0 0 0 0 0 0
          0 0 0 0 0 0
          0 0 0 0 0 0
          0 0 0 0 0 0
          0 0 0 0 0 0
          0 0 0 0 0 0
          0 0 0 0 0 0
          0 0 0 0 0 0
          0 0 0 0 0 0
          0 0 0 0 0 0
          0 0 0 0 0 0
          0 0 0 0 0 0
          0
        </DataArray>
        <DataArray type="Float64" Name="_remote_index_" format="ascii" RangeMin="-1" RangeMax="-1">
          -1 -1 -1 -1 -1 -1
          -1 -1 -1 -1 -1 -1
          -1 -1 -1 -1 -1 -1
          -1 -1 -1 -1 -1 -1
          -1 -1 -1 -1 -1 -1
          -1 -1 -1 -1 -1 -1
          -1 -1 -1 -1 -1 -1
          -1 -1 -1 -1 -1 -1
          -1 -1 -1 -1 -1 -1
          -1 -1 -1 -1 -1 -1
          -1 -1 -1 -1 -1 -1
          -1 -1 -1 -1 -1 -1
          -1 -1 -1 -1 -1 -1
          -1 -1 -1 -1 -1 -1
          -1 -1 -1 -1 -1 -1
          -1 -1 -1 -1 -1 -1
          -1 -1 -1 -1 -1 -1
          -1 -1 -1 -1 -1 -1
          -1 -1 -1 -1 -1 -1
          -1 -1 -1 -1 -1 -1
          -1 -1 -1 -1 -1 -1
          -1 -1 -1 -1 -1 -1
          -1 -1 -1 -1 -1 -1
          -1 -1 -1 -1 -1 -1
          -1 -1 -1 -1 -1 -1
          -1 -1 -1 -1 -1 -1
          -1 -1 -1 -1 -1 -1
          -1 -1 -1 -1 -1 -1
          -1 -1 -1 -1 -1 -1
          -1 -1 -1 -1 -1 -1
          -1 -1 -1 -1 -1 -1
          -1 -1 -1 -1 -1 -1
          -1 -1 -1 -1 -1 -1
          -1 -1 -1 -1 -1 -1
          -1 -1 -1 -1 -1 -1
          -1 -1 -1 -1 -1 -1
          -1 -1 -1 -1 -1 -1
          -1 -1 -1 -1 -1 -1
          -1 -1 -1 -1 -1 -1
          -1 -1 -1 -1 -1 -1
          -1 -1 -1 -1 -1 -1
          -1 -1 -1 -1 -1 -1
          -1 -1 -1 -1 -1 -1
          -1 -1 -1 -1 -1 -1
          -1 -1 -1 -1 -1 -1
          -1 -1 -1 -1 -1 -1
          -1 -1 -1 -1 -1 -1
          -1 -1 -1 -1 -1 -1
          -1 -1 -1 -1 -1 -1
          -1 -1 -1 -1 -1 -1
          -1 -1 -1 -1 -1 -1
          -1 -1 -1 -1 -1 -1
          -1 -1 -1 -1 -1 -1
          -1 -1 -1 -1 -1 -1
          -1 -1 -1 -1 -1 -1
          -1 -1 -1 -1 -1 -1
          -1 -1 -1 -1 -1 -1
          -1 -1 -1 -1 -1 -1
          -1 -1 -1 -1 -1 -1
          -1 -1 -1 -1 -1 -1
          -1 -1 -1 -1 -1 -1
          -1 -1 -1 -1 -1 -1
          -1 -1 -1 -1 -1 -1
          -1 -1 -1 -1 -1 -1
          -1 -1 -1 -1 -1 -1
          -1 -1 -1 -1 -1 -1
          -1 -1 -1 -1 -1 -1
          -1 -1 -1 -1 -1 -1
          -1 -1 -1 -1 -1 -1
          -1 -1 -1 -1 -1 -1
          -1 -1 -1 -1 -1 -1
          -1 -1 -1 -1 -1 -1
          -1 -1 -1 -1 -1 -1
          -1 -1 -1 -1 -1 -1
          -1 -1 -1 -1 -1 -1
          -1 -1 -1 -1 -1 -1
          -1 -1 -1 -1 -1 -1
          -1 -1 -1 -1 -1 -1
          -1 -1 -1 -1 -1 -1
          -1 -1 -1 -1 -1 -1
          -1 -1 -1 -1 -1 -1
          -1 -1 -1 -1 -1 -1
          -1 -1 -1 -1 -1 -1
          -1 -1 -1 -1 -1 -1
          -1 -1 -1 -1 -1 -1
          -1 -1 -1 -1 -1 -1
          -1 -1 -1 -1 -1 -1
          -1 -1 -1 -1 -1 -1
          -1 -1 -1 -1 -1 -1
          -1 -1 -1 -1 -1 -1
          -1 -1 -1 -1 -1 -1
          -1 -1 -1 -1 -1 -1
          -1 -1 -1 -1 -1 -1
          -1 -1 -1 -1 -1 -1
          -1 -1 -1 -1 -1 -1
          -1 -1 -1 -1 -1 -1
          -1 -1 -1 -1 -1 -1
          -1 -1 -1 -1 -1 -1
          -1 -1 -1 -1 -1 -1
          -1 -1 -1 -1 -1 -1
          -1 -1 -1 -1 -1 -1
          -1 -1 -1 -1 -1 -1
          -1 -1 -1 -1 -1 -1
          -1 -1 -1 -1 -1 -1
          -1 -1 -1 -1 -1 -1
          -1 -1 -1 -1 -1 -1
          -1 -1 -1 -1 -1 -1
          -1 -1 -1 -1 -1 -1
          -1 -1 -1 -1 -1 -1
          -1 -1 -1 -1 -1 -1
          -1 -1 -1 -1 -1 -1
          -1 -1 -1 -1 -1 -1
          -1 -1 -1 -1 -1 -1
          -1 -1 -1 -1 -1 -1
          -1 -1 -1 -1 -1 -1
          -1 -1 -1 -1 -1 -1
          -1 -1 -1 -1 -1 -1
          -1 -1 -1 -1 -1 -1
          -1 -1 -1 -1 -1 -1
          -1 -1 -1 -1 -1 -1
          -1 -1 -1 -1 -1 -1
          -1 -1 -1 -1 -1 -1
          -1 -1 -1 -1 -1 -1
          -1 -1 -1 -1 -1 -1
          -1 -1 -1 -1 -1 -1
          -1 -1 -1 -1 -1 -1
          -1 -1 -1 -1 -1 -1
          -1 -1 -1 -1 -1 -1
          -1 -1 -1 -1 -1 -1
          -1 -1 -1 -1 -1 -1
          -1 -1 -1 -1 -1 -1
          -1 -1 -1 -1 -1 -1
          -1 -1 -1 -1 -1 -1
          -1 -1 -1 -1 -1 -1
          -1 -1 -1 -1 -1 -1
          -1 -1 -1 -1 -1 -1
          -1 -1 -1 -1 -1 -1
          -1 -1 -1 -1 -1 -1
          -1 -1 -1 -1 -1 -1
          -1 -1 -1 -1 -1 -1
          -1 -1 -1 -1 -1 -1
          -1 -1 -1 -1 -1 -1
          -1 -1 -1 -1 -1 -1
          -1 -1 -1 -1 -1 -1
          -1 -1 -1 -1 -1 -1
          -1 -1 -1 -1 -1 -1
          -1 -1 -1 -1 -1 -1
          -1 -1 -1 -1 -1 -1
          -1 -1 -1 -1 -1 -1
          -1 -1 -1 -1 -1 -1
          -1 -1 -1 -1 -1 -1
          -1 -1 -1 -1 -1 -1
          -1 -1 -1 -1 -1 -1
          -1 -1 -1 -1 -1 -1
          -1 -1 -1 -1 -1 -1
          -1 -1 -1 -1 -1 -1
          -1 -1 -1 -1 -1 -1
          -1 -1 -1 -1 -1 -1
          -1 -1 -1 -1 -1 -1
          -1 -1 -1 -1 -1 -1
          -1 -1 -1 -1 -1 -1
          -1 -1 -1 -1 -1 -1
          -1 -1 -1 -1 -1 -1
          -1 -1 -1 -1 -1 -1
          -1 -1 -1 -1 -1 -1
          -1 -1 -1 -1 -1 -1
          -1 -1 -1 -1 -1 -1
          -1 -1 -1 -1 -1 -1
          -1 -1 -1 -1 -1 -1
          -1 -1 -1 -1 -1 -1
          -1 -1 -1 -1 -1 -1
          -1 -1 -1 -1 -1 -1
          -1 -1 -1 -1 -1 -1
          -1 -1 -1 -1 -1 -1
          -1 -1 -1 -1 -1 -1
          -1 -1 -1 -1 -1 -1
          -1 -1 -1 -1 -1 -1
          -1 -1 -1 -1 -1 -1
          -1 -1 -1 -1 -1 -1
          -1 -1 -1 -1 -1 -1
          -1 -1 -1 -1 -1 -1
          -1 -1 -1 -1 -1 -1
          -1 -1 -1 -1 -1 -1
          -1 -1 -1 -1 -1 -1
          -1 -1 -1 -1 -1 -1
          -1 -1 -1 -1 -1 -1
          -1 -1 -1 -1 -1 -1
          -1 -1 -1 -1 -1 -1
          -1 -1 -1 -1 -1 -1
          -1 -1 -1 -1 -1 -1
          -1 -1 -1 -1 -1 -1
          -1 -1 -1 -1 -1 -1
          -1 -1 -1 -1 -1 -1
          -1 -1 -1 -1 -1 -1
          -1 -1 -1 -1 -1 -1
          -1 -1 -1 -1 -1 -1
          -1 -1 -1 -1 -1 -1
          -1 -1 -1 -1 -1 -1
          -1 -1 -1 -1 -1 -1
          -1 -1 -1 -1 -1 -1
          -1 -1 -1 -1 -1 -1
          -1 -1 -1 -1 -1 -1
          -1 -1 -1 -1 -1 -1
          -1 -1 -1 -1 -1 -1
          -1 -1 -1 -1 -1 -1
          -1 -1 -1 -1 -1 -1
          -1 -1 -1 -1 -1 -1
          -1 -1 -1 -1 -1 -1
          -1 -1 -1 -1 -1 -1
          -1 -1 -1 -1 -1 -1
          -1 -1 -1 -1 -1 -1
          -1 -1 -1 -1 -1 -1
          -1 -1 -1 -1 -1 -1
          -1 -1 -1 -1 -1 -1
          -1 -1 -1 -1 -1 -1
          -1 -1 -1 -1 -1 -1
          -1 -1 -1 -1 -1 -1
          -1 -1 -1 -1 -1 -1
          -1 -1 -1 -1 -1 -1
          -1 -1 -1 -1 -1 -1
          -1 -1 -1 -1 -1 -1
          -1 -1 -1 -1 -1 -1
          -1 -1 -1 -1 -1 -1
          -1 -1 -1 -1 -1 -1
          -1 -1 -1 -1 -1 -1
          -1 -1 -1 -1 -1 -1
          -1 -1 -1 -1 -1 -1
          -1 -1 -1 -1 -1 -1
          -1 -1 -1 -1 -1 -1
          -1 -1 -1 -1 -1 -1
          -1 -1 -1 -1 -1 -1
          -1 -1 -1 -1 -1 -1
          -1 -1 -1 -1 -1 -1
          -1 -1 -1 -1 -1 -1
          -1 -1 -1 -1 -1 -1
          -1 -1 -1 -1 -1 -1
          -1 -1 -1 -1 -1 -1
          -1 -1 -1 -1 -1 -1
          -1 -1 -1 -1 -1 -1
          -1 -1 -1 -1 -1 -1
          -1 -1 -1 -1 -1 -1
          -1 -1 -1 -1 -1 -1
          -1 -1 -1 -1 -1 -1
          -1 -1 -1 -1 -1 -1
          -1 -1 -1 -1 -1 -1
          -1 -1 -1 -1 -1 -1
          -1 -1 -1 -1 -1 -1
          -1 -1 -1 -1 -1 -1
          -1 -1 -1 -1 -1 -1
          -1 -1 -1 -1 -1 -1
          -1 -1 -1 -1 -1 -1
          -1 -1 -1 -1 -1 -1
          -1 -1 -1 -1 -1 -1
          -1 -1 -1 -1 -1 -1
          -1 -1 -1 -1 -1 -1
          -1 -1 -1 -1 -1 -1
          -1 -1 -1 -1 -1 -1
          -1 -1 -1 -1 -1 -1
          -1 -1 -1 -1 -1 -1
          -1 -1 -1 -1 -1 -1
          -1 -1 -1 -1 -1 -1
          -1 -1 -1 -1 -1 -1
          -1 -1 -1 -1 -1 -1
          -1 -1 -1 -1 -1 -1
          -1 -1 -1 -1 -1 -1
          -1 -1 -1 -1 -1 -1
          -1 -1 -1 -1 -1 -1
          -1 -1 -1 -1 -1 -1
          -1 -1 -1 -1 -1 -1
          -1 -1 -1 -1 -1 -1
          -1 -1 -1 -1 -1 -1
          -1 -1 -1 -1 -1 -1
          -1 -1 -1 -1 -1 -1
          -1 -1 -1 -1 -1 -1
          -1 -1 -1 -1 -1 -1
          -1 -1 -1 -1 -1 -1
          -1 -1 -1 -1 -1 -1
          -1 -1 -1 -1 -1 -1
          -1 -1 -1 -1 -1 -1
          -1 -1 -1 -1 -1 -1
          -1 -1 -1 -1 -1 -1
          -1 -1 -1 -1 -1 -1
          -1 -1 -1 -1 -1 -1
          -1 -1 -1 -1 -1 -1
          -1 -1 -1 -1 -1 -1
          -1 -1 -1 -1 -1 -1
          -1 -1 -1 -1 -1 -1
          -1 -1 -1 -1 -1 -1
          -1 -1 -1 -1 -1 -1
          -1 -1 -1 -1 -1 -1
          -1 -1 -1 -1 -1 -1
          -1 -1 -1 -1 -1 -1
          -1 -1 -1 -1 -1 -1
          -1 -1 -1 -1 -1 -1
          -1 -1 -1 -1 -1 -1
          -1 -1 -1 -1 -1 -1
          -1 -1 -1 -1 -1 -1
          -1 -1 -1 -1 -1 -1
          -1 -1 -1 -1 -1 -1
          -1 -1 -1 -1 -1 -1
          -1 -1 -1 -1 -1 -1
          -1 -1 -1 -1 -1 -1
          -1 -1 -1 -1 -1 -1
          -1 -1 -1 -1 -1 -1
          -1 -1 -1 -1 -1 -1
          -1 -1 -1 -1 -1 -1
          -1 -1 -1 -1 -1 -1
          -1 -1 -1 -1 -1 -1
          -1 -1 -1 -1 -1 -1
          -1 -1 -1 -1 -1 -1
          -1 -1 -1 -1 -1 -1
          -1 -1 -1 -1 -1 -1
          -1 -1 -1 -1 -1 -1
          -1 -1 -1 -1 -1 -1
          -1 -1 -1 -1 -1 -1
          -1 -1 -1 -1 -1 -1
          -1 -1 -1 -1 -1 -1
          -1 -1 -1 -1 -1 -1
          -1 -1 -1 -1 -1 -1
          -1 -1 -1 -1 -1 -1
          -1 -1 -1 -1 -1 -1
          -1 -1 -1 -1 -1 -1
          -1 -1 -1 -1 -1 -1
          -1 -1 -1 -1 -1 -1
          -1 -1 -1 -1 -1 -1
          -1 -1 -1 -1 -1 -1
          -1 -1 -1 -1 -1 -1
          -1 -1 -1 -1 -1 -1
          -1 -1 -1 -1 -1 -1
          -1 -1 -1 -1 -1 -1
          -1 -1 -1 -1 -1 -1
          -1 -1 -1 -1 -1 -1
          -1 -1 -1 -1 -1 -1
          -1 -1 -1 -1 -1 -1
          -1 -1 -1 -1 -1 -1
          -1 -1 -1 -1 -1 -1
          -1 -1 -1 -1 -1 -1
          -1 -1 -1 -1 -1 -1
          -1 -1 -1 -1 -1 -1
          -1 -1 -1 -1 -1 -1
          -1 -1 -1 -1 -1 -1
          -1 -1 -1 -1 -1 -1
          -1 -1 -1 -1 -1 -1
          -1 -1 -1 -1 -1 -1
          -1 -1 -1 -1 -1 -1
          -1 -1 -1 -1 -1 -1
          -1 -1 -1 -1 -1 -1
          -1 -1 -1 -1 -1 -1
          -1 -1 -1 -1 -1 -1
          -1 -1 -1 -1 -1 -1
          -1 -1 -1 -1 -1 -1
          -1 -1 -1 -1 -1 -1
          -1 -1 -1 -1 -1 -1
          -1 -1 -1 -1 -1 -1
          -1 -1 -1 -1 -1 -1
          -1 -1 -1 -1 -1 -1
          -1 -1 -1 -1 -1 -1
          -1 -1 -1 -1 -1 -1
          -1 -1 -1 -1 -1 -1
          -1 -1 -1 -1 -1 -1
          -1 -1 -1 -1 -1 -1
          -1 -1 -1 -1 -1 -1
          -1 -1 -1 -1 -1 -1
          -1 -1 -1 -1 -1 -1
          -1 -1 -1 -1 -1 -1
          -1 -1 -1 -1 -1 -1
          -1 -1 -1 -1 -1 -1
          -1 -1 -1 -1 -1 -1
          -1 -1 -1 -1 -1 -1
          -1 -1 -1 -1 -1 -1
          -1 -1 -1 -1 -1 -1
          -1 -1 -1 -1 -1 -1
          -1 -1 -1 -1 -1 -1
          -1 -1 -1 -1 -1 -1
          -1 -1 -1 -1 -1 -1
          -1 -1 -1 -1 -1 -1
          -1 -1 -1 -1 -1 -1
          -1 -1 -1 -1 -1 -1
          -1 -1 -1 -1 -1 -1
          -1 -1 -1 -1 -1 -1
          -1 -1 -1 -1 -1 -1
          -1 -1 -1 -1 -1 -1
          -1 -1 -1 -1 -1 -1
          -1 -1 -1 -1 -1 -1
          -1 -1 -1 -1 -1 -1
          -1 -1 -1 -1 -1 -1
          -1 -1 -1 -1 -1 -1
          -1 -1 -1 -1 -1 -1
          -1 -1 -1 -1 -1 -1
          -1 -1 -1 -1 -1 -1
          -1 -1 -1 -1 -1 -1
          -1 -1 -1 -1 -1 -1
          -1 -1 -1 -1 -1 -1
          -1 -1 -1 -1 -1 -1
          -1 -1 -1 -1 -1 -1
          -1 -1 -1 -1 -1 -1
          -1 -1 -1 -1 -1 -1
          -1 -1 -1 -1 -1 -1
          -1 -1 -1 -1 -1 -1
          -1 -1 -1 -1 -1 -1
          -1 -1 -1 -1 -1 -1
          -1 -1 -1 -1 -1 -1
          -1 -1 -1 -1 -1 -1
          -1 -1 -1 -1 -1 -1
          -1 -1 -1 -1 -1 -1
          -1 -1 -1 -1 -1 -1
          -1 -1 -1 -1 -1 -1
          -1 -1 -1 -1 -1 -1
          -1 -1 -1 -1 -1 -1
          -1 -1 -1 -1 -1 -1
          -1 -1 -1 -1 -1 -1
          -1 -1 -1 -1 -1 -1
          -1 -1 -1 -1 -1 -1
          -1 -1 -1 -1 -1 -1
          -1 -1 -1 -1 -1 -1
          -1 -1 -1 -1 -1 -1
          -1 -1 -1 -1 -1 -1
          -1 -1 -1 -1 -1 -1
          -1 -1 -1 -1 -1 -1
          -1 -1 -1 -1 -1 -1
          -1 -1 -1 -1 -1 -1
          -1 -1 -1 -1 -1 -1
          -1 -1 -1 -1 -1 -1
          -1 -1 -1 -1 -1 -1
          -1 -1 -1 -1 -1 -1
          -1 -1 -1 -1 -1 -1
          -1 -1 -1 -1 -1 -1
          -1 -1 -1 -1 -1 -1
          -1 -1 -1 -1 -1 -1
          -1 -1 -1 -1 -1 -1
          -1 -1 -1 -1 -1 -1
          -1 -1 -1 -1 -1 -1
          -1 -1 -1 -1 -1 -1
          -1 -1 -1 -1 -1 -1
          -1 -1 -1 -1 -1 -1
          -1 -1 -1 -1 -1 -1
          -1 -1 -1 -1 -1 -1
          -1 -1 -1 -1 -1 -1
          -1 -1 -1 -1 -1 -1
          -1 -1 -1 -1 -1 -1
          -1 -1 -1 -1 -1 -1
          -1 -1 -1 -1 -1 -1
          -1 -1 -1 -1 -1 -1
          -1 -1 -1 -1 -1 -1
          -1 -1 -1 -1 -1 -1
          -1 -1 -1 -1 -1 -1
          -1 -1 -1 -1 -1 -1
          -1 -1 -1 -1 -1 -1
          -1 -1 -1 -1 -1 -1
          -1 -1 -1 -1 -1 -1
          -1 -1 -1 -1 -1 -1
          -1 -1 -1 -1 -1 -1
          -1 -1 -1 -1 -1 -1
          -1 -1 -1 -1 -1 -1
          -1 -1 -1 -1 -1 -1
          -1 -1 -1 -1 -1 -1
          -1 -1 -1 -1 -1 -1
          -1 -1 -1 -1 -1 -1
          -1 -1 -1 -1 -1 -1
          -1 -1 -1 -1 -1 -1
          -1 -1 -1 -1 -1 -1
          -1 -1 -1 -1 -1 -1
          -1 -1 -1 -1 -1 -1
          -1 -1 -1 -1 -1 -1
          -1 -1 -1 -1 -1 -1
          -1 -1 -1 -1 -1 -1
          -1 -1 -1 -1 -1 -1
          -1 -1 -1 -1 -1 -1
          -1 -1 -1 -1 -1 -1
          -1 -1 -1 -1 -1 -1
          -1 -1 -1 -1 -1 -1
          -1 -1 -1 -1 -1 -1
          -1 -1 -1 -1 -1 -1
          -1 -1 -1 -1 -1 -1
          -1 -1 -1 -1 -1 -1
          -1 -1 -1 -1 -1 -1
          -1 -1 -1 -1 -1 -1
          -1 -1 -1 -1 -1 -1
          -1 -1 -1 -1 -1 -1
          -1 -1 -1 -1 -1 -1
          -1 -1 -1 -1 -1 -1
          -1 -1 -1 -1 -1 -1
          -1 -1 -1 -1 -1 -1
          -1 -1 -1 -1 -1 -1
          -1 -1 -1 -1 -1 -1
          -1 -1 -1 -1 -1 -1
          -1 -1 -1 -1 -1 -1
          -1 -1 -1 -1 -1 -1
          -1 -1 -1 -1 -1 -1
          -1 -1 -1 -1 -1 -1
          -1 -1 -1 -1 -1 -1
          -1 -1 -1 -1 -1 -1
          -1 -1 -1 -1 -1 -1
          -1 -1 -1 -1 -1 -1
          -1 -1 -1 -1 -1 -1
          -1 -1 -1 -1 -1 -1
          -1 -1 -1 -1 -1 -1
          -1 -1 -1 -1 -1 -1
          -1 -1 -1 -1 -1 -1
          -1 -1 -1 -1 -1 -1
          -1 -1 -1 -1 -1 -1
          -1 -1 -1 -1 -1 -1
          -1 -1 -1 -1 -1 -1
          -1 -1 -1 -1 -1 -1
          -1 -1 -1 -1 -1 -1
          -1 -1 -1 -1 -1 -1
          -1 -1 -1 -1 -1 -1
          -1 -1 -1 -1 -1 -1
          -1 -1 -1 -1 -1 -1
          -1 -1 -1 -1 -1 -1
          -1 -1 -1 -1 -1 -1
          -1 -1 -1 -1 -1 -1
          -1 -1 -1 -1 -1 -1
          -1 -1 -1 -1 -1 -1
          -1 -1 -1 -1 -1 -1
          -1 -1 -1 -1 -1 -1
          -1 -1 -1 -1 -1 -1
          -1 -1 -1 -1 -1 -1
          -1 -1 -1 -1 -1 -1
          -1 -1 -1 -1 -1 -1
          -1 -1 -1 -1 -1 -1
          -1 -1 -1 -1 -1 -1
          -1 -1 -1 -1 -1 -1
          -1 -1 -1 -1 -1 -1
          -1 -1 -1 -1 -1 -1
          -1 -1 -1 -1 -1 -1
          -1 -1 -1 -1 -1 -1
          -1 -1 -1 -1 -1 -1
          -1 -1 -1 -1 -1 -1
          -1 -1 -1 -1 -1 -1
          -1 -1 -1 -1 -1 -1
          -1 -1 -1 -1 -1 -1
          -1 -1 -1 -1 -1 -1
          -1 -1 -1 -1 -1 -1
          -1 -1 -1 -1 -1 -1
          -1 -1 -1 -1 -1 -1
          -1 -1 -1 -1 -1 -1
          -1 -1 -1 -1 -1 -1
          -1 -1 -1 -1 -1 -1
          -1 -1 -1 -1 -1 -1
          -1 -1 -1 -1 -1 -1
          -1 -1 -1 -1 -1 -1
          -1 -1 -1 -1 -1 -1
          -1 -1 -1 -1 -1 -1
          -1 -1 -1 -1 -1 -1
          -1 -1 -1 -1 -1 -1
          -1 -1 -1 -1 -1 -1
          -1 -1 -1 -1 -1 -1
          -1 -1 -1 -1 -1 -1
          -1 -1 -1 -1 -1 -1
          -1 -1 -1 -1 -1 -1
          -1 -1 -1 -1 -1 -1
          -1 -1 -1 -1 -1 -1
          -1 -1 -1 -1 -1 -1
          -1 -1 -1 -1 -1 -1
          -1 -1 -1 -1 -1 -1
          -1 -1 -1 -1 -1 -1
          -1 -1 -1 -1 -1 -1
          -1 -1 -1 -1 -1 -1
          -1 -1 -1 -1 -1 -1
          -1 -1 -1 -1 -1 -1
          -1 -1 -1 -1 -1 -1
          -1 -1 -1 -1 -1 -1
          -1 -1 -1 -1 -1 -1
          -1 -1 -1 -1 -1 -1
          -1 -1 -1 -1 -1 -1
          -1 -1 -1 -1 -1 -1
          -1 -1 -1 -1 -1 -1
          -1 -1 -1 -1 -1 -1
          -1 -1 -1 -1 -1 -1
          -1 -1 -1 -1 -1 -1
          -1 -1 -1 -1 -1 -1
          -1 -1 -1 -1 -1 -1
          -1 -1 -1 -1 -1 -1
          -1 -1 -1 -1 -1 -1
          -1 -1 -1 -1 -1 -1
          -1 -1 -1 -1 -1 -1
          -1 -1 -1 -1 -1 -1
          -1 -1 -1 -1 -1 -1
          -1 -1 -1 -1 -1 -1
          -1 -1 -1 -1 -1 -1
          -1 -1 -1 -1 -1 -1
          -1 -1 -1 -1 -1 -1
          -1 -1 -1 -1 -1 -1
          -1 -1 -1 -1 -1 -1
          -1 -1 -1 -1 -1 -1
          -1 -1 -1 -1 -1 -1
          -1 -1 -1 -1 -1 -1
          -1 -1 -1 -1 -1 -1
          -1 -1 -1 -1 -1 -1
          -1 -1 -1 -1 -1 -1
          -1 -1 -1 -1 -1 -1
          -1 -1 -1 -1 -1 -1
          -1 -1 -1 -1 -1 -1
          -1 -1 -1 -1 -1 -1
          -1 -1 -1 -1 -1 -1
          -1 -1 -1 -1 -1 -1
          -1 -1 -1 -1 -1 -1
          -1 -1 -1 -1 -1 -1
          -1 -1 -1 -1 -1 -1
          -1 -1 -1 -1 -1 -1
          -1 -1 -1 -1 -1 -1
          -1 -1 -1 -1 -1 -1
          -1 -1 -1 -1 -1 -1
          -1 -1 -1 -1 -1 -1
          -1 -1 -1 -1 -1 -1
          -1 -1 -1 -1 -1 -1
          -1 -1 -1 -1 -1 -1
          -1 -1 -1 -1 -1 -1
          -1 -1 -1 -1 -1 -1
          -1 -1 -1 -1 -1 -1
          -1 -1 -1 -1 -1 -1
          -1 -1 -1 -1 -1 -1
          -1 -1 -1 -1 -1 -1
          -1 -1 -1 -1 -1 -1
          -1 -1 -1 -1 -1 -1
          -1 -1 -1 -1 -1 -1
          -1 -1 -1 -1 -1 -1
          -1 -1 -1 -1 -1 -1
          -1 -1 -1 -1 -1 -1
          -1 -1 -1 -1 -1 -1
          -1 -1 -1 -1 -1 -1
          -1 -1 -1 -1 -1 -1
          -1 -1 -1 -1 -1 -1
          -1 -1 -1 -1 -1 -1
          -1 -1 -1 -1 -1 -1
          -1 -1 -1 -1 -1 -1
          -1 -1 -1 -1 -1 -1
          -1 -1 -1 -1 -1 -1
          -1 -1 -1 -1 -1 -1
          -1 -1 -1 -1 -1 -1
          -1 -1 -1 -1 -1 -1
          -1 -1 -1 -1 -1 -1
          -1 -1 -1 -1 -1 -1
          -1 -1 -1 -1 -1 -1
          -1 -1 -1 -1 -1 -1
          -1 -1 -1 -1 -1 -1
          -1 -1 -1 -1 -1 -1
          -1 -1 -1 -1 -1 -1
          -1 -1 -1 -1 -1 -1
          -1 -1 -1 -1 -1 -1
          -1 -1 -1 -1 -1 -1
          -1 -1 -1 -1 -1 -1
          -1 -1 -1 -1 -1 -1
          -1 -1 -1 -1 -1 -1
          -1 -1 -1 -1 -1 -1
          -1 -1 -1 -1 -1 -1
          -1 -1 -1 -1 -1 -1
          -1 -1 -1 -1 -1 -1
          -1 -1 -1 -1 -1 -1
          -1 -1 -1 -1 -1 -1
          -1 -1 -1 -1 -1 -1
          -1 -1 -1 -1 -1 -1
          -1 -1 -1 -1 -1 -1
          -1 -1 -1 -1 -1 -1
          -1 -1 -1 -1 -1 -1
          -1 -1 -1 -1 -1 -1
          -1 -1 -1 -1 -1 -1
          -1 -1 -1 -1 -1 -1
          -1 -1 -1 -1 -1 -1
          -1 -1 -1 -1 -1 -1
          -1 -1 -1 -1 -1 -1
          -1 -1 -1 -1 -1 -1
          -1 -1 -1 -1 -1 -1
          -1 -1 -1 -1 -1 -1
          -1 -1 -1 -1 -1 -1
          -1 -1 -1 -1 -1 -1
          -1 -1 -1 -1 -1 -1
          -1 -1 -1 -1 -1 -1
          -1 -1 -1 -1 -1 -1
          -1 -1 -1 -1 -1 -1
          -1 -1 -1 -1 -1 -1
          -1 -1 -1 -1 -1 -1
          -1 -1 -1 -1 -1 -1
          -1 -1 -1 -1 -1 -1
          -1 -1 -1 -1 -1 -1
          -1 -1 -1 -1 -1 -1
          -1 -1 -1 -1 -1 -1
          -1 -1 -1 -1 -1 -1
          -1 -1 -1 -1 -1 -1
          -1 -1 -1 -1 -1 -1
          -1 -1 -1 -1 -1 -1
          -1 -1 -1 -1 -1 -1
          -1 -1 -1 -1 -1 -1
          -1 -1 -1 -1 -1 -1
          -1 -1 -1 -1 -1 -1
          -1 -1 -1 -1 -1 -1
          -1 -1 -1 -1 -1 -1
          -1 -1 -1 -1 -1 -1
          -1 -1 -1 -1 -1 -1
          -1 -1 -1 -1 -1 -1
          -1 -1 -1 -1 -1 -1
          -1 -1 -1 -1 -1 -1
          -1 -1 -1 -1 -1 -1
          -1 -1 -1 -1 -1 -1
          -1 -1 -1 -1 -1 -1
          -1 -1 -1 -1 -1 -1
          -1 -1 -1 -1 -1 -1
          -1 -1 -1 -1 -1 -1
          -1 -1 -1 -1 -1 -1
          -1 -1 -1 -1 -1 -1
          -1 -1 -1 -1 -1 -1
          -1 -1 -1 -1 -1 -1
          -1 -1 -1 -1 -1 -1
          -1 -1 -1 -1 -1 -1
          -1 -1 -1 -1 -1 -1
          -1 -1 -1 -1 -1 -1
          -1 -1 -1 -1 -1 -1
          -1 -1 -1 -1 -1 -1
          -1 -1 -1 -1 -1 -1
          -1 -1 -1 -1 -1 -1
          -1 -1 -1 -1 -1 -1
          -1 -1 -1 -1 -1 -1
          -1 -1 -1 -1 -1 -1
          -1 -1 -1 -1 -1 -1
          -1 -1 -1 -1 -1 -1
          -1 -1 -1 -1 -1 -1
          -1 -1 -1 -1 -1 -1
          -1 -1 -1 -1 -1 -1
          -1 -1 -1 -1 -1 -1
          -1 -1 -1 -1 -1 -1
          -1 -1 -1 -1 -1 -1
          -1 -1 -1 -1 -1 -1
          -1 -1 -1 -1 -1 -1
          -1 -1 -1 -1 -1 -1
          -1 -1 -1 -1 -1 -1
          -1 -1 -1 -1 -1 -1
          -1 -1 -1 -1 -1 -1
          -1 -1 -1 -1 -1 -1
          -1 -1 -1 -1 -1 -1
          -1 -1 -1 -1 -1 -1
          -1 -1 -1 -1 -1 -1
          -1 -1 -1 -1 -1 -1
          -1 -1 -1 -1 -1 -1
          -1 -1 -1 -1 -1 -1
          -1 -1 -1 -1 -1 -1
          -1 -1 -1 -1 -1 -1
          -1 -1 -1 -1 -1 -1
          -1 -1 -1 -1 -1 -1
          -1 -1 -1 -1 -1 -1
          -1 -1 -1 -1 -1 -1
          -1 -1 -1 -1 -1 -1
          -1 -1 -1 -1 -1 -1
          -1 -1 -1 -1 -1 -1
          -1 -1 -1 -1 -1 -1
          -1 -1 -1 -1 -1 -1
          -1 -1 -1 -1 -1 -1
          -1 -1 -1 -1 -1 -1
          -1 -1 -1 -1 -1 -1
          -1 -1 -1 -1 -1 -1
          -1 -1 -1 -1 -1 -1
          -1 -1 -1 -1 -1 -1
          -1 -1 -1 -1 -1 -1
          -1 -1 -1 -1 -1 -1
          -1 -1 -1 -1 -1 -1
          -1 -1 -1 -1 -1 -1
          -1 -1 -1 -1 -1 -1
          -1 -1 -1 -1 -1 -1
          -1 -1 -1 -1 -1 -1
          -1 -1 -1 -1 -1 -1
          -1 -1 -1 -1 -1 -1
          -1 -1 -1 -1 -1 -1
          -1 -1 -1 -1 -1 -1
          -1 -1 -1 -1 -1 -1
          -1 -1 -1 -1 -1 -1
          -1 -1 -1 -1 -1 -1
          -1 -1 -1 -1 -1 -1
          -1 -1 -1 -1 -1 -1
          -1 -1 -1 -1 -1 -1
          -1 -1 -1 -1 -1 -1
          -1 -1 -1 -1 -1 -1
          -1 -1 -1 -1 -1 -1
          -1 -1 -1 -1 -1 -1
          -1 -1 -1 -1 -1 -1
          -1 -1 -1 -1 -1 -1
          -1 -1 -1 -1 -1 -1
          -1 -1 -1 -1 -1 -1
          -1 -1 -1 -1 -1 -1
          -1 -1 -1 -1 -1 -1
          -1 -1 -1 -1 -1 -1
          -1 -1 -1 -1 -1 -1
          -1 -1 -1 -1 -1 -1
          -1 -1 -1 -1 -1 -1
          -1 -1 -1 -1 -1 -1
          -1 -1 -1 -1 -1 -1
          -1 -1 -1 -1 -1 -1
          -1 -1 -1 -1 -1 -1
          -1 -1 -1 -1 -1 -1
          -1 -1 -1 -1 -1 -1
          -1 -1 -1 -1 -1 -1
          -1 -1 -1 -1 -1 -1
          -1 -1 -1 -1 -1 -1
          -1 -1 -1 -1 -1 -1
          -1 -1 -1 -1 -1 -1
          -1 -1 -1 -1 -1 -1
          -1 -1 -1 -1 -1 -1
          -1 -1 -1 -1 -1 -1
          -1 -1 -1 -1 -1 -1
          -1 -1 -1 -1 -1 -1
          -1 -1 -1 -1 -1 -1
          -1 -1 -1 -1 -1 -1
          -1 -1 -1 -1 -1 -1
          -1 -1 -1 -1 -1 -1
          -1 -1 -1 -1 -1 -1
          -1 -1 -1 -1 -1 -1
          -1 -1 -1 -1 -1 -1
          -1 -1 -1 -1 -1 -1
          -1 -1 -1 -1 -1 -1
          -1 -1 -1 -1 -1 -1
          -1 -1 -1 -1 -1 -1
          -1 -1 -1 -1 -1 -1
          -1 -1 -1 -1 -1 -1
          -1 -1 -1 -1 -1 -1
          -1 -1 -1 -1 -1 -1
          -1 -1 -1 -1 -1 -1
          -1 -1 -1 -1 -1 -1
          -1 -1 -1 -1 -1 -1
          -1 -1 -1 -1 -1 -1
          -1 -1 -1 -1 -1 -1
          -1 -1 -1 -1 -1 -1
          -1 -1 -1 -1 -1 -1
          -1 -1 -1 -1 -1 -1
          -1 -1 -1 -1 -1 -1
          -1 -1 -1 -1 -1 -1
          -1 -1 -1 -1 -1 -1
          -1 -1 -1 -1 -1 -1
          -1 -1 -1 -1 -1 -1
          -1 -1 -1 -1 -1 -1
          -1 -1 -1 -1 -1 -1
          -1 -1 -1 -1 -1 -1
          -1 -1 -1 -1 -1 -1
          -1 -1 -1 -1 -1 -1
          -1 -1 -1 -1 -1 -1
          -1 -1 -1 -1 -1 -1
          -1 -1 -1 -1 -1 -1
          -1 -1 -1 -1 -1 -1
          -1 -1 -1 -1 -1 -1
          -1 -1 -1 -1 -1 -1
          -1 -1 -1 -1 -1 -1
          -1 -1 -1 -1 -1 -1
          -1 -1 -1 -1 -1 -1
          -1 -1 -1 -1 -1 -1
          -1 -1 -1 -1 -1 -1
          -1 -1 -1 -1 -1 -1
          -1 -1 -1 -1 -1 -1
          -1 -1 -1 -1 -1 -1
          -1 -1 -1 -1 -1 -1
          -1 -1 -1 -1 -1 -1
          -1 -1 -1 -1 -1 -1
          -1 -1 -1 -1 -1 -1
          -1 -1 -1 -1 -1 -1
          -1 -1 -1 -1 -1 -1
          -1 -1 -1 -1 -1 -1
          -1 -1 -1 -1 -1 -1
          -1 -1 -1 -1 -1 -1
          -1 -1 -1 -1 -1 -1
          -1 -1 -1 -1 -1 -1
          -1 -1 -1 -1 -1 -1
          -1 -1 -1 -1 -1 -1
          -1 -1 -1 -1 -1 -1
          -1 -1 -1 -1 -1 -1
          -1 -1 -1 -1 -1 -1
          -1 -1 -1 -1 -1 -1
          -1 -1 -1 -1 -1 -1
          -1 -1 -1 -1 -1 -1
          -1 -1 -1 -1 -1 -1
          -1 -1 -1 -1 -1 -1
          -1 -1 -1 -1 -1 -1
          -1 -1 -1 -1 -1 -1
          -1 -1 -1 -1 -1 -1
          -1 -1 -1 -1 -1 -1
          -1 -1 -1 -1 -1 -1
          -1 -1 -1 -1 -1 -1
          -1 -1 -1 -1 -1 -1
          -1 -1 -1 -1 -1 -1
          -1 -1 -1 -1 -1 -1
          -1 -1 -1 -1 -1 -1
          -1 -1 -1 -1 -1 -1
          -1 -1 -1 -1 -1 -1
          -1 -1 -1 -1 -1 -1
          -1 -1 -1 -1 -1 -1
          -1 -1 -1 -1 -1 -1
          -1 -1 -1 -1 -1 -1
          -1 -1 -1 -1 -1 -1
          -1 -1 -1 -1 -1 -1
          -1 -1 -1 -1 -1 -1
          -1 -1 -1 -1 -1 -1
          -1 -1 -1 -1 -1 -1
          -1 -1 -1 -1 -1 -1
          -1 -1 -1 -1 -1 -1
          -1 -1 -1 -1 -1 -1
          -1 -1 -1 -1 -1 -1
          -1 -1 -1 -1 -1 -1
          -1 -1 -1 -1 -1 -1
          -1 -1 -1 -1 -1 -1
          -1 -1 -1 -1 -1 -1
          -1 -1 -1 -1 -1 -1
          -1 -1 -1 -1 -1 -1
          -1 -1 -1 -1 -1 -1
          -1 -1 -1 -1 -1 -1
          -1 -1 -1 -1 -1 -1
          -1 -1 -1 -1 -1 -1
          -1 -1 -1 -1 -1 -1
          -1 -1 -1 -1 -1 -1
          -1 -1 -1 -1 -1 -1
          -1 -1 -1 -1 -1 -1
          -1 -1 -1 -1 -1 -1
          -1 -1 -1 -1 -1 -1
          -1 -1 -1 -1 -1 -1
          -1 -1 -1 -1 -1 -1
          -1 -1 -1 -1 -1 -1
          -1
        </DataArray>
        <DataArray type="Float64" Name="_sub_domain_" format="ascii" RangeMin="0" RangeMax="0">
          0 0 0 0 0 0
          0 0 0 0 0 0
          0 0 0 0 0 0
          0 0 0 0 0 0
          0 0 0 0 0 0
          0 0 0 0 0 0
          0 0 0 0 0 0
          0 0 0 0 0 0
          0 0 0 0 0 0
          0 0 0 0 0 0
          0 0 0 0 0 0
          0 0 0 0 0 0
          0 0 0 0 0 0
          0 0 0 0 0 0
          0 0 0 0 0 0
          0 0 0 0 0 0
          0 0 0 0 0 0
          0 0 0 0 0 0
          0 0 0 0 0 0
          0 0 0 0 0 0
          0 0 0 0 0 0
          0 0 0 0 0 0
          0 0 0 0 0 0
          0 0 0 0 0 0
          0 0 0 0 0 0
          0 0 0 0 0 0
          0 0 0 0 0 0
          0 0 0 0 0 0
          0 0 0 0 0 0
          0 0 0 0 0 0
          0 0 0 0 0 0
          0 0 0 0 0 0
          0 0 0 0 0 0
          0 0 0 0 0 0
          0 0 0 0 0 0
          0 0 0 0 0 0
          0 0 0 0 0 0
          0 0 0 0 0 0
          0 0 0 0 0 0
          0 0 0 0 0 0
          0 0 0 0 0 0
          0 0 0 0 0 0
          0 0 0 0 0 0
          0 0 0 0 0 0
          0 0 0 0 0 0
          0 0 0 0 0 0
          0 0 0 0 0 0
          0 0 0 0 0 0
          0 0 0 0 0 0
          0 0 0 0 0 0
          0 0 0 0 0 0
          0 0 0 0 0 0
          0 0 0 0 0 0
          0 0 0 0 0 0
          0 0 0 0 0 0
          0 0 0 0 0 0
          0 0 0 0 0 0
          0 0 0 0 0 0
          0 0 0 0 0 0
          0 0 0 0 0 0
          0 0 0 0 0 0
          0 0 0 0 0 0
          0 0 0 0 0 0
          0 0 0 0 0 0
          0 0 0 0 0 0
          0 0 0 0 0 0
          0 0 0 0 0 0
          0 0 0 0 0 0
          0 0 0 0 0 0
          0 0 0 0 0 0
          0 0 0 0 0 0
          0 0 0 0 0 0
          0 0 0 0 0 0
          0 0 0 0 0 0
          0 0 0 0 0 0
          0 0 0 0 0 0
          0 0 0 0 0 0
          0 0 0 0 0 0
          0 0 0 0 0 0
          0 0 0 0 0 0
          0 0 0 0 0 0
          0 0 0 0 0 0
          0 0 0 0 0 0
          0 0 0 0 0 0
          0 0 0 0 0 0
          0 0 0 0 0 0
          0 0 0 0 0 0
          0 0 0 0 0 0
          0 0 0 0 0 0
          0 0 0 0 0 0
          0 0 0 0 0 0
          0 0 0 0 0 0
          0 0 0 0 0 0
          0 0 0 0 0 0
          0 0 0 0 0 0
          0 0 0 0 0 0
          0 0 0 0 0 0
          0 0 0 0 0 0
          0 0 0 0 0 0
          0 0 0 0 0 0
          0 0 0 0 0 0
          0 0 0 0 0 0
          0 0 0 0 0 0
          0 0 0 0 0 0
          0 0 0 0 0 0
          0 0 0 0 0 0
          0 0 0 0 0 0
          0 0 0 0 0 0
          0 0 0 0 0 0
          0 0 0 0 0 0
          0 0 0 0 0 0
          0 0 0 0 0 0
          0 0 0 0 0 0
          0 0 0 0 0 0
          0 0 0 0 0 0
          0 0 0 0 0 0
          0 0 0 0 0 0
          0 0 0 0 0 0
          0 0 0 0 0 0
          0 0 0 0 0 0
          0 0 0 0 0 0
          0 0 0 0 0 0
          0 0 0 0 0 0
          0 0 0 0 0 0
          0 0 0 0 0 0
          0 0 0 0 0 0
          0 0 0 0 0 0
          0 0 0 0 0 0
          0 0 0 0 0 0
          0 0 0 0 0 0
          0 0 0 0 0 0
          0 0 0 0 0 0
          0 0 0 0 0 0
          0 0 0 0 0 0
          0 0 0 0 0 0
          0 0 0 0 0 0
          0 0 0 0 0 0
          0 0 0 0 0 0
          0 0 0 0 0 0
          0 0 0 0 0 0
          0 0 0 0 0 0
          0 0 0 0 0 0
          0 0 0 0 0 0
          0 0 0 0 0 0
          0 0 0 0 0 0
          0 0 0 0 0 0
          0 0 0 0 0 0
          0 0 0 0 0 0
          0 0 0 0 0 0
          0 0 0 0 0 0
          0 0 0 0 0 0
          0 0 0 0 0 0
          0 0 0 0 0 0
          0 0 0 0 0 0
          0 0 0 0 0 0
          0 0 0 0 0 0
          0 0 0 0 0 0
          0 0 0 0 0 0
          0 0 0 0 0 0
          0 0 0 0 0 0
          0 0 0 0 0 0
          0 0 0 0 0 0
          0 0 0 0 0 0
          0 0 0 0 0 0
          0 0 0 0 0 0
          0 0 0 0 0 0
          0 0 0 0 0 0
          0 0 0 0 0 0
          0 0 0 0 0 0
          0 0 0 0 0 0
          0 0 0 0 0 0
          0 0 0 0 0 0
          0 0 0 0 0 0
          0 0 0 0 0 0
          0 0 0 0 0 0
          0 0 0 0 0 0
          0 0 0 0 0 0
          0 0 0 0 0 0
          0 0 0 0 0 0
          0 0 0 0 0 0
          0 0 0 0 0 0
          0 0 0 0 0 0
          0 0 0 0 0 0
          0 0 0 0 0 0
          0 0 0 0 0 0
          0 0 0 0 0 0
          0 0 0 0 0 0
          0 0 0 0 0 0
          0 0 0 0 0 0
          0 0 0 0 0 0
          0 0 0 0 0 0
          0 0 0 0 0 0
          0 0 0 0 0 0
          0 0 0 0 0 0
          0 0 0 0 0 0
          0 0 0 0 0 0
          0 0 0 0 0 0
          0 0 0 0 0 0
          0 0 0 0 0 0
          0 0 0 0 0 0
          0 0 0 0 0 0
          0 0 0 0 0 0
          0 0 0 0 0 0
          0 0 0 0 0 0
          0 0 0 0 0 0
          0 0 0 0 0 0
          0 0 0 0 0 0
          0 0 0 0 0 0
          0 0 0 0 0 0
          0 0 0 0 0 0
          0 0 0 0 0 0
          0 0 0 0 0 0
          0 0 0 0 0 0
          0 0 0 0 0 0
          0 0 0 0 0 0
          0 0 0 0 0 0
          0 0 0 0 0 0
          0 0 0 0 0 0
          0 0 0 0 0 0
          0 0 0 0 0 0
          0 0 0 0 0 0
          0 0 0 0 0 0
          0 0 0 0 0 0
          0 0 0 0 0 0
          0 0 0 0 0 0
          0 0 0 0 0 0
          0 0 0 0 0 0
          0 0 0 0 0 0
          0 0 0 0 0 0
          0 0 0 0 0 0
          0 0 0 0 0 0
          0 0 0 0 0 0
          0 0 0 0 0 0
          0 0 0 0 0 0
          0 0 0 0 0 0
          0 0 0 0 0 0
          0 0 0 0 0 0
          0 0 0 0 0 0
          0 0 0 0 0 0
          0 0 0 0 0 0
          0 0 0 0 0 0
          0 0 0 0 0 0
          0 0 0 0 0 0
          0 0 0 0 0 0
          0 0 0 0 0 0
          0 0 0 0 0 0
          0 0 0 0 0 0
          0 0 0 0 0 0
          0 0 0 0 0 0
          0 0 0 0 0 0
          0 0 0 0 0 0
          0 0 0 0 0 0
          0 0 0 0 0 0
          0 0 0 0 0 0
          0 0 0 0 0 0
          0 0 0 0 0 0
          0 0 0 0 0 0
          0 0 0 0 0 0
          0 0 0 0 0 0
          0 0 0 0 0 0
          0 0 0 0 0 0
          0 0 0 0 0 0
          0 0 0 0 0 0
          0 0 0 0 0 0
          0 0 0 0 0 0
          0 0 0 0 0 0
          0 0 0 0 0 0
          0 0 0 0 0 0
          0 0 0 0 0 0
          0 0 0 0 0 0
          0 0 0 0 0 0
          0 0 0 0 0 0
          0 0 0 0 0 0
          0 0 0 0 0 0
          0 0 0 0 0 0
          0 0 0 0 0 0
          0 0 0 0 0 0
          0 0 0 0 0 0
          0 0 0 0 0 0
          0 0 0 0 0 0
          0 0 0 0 0 0
          0 0 0 0 0 0
          0 0 0 0 0 0
          0 0 0 0 0 0
          0 0 0 0 0 0
          0 0 0 0 0 0
          0 0 0 0 0 0
          0 0 0 0 0 0
          0 0 0 0 0 0
          0 0 0 0 0 0
          0 0 0 0 0 0
          0 0 0 0 0 0
          0 0 0 0 0 0
          0 0 0 0 0 0
          0 0 0 0 0 0
          0 0 0 0 0 0
          0 0 0 0 0 0
          0 0 0 0 0 0
          0 0 0 0 0 0
          0 0 0 0 0 0
          0 0 0 0 0 0
          0 0 0 0 0 0
          0 0 0 0 0 0
          0 0 0 0 0 0
          0 0 0 0 0 0
          0 0 0 0 0 0
          0 0 0 0 0 0
          0 0 0 0 0 0
          0 0 0 0 0 0
          0 0 0 0 0 0
          0 0 0 0 0 0
          0 0 0 0 0 0
          0 0 0 0 0 0
          0 0 0 0 0 0
          0 0 0 0 0 0
          0 0 0 0 0 0
          0 0 0 0 0 0
          0 0 0 0 0 0
          0 0 0 0 0 0
          0 0 0 0 0 0
          0 0 0 0 0 0
          0 0 0 0 0 0
          0 0 0 0 0 0
          0 0 0 0 0 0
          0 0 0 0 0 0
          0 0 0 0 0 0
          0 0 0 0 0 0
          0 0 0 0 0 0
          0 0 0 0 0 0
          0 0 0 0 0 0
          0 0 0 0 0 0
          0 0 0 0 0 0
          0 0 0 0 0 0
          0 0 0 0 0 0
          0 0 0 0 0 0
          0 0 0 0 0 0
          0 0 0 0 0 0
          0 0 0 0 0 0
          0 0 0 0 0 0
          0 0 0 0 0 0
          0 0 0 0 0 0
          0 0 0 0 0 0
          0 0 0 0 0 0
          0 0 0 0 0 0
          0 0 0 0 0 0
          0 0 0 0 0 0
          0 0 0 0 0 0
          0 0 0 0 0 0
          0 0 0 0 0 0
          0 0 0 0 0 0
          0 0 0 0 0 0
          0 0 0 0 0 0
          0 0 0 0 0 0
          0 0 0 0 0 0
          0 0 0 0 0 0
          0 0 0 0 0 0
          0 0 0 0 0 0
          0 0 0 0 0 0
          0 0 0 0 0 0
          0 0 0 0 0 0
          0 0 0 0 0 0
          0 0 0 0 0 0
          0 0 0 0 0 0
          0 0 0 0 0 0
          0 0 0 0 0 0
          0 0 0 0 0 0
          0 0 0 0 0 0
          0 0 0 0 0 0
          0 0 0 0 0 0
          0 0 0 0 0 0
          0 0 0 0 0 0
          0 0 0 0 0 0
          0 0 0 0 0 0
          0 0 0 0 0 0
          0 0 0 0 0 0
          0 0 0 0 0 0
          0 0 0 0 0 0
          0 0 0 0 0 0
          0 0 0 0 0 0
          0 0 0 0 0 0
          0 0 0 0 0 0
          0 0 0 0 0 0
          0 0 0 0 0 0
          0 0 0 0 0 0
          0 0 0 0 0 0
          0 0 0 0 0 0
          0 0 0 0 0 0
          0 0 0 0 0 0
          0 0 0 0 0 0
          0 0 0 0 0 0
          0 0 0 0 0 0
          0 0 0 0 0 0
          0 0 0 0 0 0
          0 0 0 0 0 0
          0 0 0 0 0 0
          0 0 0 0 0 0
          0 0 0 0 0 0
          0 0 0 0 0 0
          0 0 0 0 0 0
          0 0 0 0 0 0
          0 0 0 0 0 0
          0 0 0 0 0 0
          0 0 0 0 0 0
          0 0 0 0 0 0
          0 0 0 0 0 0
          0 0 0 0 0 0
          0 0 0 0 0 0
          0 0 0 0 0 0
          0 0 0 0 0 0
          0 0 0 0 0 0
          0 0 0 0 0 0
          0 0 0 0 0 0
          0 0 0 0 0 0
          0 0 0 0 0 0
          0 0 0 0 0 0
          0 0 0 0 0 0
          0 0 0 0 0 0
          0 0 0 0 0 0
          0 0 0 0 0 0
          0 0 0 0 0 0
          0 0 0 0 0 0
          0 0 0 0 0 0
          0 0 0 0 0 0
          0 0 0 0 0 0
          0 0 0 0 0 0
          0 0 0 0 0 0
          0 0 0 0 0 0
          0 0 0 0 0 0
          0 0 0 0 0 0
          0 0 0 0 0 0
          0 0 0 0 0 0
          0 0 0 0 0 0
          0 0 0 0 0 0
          0 0 0 0 0 0
          0 0 0 0 0 0
          0 0 0 0 0 0
          0 0 0 0 0 0
          0 0 0 0 0 0
          0 0 0 0 0 0
          0 0 0 0 0 0
          0 0 0 0 0 0
          0 0 0 0 0 0
          0 0 0 0 0 0
          0 0 0 0 0 0
          0 0 0 0 0 0
          0 0 0 0 0 0
          0 0 0 0 0 0
          0 0 0 0 0 0
          0 0 0 0 0 0
          0 0 0 0 0 0
          0 0 0 0 0 0
          0 0 0 0 0 0
          0 0 0 0 0 0
          0 0 0 0 0 0
          0 0 0 0 0 0
          0 0 0 0 0 0
          0 0 0 0 0 0
          0 0 0 0 0 0
          0 0 0 0 0 0
          0 0 0 0 0 0
          0 0 0 0 0 0
          0 0 0 0 0 0
          0 0 0 0 0 0
          0 0 0 0 0 0
          0 0 0 0 0 0
          0 0 0 0 0 0
          0 0 0 0 0 0
          0 0 0 0 0 0
          0 0 0 0 0 0
          0 0 0 0 0 0
          0 0 0 0 0 0
          0 0 0 0 0 0
          0 0 0 0 0 0
          0 0 0 0 0 0
          0 0 0 0 0 0
          0 0 0 0 0 0
          0 0 0 0 0 0
          0 0 0 0 0 0
          0 0 0 0 0 0
          0 0 0 0 0 0
          0 0 0 0 0 0
          0 0 0 0 0 0
          0 0 0 0 0 0
          0 0 0 0 0 0
          0 0 0 0 0 0
          0 0 0 0 0 0
          0 0 0 0 0 0
          0 0 0 0 0 0
          0 0 0 0 0 0
          0 0 0 0 0 0
          0 0 0 0 0 0
          0 0 0 0 0 0
          0 0 0 0 0 0
          0 0 0 0 0 0
          0 0 0 0 0 0
          0 0 0 0 0 0
          0 0 0 0 0 0
          0 0 0 0 0 0
          0 0 0 0 0 0
          0 0 0 0 0 0
          0 0 0 0 0 0
          0 0 0 0 0 0
          0 0 0 0 0 0
          0 0 0 0 0 0
          0 0 0 0 0 0
          0 0 0 0 0 0
          0 0 0 0 0 0
          0 0 0 0 0 0
          0 0 0 0 0 0
          0 0 0 0 0 0
          0 0 0 0 0 0
          0 0 0 0 0 0
          0 0 0 0 0 0
          0 0 0 0 0 0
          0 0 0 0 0 0
          0 0 0 0 0 0
          0 0 0 0 0 0
          0 0 0 0 0 0
          0 0 0 0 0 0
          0 0 0 0 0 0
          0 0 0 0 0 0
          0 0 0 0 0 0
          0 0 0 0 0 0
          0 0 0 0 0 0
          0 0 0 0 0 0
          0 0 0 0 0 0
          0 0 0 0 0 0
          0 0 0 0 0 0
          0 0 0 0 0 0
          0 0 0 0 0 0
          0 0 0 0 0 0
          0 0 0 0 0 0
          0 0 0 0 0 0
          0 0 0 0 0 0
          0 0 0 0 0 0
          0 0 0 0 0 0
          0 0 0 0 0 0
          0 0 0 0 0 0
          0 0 0 0 0 0
          0 0 0 0 0 0
          0 0 0 0 0 0
          0 0 0 0 0 0
          0 0 0 0 0 0
          0 0 0 0 0 0
          0 0 0 0 0 0
          0 0 0 0 0 0
          0 0 0 0 0 0
          0 0 0 0 0 0
          0 0 0 0 0 0
          0 0 0 0 0 0
          0 0 0 0 0 0
          0 0 0 0 0 0
          0 0 0 0 0 0
          0 0 0 0 0 0
          0 0 0 0 0 0
          0 0 0 0 0 0
          0 0 0 0 0 0
          0 0 0 0 0 0
          0 0 0 0 0 0
          0 0 0 0 0 0
          0 0 0 0 0 0
          0 0 0 0 0 0
          0 0 0 0 0 0
          0 0 0 0 0 0
          0 0 0 0 0 0
          0 0 0 0 0 0
          0 0 0 0 0 0
          0 0 0 0 0 0
          0 0 0 0 0 0
          0 0 0 0 0 0
          0 0 0 0 0 0
          0 0 0 0 0 0
          0 0 0 0 0 0
          0 0 0 0 0 0
          0 0 0 0 0 0
          0 0 0 0 0 0
          0 0 0 0 0 0
          0 0 0 0 0 0
          0 0 0 0 0 0
          0 0 0 0 0 0
          0 0 0 0 0 0
          0 0 0 0 0 0
          0 0 0 0 0 0
          0 0 0 0 0 0
          0 0 0 0 0 0
          0 0 0 0 0 0
          0 0 0 0 0 0
          0 0 0 0 0 0
          0 0 0 0 0 0
          0 0 0 0 0 0
          0 0 0 0 0 0
          0 0 0 0 0 0
          0 0 0 0 0 0
          0 0 0 0 0 0
          0 0 0 0 0 0
          0 0 0 0 0 0
          0 0 0 0 0 0
          0 0 0 0 0 0
          0 0 0 0 0 0
          0 0 0 0 0 0
          0 0 0 0 0 0
          0 0 0 0 0 0
          0 0 0 0 0 0
          0 0 0 0 0 0
          0 0 0 0 0 0
          0 0 0 0 0 0
          0 0 0 0 0 0
          0 0 0 0 0 0
          0 0 0 0 0 0
          0 0 0 0 0 0
          0 0 0 0 0 0
          0 0 0 0 0 0
          0 0 0 0 0 0
          0 0 0 0 0 0
          0 0 0 0 0 0
          0 0 0 0 0 0
          0 0 0 0 0 0
          0 0 0 0 0 0
          0 0 0 0 0 0
          0 0 0 0 0 0
          0 0 0 0 0 0
          0 0 0 0 0 0
          0 0 0 0 0 0
          0 0 0 0 0 0
          0 0 0 0 0 0
          0 0 0 0 0 0
          0 0 0 0 0 0
          0 0 0 0 0 0
          0 0 0 0 0 0
          0 0 0 0 0 0
          0 0 0 0 0 0
          0 0 0 0 0 0
          0 0 0 0 0 0
          0 0 0 0 0 0
          0 0 0 0 0 0
          0 0 0 0 0 0
          0 0 0 0 0 0
          0 0 0 0 0 0
          0 0 0 0 0 0
          0 0 0 0 0 0
          0 0 0 0 0 0
          0 0 0 0 0 0
          0 0 0 0 0 0
          0 0 0 0 0 0
          0 0 0 0 0 0
          0 0 0 0 0 0
          0 0 0 0 0 0
          0 0 0 0 0 0
          0 0 0 0 0 0
          0 0 0 0 0 0
          0 0 0 0 0 0
          0 0 0 0 0 0
          0 0 0 0 0 0
          0 0 0 0 0 0
          0 0 0 0 0 0
          0 0 0 0 0 0
          0 0 0 0 0 0
          0 0 0 0 0 0
          0 0 0 0 0 0
          0 0 0 0 0 0
          0 0 0 0 0 0
          0 0 0 0 0 0
          0 0 0 0 0 0
          0 0 0 0 0 0
          0 0 0 0 0 0
          0 0 0 0 0 0
          0 0 0 0 0 0
          0 0 0 0 0 0
          0 0 0 0 0 0
          0 0 0 0 0 0
          0 0 0 0 0 0
          0 0 0 0 0 0
          0 0 0 0 0 0
          0 0 0 0 0 0
          0 0 0 0 0 0
          0 0 0 0 0 0
          0 0 0 0 0 0
          0 0 0 0 0 0
          0 0 0 0 0 0
          0 0 0 0 0 0
          0 0 0 0 0 0
          0 0 0 0 0 0
          0 0 0 0 0 0
          0 0 0 0 0 0
          0 0 0 0 0 0
          0 0 0 0 0 0
          0 0 0 0 0 0
          0 0 0 0 0 0
          0 0 0 0 0 0
          0 0 0 0 0 0
          0 0 0 0 0 0
          0 0 0 0 0 0
          0 0 0 0 0 0
          0 0 0 0 0 0
          0 0 0 0 0 0
          0 0 0 0 0 0
          0 0 0 0 0 0
          0 0 0 0 0 0
          0 0 0 0 0 0
          0 0 0 0 0 0
          0 0 0 0 0 0
          0 0 0 0 0 0
          0 0 0 0 0 0
          0 0 0 0 0 0
          0 0 0 0 0 0
          0 0 0 0 0 0
          0 0 0 0 0 0
          0 0 0 0 0 0
          0 0 0 0 0 0
          0 0 0 0 0 0
          0 0 0 0 0 0
          0 0 0 0 0 0
          0 0 0 0 0 0
          0 0 0 0 0 0
          0 0 0 0 0 0
          0 0 0 0 0 0
          0 0 0 0 0 0
          0 0 0 0 0 0
          0 0 0 0 0 0
          0 0 0 0 0 0
          0 0 0 0 0 0
          0 0 0 0 0 0
          0 0 0 0 0 0
          0 0 0 0 0 0
          0 0 0 0 0 0
          0 0 0 0 0 0
          0 0 0 0 0 0
          0 0 0 0 0 0
          0 0 0 0 0 0
          0 0 0 0 0 0
          0 0 0 0 0 0
          0 0 0 0 0 0
          0 0 0 0 0 0
          0 0 0 0 0 0
          0 0 0 0 0 0
          0 0 0 0 0 0
          0 0 0 0 0 0
          0 0 0 0 0 0
          0 0 0 0 0 0
          0 0 0 0 0 0
          0 0 0 0 0 0
          0 0 0 0 0 0
          0 0 0 0 0 0
          0 0 0 0 0 0
          0 0 0 0 0 0
          0 0 0 0 0 0
          0 0 0 0 0 0
          0 0 0 0 0 0
          0 0 0 0 0 0
          0 0 0 0 0 0
          0 0 0 0 0 0
          0 0 0 0 0 0
          0 0 0 0 0 0
          0 0 0 0 0 0
          0 0 0 0 0 0
          0 0 0 0 0 0
          0 0 0 0 0 0
          0 0 0 0 0 0
          0 0 0 0 0 0
          0 0 0 0 0 0
          0 0 0 0 0 0
          0 0 0 0 0 0
          0 0 0 0 0 0
          0 0 0 0 0 0
          0 0 0 0 0 0
          0 0 0 0 0 0
          0 0 0 0 0 0
          0 0 0 0 0 0
          0 0 0 0 0 0
          0 0 0 0 0 0
          0 0 0 0 0 0
          0 0 0 0 0 0
          0 0 0 0 0 0
          0 0 0 0 0 0
          0 0 0 0 0 0
          0 0 0 0 0 0
          0 0 0 0 0 0
          0 0 0 0 0 0
          0 0 0 0 0 0
          0 0 0 0 0 0
          0 0 0 0 0 0
          0 0 0 0 0 0
          0 0 0 0 0 0
          0 0 0 0 0 0
          0 0 0 0 0 0
          0 0 0 0 0 0
          0 0 0 0 0 0
          0 0 0 0 0 0
          0 0 0 0 0 0
          0 0 0 0 0 0
          0 0 0 0 0 0
          0 0 0 0 0 0
          0 0 0 0 0 0
          0 0 0 0 0 0
          0 0 0 0 0 0
          0 0 0 0 0 0
          0 0 0 0 0 0
          0 0 0 0 0 0
          0 0 0 0 0 0
          0 0 0 0 0 0
          0 0 0 0 0 0
          0 0 0 0 0 0
          0 0 0 0 0 0
          0 0 0 0 0 0
          0 0 0 0 0 0
          0 0 0 0 0 0
          0 0 0 0 0 0
          0 0 0 0 0 0
          0 0 0 0 0 0
          0 0 0 0 0 0
          0 0 0 0 0 0
          0 0 0 0 0 0
          0 0 0 0 0 0
          0 0 0 0 0 0
          0 0 0 0 0 0
          0 0 0 0 0 0
          0 0 0 0 0 0
          0 0 0 0 0 0
          0 0 0 0 0 0
          0 0 0 0 0 0
          0 0 0 0 0 0
          0 0 0 0 0 0
          0 0 0 0 0 0
          0 0 0 0 0 0
          0 0 0 0 0 0
          0 0 0 0 0 0
          0 0 0 0 0 0
          0 0 0 0 0 0
          0 0 0 0 0 0
          0 0 0 0 0 0
          0 0 0 0 0 0
          0 0 0 0 0 0
          0 0 0 0 0 0
          0 0 0 0 0 0
          0 0 0 0 0 0
          0 0 0 0 0 0
          0 0 0 0 0 0
          0 0 0 0 0 0
          0 0 0 0 0 0
          0 0 0 0 0 0
          0 0 0 0 0 0
          0 0 0 0 0 0
          0 0 0 0 0 0
          0 0 0 0 0 0
          0 0 0 0 0 0
          0 0 0 0 0 0
          0 0 0 0 0 0
          0 0 0 0 0 0
          0 0 0 0 0 0
          0 0 0 0 0 0
          0 0 0 0 0 0
          0 0 0 0 0 0
          0 0 0 0 0 0
          0 0 0 0 0 0
          0 0 0 0 0 0
          0 0 0 0 0 0
          0 0 0 0 0 0
          0 0 0 0 0 0
          0 0 0 0 0 0
          0 0 0 0 0 0
          0 0 0 0 0 0
          0 0 0 0 0 0
          0 0 0 0 0 0
          0 0 0 0 0 0
          0 0 0 0 0 0
          0 0 0 0 0 0
          0 0 0 0 0 0
          0 0 0 0 0 0
          0 0 0 0 0 0
          0 0 0 0 0 0
          0 0 0 0 0 0
          0 0 0 0 0 0
          0 0 0 0 0 0
          0 0 0 0 0 0
          0 0 0 0 0 0
          0 0 0 0 0 0
          0 0 0 0 0 0
          0 0 0 0 0 0
          0 0 0 0 0 0
          0 0 0 0 0 0
          0 0 0 0 0 0
          0 0 0 0 0 0
          0 0 0 0 0 0
          0 0 0 0 0 0
          0 0 0 0 0 0
          0 0 0 0 0 0
          0 0 0 0 0 0
          0 0 0 0 0 0
          0 0 0 0 0 0
          0 0 0 0 0 0
          0 0 0 0 0 0
          0 0 0 0 0 0
          0 0 0 0 0 0
          0 0 0 0 0 0
          0 0 0 0 0 0
          0 0 0 0 0 0
          0 0 0 0 0 0
          0 0 0 0 0 0
          0 0 0 0 0 0
          0 0 0 0 0 0
          0 0 0 0 0 0
          0 0 0 0 0 0
          0 0 0 0 0 0
          0 0 0 0 0 0
          0 0 0 0 0 0
          0 0 0 0 0 0
          0 0 0 0 0 0
          0 0 0 0 0 0
          0 0 0 0 0 0
          0 0 0 0 0 0
          0 0 0 0 0 0
          0
        </DataArray>
        <DataArray type="Float64" Name="ScalarGradient" NumberOfComponents="3" format="ascii" RangeMin="0.0032382796937" RangeMax="0.48625002722">
          0.34615709915 0.035251843933 0.1273246833 0.22753139047 0.012891218822 0.048976278387
          0.029145174211 0.020871067329 0.0058110132179 0.096261613562 0.021453915336 -0.029002231151
          0.30355835872 0.037991068491 0.097250622204 -0.18483622999 0.0060422500586 0.019174283012
          0.33507557505 0.030017911063 0.12844809246 0.15699406773 0.042405352699 0.0069905723546
          0.33673292024 0.0053276775549 0.15488692643 -0.19994763664 -0.0037366435862 0.028954479362
          0.27089822707 0.015047426802 0.081106555069 -0.091415796377 0.0053898390555 -0.0027601937716
          -0.15503196977 -0.0081040672307 0.018745408451 0.18450990865 0.025037477958 0.049515909138
          0.30543771256 0.033637385251 0.092336532835 -0.14712842649 -0.010530802908 0.011268211201
          0.29576856297 -0.011047255615 0.09727616959 0.26865314006 0.039386552705 0.067974582963
          0.2983181551 0.038794374969 0.091051499404 0.1776250631 0.029555677634 0.043781393607
          0.34458596272 0.03161997351 0.12264313712 -0.194905369 0.0011843498556 0.023568560016
          0.18954292012 0.044045205678 0.0081974839286 0.27488160028 0.029128732398 0.072242525432
          0.32983435331 0.0028955442588 0.056060184052 0.29778143733 0.039211831203 0.091823200593
          -0.060421271 -0.020001062683 0.018996376421 -0.18997694158 -0.00092455607622 0.01836092506
          -0.022133263461 0.033350359529 -0.0035453736576 -0.12927114787 -0.003910189699 -0.027110027855
          0.36207184736 0.026966041535 0.1266219814 0.26836336839 0.03413803921 0.06237607896
          0.24026757325 0.021953515838 0.045385509236 0.034411000259 -0.010137752074 -0.027600017524
          -0.20396051859 0.0014029017571 0.027358559698 0.18998618142 0.027266145939 -0.035634215622
          -0.10103876346 0.020716651799 -0.01390405604 0.24996451586 0.016901620519 0.052794441859
          0.21517926398 0.0025109871585 0.01319847511 0.2292136614 -0.0017313697515 0.079978181267
          -0.15812701822 -0.010629175706 0.0039735930838 0.16916930974 0.033377905143 0.010313730468
          0.30929947774 0.033368784944 0.10461733923 0.36879579791 0.033429817289 0.13429681429
          0.2483855075 0.0084348273303 0.068975068749 -0.19812419829 -0.0005687986026 0.02671690708
          -0.20096899068 -0.0037895622552 0.025527320775 -0.14675368812 -0.0080428590052 0.018178930118
          0.34545042816 0.031648156246 0.12811720151 -0.18163990024 0.0046418522669 0.016412849157
          -0.16687139574 -0.00070217020856 0.0042283352969 0.16607416215 -0.0028032810161 0.0036124191346
          -0.17548838875 -0.0002251953642 0.034005266422 0.30533377661 0.030048685004 0.096577055649
          -0.17586632381 0.0075553956586 0.036381530464 -0.18491390711 0.0047635341032 0.029073013118
          -0.091724914146 0.0027851459781 0.0027669200153 0.052446468789 0.0055000023764 0.0012643412858
          -0.2031165084 0.0010267403773 0.027877291411 0.17928241853 0.029774785499 -0.003480636571
          -0.19291854877 -0.00060742069883 0.030139243396 -0.16885921277 0.0080347922812 0.021686036526
          -0.16669848085 0.00084918143626 0.0017067789118 0.042963313487 0.015909366849 -0.017908787009
          0.26208192814 0.033412615488 0.081864450317 -0.19858683738 0.0022665922942 0.032541920847
          -0.19433053891 -0.0022164429177 0.024100989155 -0.17697973979 -0.0075230301997 0.019507056234
          0.31633510837 0.036661714673 0.1113599634 0 0 -0.054361555377
          -0.14907827847 0.0068740872961 0.027564515083 -0.14284097643 -0.014826064095 0.020514144375
          -0.034119827438 -0.0086635648132 -0.001080103354 0.11711539339 -0.0091678814043 0.011994465264
          0.30576623312 0.033574240602 0.10399673199 0.22639965981 0.013625055072 0.023614582892
          0.35827672715 0.031060530082 0.13610206975 0.22923495072 -0.25173283768 0.1246003002
          -0.09680685562 -0.025407719444 -0.01236408881 0.070753976964 0.0051341509282 0.024173359268
          0.33319592727 0.033612398056 0.12242433615 0.30911486346 0.03368917677 0.10493207621
          0.16228601827 -0.014026183303 0.0036336252243 0.2294891937 0.023899046357 0.043301143857
          -0.17698068263 -0.0029290455813 0.0071934696042 0.10111939783 0.035444887733 -0.02168204405
          0.10089581863 0.02012494686 0.0017732252689 0.31553952308 0.037255183166 0.10544890449
          -0.19385677054 -0.0004245903778 0.022322938232 -0.19263347699 -0.003570077914 0.024871144239
          0.28029465871 0.021822577647 0.093060910029 0.35644107617 0.020152571841 0.12724323769
          0.36664138671 0.027543020944 0.136131972 0.28964351696 0.032281874394 0.098489473752
          0.2978536278 0.028531314776 0.090447154332 0.19163230969 0.00090680533156 0.010484604819
          -0.029840541719 -0.010395057272 0.0093947690201 0.35779653718 0.033018589968 0.1306956233
          -0.18430563826 -0.0008506060127 0.031176509393 -0.17078251351 -0.0045617431291 0.017261841497
          0.31859794869 0.032599821249 0.11765340156 0.29412158308 0.0083040251822 0.060569934217
          -0.019806861196 0.015965953428 0.021503814209 0.11605260369 0.011245724524 0.02073851915
          0.038146772348 -0.0043874202648 -0.025064615621 0.27510500404 0.029536347347 0.072204351031
          -0.10990856084 -0.025128860579 -0.019435139349 -0.15954931065 -0.0084782583458 0.035880713974
          -0.1817218568 -0.0083637719946 0.015559051216 0.059627271333 0.022064664325 -0.0036803533334
          0.36603009509 0.019844366484 0.14080605173 -0.17436320932 -0.0035543442354 0.034228718634
          0.26113869106 0.036123214169 0.074494782644 0.33061339222 0.034983922252 0.11812007295
          -0.15773150422 -0.0066637594626 0.0055857799378 -0.19155094032 0.0022041025836 0.021153780664
          -0.048876045207 0.0075185233694 -0.0060021494015 0.082611436387 -0.0016699605632 0.029125011409
          0.13098837423 0.032007501197 0.017901302978 0.11097735755 0.010736301581 0.033628566913
          0.36488582089 0.034822847195 0.12138887205 -0.20079219264 -0.0028773189394 0.02634507946
          0.22433454921 -0.0066495194676 0.035411943196 0.11159954241 0.019239850377 -0.025285352629
          -0.18938363356 0.00032490217226 0.0069340853004 0 0 0.057241261832
          0.37199797185 0.023949538994 0.13908596289 0.1116273669 -0.010302386206 0.0076052969572
          -0.17492117556 0.0023874366791 0.013732850101 0.35083112132 0.032239686756 0.1364414969
          0.36136595508 0.041247346409 0.13594979695 -0.08708294841 -0.0021406530612 -0.026521466551
          -0.10143386231 -0.0085603657719 0.011529101697 -0.18452620666 0.00068434589729 0.028541052674
          -0.031448776105 0.014329716795 0.026336365622 -0.15395072432 0.0066474451048 0.0064396671391
          0.3301191135 0.049491969313 0.11189064954 -0.1969934189 -0.00072663767258 0.029824585625
          -0.19006549364 -0.0038629922864 0.018184066745 0.34501040264 0.029137988188 0.12489907407
          0.32167320861 0.032111193224 0.11020652571 -0.20271252705 -0.002662369766 0.027768344037
          0.084325109952 -0.011089657834 0.025056944499 0.18925990761 0.017857051861 0.010057179617
          -0.16690974112 0.0017974909746 0.0064393395624 0.15484597136 0.030119572108 -0.023961184974
          -0.16054994109 -0.013688087009 0.026374357764 0.29967967891 0.02692735684 0.089894416048
          -0.037650398769 -0.0014868136749 -0.033129663285 0.14204444334 0.070789085335 0.018506418428
          0.18153396884 0.0073571796427 0.027030799726 0.19570366722 -0.0010575807817 0.039173257054
          -0.084419495791 -0.0047218882455 0.018467286124 -0.10932260192 -0.0062385448264 0.027069765881
          0.18969431321 0.0072945057508 0.026811268751 -0.18975771409 0.011079808593 0.02651995762
          0.27931068189 0.020469717447 0.068944277569 -0.20022059745 -0.0030936327119 0.02577704026
          0.30241895265 0.035982987198 0.095561077826 -0.1655797943 -0.009078745285 0.026500624192
          -0.11680572848 -0.0057720617633 0.026031602516 -0.10779220837 -0.00085418301921 -0.017004753067
          -0.17483387963 0.0061607301103 0.0061646144817 -0.20088889365 0.00060020494047 0.024740723549
          0.33286635299 0.035311644567 0.11681091879 0.33551021683 0.029955996529 0.11518842815
          -0.12897585031 0.0064166583004 0.027209921897 0.29369719896 0.039893137343 0.089785779292
          0.079428767825 0.046092447151 -0.01856685083 0.29272441312 0.026780553358 0.080673524813
          -0.11735130269 0.0052487984238 0.017823643598 0.3641519382 0.025994666003 0.14908498076
          -0.10174208744 -0.010081194548 0.0010384577929 0.29933843844 0.037147884006 0.091891052914
          0.17666863161 0.022954253507 0.024396974691 -0.18979185598 -0.0088972005613 0.020140286487
          0.32817408368 0.02819086759 0.11297716165 0.34564002515 0.030790151249 0.1239759052
          0.19999681193 0.032243446962 0.0010152614938 0.025771928326 0.034382491112 0.024885405513
          0.35888262217 0.032078246591 0.13041194718 0.34733199428 0.040435957306 0.13257546643
          0.045356931569 0.037361946923 0.015285707071 0.15547099103 -0.015170821284 0.023788268768
          -0.10215989306 0.012143750325 -0.017605326918 -0.19812888254 -0.0036811491739 0.028561817593
          -0.18434603747 -0.0029916819001 0.014765426103 0.25401975761 0.024890544389 0.060820723619
          0.31135877277 0.033559028437 0.095266083184 0.2827226464 0.025770432762 0.09103771202
          0.30931022149 0.030171818369 0.10972081475 0.093782121226 0.029392685616 -0.018092816203
          -0.096090446508 -0.0061544188441 0.01822834293 0.11573466061 0.0025951905821 0.029951116752
          0.11362693576 0.0052972188105 0.043096300602 0.1881886419 0.02272384099 -0.015189418448
          0.090435991648 0.025261810984 0.0098979834935 0.18269930003 0.046119415981 0.032391301417
          -0.15338928985 0.0064269418458 0.0088561088522 -0.19988252605 -0.00095698709799 0.029556411353
          0.23142212614 0.01310822081 0.034124529763 0.30953091974 0.024618243306 0.077743442017
          0.30092825009 0.027389267165 0.086279213276 0.046235749208 0.010346022742 -0.029915717082
          0.33171955135 0.030298820268 0.11818003625 0.25447826785 0.033891300388 0.086623077551
          -0.19386743273 -0.004032888603 0.03250355698 -0.19289146206 -0.0010718147983 0.022468917781
          0.22724705853 0.002680992869 0.0026152775558 -0.057836071862 -0.0056569847885 0.002730444826
          -0.17335661827 -0.0012393943944 0.02276081433 0.29770851888 0.026324895389 0.085799831746
          0.15886434421 0.0035088908992 0.045426702916 -0.1978873603 -0.0001619636003 0.026856359554
          -0.082391339758 -0.0061420565984 0.015632722985 0.17981881262 -0.019137314823 0.059918706879
          -0.14033057471 -0.012743289681 -0.0079517505339 0.27856865047 0.026851087528 0.068753486326
          -0.15785718694 -0.006310432614 0.006101122451 -0.11128624038 -0.025104543304 -0.024807846133
          0.32045449353 0.03295404909 0.11155253661 -0.20204021499 -0.0011071765967 0.02895641993
          -0.085152224155 -0.0049689795825 0.0082362747643 -0.15395126553 -0.0090582839965 0.0032031678217
          0.37142211461 0.024147098054 0.13900584766 -0.13903290844 0.0031612760649 -0.0019258625148
          0.31901038968 0.03050404375 0.0998316294 0.17990290689 0.012558218954 0.040031635704
          -0.15061769869 -0.0021594968577 0.017531335102 0.25702278715 0.087364574547 0.040485946142
          -0.12943248966 0.0066481207275 0.027202520739 -0.12466266811 0.011241338607 -0.0015936746055
          -0.13918661102 0.0027686786229 -0.0034002299135 -0.19621178291 0.0015871911858 0.023829754995
          0.36249159421 0.031617250901 0.14122459011 -0.11277347455 -0.0085520954884 0.024974629448
          0.36980558013 0.031218502266 0.13513818945 0.34608086695 0.027562185594 0.12607924141
          0.28567701954 0.031582261701 0.082382650842 -0.093969246872 -0.011193643774 0.030318240672
          0.21709794222 0.031740994851 0.07192118842 -0.19650572094 -0.005177507518 0.031209709623
          -0.14010046194 -0.006555891504 0.010097484133 -0.20085208576 -0.0018492035435 0.026342122082
          -0.19842904474 -0.003945084698 0.025125680717 0.30585885228 0.029734604996 0.096478371354
          0.35035328421 0.038355223499 0.13037971969 0.13199131783 0.022511610382 0.023416183901
          0.21549052963 0.0092328540938 -0.013125932592 0.35612648766 0.02876415014 0.13526761355
          0.30407269177 0.021600955184 0.1009158105 -0.19887553143 0.0034022379396 0.027505464601
          -0.088774441507 0.017277767559 -0.023286416576 0.29930191405 0.03118072674 0.088819342246
          0.13035568044 0.008447755312 -0.0066037015892 0.21511530192 0.018229356601 0.065021895736
          -0.17140009363 0.013250240276 0.013835184495 -0.13692053679 -0.0044573871206 -0.0062182673264
          -0.11382790169 -0.0046984012474 -0.026731935758 -0.19653214087 -0.00036911516757 0.029752744902
          0.24276168646 0.022202769116 0.087433444885 -0.14601197126 -0.0047717188881 0.015037544866
          0.32857390651 0.0074178178476 0.13143416914 -0.11365830134 -0.0088597099728 -0.026731343213
          0.26425304201 0.014564785665 0.065475647453 0.20619851067 0.02608010527 0.029651938698
          0.37254116177 0.032353172789 0.12009472509 0.36572983912 0.027628679524 0.13586133087
          0.32017804438 0.017190023957 0.085124516691 0.31140105335 0.035002812261 0.11245627776
          0.24398190602 -0.012682044141 -0.099058961517 0.28893574141 0.029702823912 0.078186415879
          -0.055986132573 0.02926240358 0.02000160819 -0.076238547355 0 0
          0.19227832335 0.018822551647 0.0098722308634 0.18828629287 0.015285123016 0.01945394005
          0.36614126097 0.029420178567 0.13503860091 0.29407553392 0.033416287589 0.084991338814
          -0.14268249651 0.0078098951552 0.02304816383 -0.2016667572 0.00044129916362 0.032664391605
          -0.1905976677 -0.0062749286904 0.018579963316 -0.17117567258 0.0070499589761 0.027752324576
          0.18897286517 0.018431425466 0.010096931172 0.24482094323 0.02622233889 0.074541835692
          0.16783626307 -0.0025942236304 0.029072257819 0.30602288407 0.028452580652 0.10528298178
          -0.1652638505 -0.0080979322316 0.028762928895 -0.19099086927 0.0083811423939 0.022296285664
          0.22808513175 0.020061964153 0.043899826608 -0.09566682267 -0.013769684292 -0.035163872846
          -0.19822799353 -0.0009813436659 0.029510424512 0.24921173091 0.027676525107 0.082052573203
          0.2984430454 0.017471555009 0.10936052703 0.29503029038 0.023323811398 0.08550280651
          0.31825880234 0.036334460789 0.10559244054 -0.19623419589 -0.0048954855485 0.022870995809
          -0.096789472716 0.015677329967 -0.018648954761 -0.19350804225 0.0044318012647 0.032225220901
          -0.17773263362 -0.007700953981 0.024980821537 0.28853487148 0.029994317029 0.089814862388
          0.19531058855 0.2018322906 0.095802043235 -0.01453863265 0.010987536719 0.0062206350982
          -0.18175437811 -0.0093464550392 0.015133606396 -0.093782879395 -0.0069289056618 -0.02596565362
          0.304168224 0.028818986927 0.10089964345 0.36613257588 0.029957274786 0.13623302398
          0.34420269099 0.032736003437 0.12324278945 0.36034848839 0.024505258715 0.13272126928
          -0.12704528818 0.009355159205 -0.0077297947775 0.2797301113 0.032182794446 0.075271115847
          0.25036303756 0.035408976604 0.083161515116 0.311715198 0.026618329506 0.099963442348
          0.054488731336 -0.0045571537841 0.022899136568 0.33889450881 0.014828680844 0.11127937948
          0.30064580319 0.037658567984 0.088765903896 -0.09254350246 0.014611785895 -0.02091334686
          0.35803379211 0.035680376692 0.12952266546 0.18509323747 0.023711570196 0.023806782274
          -0.17077271821 -0.00020749868191 0.0039180526272 0.16427815138 0.034143006049 0.02063474724
          0.1757765323 0.025081753299 0.029958502658 -0.18614309844 0.0030730221506 0.032984462168
          -0.15950533905 0.0069561039617 0.017078213903 -0.13056987861 0.00072483290108 -0.014025193203
          0.25224899518 0.016902799369 0.063569147438 -0.14003514219 0.0066936816111 -0.0062995227818
          -0.013940870915 0.010153754417 0.011094743526 0.32411076015 0.040737312419 0.13267074776
          0.24560900891 0.02809944709 0.04767326724 -0.20239792253 -0.0012889410486 0.029624930703
          -0.072010622932 0.025565832162 -0.00012002868263 -0.19032656599 0.0028623887894 0.024385522131
          -0.16154331284 -0.0087417013571 -0.00079790142411 0.1759154542 0.032136762669 0.034246823857
          -0.17175244149 -0.0048156951411 0.010259257619 0.35301851053 0.030995508158 0.13428188531
          0.20681030051 0.032339374484 0.039772887459 -0.038515755053 0.018761553611 0.019340039723
          0.30066967957 0.034705676381 0.088311414419 0.19300623141 0.010725700681 0.0158416472
          0.3175389237 0.03368827311 0.10517292107 0.1009663899 0.019949814023 0.0020659567356
          -0.18671265356 0.001924041631 0.017297583407 0.16097571217 0.0062654363598 0.045902119627
          -0.19694117869 -0.00079370599979 0.02943583792 0.36473657807 0.030415850095 0.13564242203
          -0.076238547355 0 0 0.17909160767 0.027738838353 0.03301321383
          0.15882610779 -0.026871947999 0.045011431217 -0.17861987467 -0.012779688123 0.031317188761
          -0.079781156773 -0.010577965549 -0.0052345647935 -0.079895391377 -0.012394720193 -0.013339853994
          0.30172971856 0.0032367818839 0.077517385135 -0.17015928262 0.0066006224303 0.010116722438
          0.19386024189 0.006046622819 0.048356554858 0.089542534275 0.011813185073 0.025387571283
          -0.090337597427 -0.0047248514281 0.01703328063 0.36880139725 0.026311588405 0.13835921035
          0.3320791593 0.033390459772 0.10512614213 0.3232390611 0.033202095204 0.10867295008
          0.29760887572 0.025419600511 0.090432683407 0.36684693531 0.031894686526 0.13189188488
          0.3586039182 0.030831992836 0.13086245233 -0.18076467666 0.0059948287485 0.018407150175
          0.30033951588 0.023235758972 0.090769985353 0.31888292891 0.035007141721 0.11242108289
          -0.087169591869 0.017870665971 -0.018029382107 -0.094631091582 -0.021448638722 -0.025934253157
          -0.16530783384 -0.01059809171 0.021466799589 0.13024261435 0.020019247475 -0.014539485462
          0.19175162086 -0.00078629730013 -0.0051980400754 0.30259380522 0.032202312542 0.090767713366
          -0.20108060669 -0.002362686797 0.028902611918 0.32996963534 0.028368230075 0.111849436
          -0.13654022997 -0.010747832407 0.010693390553 0.36395003873 0.034032473924 0.13672170352
          -0.12179022042 -0.0064303836386 0.0027911032106 -0.13716246623 -0.0081677464616 0.025014278202
          -0.19936307566 -0.0038294343792 0.027328292377 0.35332210517 0.028282842735 0.12934960687
          0.2947438388 0.032654904892 0.09799575218 0.32172619176 0.028468989816 0.11124879789
          -0.090676616471 -0.016376887843 0.0046127883251 0.262432521 0.026244470512 0.057873928703
          -0.19795155146 -0.0012781617693 0.024929704052 -0.10305338961 0.019759798696 -0.014162185537
          0.29882355849 0.0017479832837 0.056592697702 0.28584104448 0.031121801517 0.083294003766
          -0.150672303 0.0054987929845 0.030631471315 0.30576454386 0.036774352425 0.10907212742
          0.18857545933 0.020789615255 0.026772361098 -0.11905270841 0.0072802596227 0.011578726212
          0.36474734217 0.02789592281 0.14160194321 -0.066790455918 0.0058543754927 -0.020089949237
          -0.19142897173 -0.0019460543854 0.022265835913 -0.19571445264 0.0024964552734 0.026770412283
          0.22860265952 0.010163438755 0.064234564701 -0.19426494005 -0.0010098476637 0.030270459503
          -0.087384341231 -0.0045073823098 0.027979048571 -0.20000419868 -0.0041307359166 0.027654677264
          0.18987225558 0.0042261421362 0.021030773043 0.23898972077 0.037528222336 0.057351774157
          0.30315975912 0.034292486728 0.10461056989 0.25146530395 0.026258285797 0.070514830831
          0.16168614801 -0.0047090091855 0.0083387708982 0.28036874455 0.018199199395 0.068760066051
          -0.037537229263 0.018627739671 0.017536092588 -0.17451496528 0.01108857336 0.035763261965
          0.24177601657 0.0043643752764 0.052003672104 -0.19805037716 -0.0029703278949 0.023838064689
          -0.20077518187 -0.001947336756 0.026551947924 -0.19257693158 -0.0048015948162 0.020691903434
          -0.17195760791 -0.0046823482851 0.018345629489 -0.20218047322 -0.0024614418117 0.028294357822
          0.17000927053 -0.015714572487 0.029826346837 0.32095615388 0.022212348903 0.12460334688
          -0.19214603904 -0.0051568515934 0.023107895285 0.11619920782 0.017764595786 0.029927506164
          -0.13031524083 0.010449164048 0.00055038316227 -0.1902759362 -0.0088463582133 0.023420414378
          0.29361944962 0.03586973545 0.088393734562 0.25441472646 0.087047513334 0.042063951834
          0.090295160164 -0.00566384105 -0.023560587637 -0.16259283298 -0.0073860425914 0.0095371831753
          -0.080647129946 -0.0077703804318 0.0010980202451 0.30411650837 0.03778837242 0.10688443176
          0.056757118295 0.037584580322 -0.013264990157 -0.20113068793 -0.00085927087166 0.027721308762
          0.35985801752 0.026374559978 0.15267177575 -0.19336821155 -0.0015566367596 0.020701147351
          0.31821116233 0.030349410808 0.11201696337 0.18990849772 0.012318719106 0.045688447128
          0.29677877281 0.02925490129 0.083662493301 0.29626893767 0.0315678186 0.085296244593
          -0.19839123144 -0.0017625505077 0.021381483252 0.27085499688 0.032460761789 0.074217282125
          0.36498549687 0.036273892484 0.13778090376 -0.19600776946 -0.0042655141219 0.034017775797
          -0.19795218721 -0.0013077277486 0.024921577552 -0.075973633177 0.005432421931 0.0049831189057
          -0.049110103582 0.0076762767791 -0.0049787083721 0.22335853192 0.0004323286783 -0.010966292434
          0.28653336215 0.021123565616 0.073157234776 0.15476521087 0.029288412275 -0.00089880682943
          -0.19858195707 -0.0003442529865 0.026746338176 0.26646731907 0.020729213966 0.051685849385
          -0.17883703278 -0.0096819446111 0.021768830001 -0.1281084974 -0.018854114144 0.022537028285
          0.34247628218 0.033723456334 0.1341834321 0.23078210474 0.016173111612 0.06491314985
          0.37252457538 0.026069281326 0.13607538936 0.19278955934 0.029169819794 -0.0066261045479
          -0.12989090599 -0.0073533450654 -0.0015246729976 -0.18687970008 0.00059920565396 0.026721840424
          -0.12505212946 -0.010012208989 -0.015997765186 0.29943416169 0.0360017218 0.094965587004
          -0.19097606592 -0.0049880532149 0.025716034459 -0.10154751684 -0.0079599099128 0.004763426565
          -0.17872231394 -0.0082905792552 0.0082038311023 -0.10156200747 -0.010231462724 0.0010723254754
          -0.18333262232 -0.0029772496398 0.019768344102 0.19698604732 0.044991341046 -0.031387267118
          0.065290104563 0.04050113202 0.024192364541 -0.11247667393 -5.5304689169e-05 -0.0040408762883
          0.29662217995 0.037904354674 0.090671447002 -0.19093793956 0.0014618580535 0.033441842829
          -0.199033864 -0.0027245802848 0.029881870736 0.29715352114 0.031159687415 0.089963374632
          -0.14729631127 -0.012024498736 0.011277523308 -0.16135425018 -0.014427519225 0.026785626115
          0.19431695371 -0.0016931382131 -0.043136232195 0.23718504876 0.02529711973 0.033353166231
          -0.18739447435 -0.0022382484278 0.016367780222 -0.091593844054 0.013629232297 -0.010525435144
          0.22269828173 0.046947033017 0.045144220776 0.35611578343 0.027719622964 0.13582417223
          0.34293436548 0.0338205916 0.13298734958 0.24539066402 0.0034350804781 0.043996217814
          -0.18258552671 -0.0029689675786 0.013065023715 -0.063179380226 0.0048249540319 0.0020923618825
          -0.19850753707 -0.0038263917713 0.028559685916 0.029042715755 0.03150239493 0.0039788761804
          -0.094243988097 0.016456923504 0.032622933814 0.20354204305 0.028575652435 0.037469850479
          0.024941827594 0.028702138478 -0.051854690922 -0.19061949051 0.0012727834191 0.020333678306
          -0.087898232038 0.00086649651532 0.020708898755 0.28955173286 0.036442329691 0.090429485877
          0.37063432865 0.02426539219 0.13305112771 0.33840284236 0.011496387337 0.11361988296
          0.35229511404 0.028197146914 0.13408754132 -0.056932938246 0 0
          0.11314568615 0.054969942767 0.069601255673 0.35530209609 0.033701009813 0.13612905004
          0.19201961385 0.034987077111 0.014667590419 0.25523877426 0.014052726476 0.048352793041
          0.31437661836 0.036610669284 0.10289221566 0.08884340416 0.029071961254 -0.012673815187
          0.33216452159 0.033267301496 0.11805703774 -0.16375028078 0.0052639292669 0.01589165394
          -0.1845609526 -0.0023913998013 0.029920183126 -0.19777862795 0.0018679066883 0.03234632238
          -0.18421728338 -0.0033975487913 0.018375981612 0.36089816538 0.036269674433 0.12950397465
          0.29442848246 0.037564334424 0.098315436974 -0.17795306536 0.0028769666936 0.014259942748
          0.357969881 0.023954768427 0.13461517712 0.16383659672 0.00032899204886 0.0023762771858
          0.27243668628 0.010016427794 0.074498138227 -0.1377532544 -0.010362203249 -0.0088406324987
          0.025512527212 0.021079425426 0.022118112314 0.34487873743 0.029707249841 0.12546933756
          -0.1357684188 -0.012145597569 -0.0091956805612 0.18082302664 0.023117365929 0.025857061523
          0.15743083301 0.012098982268 0.047878631056 0.36596038996 0.035383447396 0.12745414022
          -0.19415972996 -0.0019693151988 0.022416220181 -0.1917576233 -0.0027703534193 0.021741596286
          0.29998317927 0.024613682867 0.10327314042 -0.20170655885 0.0013986526276 0.023875722874
          -0.14288148557 -0.011674751301 -0.0023231181485 0.33078962587 0.03741080896 0.12633008403
          0.22689290311 -0.018464693911 -0.011805642338 0.29387569138 0.036534349471 0.085107557779
          0.16623949037 0.00068229398748 0.0048711939563 -0.11161717341 0.006767928397 0.0059317997536
          -0.13709546399 -0.014003872237 0.0049817487846 -0.15755080585 -0.0028009186915 0.012004669491
          -0.090187516048 -0.0055156639125 0.018384548035 0.35740717971 0.036174266072 0.1356277935
          0.34605355679 0.035067352686 0.13087448174 -0.19462487292 -0.00029773956386 0.031610881252
          -0.15586611656 0.0053869045617 0.0026097602582 0.16434688901 0.014927365933 0.035790582286
          0.27052098026 0.032157789867 0.079721582034 -0.16517259805 0.0058541507907 0.025200304936
          0.23438707763 0.021405470186 0.070968714499 -0.19654489072 -0.00072508134561 0.031630044188
          0.17318495319 0.037490676818 -0.00027046179424 0.31192718075 0.0084284579489 0.098371210334
          0.31071701506 0.035505917321 0.11280637086 0.36412384683 0.031604275592 0.13654328257
          -0.0093118873357 0.032178792547 -0.057491773589 0.35483321987 0.029991060162 0.13363356442
          0.21995270257 0.095527233282 0.16756502504 0.17617390065 0.035736979503 0.039426346167
          -0.19615684974 -0.0011513109499 0.032002818994 -0.059305251458 0.013487950467 0.0023845134435
          -0.18159361646 0.0018995689253 0.025115681746 -0.13900589323 -0.009598631025 -0.01293551532
          0.36569613783 0.035586463138 0.12803043837 0.13054984695 0.0014525696033 -0.035184203675
          -0.12281869264 0.014421892562 0.026444128855 -0.19936117732 -0.0030467861473 0.025928547874
          0.13568493943 0.0035926193303 -0.027828332714 -0.1300580004 0.014844581382 -0.0040557123804
          0.32871405058 0.029170393231 0.12049584189 -0.15624862745 0.0017049846842 0.030547878483
          -0.093986909285 0.014106318648 -0.014024296042 0.04353958879 0.013123816831 0.012061173392
          0.24034481268 0.038211676892 0.055904830762 0.26349388578 0.037074574457 0.082355665172
          0.27331976333 0.037221615067 0.081851197845 0.015416296334 0.027703532281 -0.0092493748445
          -0.030202357969 -0.0011615054502 -0.029746605911 -0.17564751498 -0.0066925850474 0.0069889274301
          0.25415859614 0.011232679944 0.048973558136 0.067677336081 -0.020975351088 0.0040539716859
          -0.094707206687 -0.014074190482 -0.023245272808 0.13750188387 0.038512541554 0.016453399259
          0.27537103964 0.011458555612 0.08216341856 -0.18402077782 -0.0032663179298 0.03150859531
          -0.066299822043 0.022207325196 -0.035082777512 0.18692869283 0.036592200714 0.01713234085
          0.34403184787 0.032473199827 0.11044963179 0.33424160859 0.031163121165 0.1249605726
          -0.16780642334 -0.016085460823 0.017949800327 0.1187266037 0.043973700957 0.038294552897
          0.14906272709 0.032460589145 0.02038832395 -0.19239759478 0.0018222455141 0.024928215937
          0.23245112954 0.023684699771 0.069112527956 -0.067515786348 0.0019205282294 0.025446070605
          -0.054147883451 0.0064562155939 0.017433903553 -0.20030424323 -0.0018353375195 0.024863770682
          -0.14003674588 0.0056423437638 0.021943953671 0.28470578752 0.020860595283 0.096886919125
          -0.1611124736 0.0039881762675 0.012662281618 -0.15087584004 0.0021835159447 0.036709487365
          0.2383141624 0.036865434467 0.031628246365 0.18886531291 0.025014179841 0.0041238423947
          0.17511961407 0.033385218033 -0.00044862088918 0.34238064146 0.030277479498 0.1314198414
          0.11981318539 0.0093619589154 -0.028468506789 0.32954788159 0.007504467028 0.095249030192
          0.091858228944 0.020539193966 0.04497112274 0.16382548597 -0.02819924286 0.018898243718
          0.368836148 0.013563470956 0.1218080062 0.029903823335 -0.010186593888 0.026554104352
          -0.094222420184 0.011787121341 0.0058397749397 0.30990432268 0.037165362572 0.11263278228
          0.069176863324 0.019525199273 0.010142467364 0.36445112685 0.025196112913 0.14499150145
          0.031958971327 -0.0032851110009 0.027086235977 -0.14410118916 -0.0081865279488 0.019832148227
          0.13636745784 0.074410935632 0.12681305298 0.26016267081 0.043338734312 0.078018431088
          0.21660571116 0.023628022392 0.068458976765 -0.12734495035 0.012156502676 -0.0092746173283
          -0.087147965947 0.0027355910198 0.037692195703 -0.10257168079 -0.00079299338858 0.015015409233
          -0.19144236564 0.0023988495603 0.021061827266 0.29935373181 0.038312728635 0.098453039247
          -0.13509648711 0.0058577065612 -0.006936417277 0.088750573492 -0.0077797204223 0.015517088692
          0.19207387602 0.017739078406 0.040007051354 0.0047244844728 -0.0086904312696 -0.033259058832
          -0.18824149895 -0.00055852294859 0.017252062755 0.072552231046 0.037225629166 -0.017433842843
          0.25112488327 0.013421755492 0.085372690458 0.036978374713 0.029470033861 -0.049790274414
          0.18858531346 -0.0078898045872 0.014739816158 0.16398350258 0.0075611934845 0.0034774818483
          -0.19298545802 0.00048728158713 0.029886799407 -0.19218706763 0.0016315579557 0.02488385677
          0.31852542661 0.031053082171 0.11095541475 -0.16306641012 0.0064423558823 0.016935158774
          -0.15748702603 0.0042722978653 -0.00052036183853 0.094127683507 0.016388870842 0.016127842386
          0.36865435375 0.026436066696 0.13857614389 0.015268997875 0.027206335542 -0.0084452885391
          0.35649742244 0.023208916264 0.13351866184 0.35094706471 0.035952859047 0.11505409338
          0.1807880071 0.0039501496947 0.035352269301 0.2856906488 0.013376682599 0.085045824156
          -0.024970960982 0.0062559369835 -0.018545151305 0.13589891121 0.0022939374172 -0.026078067686
          0.35848123633 0.027961226945 0.1410986341 0.1728214609 -0.0083731301536 0.043474730069
          -0.19953347613 -0.0028641642629 0.027797566941 -0.19507117706 -0.0038795310038 0.020878381671
          0.34835733542 0.033117169339 0.12444601699 -0.17599857573 -0.0059502981492 0.034723884906
          0.31926092915 0.0044262039324 0.078661144761 -0.18750049771 0.0036917644649 0.017651626517
          0.29791243704 0.032529068766 0.091964633325 -0.16535377741 0.0062060397689 0.01970355816
          -0.18618476069 -0.0014483857447 0.03125658374 -0.20301398114 0.0019834137367 0.026389526696
          -0.082214215065 0.009854496561 -0.016109079083 -0.026111428135 -0.017206746724 -0.031107166175
          0.34017613805 0.024882377775 0.11303836717 -0.1946317021 0.00015824193715 0.027583788281
          -0.19777310578 -0.00065585294382 0.025778279633 0.35487022181 0.029007609755 0.13220618587
          0.23103781626 0.02853196768 0.050566700488 -0.00010380930638 0.016156357988 -0.05073782143
          0.27942627488 0.020354453974 0.092141231052 0.28893736707 0.029088348795 0.086393186646
          0.3494189542 0.030385997067 0.13912951822 0.34798462707 0.029897140123 0.13904480689
          0.19092246607 -0.0029481549205 -0.0097721457233 0.19385843654 0.018151030938 0.039104154797
          -0.19453499661 -3.643546562e-05 0.022853585128 0.34829391599 0.029249136819 0.14004133239
          0.17264656021 0.023601001127 0.052182491189 -0.16074640031 -0.013952461009 0.027135163952
          0.28556358717 0.038870876682 0.079655186308 0.35307255964 0.031258608976 0.12121691205
          0.34079961654 0.030298459054 0.13165773382 0.13183950044 0.022505693589 0.023547632699
          -0.20171222822 -0.0016665017159 0.02587699867 -0.11861203097 0.012174479649 -0.019507017151
          0.0025869895775 0.0084078616332 -0.0027522482705 0.28207325713 0.027480713352 0.070103683558
          -0.089479917024 -0.0032527974042 0.018815271801 0.26593477058 0.0076320240367 0.084712823845
          -0.19984020209 0.002939997595 0.028477806737 0.18298874327 0.016892220724 0.02405926168
          -0.16609833582 0.0082484019117 0.011932332748 0.1640605444 0.0024317378666 0.049606470861
          -0.10614043878 0.014407890843 -0.020590558489 -0.16152435464 -0.010253031963 0.0037044519354
          0.18087521094 0.003694719688 0.035278660523 0.30527649657 0.032157396127 0.096396528792
          -0.14786030307 -0.0078034625606 0.017188621587 0.29140547636 -0.0048968329793 0.080669608974
          0.36156460044 0.022007029517 0.13530880966 -0.20209023348 -0.0029490660154 0.027557211883
          -0.11603160437 -0.0040747107741 -0.0030941152218 0.25161688745 0.016646551114 0.077374858578
          0.2691620656 0.024433316161 0.076907021712 0.2619934181 0.026507706372 0.058003051384
          0.28313493317 0.03698360733 0.11490029303 0.25465566407 0.021682862039 0.050009448948
          -0.19956625193 -0.0019442574289 0.027050300499 0.16899693183 0.016331575464 0.058244696477
          0.35573158355 0.033496768621 0.13318016742 -0.067823447915 0.0070775035669 -0.021605097676
          0.33326813926 0.033749381789 0.12237418072 -0.097242248316 0.0014079720834 0.021313481519
          -0.20268214738 -0.00063959524992 0.028981578275 0.17315272811 0.027093831538 0.055990971135
          0.35952839026 0.018513064183 0.14409924695 0.36276000214 0.03605161642 0.12520789055
          0.36471326393 0.02994262552 0.13067351157 0.3174345097 0.034041988803 0.11785183016
          0.21514474685 -0.01219799248 0.031358514601 0.12148803703 0.01138394032 -0.0032969153127
          0.36467872354 0.026302020555 0.14532052614 -0.19497000315 -0.00044030980803 0.027001693416
          -0.1988278124 -0.0015942276338 0.030041016046 -0.1965969254 -0.0010715430987 0.02749509171
          0.23237390169 -0.00030220870186 0.025642872036 -0.20483305301 -0.000181954895 0.026380746099
          -0.16324487598 0.0065481842469 -0.0030621916985 -0.090594870676 -0.00084594113461 -0.030957476433
          -0.20013564633 -0.00041349685459 0.02475165381 -0.094309553844 0.01656697979 0.032485286333
          -0.19485254718 -0.0025078256091 0.030731460004 -0.076342859295 0.013274830921 -0.028126449076
          0.33255611141 0.033424290985 0.11788499646 0.24897719837 0.022991001923 0.084089898716
          0.20998341963 0.021474024323 0.067661252883 0.26597648942 0.028635656055 0.080997493273
          0.12252783721 0.10365328861 0.031395121728 -0.10727137398 -0.0043791850921 0.028449364411
          -0.086425045519 0.014590671729 0.012669630515 0.35619365699 0.028411243987 0.14315135606
          0.014476075996 0.028243512734 -0.0097286249475 -0.17112447835 -0.0080329448845 0.010484090854
          0.35541701347 0.036698681553 0.13551775057 -0.18300945931 0.0016963054515 0.025968305916
          -0.10889515618 -0.0023984785734 0.0093062088383 -0.19758066887 -0.0040355112564 0.029551894
          0.36397932301 0.032484906978 0.14298536609 0.06942580221 0.033111854015 0.02291150453
          0.29874773322 0.035968482889 0.090085045903 0.17529842012 0.087815613788 0.021130245203
          0.2818501793 0.040474935939 0.080227716259 -0.14426083642 -0.009216276477 0.0083469993322
          0.19159841992 0.022915444159 0.011456920542 0.26200188357 0.02454998738 0.059514259713
          -0.13909758526 -0.003671441694 0.022518547499 -0.18995443884 -0.0012095000748 0.018733036813
          0.28447528143 0.028613047523 0.080089507906 -2.4678916906e-18 6.4909990479e-18 -0.027017548347
          -0.20204658314 -0.003951763336 0.025769906209 0.20746496028 0.029799960144 0.016410630471
          -0.09657436446 0.016342390456 -0.019303530289 0.3452175691 0.036550458875 0.12270340228
          -0.20147473343 -0.0021634605361 0.026643637807 -0.19861214075 -0.0021848473882 0.023480013615
          -0.19596479071 0.00086022704844 0.025089783755 -0.17831201946 -0.011896005344 0.0093287853107
          -0.20063857807 -0.0021107975925 0.028875849735 0.022367092247 -0.008761612533 -0.038960314426
          0.36221184052 0.022815584227 0.1302047355 -0.20163704487 -0.00086060457941 0.027239370256
          -0.20072196926 -0.0020389028973 0.026326438101 -0.0085126755513 0.027375870667 0.0062640937865
          0.079061392007 -0.0030242219346 0.024299127437 0.14636255319 0.024272358902 0.0067432015898
          0.28970617682 0.034740346678 0.082092068853 0.057429791618 -0.0040186733875 -0.014108074306
          -0.19593960001 -0.001006118174 0.031719880357 -0.15182947374 0.0064663045341 0.027583681441
          -0.20267562774 0.0018144520582 0.026505652102 0.18412345722 0.02136311469 0.025321333114
          -0.20016801376 0.0011511826029 0.024316902633 -0.11075543974 0.017117989189 0.0001448643439
          0.27479026518 0.030367590683 0.07115366365 0.025554730723 0.021296446337 0.022118851517
          -0.16589876031 -0.0066071462665 0.024751199478 0.18490799105 0.026772294775 0.034386897298
          -0.1992408297 -0.003467867132 0.026758061358 0.15672848629 0.058623674232 0.0001294617252
          0.1742318668 0.017979155825 -0.0090658728703 0.14073662962 0.0040837791481 -0.025253519174
          0.3253747029 0.036104373521 0.1113062393 0.34788932123 0.028324275144 0.12980363729
          -0.1965812533 -0.0027976154222 0.027344704686 0.36411022175 0.018520802491 0.12751389737
          0.26980981666 0.020023665963 0.07134946198 0.34583867253 0.032644728823 0.13166437726
          -0.19326142388 0.00067673232337 0.029738828393 0.18171741973 0.025954149026 -0.0047395187969
          -0.20309395113 0.0020274668756 0.027041916711 -0.16916953182 -0.0052116134027 0.021728904321
          -0.027748077204 0.036813514705 -0.03695853876 0.31041556785 0.031682099199 0.10218950687
          0.2196831919 0.015799551789 0.02769625032 -0.11319163701 -0.010132094459 -0.028431698371
          0.29039461408 0.028767475015 0.081940936178 -0.15400705833 -0.0041392251326 0.014489820375
          0.18219362824 0.021831859111 0.027427391327 0.3449282663 0.032236200345 0.12388439052
          0.024048707887 0.014098894649 0.0061451462468 -0.17498578314 -0.0024423667975 0.032494082044
          0.36617014633 0.029974697708 0.13538742842 -0.14954294564 -0.0047300593369 0.022799320062
          -0.10062943183 0.0047818791266 0.015377489982 0.30333727825 0.023346710984 0.095493027888
          0.19149298636 0.018318092946 0.033022282025 0.35757543309 0.025656582873 0.13125960022
          -0.18348947573 -0.0095871947788 0.017795949514 -0.033065392116 0.0065299949947 -0.046747703651
          -0.17197765765 -0.0044487012432 0.018533490809 -0.10127179194 -0.014589494284 0.011778031473
          -0.19095879944 -0.0049662757561 0.025754909219 -0.14791405059 0.012153104701 0.025709403688
          0.35457787346 0.029651652705 0.13798409611 0.30638170363 0.038179434283 0.10336176152
          0.1717184784 0.020261757743 0.003152809647 0.29082160613 0.042900566304 0.04617774216
          0.073922252179 0.032541107537 0.028316861192 -0.18591864976 0.00022993296694 0.010828642727
          0.35434421228 0.028707800554 0.11444622237 -0.088033776867 -0.011039114277 0.01760773779
          -0.15447298094 -0.010439763106 0.027462586084 0.16190544303 0.021033313647 0.044143945487
          0.15565691717 -0.019234378262 0.0069162825468 0.18985700988 0.0025116828648 0.023413443372
          0.35583059421 0.030746571375 0.13094379596 -0.19452772638 -0.0026904238019 0.030350940792
          0.22717596624 0.0034983549507 7.3656469213e-05 -0.19821929773 -0.0021549226245 0.024604823295
          0.23976300841 0.025862135094 0.073406515667 -0.10113001284 0.018807256534 -0.0077278254733
          0.13479671341 0.025127032822 0.022941923417 0.37281968351 0.024987674176 0.13927408786
          -0.19437566047 0.00020541849974 0.021812431613 -0.18444051497 -0.0093418452593 0.019707450344
          0.35223008095 0.029559069111 0.13672752072 -0.065514351182 0.013707329341 0.033323131006
          -0.1434508842 -0.00060021988609 -0.0065671959642 0.036969232316 0.029532574397 -0.049738210565
          -0.14382298844 -0.010114890109 0.00079624760402 0.31336693663 0.026893478186 0.10809636486
          0.29829437186 0.024041716093 0.091731272855 0.23037829892 0.0045382366304 0.061094880228
          0.29909091158 0.02743548787 0.10074241659 -0.17340932884 0.0043340967907 0.0049771271807
          -0.19827502163 -0.0038127234765 0.0287203988 0.21118800237 0.030924534677 0.049511928436
          -0.15767388966 0.004951398242 -0.00059204188774 0.31773476722 0.036071665311 0.1094706677
          0.31746713131 0.033748366163 0.117755043 -0.15348608612 0.0031211913705 0.010615697688
          0.19792107907 0.024565265425 0.047443252678 0.29934005168 0.030256526738 0.099646539811
          0.17752302649 0.029940547708 1.7894165623e-05 -0.19324183727 0.00090165621972 0.030123370572
          0.35291237341 0.03081067751 0.13815576871 0.17870561196 0.03045592487 0.043283329377
          -0.19316030878 -0.0042865185225 0.02530329515 0.31242973375 0.028768732325 0.11357016432
          -0.099530742671 0.01464727958 -0.018653153645 0.33067622742 0.010647045373 0.12637926795
          0.28359352268 0.019501268631 0.074073505774 0.33017927425 0.037352865026 0.11140924799
          0.30465254328 0.030373101154 0.10474331914 -0.1535551603 -0.018775770843 0.013378024204
          -0.17856594164 -0.0063657587054 0.018861694097 0.15278309826 0.020423373595 0.019649757648
          0.19709878072 0.059005481348 0.042201237896 0.11030897776 0.0017263951517 0.010444911504
          0.017328181521 0.019156985475 0.022006387993 0.17213298799 0.028650359099 0.030791592966
          0.30283921591 0.034220096261 0.1044246862 0.35508408867 0.022735966815 0.13250626731
          0.08217374674 -0.0094989236511 -0.023173782125 -0.013317232255 -0.010396551128 0.010838225977
          0.2641199094 0.034045857662 0.054787657102 0.21919031198 0.027853186177 0.020807234139
          -0.13727443385 -0.015113763021 0.0032349232889 0.24742668137 0.0077273209848 0.070058241054
          0.26276746647 0.022590687016 0.050128967303 -0.20455249096 -4.7123873238e-05 0.027762910791
          -0.10668871452 -0.0123119978 0.025668406633 0.305980316 0.03194460591 0.10489031884
          -0.10436261627 0.00016794949569 0.017298075915 0.28235479357 0.038918318804 0.073928492276
          0.29928114946 0.037953756839 0.098190069168 0.040075897753 0.00067757100824 -0.017286236804
          0.22211570463 0.016335614201 0.027177331105 -0.17569440986 -0.0044209427462 0.0069872707764
          0.15534285836 0.029846723012 -0.0019498719194 0.13572470089 0.1076022598 -0.093683439345
          0.34951564336 0.035164770053 0.13396350735 0.31072931972 0.032428979812 0.10140302013
          0.34683742841 0.033274691111 0.10887126563 0.30619733179 0.029350266158 0.10573341609
          0.30439926056 0.038979029199 0.0957991213 0.34820380426 0.029191208002 0.12829535508
          0.35783552113 0.031111501725 0.13585718588 -0.16828039407 -0.016944832907 0.014349458122
          0.36098635932 0.031025442267 0.13472352711 -0.19952800581 8.1033859042e-05 0.028033818546
          -0.14186962222 0.011750399683 -0.010378042493 -0.16001734575 0.0090017653083 0.0028155955553
          -0.16388007204 0.0074126508749 0.0049802429616 0.090216113278 0.025098574148 0.010181791679
          -0.02455573413 0.0054854296475 -0.018520726506 0.32881543694 0.032032247556 0.1190922426
          0.072354021712 0.036348783664 -0.015771598625 -0.088720316899 0.01659621123 -0.017876883033
          -0.20117443394 -0.0041009976051 0.026870416562 0.15161420518 0.034201971578 0.0048010609568
          -0.19931140544 -0.0024814003783 0.027437906501 0.22274628829 0.012393840391 0.03074972289
          -0.094675586443 0.0012744438063 -0.032829073375 0.14608366887 0.05299874155 0.074900698216
          -0.17810977029 -0.013708018368 0.020760350472 -0.16856750261 -7.8723818592e-06 0.012634138717
          0.14934740564 0.15509724111 0.13911906796 0.35875030466 0.036575448045 0.12647202244
          0.18028149949 0.032798743575 0.03864284546 0.36058435585 0.03206593331 0.13035164353
          0.36432107 0.020828173633 0.14187944979 0.32818920747 0.032661874978 0.11492519607
          0.31072376789 0.03123996316 0.10176930062 0.0070859589882 0.027197721158 -0.044606225393
          0.30929806666 0.036852167427 0.095218594432 -0.18016971531 -0.0012138333485 0.018368522295
          -0.18806005903 -0.0075747595209 0.017412741712 0.20700056885 -0.02868351095 -0.0058888413521
          0.20856958129 0.02276747551 0.075175589853 0.1492683147 0.01317961067 0.020057071695
          -0.20091760561 -0.0014078542303 0.027252116296 -0.2010959049 -0.0033226041169 0.027533122483
          0.35874574496 0.030729696577 0.13679071213 0.37098487152 0.024339788852 0.13269672297
          -0.043666550984 0.00013081039183 -0.0040701461063 0.26907552441 0.038225541951 0.088605120744
          0.2686840976 0.028005078956 0.081146126304 0.26194942834 0.037360784136 0.073254626462
          0.22718964796 0.0098400935565 0.024603873814 0.37155622631 0.031456826567 0.13684151016
          0.12611950613 0.026936532451 -0.016356721137 0.11292214127 -0.0099119264641 0.012525793891
          0.29791084626 0.030595917712 0.084912628338 0.34725829499 0.035399080232 0.12366655707
          -0.15048077205 -0.012548626872 0.010068094524 0.32857069273 0.014881472896 0.094995744469
          0.23122892128 0.027901813794 0.050555473835 -0.11074681871 0.00083595029545 -0.0085200421554
          0.36198327176 0.022993487038 0.1447408835 0.36449834873 0.032329246816 0.14884444159
          -0.1674730888 -0.0036513070413 0.0039566235837 -0.17590073372 -0.0063698338407 0.017532712001
          0.28586098812 0.029952818279 0.07648146104 0.23821457053 0.032565042473 0.061676110508
          0.29684407601 0.03030972876 0.10742595694 0.29960995721 0.033993965247 0.089182894559
          -0.10970597892 -0.00025495804816 -0.018643128098 0.19003541339 0.017397810158 0.021567736074
          -0.19497528621 -0.0023748622921 0.030690813469 0.16577093025 -0.004344608675 0.029585792825
          0.1884266948 0.02772858632 0.049827533756 -0.15210459787 -0.006097896657 0.025447151968
          0.21316517186 0.013711608063 0.022496731613 0.28919550365 0.032362113484 0.098849955429
          -0.1785172841 0.0068219655967 0.022568156281 0.17678315958 0.034727760934 0.001849757989
          0.36107584896 0.032531221933 0.14363151429 0.3584906376 0.033405680562 0.13028567166
          0.35775930154 0.032578012381 0.13075926072 0.29992614937 0.040082760616 0.099884480653
          0.30409262495 0.038316432556 0.097296915673 -0.18949567811 -0.0074760552856 0.032080866562
          0.13098856732 0.03242474655 0.017377561272 -0.16051545902 -0.010898292617 0.0063026811557
          0.31116523807 0.035389348053 0.11198928702 -0.12498565831 0.024380062985 0.011244719634
          0.090058284546 -0.024440622207 0.007488714763 0.25499860287 0.014509635489 0.048229944676
          -0.1506950874 -0.003647961341 0.024604260969 0.24319998689 0.033503869193 0.07412266663
          0.3478812897 0.040674237633 0.13200596376 -0.15226735122 0.0079169456796 0.011959698736
          -0.15967139963 -0.0079769363226 0.036209904157 0.36073519397 0.03592467636 0.12945468574
          0.36615351447 0.034482770438 0.13383496901 0.31448621154 0.030539028068 0.094815537503
          0.27282085496 0.0075960254699 0.092186718691 -0.13377609492 -0.011169870828 0.0069254082674
          -0.13163626082 0.015260978814 -0.0074119124599 0.33760178774 0.036788020394 0.11893225736
          0.33306659691 0.037296687026 0.12470035565 0.33366774596 0.034095665883 0.12096003343
          -0.17589802524 -0.0010480302058 0.010954670606 0.30078176005 0.033698351655 0.089464671349
          -0.18478015242 -0.0027233112134 0.026004559788 0.337679264 0.040747606593 0.12260210218
          -0.18941124304 -0.0034952382213 0.018591457789 0.28882803886 0.020581207683 0.08466024206
          0.28512128641 0.036846332757 0.077453024789 0.2181614562 0.025511469911 0.067647101494
          -0.19731553687 -0.0050701122265 0.026525365138 0.36671494422 0.027565381107 0.13610443384
          -0.20170109729 -0.00072864509532 0.025352564809 -0.08606515514 0.0033957743008 0.022069825165
          0.33415890606 0.041353552786 0.11395893453 0.28630679076 0.036184013339 0.073099308458
          0.011812718275 -0 0 -0.12480726485 0.0069678891996 0.0064000346011
          -0.15436154593 -0.0085353515143 -0.0032156263208 -0.10991360037 -0.0023654285064 0.019812779343
          0.22511760848 0.053701175411 0.056305378061 -0.060315568572 0.028227612006 -0.0094539780623
          -0.18637667475 0.00040513046086 0.030654589711 0.14140932693 0.026780584116 0.011252662521
          0.32646024799 0.017920873478 0.10347202331 0.2006932945 0.02116085729 -0.00085926290417
          0.30507272302 0.032726197534 0.098597939266 -0.14893776829 8.281902106e-05 0.014667482205
          -0.14209212325 0.0020616377815 -0.011755069636 0.29981271374 0.034235192764 0.098192317561
          0.23265572395 0.0089081308943 0.036781883827 0.087682795129 0.036730673512 -0.010714546827
          0.33235911509 0.036701722256 0.11502027301 -0.15837729383 -0.0016817992635 0.0018321642049
          0.33060744235 0.032883656143 0.1174857413 -0.090892972035 0.0042290024348 -0.0046384496031
          0.34320147084 0.013708886894 0.11233007299 0.36632191545 0.027693138337 0.13660050644
          -0.090677929425 0.012858892847 0.02044434475 0.36130879126 0.036366426715 0.1482304934
          -0.18083331095 0.0042928178677 0.013013616558 0.35210403167 0.016288229703 0.1160419923
          -0.10316760993 -0.018717731134 0.0059449793549 -0.12409246471 0.008854156199 -0.0055931154021
          0.092781400917 0.032617208736 -0.024862467468 0.17699280076 0.032463536103 0.041707513342
          -0.18777512092 0.0022151775143 0.015318589954 0.17894891876 0.0052587226998 0.032034767548
          -0.20117918842 -0.00054100280346 0.027156900491 0.12551620565 0.014852556868 0.036620888715
          0.10539837253 0.035144016834 -0.01244074905 0.36460988595 0.032461378449 0.13254402843
          -0.13710473224 -0.00495876891 0.0048207417359 -0.16152595719 -0.0082583969788 0.0016191471314
          -0.1842815518 -0.0028190057637 0.014288247722 -0.17775780982 -0.0077343397873 0.024984547055
          0.192002186 -0.015413976693 0.020536286785 -0.12377648018 -0.0071682931833 0.024268494826
          0.27252697373 0.009443347088 0.072780633593 -0.07753806811 -0.0015630896764 0.028392889648
          0.36046554878 0.030982228182 0.14096062413 0.18301526022 0.022514414198 0.02436799567
          0.10670026369 0.02549352933 0.015763753246 0.3600795165 0.030240155738 0.13294766143
          0.23906349095 0.0027799344016 0.038088351098 0.31045978761 0.044514474261 0.081383340842
          0.36383171312 0.022533392771 0.14240854159 0.3523520439 0.029427248606 0.13661720032
          0.29435135519 0.025825437672 0.092715969694 -0.19824217377 -0.0026294281159 0.029675266328
          -0.20341262788 -0.00021340966174 0.031996594832 -0.13588317944 0.0042408532349 0.012557523392
          -0.20254660947 0.00175579919 0.027502979261 0.2979855491 0.038418937066 0.091392761012
          0.18951353179 0.024105219059 0.042479011185 0.17476501951 0.0099577544787 0.024274443996
          0.2906490247 0.033868571771 0.082051376211 0.31168836948 0.027520201199 0.10634327543
          0.28445060759 0.024141961712 0.10469510749 0.18314940236 0.018533109747 0.032243584892
          -0.19655821012 -0.0020898480673 0.025149515322 0.28113997752 0.016191303121 0.070437041155
          0.25895050663 0.037457082301 0.07337162764 0.33394610822 0.028934539968 0.12814686166
          0.18183136829 0.046660689185 0.012778421687 0.37173581692 0.027035455176 0.13750923317
          -0.091874085385 -0.0050372206062 0.024355428685 0.35887014756 0.030156373842 0.13660034304
          0.37144006865 0.032538312627 0.13730508296 0.22660147689 0.0049507004026 -7.9505638813e-05
          -0.19394066426 -0.0034520104866 0.021259484413 0.29567959217 0.022962496512 0.095066639269
          -0.14433934204 -0.00357868513 0.016831986815 -0.16534540383 -0.0084059026598 0.022678958781
          -0.13220331148 0.003761601782 -0.0053761122193 0.36861252577 0.026285401076 0.13868063181
          0.19911527657 0.046337104036 0.063557947131 -0.12575917688 0.01243672032 -0.0026240195562
          -0.20499042997 -0.00070210002484 0.027106118774 0.35934364488 0.034012856103 0.12752110109
          0.35848969564 0.036040284172 0.13879496206 0.16442922762 -0.067905703324 0.072110828557
          0.047372242082 -0.012522572634 -0.0269454583 0.21676102057 0.00097810812814 0.017375940162
          -0.11523102337 -0.01106796287 -0.0036428417434 -0.1964351755 -0.0018150511627 0.026089764633
          0.13402198811 -0.1466880688 0.044426968411 0.18882176483 -0.005350244038 0.039147838478
          0.28947928952 0.15301473949 0.017272919977 0.10529849681 0.035234009489 -0.01212846226
          -0.19430983291 -0.0012729496635 0.026619496062 -0.10509299477 0.021265361104 0.021994037566
          -0.13574025332 0.0069699146315 -0.0071452368776 -0.15341699251 0.0087270001834 0.027837876866
          0.29122188682 0.048037205746 0.095813175534 -0.14520365325 0.018107261796 0.03320764581
          0.25675812703 0.016838052474 0.047664652262 0.25570567077 0.022191737297 0.049479366183
          0.2452649295 0.015039715783 0.03785853342 0.35241357479 0.030041506693 0.13650209565
          -0.13837527385 -0.0034898468604 0.0081135507403 -0.15408964971 -0.0053817371206 0.0018557926115
          0.28296112564 0.027400139506 0.083933050606 0.19047492687 0.021706199856 0.011000553508
          -0.18784478691 0.0080254610682 0.021784986894 -0.017024781092 0.012905118732 0.024044306539
          0.33351122046 0.032754381219 0.13315342003 -0.022981900072 0.0056648240168 -0.030312534462
          0.046541447397 0.036635562407 0.015934633123 -0.14355112451 0.00044774484582 0.0061996324988
          0.36084480818 0.021139650187 0.13606825901 0.3589564563 0.036174654626 0.13918361958
          0.36415784688 0.031011341443 0.14293220415 0.25683380961 0.014631555161 0.048235835408
          0.30943268251 0.037118889117 0.095106433267 -0.14355379034 -0.0082213720009 0.021659104858
          0.3652469325 0.025225655858 0.14522088136 -0.1567130919 0.0055128514137 0.00092461378765
          0.270065516 0.03311027204 0.071557985773 -0.16885913488 0.0080371890006 0.021689323446
          -0.20126266055 -0.000761214801 0.025140175162 0.31938593691 0.031593139947 0.10886867117
          0.11352184305 0.09332745704 0.050603277493 -0.20289762219 0.00078410567398 0.027673827402
          0.30135708433 0.020610610836 0.090945955332 -0.17096282407 -0.0064261748841 0.026335396162
          -0.14736089925 0.010376633197 0.014794125444 0.16082627402 0.019914799315 0.039987525556
          -0.10001524773 -0.032900484892 -0.0064042982763 0.33296249052 0.041831429363 0.10727336255
          -0.17648931443 0.0023531713656 0.031755831037 0.30459514516 0.031042610601 0.094558052055
          0.33305114364 0.029005954202 0.11432114314 -0.010094149081 -0.0019772311622 0.018025193574
          0.27711942931 0.030073069543 0.089640877529 0.32655231065 0.032057164012 0.12035131197
          -0.12354652924 0.013800113928 0.02142607586 0.18293835851 0.026041168207 0.024990003305
          -0.2008233581 0.00050015331316 0.029889321632 0.36924190492 0.025124821026 0.14877341844
          0.37086717386 0.025656056962 0.13725565221 -0.19659063421 0.0015825641364 0.026621400431
          0.19276558554 0.024712617755 0.045684653701 0.22038523224 0.022039401374 0.05526284173
          0.13384709495 0.013466444744 0.01469774213 0.216457304 0.024469546948 -0.021618033646
          0.34786738405 0.031087206882 0.12913520823 0.25465834426 -0.0010985936498 0.077688453688
          -0.19912204679 -0.0035011966227 0.026885332701 -0.18256853883 -0.0029753906192 0.013141951021
          -0.12443818338 0.0049933959555 0.016373247025 0.35669705496 0.031471227153 0.13066764583
          -0.20097502055 -0.0024382585331 0.026322642001 0.20683932502 0.027909464536 0.031932723465
          0.26768406325 0.024826552469 0.081158594855 0.22024815795 -0.0030839843504 -0.0090338651926
          -0.070770606098 0.0032723374701 0.0043886251452 0.22347343954 0.033858941477 0.027418447058
          0.032068077401 0.0034826299204 0.022192533131 -0.19598297106 -0.0029813792325 0.023864204953
          0.29662605661 0.031820074261 0.097770021988 0.34319654752 0.033067161723 0.12004304351
          -0.19630835588 -0.0024327925085 0.026584750343 0.089945434328 -0.0065353512789 0.011138476371
          -0.19437072108 -0.0027304290777 0.024148370406 0.34232273956 0.035909487452 0.12353088587
          0.026105220383 0.018497909348 0.025086034988 -0.16481644849 -0.0056323996749 0.010003299668
          0.15100526511 0.0188063559 0.018219924395 -0.16291627246 -0.0075999506753 0.0226617219
          0.24094191476 0.0079213030092 0.08450889579 0.16159707655 0.0063850813306 0.042682965123
          -0.19835962781 0.00058544169411 0.026190433807 -0.19183544764 -0.0013918625819 0.03068178245
          0.3610022743 0.02542331061 0.14149786942 0.3001907298 0.021341925354 0.10334565454
          0.30184760255 0.029141792166 0.097599810585 -0.20027731695 0.0039585877226 0.025396320345
          -0.16036510586 0.0082915536605 0.017937855713 0.093394457858 0.024522376682 -0.013585691316
          0.10093820877 0.036424424827 -0.00444789379 0.18468193742 0.010105168588 0.0022425905463
          -0.2005296632 0.0030642618222 0.024710881355 -0.14498933346 0.015998506985 -0.00027465439196
          0.36602644973 0.031000923157 0.13777247297 -0.1386383096 0.0062617352607 -0.0056954187317
          0.097959155968 0.012335405023 -0.031357716974 0.30005306304 0.027852764598 0.087819606251
          -0.15771066492 -0.006027709481 0.0056764758771 0.17437681409 0.026259035628 0.031489810789
          -0.16558547546 0.0079896038354 0.015720858994 0.25982596407 0.038409145718 0.0731802864
          0.20227756288 0.026143750453 -0.024290625365 0.17513310951 0.027081332683 0.02813849019
          0.27342732674 -0.098136964124 0.037191404771 0.036075632432 -0.0038956736219 0.034117165495
          -0.18775447876 -0.00060607425263 0.03193041872 -0.11601237922 0.0056608417906 -0.010065593651
          -0.074004024931 0.0027323420049 -0.030497202807 0.083215264446 0.003555474758 -0.034219199842
          0.096826216005 -0.0048148810711 0.025147286954 0.36716221743 0.030611299609 0.13085004766
          0.36681438298 0.020280397027 0.13007599197 0.2560367014 0.033897586558 0.046142230254
          0.30515985615 0.026358088614 0.096399739348 0.1247738247 0.043617492512 0.14007133977
          0.11780229983 0.027930891608 -0.019856353241 0.18947819354 0.0054726188105 0.030337305565
          0.30160428275 0.036773022773 0.097534721522 0.30913863448 0.035409199489 0.10335934635
          0.29035473161 0.034541348679 0.094818531855 0.13242189949 0.030969016873 0.0086773226689
          0.11317257112 0.038646675979 0.032120332267 -0.19370908307 -0.0020087063535 0.025721649861
          0.33304745612 0.036686240105 0.11641460575 -0.12885003111 -0.0058838646774 -0.019903440989
          0.36922576909 0.027331270656 0.13741611443 -0.19264857019 -0.0032948728841 0.025133214783
          0.36012175703 0.01985904886 0.12540418324 0.30539743304 0.029840110356 0.096325477893
          0.28341910142 0.053900966743 0.096978128848 0.2903686563 0.029254313417 0.066444104788
          0.29845251475 0.028356277506 0.087646725745 0.10418056697 0.025134415964 0.021954962831
          0.19863607815 0.012463608228 0.0056387951689 0.34825555516 0.034275343334 0.13402818407
          0.15515021387 0.0069737147595 0.0018067210344 0.28897255145 0.016340632809 0.092308970395
          0.34690691299 0.03306855104 0.12376691578 0.24338760969 0.022811197131 0.052944195899
          0.35862432416 0.028653603498 0.13705139713 0.30961746984 0.027272327768 0.10024727597
          0.25672277881 0.022052576569 0.074186888312 0.32475772574 0.017554711583 0.11724220542
          -0.099920623131 0.01457719482 0.0024500703429 0.36621134345 0.030642262286 0.13321914604
          0.27018977448 0.024889341173 0.082758277774 0.20749521057 0.037176383613 0.029654658245
          0.3655953415 0.028785612893 0.13055361221 -0.027873493392 0.0014269953637 -0.021432477108
          0.34734027784 0.033970773026 0.12386103307 -0.18312584088 -0.003750159563 0.031576011966
          -0.12219439197 0.014173206005 0.018537464576 -0.1868201386 7.734935739e-05 0.019986899685
          0.32897577837 0.040791461618 0.11510432625 -0.14635821737 -0.0088793718954 0.028600925353
          -0.19767855365 -0.00066116992088 0.026165388814 -0.19694284268 -0.0030881911832 0.020595024335
          0.30004679621 0.040090312114 0.087863149595 0.15395326996 0.027946885469 0.051961253492
          -0.20588138875 -0.00020555080004 0.026687655605 0.038807709953 -0.017738326565 -0.023030777845
          0.021834408985 -0.0093789979164 -0.038355110135 0.039601353893 -0.016397635903 -0.0076681111774
          -0.18965764585 -0.0020366787132 0.023012811018 -0.19291318828 -0.0028438075026 0.021193505089
          -0.19131778618 -0.0023855133118 0.020111000354 -0.10794878352 -0.010100485819 -0.0096288351854
          0.30200632035 0.039963005517 0.095243365443 0.29939519884 0.0079553461446 0.058102957423
          0.19078882141 0.0058706906896 -0.026184101365 0.23652294748 0.02150481955 0.030943154623
          -0.16154861954 -0.008021642544 0.0040844449039 0.29906220546 0.030624450286 0.089604584169
          -0.066899514213 -0.015606842174 0.022824737335 -0.081787364464 -0.0068424903042 0.0017491397272
          0.29158559957 0.047843771223 0.094995917622 -0.088864732774 -0.0021911269599 -0.031048149774
          0.12881363023 -0.017957987901 -0.0030941454481 0.31709689989 0.033302368468 0.10438629039
          -0.19494188929 -0.003211637352 0.021725121995 -0.19957122856 -0.0017119422857 0.02891797931
          0.31111097793 0.036137926675 0.10493418651 0.2984002905 0.034060720066 0.090991759414
          0.15667817488 0.05869043863 0.00013770396664 -0.19806778684 -0.0059997629788 0.023311294246
          -0.19883132354 -0.0035477378019 0.026385196159 -0.18921911962 0.004414929602 0.017743530089
          -0.1692697643 -0.0010358176502 0.014369544572 0.34622308242 0.033228314416 0.12344104852
          -0.11016564109 -0.0026455761509 0.0094555865493 0.35037833255 0.040061328872 0.12867701875
          -0.18435766067 0.0040237596204 0.014171034768 -0.19977826456 -0.0019177284408 0.026810681798
          -0.024661096031 0.022027447954 0.020864611356 -0.054959338264 0.025644724409 0.017726242677
          0.29534726688 0.012054414893 0.11087859321 -0.19499245941 0.00050696286587 0.022436615187
          0.30425500164 0.031964768854 0.095236375276 -0.19233889719 0.00018154177456 0.022097335715
          0.32190642609 0.016540067681 0.063824791947 -0.19809008422 -0.0020126396995 0.024590107239
          -0.20011704851 0.00012599503722 0.025437908077 0.30343776828 0.038112202994 0.098643621166
          -0.14959678083 0.0035625902865 0.0041987284195 0.050903092291 0.0027285593559 -0.011782553228
          0.29902253362 0.022237458046 0.091913287779 0.31750795513 0.033473670056 0.10068126597
          -0.19971000572 -0.00123932909 0.027307891036 -0.11399070453 0.023238252443 -0.0028029738377
          0.15789220613 0.04854856905 0.012426027837 -0.099084055873 0.012604008214 -0.017474444364
          0.35776820693 0.032560222733 0.14793822742 -0.19025343562 -0.0051426696844 0.034941569819
          0.18679629993 0.029533050001 0.028320754749 0.34661078638 0.03277592216 0.10932474821
          0.26892661113 0.024850914838 0.076553319155 -0.15837341083 -0.0050941109831 0.015482840689
          -0.14441095715 0.0018579761416 0.018959013731 -0.18246825751 -0.0041741877733 0.017738256098
          0.29798556617 0.038407421867 0.091416616953 0.300813344 0.02992480247 0.088171473076
          0.21293682848 0.0019604646237 -0.012204110997 0.1913913434 0.02405901487 0.010404556213
          0.18773391388 0.027507500319 0.053187228384 0.26115433991 0.039561329925 0.079419383231
          0.18896080135 -0.00059349441393 0.046296529097 -0.20241586684 -0.0010974861242 0.029361680828
          0.22662104554 0.018096403206 0.041441574734 0.37125260293 0.025960571905 0.13191455486
          0.13304944848 0.023583437847 0.013315830567 0.33529451118 0.034970595976 0.097541569286
          -0.10603189136 -0.023264922257 -0.012991347901 0.029350049864 0.030698938128 0.0092076349566
          0.2344208568 0.039432885964 0.034155436393 -0.094430930608 -0.010347012951 0.015132357728
          0.36785279702 0.030295253099 0.1452328039 -0.06556365815 -0.0050258864883 0.023582894658
          0.29775802654 0.039192935285 0.091809520622 -0.1298279744 -0.00089752747801 0.0078668845322
          0.30486904123 0.028316174809 0.10578602344 0.35754755719 0.027719161521 0.13598136573
          0.18040459094 0.01873792695 -0.0024668349718 -0.092084435558 0.015158321633 0.015816731038
          0.27431819449 0.038283076305 0.078393567496 0.16599884249 0.029976444472 -0.0013608656222
          -0.19637872804 -0.0028851664088 0.026506544327 0.15624416258 0.029437224138 0.025482602792
          0.077974589442 0.035215006602 0.023074739908 -0.056932938246 0 0
          -0.10213263773 0.012170521618 -0.0055620711469 0.18649683526 0.013466343162 0.032688531895
          0.17203946686 0.0054035130293 -0.0029358008373 0.30421569328 0.037914183321 0.10679987637
          -0.1879726635 -0.0013277371452 0.031238086022 -0.1932868056 0.003883668555 0.033817154036
          -0.10857464829 0.010026283711 0.01630752968 -0.14652243656 -0.01292045464 0.003008110918
          0.31536458164 0.037185458586 0.10440009047 0.34701846765 0.033106281571 0.1258290115
          -0.11213810257 -0.0057386545139 0.002872631912 0.30454217288 0.028785938549 0.088968618855
          0.31193492439 0.031021991117 0.10116659883 -0.0079426457096 -0.010162130027 0.025863461467
          0.2996073398 0.037664947773 0.097343844082 0.30260819864 0.028956637226 0.088830051496
          0.36797018971 0.032079492732 0.13524415923 0.28353105773 0.0083264862905 0.092926282279
          0.30782440149 0.018138306985 0.1250588669 0.19929517251 0.0011682400599 0.006927213606
          0.19894939601 0.0015819149653 0.05429863327 0.30307718357 0.033779442676 0.10440376596
          0.30835863287 0.038272627955 0.1064335166 -0.1874303953 -0.00046866509728 0.017908982477
          0.064262257491 0.003721749058 0.01073970029 -0.068544247808 -0.019244403391 0.026409812493
          0.20220826076 0.013009327878 0.060865832279 0.25920303882 0.021055157145 0.049507819063
          0.12567313476 0.10115823027 0.0023298687345 0.18286210542 0.025716885692 -0.0034261200895
          -0.15187791958 0.010301053187 0.010148047535 -0.17546363307 -0.014425382004 0.020700702948
          0.082691648832 -0.0098594317889 -0.0018054793397 0.30710222473 0.027167706758 0.10790713395
          0.36728632471 0.039646062053 0.1456339707 0.27094822684 0.026244534254 0.080380903519
          0.11734707994 0.034771145705 -0.041184250973 0.18142009586 0.018579801267 0.033657173135
          0.17703129655 0.0023760210801 0.034236189028 0.24371892199 0.038761146187 0.056545164417
          0.13287711823 0.0079358605349 -0.007768813174 -0.063583844993 0.033575849514 0.025841755957
          0.13310476537 0.025968558816 0.0037346081219 -0.20060006444 -0.0021969075164 0.025867184909
          0.29835341576 0.039001102979 0.08673349946 -0.194447126 -0.0029171779177 0.021840919342
          -0.14347173824 0.010453888118 0.015739729714 0.3312090794 0.031341181801 0.1190792699
          -0.15103174649 -0.0098357669087 0.021664030282 -0.14206516197 -0.0066626350323 0.015793632176
          0.23099355757 0.015826742078 0.067512058319 -0.18685565118 0.00073237234881 0.025070005272
          -0.19422646673 -0.0021606667126 0.020504162624 0.31744950096 0.034811103424 0.095473875189
          -0.16776721218 0.0035427557304 0.015231492216 0.12075074739 -0.012149251963 -0.012483407528
          0.1864068634 0.010167720892 0.052681543645 0.3160804606 0.035248263765 0.097085801146
          -0.13254898498 -0.00081312263247 0.0059828160615 -0.16213840163 -0.0065125162982 0.027167618268
          0.3201061964 0.033283587943 0.11183025749 0.36134902155 0.026318319564 0.13009923195
          0.0011610064118 0.0025698759322 -0.0037822351993 0.35951106792 0.024464896481 0.14121710193
          -0.20247028764 0.00171722133 0.027452351203 0.27938628321 0.025780730623 0.066667846968
          0.1180826803 0.033936948893 0.040497948018 0.34452527317 0.03046148173 0.12317442599
          -0.10190702702 0.010025626536 -0.022015454579 0.31509660025 0.034450005977 0.114886549
          -0.19141045124 -0.0061027963105 0.039083039677 0.32161022919 0.03177940468 0.10980072775
          -0.018964981025 0.00397633242 0.016618540015 -0.11342636232 0.01451345565 -0.01529900268
          0.32908255652 0.026753968861 0.11914828848 0.34476652705 0.029506841929 0.12522539793
          -0.096536098341 0.021800484812 -0.016040774118 0.30577314414 0.030594980306 0.095511792964
          -0.051538167123 0.0056565786777 0.015933634824 -0.049297791039 0.012906633737 0.018453183454
          -0.10532542755 0.014944187474 0.014946087717 -0.035780622705 0.0098247199907 0.012403944995
          0.32040797708 0.029797550023 0.1133750898 0.31839043848 0.031643360813 0.11370232416
          -0.16909161154 0.00088470952234 0.016042322471 0.26588394645 0.035238387811 0.06806224884
          0.14352951095 -0.036280793005 0.020755038023 0.30287115517 0.036787859833 0.095004116087
          0.2729656425 0.033479813476 0.091474029864 0.16281971062 0.003780272012 -0.0025139606299
          -0.1368576718 0.0095694538078 0.012409988043 -0.14672037834 -0.0059345390138 0.0010150253628
          -0.023499730895 0.0067333864926 -0.03075574874 -0.056932938246 0 0
          0.2152417966 0.013715736332 0.028762844485 0.35456411986 0.030111935587 0.13774533536
          -0.16657984376 -0.0015900995768 0.023906792831 -0.15348362319 -0.0068106476011 0.031971443396
          -0.10161204141 -0.018657017625 0.017057758449 -0.11866552898 0.0095352397261 0.0081510087107
          0.090607434582 -0.0065369369516 -0.024412356524 0.22985562788 0.030337050953 0.072399178883
          0.30116320695 0.025518237682 0.096057658411 -0.14703962654 -0.0015607938782 0.027604525044
          0.28616233889 0.031771019215 0.080623972964 -0.062200913643 0.0087148780058 -0.0017046698214
          0.30674022545 0.030486679206 0.10327644379 -0.16281608424 -0.0092705359999 0.024335313666
          0.25454390597 0.023286357347 0.038028188866 0.35748259549 0.030012066288 0.13617496624
          0.3177285253 0.026509410146 0.10721306691 0.36736518693 0.02683488329 0.14153003912
          0.29500938014 0.008996676661 0.060368496534 0.28330374199 0.03962267562 0.0735563882
          -0.1927259881 0.003105135517 0.021069495745 0.36434359984 0.034298105701 0.13071882852
          -0.096462216992 0.008908645917 0.009620869685 0.31603042681 0.029953894333 0.11321019967
          0.091312957201 0.0044049855451 -0.00056976819833 0.32403842368 0.013761422452 0.062826717612
          0.28477693412 0.038202749277 0.080192234786 0.25838875776 0.036755900233 0.075510148399
          0.16900475665 0.00028947992613 0.030690150337 0.099619397883 0.030257634255 -0.012267531776
          -0.17339018851 -0.0035378579886 0.017905692106 -0.19685357184 -0.0013337818172 0.024892242316
          -0.18040962927 -0.0044871528466 0.0067345053472 -0.20432910081 -0.0021354497808 0.024595292566
          0.25068538027 0.012724120189 0.085039106496 0.27046163848 0.017504183811 0.093212140518
          -0.19569320676 -0.002068108842 0.026401739635 -0.058561531873 -0.0082445631804 -0.033503583802
          -0.17888780095 0.00021511388734 0.024167080333 -0.018161718786 0 0
          -0.20412750467 -0.0025280061463 0.028700871304 0.25126232631 0.034857045902 0.077927004049
          -0.16797676606 -0.0023244212761 0.025457905126 0.36478014966 0.030386603621 0.13565632701
          0.2978901812 0.028295775685 0.090259038952 0.35769050551 0.031958104178 0.13096383787
          0.17402246358 -0.029243202429 -0.024404753378 0.32803978397 0.041225019057 0.11026168049
          -0.15778281255 -0.010668955831 0.0040058436262 -0.20003329849 -0.0022095857697 0.027107792558
          0.31779451859 0.036831232436 0.11048384227 0.30752514002 0.036098467791 0.10315511126
          -0.19343141921 -0.0036933000123 0.025310135611 0.30285787265 0.038142500083 0.09733743094
          0.18825474626 0.015279238926 0.025149609179 -0.16156584481 0.0062888013945 0.020755757524
          0.34194247169 0.039290765834 0.11462064431 0.30956657511 0.034745083604 0.10522151185
          -0.043125454378 0.018824879978 -0.029990837472 -0.10906978534 0.0062195374934 0.022969494533
          -0.094355704128 0.010492636451 0.016126726782 0.11599834146 0.10325773811 0.0063713906057
          -0.20111041026 -0.0039264995388 0.02710464156 0.30358005683 0.034332196412 0.10211703328
          -0.19396501725 -0.0028306441354 0.02391930508 -0.20096137945 0.001210762249 0.025323935032
          0.3469969046 0.032707912098 0.12497268333 -0.14238554551 -8.6605230391e-05 0.021176126169
          -0.13203148813 0.0034724604704 -0.0045862171301 -0.11418391232 0.00022908906801 -0.025411424172
          -0.1589619902 -0.0058094774346 0.01602261539 0.26083046904 0.022416307827 0.059772120155
          0.2107120117 0.036564554013 0.030306801499 0.36490186284 0.024875856747 0.14470982171
          0.35476313401 0.031799816005 0.13614831952 -0.1391138598 -0.0043137649153 0.011020110114
          0.30809733416 0.0301340384 0.10554777023 -0.15266336705 -0.0064898573932 0.024240677952
          -0.19836087404 0.00011405511699 0.026338111844 0.30118089039 0.028755304633 0.10069492668
          -0.19863925932 0.001939648131 0.030928939455 0.11928244911 0.017027829627 -0.01526449301
          0.30422665322 0.018373824379 0.10891390103 0.32792143873 0.010486769719 0.096815347082
          -0.09895333796 0.014471493797 -0.01872786725 0.013710961749 0.028849011217 -0.0080932180548
          0.11613132422 0.0028374491562 0.021495647313 0.26391664917 0.02356030787 0.050554152116
          -0.10009122046 -0.0077718694677 -0.020721244597 0.34305553282 0.053462680426 0.13763374592
          0.36211965458 0.034312947637 0.12949500374 0.22430135601 0.0070033252273 0.072314051128
          -0.050533044533 -0.012986708702 0.00076908993235 -0.19735144096 -0.0012968111321 0.029697268285
          0.24647745438 0.03394641373 0.078278279585 0.27290705328 0.029905610329 0.068341033103
          0.22087948646 0.01605935702 0.033672847528 -0.1152484031 -0.0242006213 -0.022056764685
          0.25063292644 0.044604256177 0.061000143617 0.33295493198 0.028827622454 0.11543398485
          0.28731757141 0.020259142125 0.092177108884 0.32050738687 0.028733595886 0.11260523732
          -0.14366038745 -0.016114024476 -0.0077824603509 -0.093974798243 -0.0003182857595 -0.034079038788
          -0.15697142748 0.0071642887543 0.0027065451669 0.043090141088 0.018943246389 0.017698556763
          0.36262269774 0.029606540327 0.14226680315 0.33685686812 0.032075176202 0.11479211833
          0.35917152949 0.029748012995 0.13384441987 0.06043614064 0.0026000294764 -0.034133944633
          -0.1862707655 -0.0032599952752 0.029228001556 0.32784771751 0.0085753269105 0.097529000324
          -0.20016671705 -0.0047045359754 0.026917978122 0.31560041497 0.03199926187 0.10123833094
          -0.14874732046 -0.015377370206 0.0025861727923 -0.088408146093 0.017265070716 -0.017858982506
          0.32145256628 0.032790981568 0.10887521268 0.045023915972 0.037756870512 0.016483173741
          -0.14935477707 -0.01681125107 0.02839025562 0.099591106135 -0.0044832919925 -0.020233079914
          -0.071073122368 0.012301139934 -0.009139072965 0.29900442896 0.020846545964 0.10180936142
          -0.19529095695 -0.001252554294 0.032259942678 -0.15868444519 -0.0050778944598 0.034529379465
          -0.15631452007 -0.0037679455217 -0.0036455175116 0.091209036393 -0.0043787258024 0.030064864543
          -0.16067679591 -0.0016118091793 0.0060932617425 -0.18727371362 0.0044289135135 0.015849276102
          0.3027163333 0.028386051386 0.090098755559 -0.15599439269 0.0013509710051 0.0054404690958
          0.27102104148 0.034760315885 0.081440689864 0.187454277 0.018893627756 0.023493856231
          -0.19462340795 0.00076653205278 0.03095297455 -0.1942734856 0.0010941860514 0.03103846644
          0.12266809306 0.045105864916 -0.034559539523 -0.13019188136 -0.017780412099 -0.0033751547504
          0.080169162864 -0.012008473109 0.026922712503 0.18210935867 0.0070364304709 0.027026370893
          0.19245945321 -0.057963804023 -0.0076206744672 -0.19591955597 -0.0012665643722 0.022470311362
          -0.088981227192 -0.010726128503 -0.031159576072 0.32789025 0.014974956427 0.135504679
          0.11129343812 0.0060734600749 0.016744671722 0.28547574759 0.017159472447 0.092711300398
          -0.054839422219 -0.016980496036 -0.022480727117 -0.18861114047 0.0051646309127 0.017092192878
          -0.16692087766 -0.0034116103635 0.016960827377 0.27996507965 0.039864280672 0.069674030459
          0.25375338298 0.021648295759 0.069811195771 0.22287361668 -0.0061547546035 0.036409779197
          0.19408668937 0.0096704612336 0.02503985363 0.30563635306 0.030457427755 0.094371258012
          -0.19805549572 -0.0022240445831 0.025536776249 -0.17650967436 -0.004480290548 0.033858438396
          0.34754928205 0.040741655805 0.13215354515 0.16110140785 0.020874560735 0.0010190361294
          -0.091845173418 0.0043746533787 -0.034918450459 0.18674669339 -0.00096326497227 0.045530942759
          0.23841610169 0.0063400993625 0.036937451326 0.24548721607 0.0066046738796 0.040181841397
          -0.15132377133 0.012846930563 0.015119458235 -0.13843520368 -0.0043868491481 -0.0016235888423
          0.3410659684 0.0283872023 0.10108142849 0.19967603086 0.0068848795415 0.047163324077
          0.30111972354 0.03950319228 0.087718244061 0.35824505163 0.032833961239 0.13243121098
          -0.19624273779 -0.0036692229582 0.026774235186 0.33489102864 0.033203382819 0.11911444366
          -0.19680483102 -0.0037909464127 0.026721818638 0.22673975979 0.02044416736 0.046384349343
          0.19408717522 0.017006114818 0.032856952313 0.32493939591 0.038156938202 0.12356876237
          -0.20084804594 -0.0020395177102 0.026545744517 -0.083341110688 -0.0016886491358 0.0043856649391
          0.3043553623 0.025793790697 0.097637620426 -0.14328814624 -0.0053270424297 -0.0032769384014
          0.22179407946 0.078342947269 0.041564116551 0.10097541333 -0.13287775337 0.1769613787
          -0.19880936826 -0.0033924786664 0.023018771014 0.30305348179 0.029411149783 0.10118697874
          -0.20362686193 -0.00059176606181 0.028635610637 0.36061562696 0.030615031522 0.13240157202
          0.093695467554 0.0093495743403 -0.0011172448462 0.35592397976 0.033174100685 0.1363040917
          -0.1450093649 0.0055342379071 -0.0031591135427 0.094093564289 0.039422812545 -0.01110355366
          0.314916627 0.029401981545 0.10410050908 -0.10308834224 0.022424827037 -0.015779403315
          0.29939812947 0.044538496866 0.096500073929 -0.11548103219 0.020251942726 0.021641294155
          0.20020283001 0.0018045300341 0.0037691549101 -0.10884999022 -0.0026660094248 0.0097621797456
          0.35505914198 0.027505411798 0.13722349722 0.30511590731 0.032311628615 0.10512198828
          -0.012792244902 -0.011064753388 0.010301292851 0.077818671562 -0.0068849740115 -0.010378881831
          0.078700055405 -0.006575507595 -0.012329960958 0.12926082108 -0.0029603474072 0.059176492992
          -0.18385158664 -0.00097285495033 0.014695821078 -0.085389027575 0.0093261478747 0.0050457715257
          0.23977308209 0.002710664341 0.035200651546 -0.18973726265 0.00026018332889 0.031018095317
          0.34107825759 0.026829032608 0.13117643657 -0.17144784647 -0.008510097395 0.011200793732
          0.34947171296 0.026657682934 0.13761967231 0.16181340687 0.039806371727 0.026123651509
          0.3096319905 0.035964801473 0.10414314367 -0.011306434449 0.029178649777 0.0074501764984
          -0.14318211939 -0.00087399996402 -0.0087556356562 0.33854141225 0.011757124622 0.11300782494
          0.29976566064 0.037840371203 0.097269621147 0.28574621558 0.033179001508 0.081942332702
          -0.15286708968 -0.0060000418421 0.015884883905 0.21487288142 0.024163997686 0.019599083366
          0.2756770097 0.011840253376 0.081414546617 0.22025449995 0.043850149945 0.050958590193
          0.2081021225 0.025815927914 -0.013313998113 0.20568476486 0.021970451661 -0.014186459919
          0.27416732944 0.022338586469 0.077111765945 -0.085883863067 0.009431455808 -0.027455260178
          -0.11017229458 0.01391884114 -0.013594977482 0.20664939838 0.032703594833 0.040191696454
          0.29824173298 0.03338246821 0.086961303477 -0.19898444542 0.0033074839596 0.027597010234
          0.33320944069 0.03288047436 0.12657810754 0.29940100903 0.037141066069 0.091806315874
          0.3591070854 0.032151417653 0.14342068986 -0.20180707199 0.00050875868585 0.028233697285
          0.36799847042 0.031669017943 0.14154030008 -0.17172459155 -0.0028194659625 0.0056077459216
          0.1872746705 -0.0048281518003 0.039638977631 -0.19975404285 -0.0013420216979 0.02664793064
          0.26740002692 0.040318746265 0.082246560405 -0.1878460831 0.00020906504354 0.021851069035
          0.012499489398 0.027170623416 -0.012070005223 0.33168786688 0.030266697945 0.11811565461
          0.31526956556 0.031008420288 0.10492082741 0.31299354161 0.029701610899 0.1037009141
          0.30607327759 0.028560267977 0.10524787991 0.16901973427 0.0002089894809 0.030833126975
          -0.16610299157 0.0058532097387 0.0130174041 0.28064965195 0.032456503609 0.067665456212
          -0.18324116601 -0.0017002272161 0.030099510136 0.3047291261 0.039255249965 0.095600718472
          -0.19331685828 -0.0014108404413 0.020871013412 0.30438200835 0.026511394782 0.1043345605
          0.19426721594 0.019834182085 0.040723216434 -0.032424145839 -0.0074768919579 -0.010619573838
          -0.019522897014 -0.010336850147 -0.034891203486 0.34970782649 0.026729759828 0.137523285
          0.045899162617 0.12289026911 -0.078566374324 -0.13364045246 -0.014365005286 0.0063913841732
          -0.15123722637 0.012293043442 0.015948697075 0.042778681758 0.025676168335 -0.0093767665131
          0.31793649244 0.02968761554 0.11483484342 0.30555093122 0.016484159316 0.109024146
          -0.19524031212 -0.0040255756489 0.027896678578 -0.19526594847 0.0050725174261 0.018956457274
          0.15222780909 0.025438255465 0.036952251616 0.29861867511 0.030593532995 0.099907562624
          -0.19693140075 -0.0052162369681 0.023477997987 0.35843971644 0.037749026577 0.13244800609
          0.29007711505 0.038485314796 0.076991573477 0.30331913574 0.03510350651 0.095218030359
          -0.13565860021 -0.001825718771 0.02562580045 -0.17470667793 0.01460336722 0.023105176647
          -0.1438421078 0.013903132365 -0.00056521623469 0.28984769708 0.019667639598 0.080277581198
          -0.10740328093 0.0031496069875 -0.010994090661 -0.16652908004 -0.0030659431156 0.0041868095514
          0.32829965898 0.028917951478 0.12695663095 0.36474993338 0.025648200988 0.13529626874
          -0.1497319308 -0.0028627178312 0.023211960736 0.12332903167 0.01717926599 0.0140462661
          0.19676340054 0.021647811771 0.050036259395 0.25435763909 0.022988280187 0.038145167656
          0.2233540928 0.046980385245 0.047974991586 -0.13886695137 -0.010865489256 0.0040832199464
          0.30527688775 0.032155569523 0.096396961149 0.30472945832 0.03397638926 0.097185255998
          -0.19312931474 0.00078976702232 0.030129345028 0.31905178111 0.035161499408 0.10583319031
          -0.17630911621 0.0053926599012 0.03044242883 -0.17564685845 0.0091498832817 0.018625476863
          -0.20287096522 -0.0011035458743 0.031889629896 -0.19853010758 -0.0040584683159 0.028614301507
          -0.078524159712 0 0 0.04406815585 -0.0081617724625 0.0068420258523
          0.18713808621 0.027116027114 0.053379653484 -0.094156903206 0.02007437231 -0.01640560348
          -0.18772224375 -0.0015070391583 0.024034512102 -0.17375895599 -0.008576909514 0.011923819816
          0.36452931788 0.027963308837 0.13858468625 -0.13626024683 -0.0039590403405 -0.0024616821384
          0.23498700378 0.018552609492 0.078362741875 -0.19831339865 -0.0026343050461 0.031997206546
          0.35283097676 0.036401331703 0.13810671056 0.31869133202 0.031051184851 0.099996227488
          -0.15931086182 -0.0063222676425 0.0037514546652 0.35056374286 0.030711481115 0.12793565348
          0.1157679445 -0.0064797610487 0.0047904356151 0.36568081131 0.036930034918 0.13016206146
          0.30517934264 0.032848527832 0.098769349454 0.18768661425 0.021134228635 0.015494437516
          0.31806595655 0.031829879058 0.1123519544 0.050162979342 0.0063655581006 -0.026097932878
          0.32101881834 0.016884812102 0.08265169241 -0.20107482887 -0.0032951913249 0.027528611727
          0.31016346108 0.028590005285 0.08529616901 0.26359182206 0.026410265725 0.053688763058
          0.31029636501 0.031056735495 0.10253551387 0.36967450409 0.027323272065 0.14389778205
          0.3690533131 0.025761580338 0.14354131599 -0.062154208881 -0.0034024730128 0.008416662155
          0.15674186053 0.056769492157 -0.011013909595 -0.18644964662 -0.0043491590684 0.0098484575342
          -0.1482172179 -0.01263580348 0.0043693644622 0.28003900726 0.035712417931 0.083288720387
          0.30569663496 0.034114970243 0.096902197967 0.27081984295 0.034022384331 0.053264437194
          0.18750651164 0.011906706472 0.019974042675 0.19281948266 0.051842589237 -0.0045754153468
          0.29311728442 0.027714707472 0.094843164263 0.15579058828 0.025496416971 0.052807472924
          0.17858311694 0.021682368988 0.026645896193 -0.17558002893 -0.004410898146 0.0080147326217
          0.32099385895 0.016527231411 0.084923624548 0.32070323466 0.00098059070919 0.068731495512
          -0.10949272905 -0.005139371719 0.033395310531 0.23504107061 -0.01176917662 -0.016091453252
          -0.13495965677 -0.00011577923759 0.020837575812 -0.18604128865 0.0036667000703 0.030344985039
          0.25967799506 0.025209415656 0.067820072204 -0.13900120146 -0.0021148927186 0.0083259655854
          0.17375729535 0.0092354058837 0.05385433106 0.31506124679 0.035914621948 0.096844328108
          -0.20207419884 -0.0027165825532 0.02491230417 0.32803721414 0.023941513287 0.12956098006
          0.30938886991 0.035678749923 0.10387323676 0.050419751505 0.0032045614627 0.0065326941732
          0.16054876222 0.021714296189 -0.0014606328414 0.16312530428 0.02697629696 0.025591543394
          0.19376600929 0.04598504604 0.058354749997 0.26412434423 0.033632799285 0.052502464865
          -0.1003935878 -0.0075427897062 -0.022465616557 0.3275250147 0.030783097314 0.11559366168
          -0.1828453572 -0.0045322950583 0.011423875238 -0.19088787614 0.0003954790891 0.023666583
          0.28549873626 0.030247885857 0.07631934733 -0.18533596959 0.0056449539058 0.027221407909
          -0.12401594426 -0.013117476949 -0.022710843875 -0.11171473775 0.0025274226476 0.021642633221
          0.36076752215 0.03308568443 0.1431996248 0.19022423907 -0.020500494874 -0.035635103225
          0.17797580545 0.02288901094 0.028817853002 0.12115852608 0.0068682682647 0.055435231093
          0.28731722866 0.023819611639 0.080211837036 -0.19249207605 0.0053494660835 0.019980501002
          -0.20106613148 -0.0019427518179 0.02645793625 0.28671737006 0.025771128716 0.08433767598
          -0.13546111388 -0.0026786320194 0.010792388921 0.20285717314 0.028235534074 0.03433921776
          0.30224550504 0.040068063405 0.095489321658 0.032457254584 0.0011663976548 0.02437541414
          0.17671641456 0.016725779023 0.013472733126 -0.010379169122 0.0050010730588 0.01294318699
          -0.19559900218 -0.0020043940363 0.026651803776 -0.073544237561 -0.0060781556701 -0.0063981923372
          -0.14955949916 -0.013238841354 0.010459945693 0.18355178985 0.022717030617 0.052951350404
          0.29899095662 0.035784185002 0.084714801922 0.34431590766 0.038608937979 0.13024013071
          -0.085295369991 0.0027974003559 -0.0029244033482 0.16743897793 -0.030619318458 0.022588228362
          -0.061904505576 -0.0051351739995 0.02237634336 -0.14984554099 0.012378369472 0.019320569507
          0.16413080957 0.0076883844772 0.0035190879037 -0.13940355508 -0.0075590791327 0.022731802153
          -0.18789881637 0.0028706705642 0.015053817304 0.30537747 0.02536921759 0.095400864668
          0.19002902248 0.0015874290986 0.043405922005 -0.15909719984 -0.0069900203993 0.0038344781668
          -0.2014989821 -0.0046481411577 0.030469455688 0.36499562566 0.024733287624 0.12490839318
          0.20787916515 0.037269621541 0.019037393438 0.25606771386 0.0056905987928 0.075582409132
          0.35443013619 0.02266717846 0.1265661504 0.16341713977 0.028400095107 0.032515493547
          0.16429088631 0.029190647442 0.033295226776 -0.16654280414 -0.0031003194093 0.024392003896
          0.35423601422 0.024173011018 0.12519695302 0.37188005973 0.023540990611 0.13961779505
          0.36390644702 0.017372033547 0.12938609526 0.091316163253 0.0042043119275 -0.00019419757644
          0.23147899219 0.092266131806 0.056016479191 0.33807616288 0.01878518337 0.11313481829
          0.29668593049 0.025862896938 0.086240702682 0.31747259307 0.030942605155 0.11384485215
          0.33342288796 0.031783215821 0.11734162531 0.33949252818 0.020868544053 0.12157929422
          -0.20097914927 -0.0019226699181 0.027634299391 -0.092700733663 -0.0094550457878 0.0028119033487
          -0.11218639966 -0.0057372102481 0.0084794790853 -0.17211925689 -0.010049971578 0.011293928613
          -0.20044458406 0.0032350647698 0.028867407507 -0.19656970782 -0.0062065522656 0.029682024391
          0.29960394214 0.029572585896 0.049176414907 -0.20140163584 0.00013573661473 0.028568442971
          0.28887076267 0.035163302681 0.080003890187 0.20983522292 -0.003362447193 -0.0072822146424
          0.2971287497 0.024136974185 0.080523644966 -0.10630471043 -0.011991274539 0.0097746374745
          0.30511381663 0.032960849664 0.098636008681 0.36010823953 0.03205858977 0.13122175549
          0.007019983963 -0.019347278141 -0.049825500432 -0.20041655118 -0.0040621045232 0.02566153629
          0.11441706375 0.0033607062504 -0.015877911022 0.36173647497 0.028656702761 0.1337038329
          -0.19902524627 -0.0028112745772 0.028100702924 -0.11893234465 0.010063807109 -0.016301967325
          0.17684947089 -0.0027199254706 0.019105092623 0.363950494 0.030023740207 0.13038654062
          0.17550046879 -0.059820088414 -0.0024947364262 -0.19414606095 0.00016626527119 0.032900833788
          -0.18725155232 -0.0057258711803 0.012893990899 0.29673276184 0.024662185725 0.081198144857
          0.18521728883 0.01277687884 0.031531609941 0.044604741696 0.018021151964 -0.043163214237
          0.17125993742 0.03311877262 0.017250246129 -0.16594451301 0.0057683854269 0.014796447115
          0.31111106623 0.029468131988 0.10848898951 0.34246840965 0.012558890279 0.10748486748
          0.3584894362 0.025215934111 0.11429430565 0.18390597365 0.088811317033 0.036000948486
          -0.049790335683 0.0056522235664 -0.0042848261097 0.1188256114 -0.0070505302405 0.046612709658
          0.23626672037 0.029215933077 0.080022413333 0.32207916047 0.029085740011 0.11120720013
          -0.12347202838 0.016033227553 0.018773954793 0.30552867008 0.037148058344 0.10535397918
          -0.019953630205 0.0060886309282 -0.01594131322 0.28891037842 0.041842603312 0.047845530807
          0.083139526521 0.0088472238576 -0.011602293899 0.34594432879 0.035945619374 0.12710499645
          0.30126029643 0.027963363597 0.10135844135 -0.15418176484 -0.0036762833197 0.014843748437
          0.31960188953 0.033174704375 0.11915816653 -0.0051376126882 0.012185193682 -0.035132241717
          0.34314624125 0.017563919785 0.116125747 0.31539869213 0.037251207303 0.11496829812
          -0.095012955661 0.007851364074 0.021346382025 0.10865042661 0.014105623022 0.033354853223
          0.33624446152 0.03212771958 0.12569527814 -0.11501820989 -0.012235484285 0.027712578653
          -0.12929797286 -0.0011637284788 0.01832097483 -0.023643270844 -0.01208875963 -0.032082306038
          -0.17420723598 -0.0036286690808 0.035707367812 -0.10328955174 0.0016396683819 0.011444576121
          -0.16488459844 -0.0087828221702 0.013688268328 0.34089278351 0.033688244341 0.13125895385
          -0.17969421157 0.0014479260537 0.022504680015 0.21769899255 0.029521592242 0.069577399472
          0.29908479399 0.035688970666 0.084617101981 0.17266594911 0.03274654552 0.0027739757973
          0.25834441361 0.027189429874 0.084122597223 -0.20042803184 -0.0012267012355 0.029527928714
          -0.19630188622 -0.0027568388296 0.028111695679 0.33939692615 0.032260160395 0.1217017303
          0.2182521783 0.025308273918 0.067725819825 -0.13715914009 -0.013872096972 0.018413247573
          0.36185961632 0.032595057219 0.12771685475 -0.15767591061 -0.011847457625 0.015168475437
          0.36123345621 0.026978869386 0.12683262419 0.35548911423 0.037550926392 0.14740062142
          0.36332417483 0.032361737112 0.13263672281 0.3090192854 0.028926178622 0.10612722888
          -0.14276102545 -0.0076337126704 -0.00179512749 0.35903776204 0.028986149083 0.133609544
          0.32780949284 0.034806973549 0.11830240657 -0.19612118218 0.00093444189875 0.029248832361
          -0.18423916463 0.0041953818261 0.031633518438 0.2607786613 0.015256517005 0.072732052508
          -0.18891021662 -0.00020636113212 0.023126948718 -0.14304474989 -0.006843368998 0.0066563312832
          -0.18947146942 0.0061286907018 0.029298267597 0.1634584474 -0.032836157747 -0.020130384336
          -0.20595845614 -0.00035463301716 0.02614261054 0.35180493203 0.036491480141 0.12254875951
          0.35474228652 0.03216279489 0.13628425167 -0.084144104468 0.0065722465142 -0.031141013956
          0.019823730014 0.0035013452696 -0.00060671542859 0.090781294431 0.034135874667 -0.011183651551
          0.14528623167 0.057890583888 0.027618679706 0.063021511122 -0.0022813279213 -0.021058975472
          0.2909352908 0.03296688143 0.081562617272 -0.16966356249 -0.0093767834286 0.032716190892
          0.16399831194 0.0012678672857 0.0020505404558 0.12681782335 -0.018995937677 0.0072935179189
          -0.19634722569 0.0035465283028 0.033658571851 -0.19794427231 0.0019463570335 0.032644778604
          0.19226766835 -0.0076127748336 -0.012218609026 -0.099714184834 0.014651260493 -0.018968995279
          -0.14421737656 0.0037005884681 0.0020953618898 0.3255640459 0.042131540621 0.10348287231
          0.016596396458 0.010084143105 -0.016825982105 -0.1911981705 0.0030749550392 0.022189309922
          -0.12943388213 -0.0013136841998 0.01948302257 -0.19995504277 9.9446534739e-05 0.025909240222
          -0.17168668984 0.0081095883466 0.024055075526 0.14221500924 -0.035977548707 0.033605669039
          0.1651992028 0.036606148481 0.0051164567123 -0.18947368046 -0.0038119625802 0.030166579716
          0.18460271271 0.024139844256 0.012159039875 0.15080120115 0.031055661684 0.0088913988982
          0.16519404367 0.036582700851 0.0050554965104 0.15775010041 0.017615466288 0.014690974323
          0.28408553361 0.01921321432 0.073925315202 0.33355007433 0.034136950416 0.11478657532
          0.019024038299 0.0078999832682 -0.021236323797 0.23507313472 0.039644962904 0.056968940388
          0.23260738312 0.04059600569 0.060297327379 0.25551986327 0.033077027671 0.045702378939
          -0.10495489266 -0.00068002890926 0.010105343353 0.19531363518 0.057453663419 0.012550678097
          0.289825344 0.039070016222 0.091793079334 0.23163481601 0.025452824357 0.044058639166
          -0.071075721622 0.011250623552 -0.010132398482 0.25844801093 0.034301369502 0.04429282673
          -0.19645187548 -0.0015372385478 0.02242935251 0.35687458621 0.027980693958 0.13425172881
          -0.085039542082 -0.0049844564183 0.0053007096467 0.32384397227 0.035533918659 0.11687841615
          0.014973397345 0.027304775871 -0.006828463277 -0.088804719734 0.002232676568 -0.0019139919052
          0.10722389205 0.036128198947 0.02200728841 -0.10439453447 0.012978186516 -0.020186381603
          0.072713576432 0.030724691697 0.022746803591 -0.19493836138 0.00062674866863 0.022435029045
          0.3144873726 0.037624373621 0.10888174081 0.32749876008 0.029950242704 0.11534368041
          -0.028684881626 0.00016503958163 -0.020246297455 0.30194642723 0.026793305059 0.094698082294
          -0.12829508683 0.010831045505 0.028691510167 -0.15971691341 -0.0080562527462 0.036141668921
          0.31877317821 0.0303431209 0.10591909964 -0.11563901987 0.01149876953 0.0013013604402
          -0.09779131723 -0.053638454715 -0.021542940013 -0.18577391998 0.0028189109899 0.015628243635
          -0.15477771403 -0.003767899308 0.0069896965705 -0.11313341408 0.022447289154 0.0054689252622
          -0.2011110598 -0.0019311035466 0.027161562644 0.25564531791 -0.054373803947 0.0077626709524
          0.18154685017 0.0034069947969 0.047785748673 0.1934600427 0.019000740446 0.029191702875
          0.30307816606 0.028090232619 0.095681845102 -0.19915981661 0.0025991938174 0.028722982548
          0.36012778506 0.031606847744 0.1356046989 0.30443333404 0.037846788424 0.094284605781
          0.29613071981 0.021341959409 0.095514102656 0.31309259119 0.0077598666999 0.097257082639
          -0.094359685148 0.01047447954 0.016101420196 -0.19540600494 -0.0014452438974 0.031843208861
          0.29978307724 0.02766035696 0.087727382201 0.27069954047 0.0460161533 0.047938786067
          0.29753438479 0.02632295783 0.086095079003 -0.16844649224 0.0083159827477 0.032372387237
          -0.14204967052 0.010285467659 -0.013306351635 0.31730039126 0.03452719573 0.10804167867
          -0.087945993517 0.010790003941 0.020970886716 0.0089758584044 0.013382567461 -0.01345973622
          0.2826610331 0.023423359394 0.073290238416 -0.021305127934 -0.0045603957294 0.01888204914
          -0.19500497134 -0.0024135573605 0.030654921241 0.15756636145 0.010998003027 0.047082457697
          -0.17458280128 -0.0019091652977 0.03811236584 -0.14663418974 -0.0059696925365 0.0023168643331
          0.30194120009 0.040192220088 0.095246193501 0.22319672948 0.04431717632 0.040136905711
          0.35084126968 0.029849119219 0.13756385033 0.18286593279 0.01063474992 0.017142630542
          0.17071522922 0.031315781301 0.0048906747151 0.34633548932 0.032005696084 0.12547088743
          -0.19765064916 -0.0040073938055 0.026166997196 0.16440691966 0.0045929518886 0.0014361713304
          0.24334558845 0.033422038635 0.074166264977 -0.19471616618 -0.0018086260958 0.023835315917
          0.116118384 0.0025376227396 0.021855552195 0.36131217418 0.02954386874 0.13416980865
          0.35761434343 0.028332906503 0.13558023287 0.28028926998 0.014284503502 0.091012356824
          0.27966386697 0.013136864768 0.067269261407 0.21799206279 0.019370668322 0.025036264617
          -0.018261338542 0.0045080448045 0.016767586175 0.32694920589 0.034822747795 0.11206371533
          0.29710973813 0.037121102038 0.085004242466 0.29754963043 0.035165788985 0.091349004467
          0.36518467903 0.031385281489 0.1278385334 -0.20011866188 -0.0028707434873 0.027909674087
          0.33390421243 0.019727546014 0.095957665513 0.35303493581 0.01612190324 0.11556856149
          -0.096682762003 -0.0049559915563 -0.030643878036 -0.14131076861 0.0059770213634 0.020405933373
          -0.14175122461 0.00069541808792 -0.0066439489171 -0.18948803462 -0.0031443203996 0.020619174343
          0.28897510985 0.031319719602 0.075754940806 0.17469170418 0.021621863934 0.032505880609
          0.35913039332 0.033115320133 0.13162395176 -0.20149828254 -0.0031853837294 0.02549076891
          0.30402755602 0.025522238072 0.09758378974 0.34292587191 0.033015287132 0.12223343753
          -0.19890272279 -0.0021964269088 0.028975085764 -0.15182548733 -0.0075654886404 -0.001183630123
          0.17794967077 0.022028411558 -0.009494522366 0.28886796969 0.033552676349 0.077673548882
          -0.091434578431 0.0040468343137 0.034197926621 -0.13997241399 0.013644350287 -0.015477208239
          -0.20000718969 -0.0024501187864 0.028092002945 0.34901829521 0.029733135223 0.12959347864
          0.36441315744 0.036531980039 0.12850088691 -0.17893004559 0.00018712687272 0.024056398587
          -0.069987999347 -0.0017331772099 0.0270485015 -0.040811982898 0.015092275139 0.020256427784
          -0.025441234698 0.035289952256 -0.014769359835 -0.013599998549 0.026775235905 -0.036927169449
          -0.060083355588 0.010636245051 0.00033744002152 -0.19679129333 -0.0037794688617 0.024922892026
          0.099757763797 0.03316258664 0.01235447712 0.090005462491 -0.0059667392735 -0.023994440295
          0.21777363006 0.030980908399 0.073521289921 0.3090967239 0.028423236679 0.099046506456
          0.3525641047 0.023037447976 0.11675703656 -0.14705163426 0.011187630049 0.014707237102
          -0.14712296277 -0.0057901565402 0.0069613407376 0.3240103439 0.035315449179 0.089989172063
          -0.20028963846 -0.0020855841996 0.027220325427 0.307391209 0.029946527166 0.10584352496
          0.028896701921 -0.0016001519521 0.018747956327 0.35135284688 0.089380720058 0.11882304973
          0.30648359575 0.039281308041 0.10512198931 -0.13708258875 -0.0051073493793 0.023572892757
          0.30587378372 0.029091586781 0.10573215265 -0.064576474399 0.043278172888 -0.051594905138
          -0.19008318174 0.00030208259354 0.020447297943 0.28845990625 0.0318410637 0.089570217161
          -0.063866605861 -0.018085929785 -0.028703004581 0.21679327179 0.023928832808 0.068838220193
          0.020482249337 0.010356946661 -0.020882767689 0.17681733375 0.035823620876 0.0011388857202
          0.3332811049 0.030978905568 0.12041668224 0.32937091849 0.031604307385 0.12578637587
          -0.19493997275 0.0012298842783 0.030788036204 0.22050495363 0.023200520491 0.068497362635
          -0.1974075553 -0.00084069242335 0.024173327735 -0.11013339559 0.014294719204 -0.01449345606
          0.095411324905 0.021118561288 -0.028787298863 0.2108038748 -0.0050663976185 -0.0061074421811
          -0.17084759161 0.0088613774924 0.019808584405 -0.15958375243 -0.0042755844681 0.019052028177
          -0.19884549442 -0.0040575330481 0.026022665226 0.27510641976 -0.10966154708 0.098326120532
          0.28871454735 0.039777718033 0.086672718682 0.24840434877 0.0016466059467 0.0797929868
          0.030986077408 0.028388051301 0.00058704679486 0.35827725881 0.026648719668 0.12925525108
          -0.086916269659 0.006812035321 0.024183856962 0.30470530653 0.032152494517 0.099085046769
          0.35614998845 0.030310286616 0.14274355539 0.35452830528 0.034189432163 0.13173840124
          0.36268507676 0.030406930905 0.13556246706 -0.11308218406 0.0087994581524 -0.02235922483
          -0.13307289366 -0.01169700996 0.02629670142 0.30617720395 0.034365208593 0.097087199437
          0.30674573065 0.037382949239 0.1073631917 0.36092850194 0.032305736706 0.13077869541
          0.29515334537 0.025850154774 0.080753439611 -0.0081625044218 -0.00019518775365 -0.043462717443
          0.30855959252 0.028379784566 0.10606166349 0.28681603492 0.034149736485 0.081858214291
          -0.19910535347 0.0013344017754 0.023195389975 -0.17584350546 -0.0052191237177 0.034158820064
          -0.17168575915 -0.0046317884741 0.018835289617 -0.19652992202 -0.0026076076196 0.022525299518
          0.10021776508 0.030126638006 -0.013414793151 0.34114264327 0.016173597444 0.12305375313
          -0.12565532652 0.0054156785419 0.0046307832868 -0.19882952265 -0.0019100224102 0.028863162291
          -0.15626534864 0.0037340185242 0.0065219877462 -0.16082796876 0.0026930077623 0.016703211704
          0.36599858203 0.031955825356 0.13532994919 -0.14341336566 -0.0098503094129 -0.0020417101073
          -0.149876156 -0.0047965956401 0.030955245719 -0.13685685753 -0.0089942254148 0.00082313460048
          0.32701736267 0.037961592467 0.11725565125 -0.14932286267 -0.012234474296 0.0093746543642
          0.3609567754 0.027058345244 0.14334840139 -0.19515300061 -0.003041260871 0.025609916205
          0.32923979587 0.029719614865 0.11668070676 0.35671191546 0.027262026549 0.13003849253
          0.30399683758 0.029304432145 0.090153903176 0.36370219534 0.022976695707 0.13733479968
          -0.11746195739 -0.0045102250538 0.026448453665 0.35895262897 0.03470465465 0.12811331293
          0.30193258419 0.029739528771 0.091391212813 0.25586935327 0.018428993012 0.054520413694
          -0.20121721413 0.00098281747441 0.025419925548 0.16086964528 0.049601317885 0.045981266008
          0.16060604783 0.020675479862 0.041200151665 -0.19816676301 -0.0036704068305 0.022256641782
          -0.13617327525 -0.0040246897118 -0.0059801731631 -0.17534077634 0.0016071383715 0.015410902146
          -0.10138728377 -0.017976447534 0.013015867323 -0.090155609155 -0.0065606464687 -0.0040305260683
          -0.071727892165 -0.0046960639285 -0.017414682441 0.24647458187 0.041021370799 0.085980698312
          -0.13991530072 -0.01373892881 0.0032622887028 0.25113479556 0.031391896735 0.073401628206
          0.068510537154 -0.015789746806 -0.033866024839 0.16551714237 -0.02993773965 0.046397135445
          0.116503405 -0.010569505035 -0.031687142938 0.15090793028 0.0046396810843 0.015516721841
          0.26473575799 0.043453405769 0.078697588662 -0.19613762042 -0.001081572295 0.03198292144
          -0.19682697497 0.0087063614824 0.025089290191 0.19274317254 0.0054844057123 0.040361646595
          -0.14464032032 0.0062920391587 0.0010931576044 -0.20496699957 0.00034961231698 0.025717019491
          0.28715978438 0.017469572158 0.071327218434 0.026898971443 0.015705469162 -0.0018302810702
          -0.18736653827 0.0019432273895 0.017107196344 0.11668227303 0.012660020218 -0.018681110233
          0.361259359 0.031055013846 0.13437056537 0.21686299053 0.011477334824 0.03189986594
          0.29845741346 0.025509884026 0.085468116568 -0.11959806235 0 0
          0.1947376499 0.021487814655 0.022333915858 0.15993415479 -0.00073639196239 0.047827695712
          -0.12634380353 0.0046728541294 -0.010441484387 -0.080471199058 0.0012883052593 0.010910220941
          -0.19890489117 0.0013259870641 0.026691528549 -0.19748772399 -0.00076691100746 0.025801911971
          0.26975709751 0.032914925253 0.071988476991 0.30514732536 0.032144009917 0.098119753046
          0.28143746452 0.023533839053 0.068929002213 0.18640623628 -0.017044806333 0.016532576038
          -0.18312101704 0.0020247511494 0.015072698479 0.33579475739 0.028055401462 0.10670525908
          0.36424354775 0.031647323758 0.13675556921 0.30385973253 0.023028006885 0.094534727215
          -0.063767865921 0.0046426176897 0.0040753862386 -0.1470888572 -0.0025405709041 0.0042553418713
          0.24165673449 0.03508968439 0.056194608375 -0.015040433367 -0.015947755993 0.019314802441
          -0.16201007409 0.0039626996465 0.026802948933 -0.14112916344 0.013381541483 0.028806191923
          0.35793351863 0.031053404395 0.12234047062 0.31960584807 0.013147657834 0.07300543409
          0.3010136494 0.030890293437 0.10057691839 -0.15711991509 -0.0062872129386 0.0053441939487
          0.34489354067 0.010710513398 0.098355731422 0.2707364752 0.032942228763 0.074679203337
          -0.023990657996 0.0073530762454 -0.029667864069 0.35262400598 0.031813390719 0.13706225438
          0.19161343235 0.014701223131 0.040263384594 -0.20087042882 0.00039365841909 0.029709517907
          0.21027865683 0.0042910864024 0.06874782868 0.28489018607 0.038763070686 0.091072869089
          0.33010288148 0.030214490161 0.12613237244 -0.045023493306 -0.019374672825 -0.007532295993
          0.34731297841 0.032673389573 0.12465157147 0.34574081634 0.030477586362 0.12439308771
          -0.2009738171 -0.0031287052895 0.026447908484 0.092351191277 0.010904981269 -0.0010261293435
          0.30390365282 0.028047664914 0.090140689412 -0.085434871315 0.018718812454 -0.023589121993
          0.30401265244 0.0386385231 0.095951652835 -0.17159876328 0.0048212522834 0.02583432533
          -0.07166076077 0.0022230209794 0.0030986694935 -0.18237658525 -0.0081644011016 0.01442366811
          0.35779073514 0.032042820925 0.13029893391 -0.19819425801 -0.0021208855326 0.023734168994
          -0.084193659975 -0.0021794436432 -0.0095198926623 -0.15791908966 -0.0057773118439 0.0056370903719
          0.078886990549 0.016280295803 0.022481067457 0.31890928624 0.033894536637 0.1093450121
          -0.18389963811 0.0091052370013 0.034026766098 0.31819176997 0.033782469546 0.11063699808
          0.30000085162 0.027837375317 0.1016215767 0.34787512552 0.031040628648 0.13592107573
          0.32091908101 0.030331022129 0.11595875019 -0.089523354868 -0.03327018131 -0.012037954634
          0.28314496483 0.031303142767 0.07415560955 -0.20004506588 -0.002730387261 0.030182729115
          0.32288707699 0.033291527119 0.11908671399 -0.19788543254 -0.00019395906293 0.026882141743
          0.31062401073 0.031299864022 0.10178837249 0.28009403703 0.037690102419 0.090715385635
          -0.023222938403 0.0079447034433 -0.019771225098 0.34991027886 0.029613662975 0.12962629119
          0.043790735068 0.011529845712 -0.046185456554 0.33355982399 0.031725965595 0.12007143527
          0.11803149667 0.042927065277 -0.031988709127 0.29605975157 0.026298463311 0.086502791728
          0.3591435524 0.028030113279 0.14057967265 -0.050660232263 -0.028109103261 0.023391515248
          -0.14568911458 -0.0079052596654 0.0046752532995 0.31168467569 0.027530131379 0.10633739524
          -0.20092650064 -0.0016973450383 0.028382458082 0.30822256453 0.02872834635 0.1064943897
          -0.18308261586 -0.0031478069917 0.01993134816 0.36305952667 0.027223519846 0.13073866817
          0.30798267165 0.029817993037 0.10562201462 0.34611567608 0.035436633307 0.12645856728
          -0.088855653417 -0.011105919432 -0.031490980975 -0.19840021964 0.00078279322517 0.023564317823
          0.1931201371 0.022867177424 0.065988684879 0.34789828637 0.027282029207 0.1246198808
          0.3469842145 0.031289637496 0.13070125718 0.18856182779 0.024673657824 0.046448844821
          0.3573558926 0.032877299373 0.13520133842 0.30103571161 0.02218763715 0.08658000163
          -0.099218383554 0.0044086860701 0.017412652433 0.27620721187 0.019858625955 0.081410613839
          0.25820925747 0.043310697855 0.081716063686 -0.1886929912 -0.005584936305 0.0182156718
          0.30169608812 0.028835571643 0.090415337528 0.32895354245 0.026932162116 0.11817791617
          0.29563947937 0.021672939448 0.078658704941 0.36391798277 0.022726170499 0.14241376122
          0.19686907307 0.022760546048 -0.0087367408619 0.019014863444 -0.0040776342833 0.013269112475
          0.36176735947 0.033358302139 0.13051847413 -0.013128292836 -0.000752382442 0.02158058332
          0.18333937174 0.030364948868 0.028298240327 0.36665226665 0.030850673841 0.13415341927
          -0.19777917635 -0.0034241109873 0.02527235931 0.29661308449 0.026422033658 0.084580492407
          0.25707878976 0.0099095051401 0.064952927392 0.36217427427 0.033947404451 0.13329001304
          0.30637289726 0.03461426234 0.097426731082 -0.19521991855 0.0027428102434 0.017213038905
          -0.049016544786 0.025750531057 -0.029093118284 -0.095494484866 -0.010116732372 -0.031190170209
          -0.19922076763 -0.0033405008282 0.025258070435 -0.20107869492 -0.0028565900751 0.026135683351
          0.16016251201 0.02131909673 -0.0014598293286 -0.10168326995 -0.015974370529 0.026908875245
          -0.19827626646 -0.003597523503 0.026604512928 0.17014559271 -0.049965201023 0.023004254409
          -0.13730689569 -0.015487477961 0.00318717899 0.32801968506 0.035196870109 0.11779090538
          -0.15750728718 -0.0096929732891 0.029775783408 0.19085238264 0.016588830815 0.028285663595
          0.20828733606 0.04336417145 0.020841436141 -0.14269241085 0.0078058998687 0.02305547576
          0.2260475237 0.011720456034 0.022449592399 -0.20213542305 -0.0024346622434 0.028800577886
          0.1921438947 0.039452695234 0.035017720552 -0.19715983227 -0.0059244895077 0.015173307975
          0.2923978466 0.022973847995 0.093291004976 -0.010438905927 -0.012310704131 0.011361536835
          0.14250904078 0.027797974151 0.0022186203064 0.011218388384 0.033670648741 -0.049243170587
          0.21911100121 0.025724154369 0.067528871954 -0.10310216228 0.021552556139 -0.036102145712
          0.31342500688 0.030151285988 0.099381863208 0.3112903846 0.034168909394 0.095544113393
          0.21799976486 0.012936178014 0.02104760845 -0.030610997516 -0.019793683819 0.020909481401
          -0.13369415536 0.0090003975904 -0.0052891069728 0.2945299344 0.030469503742 0.082406230684
          0.05266535976 0.026871241831 -0.0085238347641 0.28468672186 0.022311614523 0.074509768887
          0.24904108531 0.0093164124397 0.070556738361 0.22741614704 0.0045065347377 -0.00029877931675
          -0.15723860799 0.018542348907 -0.00097999481083 0.31009589092 0.04046117157 0.096832450926
          0.14535863959 0.0042484395584 0.049311647996 0.31569345789 0.038861041277 0.10025461745
          -0.20152903227 -0.0022249841595 0.026525406092 0.1857694717 0.024470411739 0.044000102109
          0.25977767278 0.021119349334 0.063198697682 -0.19182226187 0.0079154494163 0.020425974572
          0.3133167352 0.028549000978 0.11326656724 0.2846032158 0.030085155097 0.080551336117
          -0.025724945496 0.0278010887 -0.037643567254 -0.12400047285 -0.012644962877 -0.023292615727
          0.33003390323 0.035589310196 0.11473547705 0.31432828976 0.032822686909 0.1070512371
          0.17869017511 0.011414285099 0.021541172019 0.28230502772 0.013403768716 0.095011983396
          0.2938985787 0.029327945539 0.077060638022 0.30081900916 0.034209298342 0.10272495582
          -0.20012281948 -0.00051920183295 0.024863980208 0.18773320165 0.021400651893 0.01546483907
          0.21351876427 0.031468974123 0.031915583524 0.36126882151 0.030302463116 0.12936858703
          0.29256458741 0.020126678973 0.11722129231 0.19672432221 0.01355400485 0.036278806419
          -0.064704915435 -0.0024030532043 0.024034630333 -0.16931122215 -0.0067900971833 0.02065919696
          0.11904107312 -0.010892431734 0.010526799428 -0.10457331287 -0.0038981668813 0.013682231662
          0.30815156953 0.031593025721 0.10440445818 0.30770855259 0.03746547988 0.10447955522
          -0.15421998911 0.0075114526628 0.0042059249262 0.14735623284 0.042674279574 -0.014872148761
          -0.11884336366 0.0008291741444 -0.0032610761556 0.15733371224 0.040532473065 0.040487731159
          -0.19776159528 -0.0055414395753 0.023248967163 0.28815281357 0.036608253466 0.082256962485
          0.17613855981 0.025920895945 0.027500823359 0.29043033144 0.034652822185 0.081741626418
          -0.12825847391 0.017547713179 0.023450272264 -0.17488870382 -0.012239273855 0.025037399139
          -0.20331434671 -0.0013401301839 0.028089760333 0.15946529414 -0.0043586048923 0.036062939231
          0.27048113442 0.035175786705 0.062512391271 0.12634578945 0.000349086005 0.01876393754
          0.25538814432 -0.0014310409361 0.075566556808 -0.15540670788 0.0030256863138 0.0053107615357
          0.31522346994 0.030398798326 0.11354490337 0.30209422077 0.032357388789 0.097562914937
          -0.15834450844 -0.0034770009048 0.017155512358 0.18917183111 0.029299913606 -0.036621905802
          0.30835700169 0.026517887335 0.10050945918 -0.17270247995 -0.012954765378 0.015107885809
          0.36580175602 0.019452058932 0.14185370151 -0.075476606556 0.004673103673 0.026747461797
          0.18384466487 0.029855285877 -0.0044899739667 0.34374358858 0.021074665123 0.13646811627
          -0.05720075361 0.02676424696 -0.02440846234 0.15517243992 0.065695889292 0.014948569085
          -0.1934292778 -0.0037033097272 0.0253198777 -0.18691919915 -0.010259293979 0.027682079102
          -0.13916985146 -0.0034571881262 0.022384494413 -0.18524451406 -0.0069545657024 0.018821065216
          -0.19948368595 -0.0040675206347 0.026209853523 0.16601287137 0.0088289451853 0.003933035834
          -0.025551862342 0.022076058496 0.021431263242 -0.19616560287 -0.0044226700822 0.023163514722
          -0.13084925791 0.0069061930733 -0.0026454528922 0.29051427139 0.033802165881 0.081000094698
          -0.095435639045 -0.0029349835515 -0.030380079456 0.18166052086 0.037071933595 0.042996500859
          -0.14990754343 -0.0034707999725 -0.0026458736303 0.078393681206 0.016087878571 0.022259680542
          -0.13659483051 -0.01077772556 0.01067581236 0.31696836477 0.004236924165 0.099331972697
          -0.14347513633 -0.00058436775614 -0.0065630116315 -0.17707706588 -0.0036990906195 0.0094844364493
          0.34516542817 0.030868190067 0.1228826164 -0.082653706627 -0.0060832056885 0.013921585865
          0.36062851041 0.024435367528 0.1319106589 0.32329670838 0.037829903821 0.11833359572
          0.3489318724 0.027348729086 0.13673400485 -0.18007433673 0.0049506760222 0.010162042941
          -0.17052765695 -0.0016428241206 0.0047132211096 0.1530732031 0.054820878772 -0.010701676741
          0.31150414235 0.027082835469 0.098589794004 0.34184043853 0.026376773574 0.11235755252
          0.085340773345 0.026737170747 0.013311605848 0.084485762156 0.036386052545 -0.0023284929908
          0.1582944694 0.049958187054 0.019035040211 0.097521608834 0.025781310025 0.012151279434
          0.1566804769 0.05859926794 -6.5410623797e-05 0.32095116743 0.035718521245 0.1083000088
          0.16398886431 0.030142225267 0.044273955547 0.18239963122 0.029361908308 0.041607577267
          0.31673308826 0.031296438515 0.10681945865 -0.19196038504 -0.0043725447063 0.020367541878
          -0.13047965795 -0.015611261495 -0.0084398327362 -0.16747038876 0.0067514579933 0.003492277985
          0.0042572075682 0.02486767127 -0.028451198153 0.29186950458 0.038852067896 0.08248266675
          -0.14261072062 -0.015154849409 0.02028573721 -0.14141462526 -0.012260188718 0.018522365879
          0.082158509744 -0.012287809664 0.041278086495 0.16119591363 0.010455223711 0.0029493153884
          -0.17703065727 -0.0071691683792 0.019210192512 -0.19874813681 0.003529743238 0.027946712424
          0.19674587117 0.013135735707 0.026675666574 0.18941056478 0.032508182142 0.044722914896
          0.29314632192 0.04013610474 0.081497996702 0.20148317307 0.012092047739 0.059790821518
          -0.16665275582 0.008136138467 -0.0012975206022 0.37011167768 0.035193798773 0.12803469824
          0.30389363764 0.066154035136 0.065575811773 0.042699520024 0.023981696651 -0.00177067157
          0.31026253715 0.046241873389 0.10716655548 0.13574653553 0.0031090389363 -0.003204014262
          0.17162212378 -0.050297122797 0.024690210013 0.024721414834 0.017425490037 0.025784002581
          0.30364807864 0.02867793164 0.0945740707 0.34923247411 0.031682092436 0.13354880103
          0.057412219888 0.0074877663936 -0.0085353552959 0.2540884092 0.011318882737 0.049140611833
          0.25692356347 0.0093052408117 0.079823529096 0.28146483366 0.036889323142 0.076442337243
          0.24797746492 0.028054908048 0.081633299581 0.32127295498 0.029443620092 0.11226088884
          -0.20024820311 -0.0010934204908 0.026449163013 0.17500651351 0.040548515016 -0.0049747097161
          0.28093172272 0.03744026534 0.093022229512 -0.058019874182 8.6736173799e-19 6.9388939039e-18
          0.30305927488 0.038860630801 0.097260967264 -0.19980634104 -0.0018724027335 0.029377170491
          0.26815728476 0.026071301654 0.054878089863 -0.1842160072 -9.0258103142e-05 0.035668768733
          0.21970642093 0.037189875163 0.019752482571 -0.088615249129 0.0022307881927 -0.023055386255
          0.19835261608 0.010682603193 0.022605415903 0.31616344789 0.030978410599 0.10744860957
          -0.12528778045 -0.010215777221 -0.016146088562 0.36076760063 0.027841328152 0.12832988974
          0.30658152204 0.03907730756 0.10008234533 0.17252888718 0.0096050140764 -0.0012337370195
          -0.0097988956442 -0.0072579063102 -0.036741020222 -0.11305615687 -0.014184979102 -0.0058841020454
          -0.093493382009 -0.0043918957256 0.02363857432 0.26006113398 0.026040674477 0.074230080393
          -0.14836423964 0.0037705291645 0.0095937787124 0.3468716166 0.030622121774 0.12779164014
          0.30025262471 0.041535939904 0.098290208666 0.31902137376 0.030625957714 0.1059681099
          0.18237155761 0.021248913557 0.02626969839 -0.14482569501 0.0084641828597 -0.0018622949866
          -0.17283428504 -0.0055364730294 0.019888015284 -0.19835300159 0.0033503182539 0.028074053258
          0.29838470178 0.025842517169 0.086134969619 0.32051109397 0.028685882678 0.11266188709
          0.28688757117 0.028486317195 0.074703311525 0.06187890119 -0.14069701617 0.054604968036
          0.25407138762 0.03685035187 0.096705223003 -0.0093690016348 0.025457752555 0.0090833037309
          0.30011708749 0.031146952271 0.089662623431 -0.1801081056 -0.0063893963672 0.01690008506
          0.04237313867 0.013135150894 0.018471494721 0.074281825655 0.016665377793 0.024220132754
          -0.074994848995 0.0012447001395 0.018170550613 0.045209985872 0.037828315224 0.016346507561
          -0.072584386731 -0.0021008721387 -0.031649245091 -0.043483156178 0.00037907949897 -0.0072425650219
          -0.19708133621 -0.0053469429455 0.026681786795 0.30012186835 0.031114596747 0.089662476052
          0.16405174511 0.024235494711 0.012424880569 -0.19615479109 -0.0005873650187 0.02531249762
          -0.023396783589 -0.0063642627921 -0.036634407948 -0.025357974655 -0.015677607229 -0.030468086769
          0.14459671499 0.020120128594 0.033166589763 -0.19694228686 -0.0047568370301 0.024735577258
          0.27119571668 0.012337459339 0.088238523355 -0.20222973339 -0.0015217376942 0.027249362417
          -0.059385703636 -0.012586180963 0.013921837137 -0.098361757781 -0.0048524693006 0.0045408728936
          0.3058632765 0.029087439165 0.10574795053 -0.20244681679 -0.0039294481767 0.026687688615
          -0.20228783033 -0.00094726232967 0.026717268961 0.33711990224 0.022110015997 0.10673941854
          0.0060242945766 0.012777856199 -0.054214766614 -0.17020425305 0.0044742058556 0.024794434425
          0.20579354136 0.018856867177 0.021019547578 0.35683996549 0.026129132012 0.13431562457
          0.089333709772 0.024824898728 0.011991421038 -0.18759457605 -0.0051123772396 0.030974335568
          0.31836926381 0.032133978702 0.11213518907 0.36335829051 0.020693712268 0.14367314157
          -0.16187185186 0.0040737437668 0.026155072242 -0.19386913869 0.0041607158231 0.034571003641
          0.35314200227 0.032677334809 0.1284297399 -0.16309637942 -0.00064406123121 0.0028402156308
          0.30747676278 0.029430526401 0.098222650992 -0.050598930335 -0.028129042164 0.023205333189
          -0.072302381865 -0.0079377360213 -0.016796575453 -0.10493509197 0.0017565139001 -0.0097277949697
          -0.17363226414 -0.0020804787849 0.011489560631 -0.051410946963 -0.013127974544 -0.004891543397
          0.34917125082 0.035117338486 0.13002970369 -0.066943122452 -0.0033060551912 0.02230442982
          0.17377286723 0.021324579411 0.027478368348 -0.073669698645 0.0073020982045 0.028851278066
          -0.20126175961 -0.0016629614357 0.026468598855 0.11175782395 0.005360534885 0.017970636723
          0.29903920836 0.027605071639 0.090014964647 0.29207236088 0.036348926636 0.093969984912
          0.30936146263 0.040193903424 0.10474139483 -0.14126208982 -0.0079625297586 -0.0092092998294
          -0.16089250404 -0.010518171981 0.0060257709231 0.15069136401 0.086086687347 -0.025757492412
          0.3623647692 0.031131248058 0.14245104226 -0.18828612557 0.0024723897286 0.024370792902
          0.25204490888 0.01599319185 0.07780548687 -0.16229260417 0.0066315208716 0.016441789473
          0.26314962915 0.018937518815 0.053218199145 0.28381127531 0.036991833043 0.07876618174
          0.34413880233 0.022098039681 0.13372604372 0.32977070967 0.019299664381 0.12679396602
          0.34283877232 0.012749822327 0.12268285906 -0.19945054811 -0.0015238216888 0.024871488113
          0.26764406309 0.038174242053 0.071255361219 -0.19985696769 -0.0012597908458 0.026372574059
          0.11944108953 0.023030081259 0.033406310897 -0.16911095632 0.0086484530702 0.027635564492
          -0.049122987231 0.0048619473458 -0.0075156459297 -0.044621807444 0.017411529985 -0.012882306101
          -0.10377171255 0.0018541172592 -0.03176414606 0.36980305393 0.023855889869 0.13725109133
          -0.15718586434 0.014143982949 0.007942978473 0.36501972988 0.028273537291 0.14146622916
          -0.11441196824 0.0058736826617 0.0043126494459 -0.11441057293 0.023572010662 -0.0068204652819
          0.031242668168 0.028749534557 0.00017438299349 0.1999173859 0.02111992814 0.00020335787837
          0.084672713462 0.006579726593 -0.017132408648 -0.018455213023 -0.0073568626847 0.021503650335
          -0.13803140167 -0.011407560607 -0.0004907473989 0.36725692227 0.029304127918 0.1391039439
          0.33553904996 0.034608226302 0.12774390148 -0.19999330002 0.0029750121543 0.031724110423
          0.35896689596 0.034355997906 0.13372439327 0.25297223197 0.045343356635 0.058449064171
          0.3592542832 0.0379642507 0.13672354421 0.22233269607 0.026010237092 0.056331702292
          -0.1234238932 -0.010142614512 -0.022215605326 0.23586011561 0.038741857802 0.034227970475
          -0.18635584871 0.0010585508215 0.025860453809 -0.13882509436 -0.013850004903 -0.0127889378
          -0.082666793577 0.0079932228463 0.021186858213 -0.14445352025 -0.012733021201 -0.0064361443473
          0.19105203322 -0.0039833995447 0.039272587108 0.35414135496 0.017418286436 0.11561878436
          0.19718127899 0.02430151887 0.071789221825 0.085405283821 0.01633233391 -0.0065341966692
          0.21645533569 0.011183437578 0.035766754893 -0.18640366848 0.0041758731416 0.017472365935
          0.29873900184 0.036024121394 0.090042573123 0.36094048782 0.030120816074 0.12970906603
          0.29702410772 0.031380165727 0.083488347331 0.19615624494 0.013037678233 0.036075022942
          0.04549910995 0.0127552523 -0.040289089397 -0.19850446944 -0.0012110011385 0.029437863351
          0.28604187707 0.039750473629 0.090649068918 0.3188156866 0.028774835697 0.10895882663
          -0.029029427034 -0.0080194900799 0.012463953821 -0.028975669851 -0.0080883332613 0.012898702297
          0.02541831054 0.021269864344 0.022224054049 -0.19712010535 -0.0033449889929 0.029528565321
          -0.058019874182 0 0 -0.16260167 0.0049085346866 -0.0037666620394
          -0.10332806431 0.0016738809148 0.011429414326 -0.15848256291 -0.0067771140323 0.034011253377
          -0.079417874029 0.010347631159 -0.010004654483 0.26288514536 0.038439155404 0.054654704422
          -0.10993260084 -7.2541136429e-05 -0.023025354725 0.27294154681 0.012999668486 0.087237813783
          -0.18630593686 -0.0037968137432 0.031578990986 -0.05706566352 0 0
          0.33288528566 0.031508451005 0.10964882866 0.30462273305 0.03217283366 0.098389998143
          0.23450149901 0.039303185077 0.034234108027 -0.1554356049 -0.00061499833965 0.0043457681316
          0.32921526625 0.015621259654 0.097406663148 0.18980581446 0.015562308777 0.039933665311
          0.17545293321 0.046586852751 0.042140589767 -0.16569536114 0.0062749873115 0.013384568013
          0.09495673083 0.021254166904 -0.028610413284 0.20393761251 0.01305675365 0.030740267074
          -0.16557178238 0.0062730595982 0.014349501086 0.36546121714 0.025026363339 0.13409667458
          0.069697353726 0.036124337284 0.020870075796 0.070567060537 0.034380470626 0.021184955396
          -0.18985133678 -0.0039475272672 0.019075894754 -0.15025040702 -0.0038887100687 0.020349102643
          0.29808273604 0.034588475969 0.091572073337 0.3323200865 0.037487850352 0.10410906485
          0.18403166385 0.035357347384 0.038117666042 -0.13239440549 -0.0022323607686 -0.012492919514
          -0.1946875585 -0.0015057392069 0.020430453178 0.13247191724 -0.0014652184446 -0.010200726818
          -0.065226897576 -0.0099250673604 -0.015568405547 0.28566014967 0.020576816885 0.093256274126
          0.20911563717 0.038629440596 0.02196061908 0.30331459168 0.036169812312 0.10552548857
          -0.065064470006 -0.0063866199369 -0.019880304592 -0.068289637073 -0.012236212664 -0.015924221092
          0.065895221782 0.010393525513 0.028421314947 0.29406198035 0.035834574926 0.081335660249
          0.31244841701 0.035593600809 0.11248131459 0.30274108912 0.028182003948 0.095797381049
          0.19900570926 0.02290512373 0.043535708055 0.3033761783 0.026510357041 0.094013927204
          0.36023217776 0.027062894732 0.12821082312 -0.15382748061 0.0050556578365 0.010929031872
          0.27107992213 0.030399447818 0.076775332698 -0.16624615487 0.00025803107378 0.021270106566
          -0.15054962718 -0.0040245272448 0.0047394925223 0.36827729938 0.025410618528 0.13857865321
          -0.18531460515 0.0037991109883 0.028712194628 0.14871386649 -0.034558615017 0.031576534807
          0.05519910787 0.010648444621 0.0072225151026 0.30292532148 0.037757920802 0.097052343344
          -0.14149783697 -0.012309417202 0.018491712195 -0.20004033839 -0.0025967677681 0.02829990723
          0.34443621555 0.025714613992 0.12876979094 -0.13735750245 0.0075053006728 0.014753594876
          0.36162151843 0.029821637316 0.12144789105 0.35632666012 0.020158490657 0.12915825721
          0.34850958526 0.032979762895 0.11238044781 -0.095883019957 -0.014907126959 -0.0075379710315
          -0.19782596832 0.0022098096722 0.032959177221 0.013192380499 0.0095803878631 -0.035770628899
          0.24816006676 0.0012128055699 0.024143789612 0.33374913047 0.020690951403 0.094958342777
          -0.052706872909 0.0087677217937 0.016501122561 0.32416813458 0.023041374243 0.057504791106
          0.34299941732 0.040336912254 0.11616842019 0.34324035358 0.042645324454 0.11318903459
          0.29831626495 0.033667622393 0.086738764896 -0.2048566866 -0.0013491207864 0.027921712759
          0.013719908206 0.024082910353 -0.011948454885 0.32969349369 0.034440074123 0.11914575337
          0.26883523427 0.026649347873 0.052007624668 -0.14046392475 -0.0079076460152 0.017633291939
          0.19377575771 -0.020896902663 0.020076582862 -0.036817081006 0.0055714226324 -0.00017146727642
          0.34789821633 0.02835477902 0.13918367111 -0.081152367453 0.014288537969 0.033285677961
          -0.073501471783 0.0075863432539 0.028741837345 0.32077257963 0.032204345294 0.091559824387
          0.3066237217 0.034262736494 0.10447097881 -0.18695700065 0.0013277348028 0.014809220452
          0.32776013537 0.044066587364 0.12962757568 0.24060353087 0.03967864317 0.046628181692
          0.28811391386 0.030558871478 0.082141680353 0.35832601921 0.028745507821 0.13442271351
          0.29011452352 0.022777475245 0.071255607536 -0.16259720056 -0.00036769974285 0.0031031895905
          -0.17663227066 -0.0070455190626 0.019565027611 -0.17480259947 -0.006277657887 0.019871422362
          0.07613594564 0.03336858575 0.021019871342 0.25602907657 0.026795981054 0.03946170473
          0.29232319539 0.031820374735 0.034737226027 0.260603985 -0.016402548228 0.046014419102
          0.18644838803 0.005219287494 0.0053599552821 0.1687814655 0.015103709618 0.014476614115
          0.33640652097 0.034055218839 0.114597041 0.28872306259 0.014699183523 0.07679144898
          0.36802355354 0.022706850206 0.14104059096 0.36821064755 0.03380441171 0.13122787839
          0.22237058713 0.004282395453 0.049620718095 0.22638686271 0.0078752814492 0.043320251836
          0.28949676903 0.033421823558 0.097683165428 -0.011143681515 0.02622846336 0.0024919505083
          0.22304046117 0.0061627632084 0.034426194154 0.20925129864 0.018120955938 0.033529878452
          0.29491277909 0.025813974533 0.083708538173 -0.17147750299 0.0079772194934 0.024286876315
          -0.16508167578 -0.011373328487 0.02311738137 0.23835706439 0.022080377404 0.048977118189
          -0.19896512246 -0.0032036185942 0.029978413907 0.029898276511 0.0032804887779 0.019758107065
          0.023015276742 0.0073186758126 0.013906824394 0.25392292907 0.033608824967 0.051578959862
          -0.14010394815 0.012126126396 -0.011845946699 -0.19289828067 0.00060718343386 0.030001240082
          0.23218147422 0.029693678022 0.031671524514 0.16968948377 0.031672027557 0.0002098233047
          -0.19797606812 0.0017777297777 0.025972957585 0.2979051841 0.037737939852 0.091776951805
          0.30193467013 0.040160908187 0.09539041713 0.12375880745 0.0023583584805 0.022539074112
          0.24073989444 0.027428643916 0.068629051762 -0.20042430463 0.0007755909527 0.026557905667
          0.36012630862 0.031077561614 0.14376977329 0.33343192127 0.035616835275 0.10775572987
          -0.18699442964 -0.0051679801055 0.014837661177 0.33349814046 0.035859367876 0.10756013285
          -0.10430967956 -0.0033916321697 -0.023226800159 -0.16219879995 -0.0030915330441 0.0059918604731
          -0.13355640935 -0.012226559697 0.016762862888 0.35900939736 0.02605548181 0.13859349932
          -0.16238576404 -0.0029322373279 0.0060277786124 -0.11925667826 -0.0063265872342 0.023732163452
          -0.20021840141 -0.0020973702032 0.02707003724 -0.070594096565 -0.0029354050676 0.027628044836
          0.35940709779 0.035420489769 0.13477500861 -0.11541266893 -0.013972559055 0.004347752016
          0.19461493207 0.062195285759 -0.014551685523 0.23848673124 0.0042150053313 0.058533043228
          0.35740946966 0.012575600576 0.12779082421 0.2866115282 0.015546997495 0.078347850952
          0.37202364048 0.021547861583 0.12782082556 -0.097050956479 -0.011927375517 0.0053184957845
          0.28322018814 0.019134130887 0.075573914759 -0.098650282377 -0.0046542408705 0.017428262017
          0.34584745993 0.039430704838 0.13629625273 -0.15559697214 0.0045118856519 -0.00037050626276
          -0.14264429638 0.0089166881864 0.00485769777 0.2920798116 0.023242478303 0.092269349668
          -0.18990814488 -0.0013869861817 0.020422263012 -0.086273131041 -0.0006006215792 -0.00021139626226
          -0.18227560862 -0.0085255009556 0.016277056339 0.14497590291 0.019580752455 0.032854652695
          -0.1591974451 -0.0075184359246 0.0034657122165 -0.091595517037 -0.017413752122 0.0022652548008
          0.19921553411 0.0073247739222 0.064790740792 0.17370068452 0.03655773014 0.026825210813
          0.32970885092 0.035303150054 0.11562478799 -0.15643096524 -0.0041287740701 0.01366370908
          0.27460191903 0.015301044652 0.068056963005 0.23002165841 0.0027366508518 0.020199046526
          0.2880973998 0.032090120467 0.089626483897 -0.060960505576 0.01384944832 -0.019158581368
          0.2881638405 0.031222822205 0.090647858949 0.29746805747 0.033525642544 0.092767752189
          -0.20072702535 -0.0041646955237 0.0283980927 -0.19833690173 -0.0055427322935 0.028229079825
          -0.19358588249 -0.0038248967551 0.022054162505 -0.0079621459175 0.00046827439449 0.0095726691764
          -0.20004825328 0.001327252176 0.026508006689 0.025578045911 -0.0073228829793 0.022483061408
          -0.18782323371 0.0091493376604 0.022093976801 -0.19173007969 0.0022286885979 0.022680186779
          0.32698585227 0.014631601446 0.11665780746 0.36477284237 0.030476120491 0.13560333998
          0.17533511892 -0.080155404431 0.064657622706 -0.19021107254 -0.0041045002248 0.03170585057
          0.33060315863 0.033587181421 0.12049486184 0.34828197933 0.027112829978 0.13124174889
          -0.13693075598 -0.015488816748 -0.0062665321776 -0.11202269658 -0.012362766784 -0.0014806774757
          0.33940234042 0.022953769068 0.12317013686 0.36421556072 0.029558952866 0.13045493985
          -0.17409901246 -0.0043563273923 0.0092295432835 0.13691343817 0.016462443541 0.014286461169
          0.28165944226 0.034613822872 0.066852420541 -0.15607716871 0.0017812889935 0.0049500820174
          0.33161790581 0.032199637632 0.1192107793 0.17247141761 0.033836489641 -0.030693648049
          0.18507735297 0.082444865148 0.035616229479 -0.11365115022 0.016965350828 0.0042264995075
          -0.1021877964 0.019438322591 -0.0084841930534 -0.13005753344 0.009467145985 -0.0046100374252
          0.27873480253 0.039339036472 0.092983532622 0.28350577129 0.033832600938 0.092781940315
          0.29946807943 0.032988746764 0.097637539385 0.34119036218 0.031690644319 0.11549360891
          -0.038029384794 0.019101346968 0.019792794332 -0.1939551293 0.003318094356 0.030842075879
          0.33337736159 0.030987698795 0.12020959051 -0.19472047143 0.0020998247544 0.021307763256
          -0.058891766098 0.028823173353 0.0067835229936 0.34297362114 0.0329735357 0.13350958959
          0.15666347511 0.062985935526 -0.0091887481474 0.25009287675 0.0068367801247 0.059173825037
          0.28278836306 0.031766347717 0.094021243186 0.24942562891 0.014018871952 0.050398359104
          0.19492549114 0.021068340003 0.022131443971 -0.1512707654 0.010164232655 0.013891025881
          -0.024078156588 -0.012779942952 -0.019509974137 -0.091135171089 -0.031381982656 -0.03755461823
          -0.11730846825 -0.012818405739 -0.02871141741 -0.16272853093 -0.00096030505782 0.021243446251
          0.25600354392 0.024520282754 0.074967078844 -0.195098414 -0.0044021896464 0.023337158727
          0.35979941837 0.029649632203 0.13290998422 0.35990543117 0.030158539206 0.13253335435
          0.3459686962 0.03360878023 0.13055604608 0.24383291111 0.0016935138614 0.046934803198
          0.29584311674 0.034844399923 0.098759752328 0.35494925766 0.030115601665 0.13765548798
          0.30472079934 0.033349133625 0.10520711792 0.30314554934 0.034265834075 0.10463012932
          0.31142383429 0.032979875369 0.10262293629 0.35857876058 0.028372769985 0.13420544838
          -0.19874525056 -0.0015624877183 0.029765887209 0.023896772719 -0.0071199348122 0.010585518379
          -0.091287680008 -0.012474338253 0.020358826498 0.16718313926 0.029066137533 0.010303482631
          -0.20043993714 -0.0027059640323 0.030531520003 0.1550026503 0.016996245325 -0.0041492692445
          0.27961203813 0.030103019563 0.068431623072 -0.1699442081 -0.0065152611597 0.0034702376801
          0.048440374489 0.010972599024 -0.026149931515 0.098270401182 0.015712722112 0.015242412451
          -0.087905556136 0.00076711055117 -0.0030880542067 -0.20006010816 -0.0006688202153 0.030203867541
          0.19661142728 0.010120884884 0.01749614174 0.31959834555 0.016592606938 0.12676709835
          -0.18300094994 -0.0092008557767 0.012957066554 0.36102553087 0.032357368649 0.12419403315
          0.34162609081 0.026588145756 0.11254360217 0.045146421485 0.037691516195 0.016620981307
          0.16092026167 0.004769433698 0.053177994914 0.29620722117 0.035495959878 0.079808849633
          0.37280602019 0.02608510163 0.13384053715 0.368753798 0.030914569063 0.13566150103
          0.063206714123 -0.0017504707702 -0.013475580957 0.36944688615 0.027670006372 0.13773230112
          0.020190542319 0.011104412934 -0.0080375589738 0.2900601099 0.029123675307 0.080280474483
          0.078980190795 -0.0074082540932 -0.011590231314 0.31659984213 0.033701387003 0.10865239001
          -0.095815248664 -0.013752146842 0.0081102431489 -0.11771032481 -0.0053456313188 -0.0058712168538
          -0.09365451461 -0.002782140135 -0.0023013405019 -0.12368609401 -0.0012216811666 0.0056912396383
          0.32902596334 0.040384460258 0.11515283865 -0.068999152886 0.036535414495 -0.013562738719
          -0.19645100397 -0.0019574941484 0.026029485717 -0.19403494849 -0.003104923945 0.02446754666
          0.33284713212 0.033897527006 0.11534357693 -0.11090656755 -0.011223171671 0.0098304768202
          0.27637335315 0.027612448626 0.090387880737 0.3255952247 0.031938831443 0.12220536576
          0.30826878146 0.029722085228 0.10578647845 -0.047092552212 -0.022059674054 0.018357369753
          -0.11298062854 -0.017313975604 0.00048312138148 -0.13840235772 -0.0061616315368 0.0086017618769
          -0.15360685354 0.0052424504171 -0.00054454206245 -0.14816503758 0.031533298305 0.0038391290278
          0.3618911264 0.031432596176 0.14260511557 -0.10328032309 0.0015956188009 -0.032515583962
          -0.050341017815 -0.063250207197 -0.0057705809223 0.29082937231 0.03276327804 0.094539362031
          0.35371347644 0.0263681399 0.12248907082 0.34758282007 0.029399672101 0.12308737762
          0.36242708059 0.02894655318 0.13527430136 0.12498513412 -0.0010647710416 0.020825358441
          0.1546614344 0.010550841209 0.0022559688503 0.025730880704 0.03176122451 0.028452057106
          -0.11661576737 -0.0012509969012 -0.024777700971 -0.16238358574 0.0063423264868 0.0028812652307
          -0.16187649219 0.0033907013982 0.0037669762981 0.083409299572 0.023699517583 -0.010387438309
          0.3623267575 0.024899236924 0.13068483212 -0.060967759252 0.013855681601 -0.019156758405
          -0.16519856102 0.004096782707 0.0061507046702 -0.16343915265 0.0013555614781 0.0039495951258
          -0.063801395845 -0.0034131894366 0.023463906116 -0.10897878452 0.009326220604 0.023050556771
          0.31626979151 0.036750452858 0.11804079219 0.28753761281 0.042953432605 0.048687073353
          -0.014679910971 0.01051684781 0.0062328550774 -0.20223178974 -0.0018309623455 0.027707318645
          0.23925311135 0.010685430971 0.065029545348 -0.16671369604 -0.0001680184142 0.031061179383
          0.34518302242 0.033330984131 0.12706897714 0.28846762661 0.019509363709 0.066520628096
          0.35718968682 0.029937820518 0.13596120192 0.28038089561 0.020640489742 0.057242630616
          0.0016611584999 -0.0024479721788 0.0013169814063 -0.10217512061 0.016707547966 -0.010919818029
          -0.17534952269 -0.0077862736426 0.019887619831 0.033130552178 -0.0064469485464 0.024956898545
          -0.18209494091 -0.0043467370554 0.031289229197 -0.12056822093 -0.0034749260458 -0.002527285182
          0.33738300477 0.002223102039 0.018205914193 0.082872013732 -0.0095390097605 -0.0013307800936
          0.27374878212 0.030587377591 0.09019813091 -0.20235904451 0.0022070419607 0.024770965773
          -0.11479922541 -0.0022671374701 -0.0053300026222 0.33045755281 0.016211371211 0.12856854428
          0.29558260715 0.032123343357 0.098252071878 0.36398051627 0.032500665377 0.14297744704
          -0.067924538006 -0.0078853350079 -0.015517634511 0.068107115659 0.039308367342 0.036436221253
          0.17300725188 0.0096744372916 0.086317416046 0.069126681707 0.019520070546 0.01011789144
          0.18328923801 0.024318826384 0.015164623847 0.15560114062 0.029936595778 -0.00098991892017
          0.31127118374 0.03580904862 0.11230890613 -0.11736833313 -0.0046463055302 0.026588929229
          0.31915638367 0.023491120128 0.12557632114 0.18490223274 -0.0021889776239 -0.0031329039772
          0.074633672899 -0.0070615331651 -0.027457038705 0.37033781677 0.025917997352 0.13711959566
          0.29650618582 0.015695078247 0.11379915489 -0.11782536215 0.013440983095 0.015758487441
          0.19407352665 0.014649327775 0.037323162321 0.36032403366 0.030021667673 0.13016156326
          -0.14229477511 0.0082404374029 -0.008638043014 -0.19858455166 -0.0012300827141 0.0293731814
          -0.11776769592 0.017897067923 0.017720940746 -0.11489743737 0.0077730419562 0.017097775956
          -0.18842817663 -0.0013372323297 0.020418275608 0.21592233842 0.0071585499973 0.005192066645
          0.17117975325 0.036138331109 0.04637738389 0.20393922457 0.029697133848 0.036678587615
          0.1827005946 0.022575329377 0.041032878686 0.3279590948 0.032629226488 0.11495190404
          0.31568400397 0.030930763611 0.10082769185 -0.19348687733 0.0032414498764 0.023869908164
          0.32206303491 0.033925075107 0.092220559766 0.31477036937 0.028797264301 0.098293269838
          0.31354043099 0.033631549657 0.098799684616 0.19153346896 0.019176778701 0.040303922314
          0.32816934127 0.030516377929 0.11549577808 0.031965603857 0.0017134352386 0.025693584108
          -0.16664787623 -0.0011217884058 0.024186824203 0.29097287408 0.03339998749 0.077549510007
          0.30684813317 0.033923691442 0.10470099656 0.27056580169 0.013895233386 0.082885746956
          0.35583078517 0.027152429128 0.12823069614 -0.096540655799 0.00025859217154 0.0056484416823
          0.18513109752 0.028917774549 -0.014798249033 -0.14727600496 -0.012367391953 0.011756945997
          -0.13432855959 0.0037097747848 0.021353116755 -0.20108778747 0.0016986864973 0.026312252303
          0.20829158515 0.035099809421 0.025377588591 0.27443285407 0.14974837665 0.093566674767
          0.30112916813 0.024295293136 0.10162301352 0.29391333321 0.023600911902 0.086120891838
          0.29071389689 0.026400802054 0.077267479817 0.17708045431 0.031032466657 -0.0014782147026
          0.18444294973 0.027254346978 -0.0037361246652 0.30946984632 0.036897118904 0.10352854389
          0.20634428981 0.039895408691 0.026229728265 0.30600127254 0.033253851398 0.098210500684
          0.17656251023 0.028781712284 0.00033739939702 0.1676662239 0.047314626227 0.050544779667
          0.27361515473 0.041642776898 0.092455267945 -0.16132365487 0.0060691338234 0.017310723172
          -0.12254765995 0.001909067785 -0.007252984708 -0.084173556909 0.0022035206975 -0.028426666337
          0.3164863952 0.035768173608 0.11444539066 -0.18151024062 -0.0081350301966 0.014318081045
          -0.093270983392 0.015111092688 -0.020999334919 0.26488600532 0.033037543665 0.052358916119
          -0.19469368538 -0.0032109730826 0.023225587754 -0.1681652347 -0.0026413239341 0.025460019405
          0.11303844007 0.020421546433 -0.026213509526 0.1134033736 0.018900897227 0.030459951959
          -0.20098629064 0.0012126829263 0.025279281371 -0.17558256091 -0.0044123213439 0.008014051022
          -0.094382510911 0.013174423079 -0.018700752953 -0.17850312523 0.0045404861381 0.017944574009
          -0.17850838512 0.0065255698209 0.020721636553 -0.16229021293 -0.00011483906112 0.0048650391201
          -0.15685504433 0.0070435723779 0.0025841140878 0.17039770019 0.0051261804822 0.044643179539
          0.30047308098 0.021528853127 0.10345412081 0.043911190808 0.010083492663 -0.038390055153
          -0.006151724933 0.039564388991 -0.023021278508 -0.19021227561 -0.0038248881077 0.018051151341
          0.28688712522 0.026340847583 0.078779052443 0.24183830879 0.036865906691 0.054330476812
          0.13599056465 0.026190315286 0.013083045379 0.32884060736 0.041546184424 0.094061086759
          0.29137164726 0.018727951779 0.079736718541 -0.19804681265 -0.0033459986325 0.026780386519
          0.26238886519 0.01709454647 0.069288602387 0.25254655436 0.0080442920748 0.066890708333
          -0.011356170171 0.026867714674 0.0098000615548 0.3293216424 0.027373212395 0.11800338851
          0.33304623255 0.027227651054 0.11960703564 0.21173357027 0.0076043988565 0.064099647983
          0.19962047863 0.0069044848167 0.047245419414 0.2599972848 0.01854244865 0.084567916437
          0.24889454175 0.01897061006 0.065073454805 0.35241271134 0.039191849276 0.14033893622
          0.23578102375 0.039974851996 0.033244041598 0.23046062692 0.028261946245 0.038052655162
          0.25121261681 0.044484466444 0.041395835978 0.3043100286 0.03788969043 0.10684708521
          -0.19808258336 0.0016001717819 0.02721919945 -0.11020820068 0.00095644798999 -0.0078315687345
          0.24655370302 0.019844272081 0.070327685672 0.27629610392 0.028142958389 0.069178774962
          0.32147729812 0.030331704463 0.088038732258 0.1527377092 0.043131260179 0.00363939041
          0.29394610115 0.032862472818 0.0879592705 0.26152665783 0.023858025986 0.075837537192
          0.20842893294 0.024454801381 -0.0029089434935 -0.18547532901 0.00030013853678 0.030059672376
          0.042710000219 0.025956670494 -0.0039526505722 0.26188875098 0.018635472692 0.048668972526
          0.36636555923 0.023940668049 0.13596575612 0.025114341168 0.012922301297 0.0053014351577
          0.24873384447 0.017921662271 0.063856792356 0.27078329695 0.017739210028 0.068125587715
          -0.1249435122 -0.0050256251831 -0.0030449707127 0.25506705423 0.033901555971 0.045562783222
          0.30280572401 0.029757745884 0.10006294417 -0.15847042816 -0.004548811955 0.015719554416
          -0.14458321775 0.0055001475896 -0.00011746691409 -0.14419917707 0.0057882975926 0.00099658831803
          0.23193217251 0.0031289666206 0.036599075515 0.19721158499 0.011125720952 0.015328545801
          -0.19894061834 -0.0039744773682 0.026414207251 0.12394007522 -0.0099733837498 -0.0089060899379
          0.31646689991 0.0082232241399 0.099540119228 0.19112610513 -0.019339322225 0.025186299059
          0.12447624708 0.0085024997486 0.015039604841 0.24198189307 0.036030733755 0.051287037847
          0.2425889665 0.036236741699 0.050671574656 0.12390203096 -0.0053434003026 -0.0039790582261
          -0.19791266678 -0.001245880213 0.024933317568 0.15514298299 0.0186930087 0.039882667987
          -0.1474411781 -0.0051484191967 0.021852977576 0.21431865731 0.0026099560271 0.0056683895105
          -0.19625233654 -0.0029644041658 0.025786522987 0.18325232683 -0.014004264022 0.020888653466
          0.18866271863 0.016506531799 0.031082754536 0.18475825037 0.012491263635 0.026383782748
          -0.18953325167 -0.0018318020753 0.020472390931 0.36866774326 0.033897672928 0.13829783842
          0.22418587431 0.0072930276649 0.071475223985 0.36433058621 0.035048204139 0.12850768564
          0.36622050354 0.027077415759 0.14269027596 -0.19108032235 0.00066996369796 0.020726650027
          -0.20400984083 -0.0017760922311 0.024291622666 0.22953038319 0.039897218915 0.034281003733
          -0.19772373977 -0.0056228014975 0.026261197475 0.33347031471 0.033255296294 0.12272822426
          0.17926118892 0.025583257319 -0.008633322976 0.14862187307 -0.041468078789 0.030263363094
          0.14872602276 0.028469836694 0.013205411602 -0.18184751839 -0.0062665539787 0.015563067063
          -0.17463869094 -0.0082480484177 0.0071609119902 -0.16376531739 -0.0023165459038 0.023483160115
          0.25678011511 0.014360072719 0.048538215964 0.30943845346 0.02894295615 0.098536451986
          0.22946930182 0.010887015274 0.035854197985 0.29775120105 0.032801877373 0.09019137861
          -0.2020095296 -0.0034251730004 0.025692746074 0.30319846243 0.032406537078 0.091868021438
          -0.16796141404 -0.0055560404216 0.024661804444 0.34298703453 0.032845833022 0.13334516736
          -0.1892488891 -0.0014844707466 0.021671318907 0.23280871445 -0.012590895725 -0.011927087468
          -0.1871138196 0.0034608804402 0.01870113919 0.25873942695 0.028561732433 0.082909856592
          0.27190897354 0.040818576344 0.068005602857 -0.14992271324 -0.0056463436777 0.00057719758966
          -0.14012843361 0.0079453616059 0.01346298371 0.30598887679 0.033247407778 0.1040790495
          0.30551908171 0.031761426527 0.10452786775 0.31332717529 0.031785229572 0.11072809882
          -0.12823897172 0.007358186421 -0.01690768337 -0.12766197617 0.00060326699709 -0.011395725505
          -0.12488675001 0.0034561042844 -0.012833086332 0.17425589293 0.027017966122 0.028794597813
          0.31154633663 0.031455542843 0.11096370962 0.31210318167 0.032120749 0.11112175388
          -0.11221030889 0.014294992004 -0.0018150784292 0.35933411961 0.031397655369 0.12949009294
          0.35671304327 0.038618895255 0.12611977645 0.05229332294 0.0019202758337 0.0045742494008
          -0.02108188086 0.036010886355 -0.0087313226033 0.35843216142 0.036033040701 0.13885538854
          0.35769659454 0.036548769451 0.13920575906 -0.1514868099 0.0058335141127 0.026840606763
          -0.14946872359 0.01150124383 0.020687897264 -0.16685669198 0.00063464476047 0.021178156921
          -0.15116648802 -0.0078372737077 0.017907527543 0.039627623006 -0.014148975345 -0.034723340121
          0.33222218644 0.030238882732 0.12263269481 0.23638350893 0.038139117311 0.088431776864
          0.30865803459 0.04624705043 0.043997432906 0.20244098957 0.0075401593751 0.049174946705
          -0.16794587069 -0.0037117232511 0.029336820892 0.3615217836 0.017826280538 0.12938571016
          0.35976714073 0.01895131192 0.14403896668 0.30831418226 0.032836747869 0.10500598695
          -0.15195523327 -0.0093213325141 0.00046415234928 -0.16037102209 0.0099087708411 0.015832107763
          -0.1576047589 0.014199957859 0.013748195648 0.30188466445 0.028715708061 0.097115399782
          0.30698243104 0.030103715423 0.098965289495 0.32898595287 0.034419529188 0.11495720066
          0.33383881479 0.034900991324 0.12058158921 0.36632571755 0.027413589066 0.13607854139
          0.32798801226 0.034086257005 0.11595898532 -0.20090421236 0.0017969357973 0.024917183442
          0.090422519786 0.025931351113 0.01111024589 -0.076238547355 0 0
          0.35955551222 0.031530619643 0.1439282388 -0.16856422989 -0.0027989294858 0.016796387938
          -0.18290706152 0.00058525747475 0.024373701636 -0.14836100343 -0.0049611794969 0.01421458123
          0.33260613294 0.036207595804 0.11443924929 -0.19287632948 -0.00034657974825 0.022354878602
          -0.15040766604 -0.012343944753 0.0067631679793 0.17460280694 0.021623406881 0.032485912707
          -0.19922032017 -0.0022038163673 0.031303559359 0.25189784756 0.021004410144 0.050005278859
          0.26861879716 0.037662475997 0.078275408446 0.24524009298 0.034652620932 0.076668950983
          0.3421896058 0.033760319114 0.12459029557 0.36391496598 0.030749001608 0.13391459674
          0.35601913904 0.033191769693 0.11993997595 0.19060184185 0.0059795883688 0.050352891989
          0.23946791375 0.0073498472638 0.072353845782 0.18604635494 0.019506915682 0.04748228356
          0.22888774101 0.0095400534935 0.076571078779 0.093346482948 0.031888037122 -0.024034866244
          0.24406047401 0.019572241116 0.07369567966 0.18864465836 0.00046306202692 0.0074712242038
          0.22804524595 0.012287345666 0.074587291374 -0.0010239709201 -0.0028328701217 -0.0077360136423
          0.18333150882 0.032076587605 0.0050043078737 0.28107350694 0.040910671364 0.093766802137
          0.068010847549 0.0035192508012 0.0042394372504 0.36150639192 0.030633819531 0.12939154112
          -0.081346515951 -0.0067755939248 0.014910842076 -0.12559226875 -0.0085710849019 0.013625137271
          -0.13635252041 0.016271521567 -0.010626640483 -0.1959416788 -0.0024227334442 0.028373542704
          0.29544686823 0.033284653626 0.099235015798 0.29986880525 0.03417009394 0.098198892161
          -0.18716415301 -0.010754318077 0.019736267528 0.28736103467 0.031923442251 0.090585303741
          -0.13282752436 -0.0028301422275 -0.0017501977067 -0.19573282772 0.00049417864954 0.026329906352
          0.30028599471 0.039411362534 0.098085994329 0.18499059211 0.045555536542 0.0049438637537
          -0.0599241192 -0.0072945670627 0.0061466942964 -0.063800553598 -0.01896730686 0.0068314712969
          -0.036177316698 0.0094421548647 0.013410874644 0.28557421543 0.037018433194 0.090266554201
          0.30752643057 0.028681540045 0.10498826883 0.19307032574 0.017896573756 0.0093746849096
          0.30739636862 0.028213585738 0.10591244279 0.34216901645 0.036012267984 0.12355074062
          0.30657279247 0.028392584042 0.10630901845 -0.16435847383 -0.0059170547547 0.0071962046178
          -0.16094986739 -0.010553608683 0.0059845715353 0.29942806835 0.023228402543 0.09747270986
          -0.1472955428 0.010256044188 0.014918328814 -0.14520990419 0.01327478574 0.011123606358
          -0.11804570193 0.010152723213 0.0080035644401 0.19988078344 0.056103792805 -0.0053317870193
          -0.12443978896 0.0090010866814 0.0033870344127 0.29920927811 0.033007648944 0.097528822861
          0.25578026003 0.024843900828 0.082072103337 0.3396771599 0.037783395559 0.11736892293
          0.24709236351 0.019743102561 0.070869981672 -0.18869115118 0.0056608537052 0.020228886238
          0.16874912203 0.026623368436 -0.012570557021 0.1604872667 -0.025721706315 -0.021481422678
          -0.08759145486 0.0038490097211 0.026182709035 -0.19293886757 0.0069333631764 0.016372112108
          0.3616209517 0.072588311335 0.07256716762 -0.18997033572 0.0081437013021 0.01783217677
          0.35127198158 0.030682263003 0.13747778528 0.33107496564 0.017577517758 0.13078174904
          0.27781116397 0.013979611427 0.094030972992 -0.10662983395 0.00017750770421 -0.0051815746603
          -0.1131290402 0.0064622614414 -0.0093763298053 0.27277530334 0.0086219665231 0.093658759173
          0.31685520711 0.004369384683 0.099139708591 0.32938995385 0.019105259336 0.12900936527
          -0.023653960899 -0.01231558074 -0.019301189559 -0.19166671357 -0.0010090967656 0.020007067417
          -0.15638846637 0.0059987801191 0.0054857200642 -0.15677951941 0.0075189866846 0.0036111711393
          -0.11871364625 0.0095105344664 0.0081210018449 -0.17965564681 0.0051697056926 0.010325736927
          -0.17293677134 0.0023717076058 0.007645721736 0.31779182998 0.036949038652 0.10849146949
          0.20196152563 0.010092094151 0.047921727133 -0.16947342952 -0.010733285704 0.010758904508
          0.3585953207 0.03619662054 0.13510558839 0.26709495921 0.037668349369 0.081167774285
          0.2619354774 0.031775470361 0.054792611317 0.24530322114 0.0064979571849 0.062025623104
          0.26007485031 -0.0014640976665 0.039137128481 -0.1874833356 0.0014306638395 0.031398366087
          -0.19521445845 -0.00020987265388 0.018957786734 -0.19858618122 0.00075075645975 0.026636157868
          -0.088347772929 -0.0080481131005 0.019558843607 -0.077166049015 0.00059483185419 0.028872079109
          -0.19772428429 0.001040584553 0.027407941976 -0.18717740026 -0.0018348391095 0.032493585033
          -0.061078372516 0.01019612774 0.00054976240262 -0.061416021951 0 0
          -0.11530003398 0.02215469893 -0.0043669127634 -0.11369099347 0.023592751255 -0.0029944934937
          -0.059807304523 -0.0033318303775 0.0033026344977 0.11320185233 -0.014653299764 0.003557938347
          -0.044978333709 -0.014192788999 -0.00050710992518 -0.16105663707 -0.0065066438929 0.0059077423863
          0.33487668549 0.024776077196 0.10938662979 0.35988940054 0.020064665578 0.12634683718
          0.35632257741 0.019869421854 0.12772519063 -0.18404531039 0.0029807827628 0.029023628836
          -0.18855969126 0.0012527682851 0.033173549778 0.36080340283 0.035813740589 0.13478473922
          0.30110208134 0.028991072798 0.098529087741 0.36009767623 0.026838988756 0.118085934
          0.25614047521 0.023194983056 0.064728276608 0.3173447855 0.011271470182 0.062963547721
          -0.20222074796 -0.0016732620805 0.026253226235 0.18635253247 0.022153564799 0.050320622587
          0.36018964704 0.030044753757 0.13262790385 0.18476754303 0.028849126183 0.027915133115
          0.36093543073 0.02688074817 0.14212746202 0.36498702032 0.028201705516 0.14142485471
          -0.17368154869 -0.0039110914837 0.020057920819 -0.16830559331 -0.0024504254327 0.025433719766
          -0.16778824776 -0.0034221919257 0.024437718724 -0.16756094902 -0.0038844542184 0.003787701571
          -0.11865806609 0.0094712752065 0.0019388942004 -0.11861119436 0.010243089282 0.0089399256244
          -0.13314547961 -0.011746173202 0.013996594518 0.29509352477 0.028142798513 0.076454873543
          -0.17564770132 -0.0054402602596 0.021377645218 0.14419048957 -0.073161474849 0.025662268875
          -0.16403642992 -0.005958423662 0.015823549997 -0.19675780852 0.00031043954399 0.022555532717
          0.23684529434 0.04032175094 0.055318751731 -0.1953410394 -0.0013999771569 0.030868519579
          -0.19092622558 0.0046843178963 0.021915710246 0.3330531138 0.03708105484 0.12139304817
          0.32960869617 0.034323828469 0.12005305896 0.26349176443 0.032034873377 0.076865517934
          -0.19647775103 -0.0039752467775 0.028873477323 -0.19601600907 0.0012102444487 0.032024506145
          -0.066197004704 0.01980553903 -0.0332635534 -0.20121468717 -0.0014355665869 0.028196643632
          -0.096802784027 0.0034043491972 0.021499538256 -0.012347488338 0.02930550552 -0.029053245227
          -0.19672528142 -0.00094775176858 0.027388675453 -0.1967677162 -0.0011085258954 0.027432548183
          -0.19371616169 -0.0073335276309 0.020763728986 0.30986079679 0.039983529475 0.10406389907
          -0.19228258851 -0.0064121003342 0.022122455677 -0.19874917226 0.0022445723065 0.030118386112
          -0.2004605709 0.0024175977043 0.032278386299 0.32283286022 0.032063380312 0.12850119208
          -0.12664378214 -0.009448505011 -0.0035049964248 -0.0097479410904 0.010534853705 0.011472285917
          0.36015013808 0.034263745802 0.12411012092 0.35730523345 0.033903288647 0.13075830381
          -0.12918106471 0.011347765677 -0.0058809884518 0.30876707791 0.05288616005 0.08708513653
          0.22849314875 0.023814191917 0.055832077965 0.30536984823 0.050666479958 0.096494841743
          0.26692897386 0.036367268804 0.085039402477 -0.19765619001 0.0031274371826 0.01960909768
          0.32181220455 0.037379061869 0.12026272495 0.30250406037 0.03900923205 0.09693822212
          0.1794549988 -0.00098793522508 0.0079166441065 0.26919305361 0.039265716245 0.020473673184
          0.29635841804 0.024737899372 0.090876027898 -0.20339889592 -0.0003851419128 0.028718880582
          0.27975397664 0.030900394684 0.063570092247 0.27403765193 0.029293700631 0.070739067355
          0.27461559766 0.03711905458 0.052807441868 0.2555347912 0.039331562888 0.059726425309
          0.26311954991 0.036317572778 0.056421210064 0.26371145403 0.039351289472 0.054588173953
          0.26346744157 0.039039392923 0.05544054394 0.21770362006 -0.0019453540351 0.0054894853358
          -0.17974164148 -0.0011497205115 0.019690794549 0.26887859467 0.034598683974 0.062040929671
          0.2914849366 0.038945654573 0.082486711236 0.36692116726 0.028817447358 0.13522175775
          0.36549449796 0.035439408642 0.13344973277 0.19899328826 0.0054298057649 0.049082964024
          0.36521738169 0.035168008254 0.13688837829 0.36384379856 0.03398141349 0.13653077778
          -0.18607156519 -0.0038024258459 0.033171276304 0.34548805814 0.028463087696 0.12713217828
          0.04944089038 0.031831622028 -0.0083322063896 -0.097195175773 0.0013340449521 0.0033744211196
          -0.19300109913 -0.00091834327148 0.020310017359 0.31252506887 0.048645077607 0.07675621255
          0.25778107014 0.032876646937 0.082866279355 0.28243674205 0.030949873788 0.068607168747
          0.24688329423 0.021517957126 0.026924825444 0.31683885604 0.033163295524 0.10805326553
          -0.17170169701 0.0033783341032 0.038456453931 0.28839188191 0.035724664419 0.078823356383
          0.28508426325 0.032815602647 0.068170199601 -0.17324539435 0.010406019498 0.035588716068
          -0.015072474542 0.011539649676 0.0065986199235 -0.023189395044 0.0062330409307 0.00043726771934
          0.25250782882 0.032485944795 0.073988764724 0.23230602562 0.021447745448 0.071197333833
          -0.17761277499 0.00081170026554 0.016279182441 -0.17241642884 -0.0018690348002 0.0077951085745
          0.35848365466 0.028474788417 0.13428814311 0.35634784521 0.0334494179 0.13254551662
          -0.19456003658 -0.0034524027872 0.020648219559 -0.1945618569 -0.0035967469593 0.021087442165
          -0.1969041157 -0.00132594133 0.026804246566 -0.19113252339 -0.00079177532024 0.024495667114
          0.10114108521 0.014589659761 0.014738735227 0.18963823142 0.019457079641 0.03299170854
          0.28459379002 0.036511682112 0.077985315188 0.30556579577 0.03382325149 0.097020938222
          0.20047060745 0.0088745816553 0.033020058665 0.30193312213 0.030704663703 0.092849009392
          0.2025530266 0.023972814688 -0.009915688182 -0.19487847301 -0.0019825404985 0.02420893529
          0.34561479649 0.027788821251 0.11071888338 0.3446068484 0.027467144411 0.11650728154
          0.34375747847 0.041199736176 0.11137106184 -0.18683312378 0.0013679667801 0.016600358829
          0.31941517156 0.031263566901 0.10587449301 0.3185387645 0.039040930087 0.094195551903
          0.31007430271 0.036856685614 0.097153768005 -0.18990713274 -0.0063108727527 0.017598457106
          0.077443773493 0.0052878768008 -0.0098257013155 0.058229951239 0.014683281901 0.0084273975932
          0.31814882669 0.031952042857 0.11082400477 0.31800404168 0.036070920154 0.1103136522
          -0.14290819379 -0.0052328590567 -0.0031612290274 0.2067661469 0.0024468513618 0.068179299599
          0.31937568692 0.03336449178 0.11284177543 0.33575053262 0.03632907499 0.11329814797
          0.33170177336 0.030354145896 0.11811392339 0.35286475394 0.053939906609 0.13124631475
          0.33682771295 0.03472897625 0.13517920058 -0.054737079028 -0.0048806953682 0.0085295985058
          -0.063574342195 -0.0039226681043 0.023833250178 0.20982983837 -0.009223168429 0.0019765961591
          0.36389868927 0.022754232209 0.14240688078 0.3634377226 0.021164709007 0.14273115323
          0.36326297821 0.023519071563 0.12956023799 0.18610811725 0.039767000514 -0.0095753371554
          0.33959906876 0.020466714714 0.12077912302 -0.19220525943 -0.0003509152004 0.019632039109
          0.18446514868 0.010678097997 -0.041277517628 0.33644936226 0.035986132062 0.1271122454
          0.23249919743 0.0023154307446 0.06308135417 -0.05754565482 -0.00064127738563 -7.6697506764e-05
          -0.17594856557 -0.0051625590416 0.034584732028 0.30933960627 0.034977280075 0.10308904904
          -0.19601018646 -0.0037123445348 0.025796647567 -0.1933241196 -0.0036561135492 0.025287183273
          0.29148138273 0.025298134727 0.094054761541 -0.19380502904 -0.0040868177246 0.028695239112
          0.27908836695 0.02776349547 0.072301188962 0.28305562756 0.035797353457 0.071554880512
          -0.188100489 -0.0083644791697 0.029860199756 -0.11749206694 0.016718835975 -0.0052754850795
          -0.17855418066 0.0035836076568 0.026063533597 0.20407268735 0.0130962021 0.031361265993
          -0.14711133598 0.010030036492 0.014860632989 -0.17578206708 0.001695103658 0.031344300856
          0.19500857219 0.047339444132 -0.029481687703 0.30594677193 0.033430467713 0.10415547216
          0.33534956751 0.034320995576 0.12757321541 0.30955803854 0.027119077545 0.10313491135
          -0.18318577595 -0.0018714855622 0.015381438305 0.37017025875 0.025588633346 0.13761345619
          0.24398416839 0.011337303809 0.073793956753 -0.14249801619 0.00017917181241 0.021173781045
          -0.19963693415 -0.00059069438445 0.028370039586 -0.09373115665 -0.053805158529 -0.018699664147
          0.20644221093 0.0056580959941 0.042220422723 0.30310054405 0.03637269341 0.097414842023
          0.16220536446 0.01019205248 0.0024934568327 0.17510297864 -0.0015788584247 0.026898294204
          0.17703257259 0.00088796816973 0.025575883428 0.18962812832 0.0072911814686 0.026860182543
          0.24481421045 0.026595611567 0.031300665099 0.18938065479 0.028193564465 0.034097809821
          0.25753992859 0.023875753419 0.035419078845 0.088883071503 0.022236028589 0.0086091971738
          0.32911504563 0.036785091989 0.11485425526 0.01680294362 -0.0024648134245 -0.0023198661295
          0.23446697293 0.021506944466 0.071012236786 0.2143309723 0.035465407472 0.053355039999
          0.31606597114 0.036936372395 0.1014626207 0.21479947036 0.033071298019 0.051626778116
          0.22609441722 0.041801250425 0.078649117759 0.24699488848 0.020209066103 0.070452135999
          0.19670678551 0.012735769851 0.016305656507 0.19977310588 0.018707491867 0.024498126859
          0.3451278591 0.0095474770205 0.11012368469 0.1885047928 0.020551526211 0.022137015755
          0.19634514543 0.009726105158 0.01671103894 -0.17784477155 -0.0076620724051 0.013740164064
          -0.17771284795 -0.0067940398359 0.014719267895 -0.17711270096 -0.0002385469727 0.019480023273
          -0.1884699207 -0.010671172785 0.024630494534 -0.090619936844 -0.0185323306 0.0046668010991
          -0.16142903487 -0.0081687020753 0.0046255538179 -0.16139267894 -0.0066454411925 0.0057172439943
          -0.14926757252 -0.00062346313025 -0.0026605514814 0.30845713113 0.012304451599 0.12390659968
          -0.058799567726 0.015032465402 -0.0080179551803 -0.06026907006 0.027951300606 -0.019176371264
          0.33351993195 0.034108435689 0.1150441686 0.34370382296 0.035541055198 0.12404470334
          0.34681478934 0.032459307139 0.12384159807 -0.045091930196 -0.019598607612 -0.0065485985073
          -0.050906731334 -0.014699353741 -0.0015581764617 0.34685072721 0.033244580161 0.12186771117
          -0.082439058856 -0.0087763291631 0.023960848451 0.32954866234 0.035861272549 0.11479491403
          0.32958360358 0.028012932031 0.11170457932 0.21927922772 0.0274680111 0.021054073957
          0.28836235941 0.031441211157 0.09064344234 -0.19869808 -0.0024908999667 0.025223077973
          0.37414672248 0.032277385768 0.13896848622 0.22660544593 0.018017273706 0.041613574368
          0.11876318226 -0.068035372214 0.03543957738 0.2518532672 0.019539437337 0.04756902296
          0.14741558945 -0.14345746109 -0.024698559899 0.12275260692 -0.16153526972 -0.029768109792
          0.067333810504 -0.069838890556 0.011323019013 0.10896996094 -0.14339811165 -0.047823097609
          0.36645979936 0.030306127022 0.1365859408 0.36729173237 0.029732550729 0.13441052832
          0.36704142344 0.03057682714 0.13515558171 0.3622465552 0.025261866123 0.12859903212
          0.3639339332 0.022109684167 0.12603784284 0.29653573808 0.031076746147 0.083730213194
          0.29774110439 0.032840239327 0.090159520906 -0.09806584227 0.0084314436016 0.00802714106
          0.35979254593 0.03108510287 0.13268422024 0.36073169477 0.028548388908 0.13054797389
          0.28309124108 0.038072700933 0.073730864469 0.27144089124 0.039445840684 0.068820092316
          0.27255507764 0.040386997148 0.067229656491 0.26515775795 0.022437304303 0.050246996716
          0.34717052978 0.032113948666 0.12561275171 0.29334855224 0.033861419826 0.084169336775
          0.35960236084 0.028303100961 0.13367831172 0.35885169598 0.035351218434 0.13453048326
          0.30642889788 0.029760363471 0.1022131953 -0.19148028557 -0.0017069997241 0.031692682961
          -0.20218854724 -0.0034612722723 0.02524864016 0.28991167846 0.026999625474 0.079475881688
          0.28279978536 0.023957123635 0.079900627776 -0.006560017261 -0.018910925403 0.0038525331765
          0.31491740344 0.036043531063 0.10917181295 0.16989004814 0.035252673433 0.046965932733
          0.29934230599 0.03389188239 0.089760084365 0.024862313997 0.011216126985 0.0078883179216
          -0.19032164647 -0.0073405259663 0.021142034498 0.28972140451 0.027433865437 0.091562182498
          -0.13700954336 -0.014860104068 0.0079885504041 -0.071153188883 0.0036024077619 0.0038300878883
          0.18914487195 0.016664555573 0.053429478676 -0.0086973828562 0.029276077304 0.012831574841
          0.0016860999884 0.024790981159 0.016494435595 0.0018107597968 0.023241092603 0.011087640758
          0.27454478561 0.036952683985 0.060751116628 0.27437441543 0.037030309979 0.061047587239
          -0.013662199513 0.009978620425 0.0081186523939 0.024442282464 0.019110770548 -0.00071867338049
          0.34453092101 0.040083625708 0.11523998859 -0.13677953872 -0.01456422152 -0.0054069384219
          -0.1365243202 -0.015791738895 -0.003953652452 -0.1867512872 -0.0064822991353 0.018900162933
          -0.099716837414 -0.0081940527696 -0.020654227174 -0.17681400688 -0.0097840981444 0.006258272294
          0.28564051186 0.039499196851 0.074904397157 0.31565541117 0.029285791084 0.10790173168
          -0.1978388569 -0.0025496425333 0.029339076695 -0.19732350255 -0.0024817711047 0.028938161685
          -0.089526853206 0.01507084975 -0.027251215698 0.2226793083 0.018353912022 0.023297206311
          0.077753438663 0.0083300175444 0.017770877983 -0.19789202972 -0.0024714598233 0.029308787557
          0.070150642974 0.01252175963 0.019772304855 -0.1136457152 -0.0088350622534 -0.026718695068
          -0.084894971922 -0.0054780310947 -0.017288134979 -0.14360200576 -0.0043995146375 0.018962905251
          0.36129771271 0.031854715083 0.12069944861 0.36050314657 0.031806117642 0.12120491066
          0.34187725243 0.020743798334 0.098898767311 0.34430411346 0.041881134132 0.1032889287
          0.33611528375 0.026812152194 0.10243518116 0.35529710805 0.029078833463 0.13373982163
          0.34284261953 0.032794026228 0.12395102223 0.34400839363 0.033122241371 0.12360544769
          0.30999877262 0.028680949919 0.10415708984 0.31132690613 0.028257467056 0.10395296367
          0.091314696607 0.020884197141 0.011789631468 0.32426757073 0.025347152255 0.1212708151
          0.32822523663 0.027398578693 0.11953919325 0.328175298 0.028230700774 0.11853182836
          -0.19198140358 -0.0024679567379 0.020170220678 -0.15746674176 0.0023867184211 0.032386376725
          0.31179121728 0.040294733633 0.097325168838 0.31212338047 0.04245565035 0.09600880677
          0.29614616154 0.021368125693 0.095482833392 0.27332947119 0.022097705188 0.040415855892
          0.1533009578 0.04455364977 0.03930098258 -0.013744999255 0.0065593908968 -0.0060564434702
          0.010656237852 0.0010937265405 -0.031580995428 0.26319762004 0.02162377404 0.053060025882
          0.23835887195 0.023113242936 0.047814114013 0.25439175041 0.026374001625 0.060198277411
          0.24860826042 0.031437562235 0.060054296778 0.17289572695 0.0059401630014 -0.0029849227576
          0.1770688822 0.010891102117 0.045176756084 0.1759626657 0.034608272327 0.043605591389
          0.17689483299 0.028577487333 0.035080805397 -0.15081232711 0.0098525285593 0.007983611527
          0.17717553928 0.029160389747 0.030820611137 0.176731701 -0.008925108141 0.063785408361
          0.069186923712 0.019526086894 0.010128876908 0.17804198295 0.022315454788 0.023771566658
          0.17787226202 0.022133122116 0.026227318072 0.35295399708 0.021054158263 0.11762716245
          0.17115792621 0.025694071593 0.001011677532 -0.19956569468 0.00010033359592 0.0267983573
          -0.2021663169 -0.0016724760644 0.025748639594 0.27390080775 0.019773410444 0.098374636389
          0.23111509942 0.028196300332 0.071317812586 0.17177806746 0.026489490097 -0.0012324032039
          0.18742633106 0.01783719745 0.027590349923 0.24340873906 0.021217235454 0.084616824559
          0.24587567711 0.037598691325 0.085471732424 0.24569528789 0.037444925127 0.086010278106
          0.17908570495 -0.030143511649 0.063457657799 0.20050149517 0.045604562913 0.066081338504
          0.21760328214 0.031121546722 0.0688959279 0.2193184464 0.027181600721 0.048777274987
          0.29239745829 0.040773685183 0.089195667066 0.29115168012 0.041533369321 0.083427240499
          0.29292965662 0.040283586881 0.081442567213 -0.18754244855 -0.0072606557376 0.029562669876
          -0.17417402792 -0.004941299581 0.033157326754 -0.1683075111 0.0079789526143 0.02068685508
          -0.16712103688 0.0095806611944 0.033520613253 -0.18340076445 -0.0095598223561 0.036076707257
          -0.17616945929 -0.0049103623314 0.034606998994 0.27601018322 0.028612877974 0.068856069178
          -0.14434545189 -0.0029967930492 -0.01061855203 -0.14140980012 -0.010940680122 -0.0084675794194
          0.27864040763 0.03377893125 0.072128058312 0.25655448129 0.032947822401 0.045402473314
          0.2682359082 0.028198979561 0.052609714582 0.27777235637 0.030817465322 0.06854434453
          0.28631885141 0.033381053349 0.081668666817 0.18393880195 0.018206374132 0.02671735966
          -0.082480045911 -0.0081603699995 0.024411644784 0.081855797319 0.037025480064 -0.024159061005
          -0.081501462887 -0.038174528905 -0.040184554588 -0.19378873833 -0.0011390637014 0.022465816215
          -0.029800331111 -0.0020397448679 -0.029265942144 -0.05986067213 -0.017944990119 -0.025992909437
          0.024971141366 -0.0045596451321 0.026740491038 0.27935856201 0.011992066678 0.089155260728
          -0.19087741177 0.00028490500721 0.02363660556 0.33760312573 0.039405828392 0.13032712262
          0.33861492017 0.038888877285 0.12979516372 -0.1558306618 0.001563329215 0.0055984352406
          -0.069981644471 0.023562008638 -0.029323584429 0.25327389313 0.018703982864 0.061578332067
          0.066972351686 -0.088131707873 0.050140025312 -0.082827277371 0.0047041593259 -0.027532752747
          0.22736943123 0.026128096974 0.052854627563 0.29972322254 0.026940350724 0.094870709582
          0.30308797199 0.023545830672 0.067433693247 -0.18710058687 0.0050507039205 0.016688294928
          -0.18772858684 0.0057653242467 0.016866874531 -0.19063019578 0.0047667089704 0.015099955196
          -0.066701423429 0.0059656269153 -0.020104405186 -0.072875757428 0.0090938468919 -0.018470337255
          -0.089647818692 -0.033181435049 -0.011243877288 -0.1068840329 -0.012615173901 -0.018924099263
          0.29005396546 0.028642138058 0.096387850698 0.29225884513 0.021977831346 0.093864575423
          0.28928675376 0.027238750296 0.091810538385 -0.022008230134 0.033221521569 -0.0041844446464
          0.24510875891 0.017803031474 0.07052464993 0.25962110922 0.017241945205 0.08358902075
          0.29958423544 0.028808250292 0.092182585634 0.29917284215 0.023377738512 0.095654675235
          0.29681031522 0.037854649499 0.09636424406 0.29901911515 0.032675570805 0.092182004858
          0.30065411203 0.032668539725 0.087474747163 0.2971560216 0.03043278687 0.090131982914
          0.30528202881 0.030850696002 0.091173105607 0.30746574374 0.031940284656 0.092277386339
          0.29670567641 0.030583432027 0.090220917235 -0.16659036525 -0.0012739689797 0.021245622779
          -0.10604108432 0.0013273658043 0.016997076235 -0.14180094479 -0.0046588263585 0.02809495375
          -0.12217087663 -0.018833980864 0.02838371804 -0.13137945156 -0.015375981695 0.019997805435
          -0.13365053439 -0.016714717361 0.019106693203 -0.13259683547 -0.016163415803 0.012279295202
          -0.19639343691 -0.0026305700495 0.026673242811 -0.1180061327 -0.0076602892845 0.0078768161801
          -0.09746272932 -0.012437332214 0.020981255801 0.26853502945 0.0073057604432 0.078516356821
          -0.1891397427 0.0044336770142 0.032501655356 -0.18381401391 0.0091962674341 0.033944204115
          -0.19132241004 0.0025271546068 0.031948854217 0.32283032861 0.034630178181 0.1067558176
          0.32134208253 0.033520138324 0.10639998195 0.20003683009 0.047225084987 0.022562189963
          0.18533372595 0.040759152137 0.026792643742 0.20351901932 0.028608325346 0.037515373187
          0.20663824353 0.03250923744 0.039674369555 0.17765978926 0.02672054084 0.0503414555
          0.26884308589 0.034636641976 0.062064989817 0.053139376503 0.014035564137 0.014124717859
          0.25435352756 0.03610893612 0.050008460797 0.24800872899 0.039694201179 0.050482478818
          0.24790959925 0.044162845643 0.046527524223 -0.12779846907 -0.023350329862 -0.0093581853791
          -0.12783803765 -0.023274255658 -0.0099154150181 0.24090670471 0.040498077105 0.053894867479
          0.25366745821 0.033907671825 0.052384481436 0.26391387624 0.038381092504 0.053754492327
          -0.19818205652 -0.00098992826542 0.025041525257 -0.19814097139 -0.0013606200054 0.02493288127
          -0.19795440853 -0.002096247912 0.025462452959 0.11703217491 -0.00026457343421 -0.012094206032
          -0.19398123553 0.0013101952911 0.023890240174 -0.061773756471 0.0063142899472 0.0016220346953
          -0.057202375926 0.00011107669388 0.00086512050606 -0.058879021926 -0.003501557698 0.00060149576686
          -0.086760160129 -0.001553472526 0.0019191492606 -0.20183304299 -0.002685623676 0.027179441462
          -0.20084447624 -0.0023211079977 0.027012503002 -0.089212341179 -0.0063447282562 -0.010306569924
          -0.10594222549 0.0011728229874 -0.019306208734 -0.11582565351 0.00086615214623 -0.0094036260518
          -0.11643475692 -0.0031708311975 0.0040868423106 0.12494871774 0.015855061418 0.032908263995
          0.12191228191 0.039548667523 0.050875606469 -0.18618180114 0.0055801781483 0.032399168585
          0.099874494211 0.013765332692 0.014656518851 0.10010593773 0.012850764092 0.015067100659
          0.1096376941 0.020721179812 0.026938658239 -0.14932253263 0.0092098778747 0.0058298513582
          -0.14701604668 0.01029119586 0.015180515417 -0.168646339 0.002249787804 0.015186008363
          -0.19525300437 -0.0025772406566 0.023433117538 -0.089148777796 0.0035300311632 -0.036246186928
          0.28488433947 0.020219889276 0.097195026849 -0.1387015822 -0.0036842169316 0.010196559688
          -0.19446457409 -0.00043776348059 0.024324535612 -0.13127625142 0.0024797387629 0.020908793624
          -0.1267108641 0.011750459166 0.027498226856 -0.13857788431 0.0090896623847 0.012548247281
          0.30707603329 0.038345753896 0.10579578185 0.30799222297 0.037530337401 0.10601129681
          0.015653456678 0.015592149942 -0.021692083939 0.36090004355 0.030870243369 0.13478472823
          -0.11774769448 0.0075117721449 0.012552788431 -0.1839698488 -0.0014507292013 0.020222582073
          -0.10317469855 0.0053953359824 0.020080246854 0.36016022431 0.029960876574 0.13283115133
          0.32900056326 0.034514911989 0.12121523767 0.36396969583 0.030157728631 0.1355729376
          0.32769533469 0.039429170507 0.12262552529 0.36179299414 0.030612092275 0.13266401547
          0.31693043537 0.037603811689 0.1107842503 0.32047644382 0.036837289067 0.1099408779
          0.31510189502 0.040170812388 0.10361212465 0.044776469234 0.04467368457 -0.00069088988991
          -0.17757351476 0.0069029815147 0.0095985510039 -0.06744378386 0.012439354781 -0.017380422811
          -0.018880805094 0.01945184215 -0.010613472587 -0.1115548024 -0.013838824147 0.009899781998
          -0.1051626124 -0.0087481601769 0.01079767506 -0.096413926335 0.00018425646238 0.0075346667136
          0.28300391594 0.038445200365 0.07373647566 -0.10224791226 0.0060643592487 0.021363425486
          -0.094352083049 0.01653648699 0.032594313368 0.16721066797 0.013857559037 -0.018311854435
          0.16273070152 0.033055716868 0.041201749123 0.031216545982 -0.054398882651 -0.05342583798
          0.049650439805 -0.086522334985 -0.012315911158 0.23758184053 0.013474082615 -0.10114256051
          0.21140555897 0.022885489759 -0.044111325977 0.23332836752 -0.0041102024831 0.026634637222
          0.30759966964 -0.050333299761 -0.014155344199 0.14784132855 -0.03457872759 0.035440230611
          0.18178789693 0.017125474817 -0.026000752702 0.22665878178 -0.0023822054698 0.036374197811
          -0.061188655783 0.0089920874315 -0.022409713402 0.042770851039 0.014561947166 0.017065100877
          -0.027802865354 -0.0080766474183 -0.03108842483 0.33280850683 0.018919288695 0.12825937777
          0.35635282975 0.02147903286 0.14410218364 0.35647201806 0.024569085055 0.1466881548
          0.36385356854 0.022745745263 0.14242985214 0.2804573576 0.028610668695 0.070136523928
          -0.17440277502 -5.5171121487e-05 0.0099020755172 0.3146731997 0.03393942375 0.084998992787
          0.31321494041 0.027249986793 0.090878903727 0.017896165036 -0.00391784163 -0.038726267379
          -0.046848669729 -0.016580138053 0.028308836076 0.21314784531 0.025537485294 -0.05011000217
          0.33240133941 0.042675247576 0.10683900272 -0.18972841616 -0.010882160989 0.032188633856
          -0.19516382594 -0.0058770725451 0.028431114758 -0.1931632207 -0.00084987733136 0.026784614796
          0.17576268478 -0.0028246691352 0.02858216527 0.17312666904 0.0084077581674 0.026749158067
          0.24379217776 0.022932093768 0.052101751329 -0.10968718105 -0.0046410088909 -0.017280298752
          -0.19743144224 -0.0004353012459 0.020348287179 0.30660309559 0.038142152977 0.10315423309
          -0.10752090131 -0.0074640563064 -0.020366425172 -0.11680876149 -0.011690295633 -0.019424911965
          -0.19908435617 -0.0035816231873 0.021809050908 0.20735633481 0.011498908423 0.039111962876
          0.20451477655 0.019128555874 0.044724265351 0.20768604186 0.018114157795 0.052089461085
          0.30288063673 0.037456173736 0.09883107813 -0.095246475399 -0.0054947771325 -0.0060518851433
          0.17134271871 0.0058590861967 0.0016455762026 0.29974962769 0.037839633319 0.091315720242
          0.1936113674 0.0024878871294 0.021796155482 0.28611399725 0.017371392167 0.091574735083
          -0.081208419895 -0.0076508585794 0.012807860903 0.30883933146 0.029594360071 0.098203455712
          0.30753735916 0.027631537591 0.095582699461 -0.16258418934 -0.0075081318907 0.021774224155
          -0.026937568558 -0.012469240677 -0.02861384985 0.26219520639 0.021703698524 0.079668282238
          0.25816368995 0.033789271003 0.081854320418 0.14039006297 0.0011731095758 0.00095535033105
          0.1390878238 -0.0045681566537 0.015541522564 0.29018685732 0.038792687595 0.091081604512
          0.17319362967 0.012650862881 0.030340066805 0.18790492668 0.0044242847081 0.027609965774
          0.19104309508 0.0026605669784 0.016805144694 0.20812266631 0.022174137066 0.048600826747
          0.2113015237 -0.0024368467896 0.031844984619 -0.18541129412 -0.0013235719202 0.029197265406
          -0.18926444765 -0.0004628437227 0.032887999059 0.20870832496 -0.0049874749361 0.038461096414
          -0.094753614495 -0.0068148159489 0.0057813710017 0.30938311911 0.029150873891 0.10156330401
          -0.097608999898 -0.0009558242248 -0.00010146525959 -0.094379336459 -0.0072940833065 -0.0035640121319
          -0.10379829452 -0.0090384364929 -0.019869209011 -0.19666206735 -0.0026987269722 0.025430249308
          -0.20071885506 -0.0027345791064 0.024266107154 -0.20068858533 -0.0028706111724 0.025869996168
          0.3434944496 0.032404192314 0.11189261095 0.30440243183 0.037079743361 0.099759642293
          0.35511312395 0.025254181217 0.1070698285 -0.19526053791 -0.0053070190901 0.024262272896
          -0.19954844104 -0.0033185679794 0.021488036739 -0.19520640132 -0.0063600882936 0.02330720705
          0.32060080904 0.030676356666 0.10489124922 0.28610956503 0.017383241597 0.091551788733
          0.34005372788 0.029083294663 0.12325666526 0.28242061073 0.018645815139 0.075993277335
          0.28778961391 0.037854542417 0.088720461229 0.14831711691 0.051417410914 0.080991190487
          0.2914528188 0.025417727325 0.079642663201 0.29141581237 0.025935431614 0.079601617709
          0.023103411194 -0.018541714461 -0.0011742921104 0.030152641818 0.029875234117 -0.00076837213638
          -0.16217222152 0.00074985559113 0.021230814079 -0.16191826899 0.0019260852572 0.022037575431
          0.020055071356 0.010776429996 -0.00804728595 -0.2012160699 -0.0033393757701 0.027879286628
          -0.12401398436 0.0037100277529 -0.016597419665 0.26249975515 0.028359830969 0.076546667935
          0.19020909854 0.0042904843268 0.063900030111 -0.19049313675 0.0034875545697 0.024327642269
          -0.092600751341 -0.0081333191617 0.0014484788895 0.32441389495 0.033784869116 0.10924408985
          -0.10066694817 -0.01076844505 0.0042500271293 -0.11151684413 -0.0096264652374 -0.0024284488962
          -0.17569692673 -0.003028794493 0.032380914741 -0.065343377396 -0.0069138716156 -0.021521536428
          -0.038964095715 0 0 -0.038964095715 0 0
          -0.039178113924 -0.0022090085927 -0.0049544794572 -0.0422999538 -0.0049966863634 0.0036240525511
          0.28838485182 0.030020301637 0.0832646615 -0.05199295178 -0.015105762441 0.026266863722
          -0.049020965999 -0.014776771586 0.011714365894 -0.068459286818 -0.012548684169 -0.016158649608
          0.31434356169 0.026933101439 0.10203234338 -0.029653731413 -0.011227065015 0.0083921255037
          -0.17404866135 0.0058401767204 0.0071738698477 -0.1668704643 0.0018186952641 0.0064552762452
          -0.19062702667 0.0047864712773 0.015113139052 -0.19998224635 -0.0042528290812 0.028046817887
          -0.17012994953 0.012736403304 0.0013290446768 -0.073766398488 -0.0085562724768 0.025567342531
          -0.063636440611 -0.018703068358 0.0070642640397 0.32150037539 0.035807048468 0.11638285946
          0.18414738893 0.0027930182065 0.05707353534 0.19187527063 0.0051718023316 0.049720216591
          0.33141778126 0.033852162058 0.11931852426 -0.18249735463 0.001367243075 0.021338615055
          0.32709563017 0.013345027388 0.099987411011 0.31689756297 0.0081635572793 0.06446041861
          0.31123859562 0.037223061976 0.10134679006 0.15976244108 0.041483239736 0.039372764395
          -0.059929456191 -0.0016198185231 -0.00033129908568 0.12189850474 -0.018693522709 -0.024474808011
          0.34716444032 0.033632381514 0.12764069342 0.35666527015 0.02866178325 0.13645885616
          0.35587850621 0.029998428089 0.1382801771 -0.1196728157 0.0041890437833 -0.010417488424
          -0.12049243701 0.0028703573034 -0.011073628773 -0.091180957344 -0.0015098220428 -0.033866746241
          0.2125541548 -0.27970886801 -0.0388209213 -0.11977414826 0.0016004696134 0.048750561281
          -0.13933625333 -0.029109759288 0.001457659715 0.019174762495 -0.0041360825524 -0.007185699701
          -0.20029985093 -0.0010869668198 0.031870857716 -0.1971033872 0.00074418424464 0.033464249642
          -0.18043387607 0.00063184382635 0.010966996484 -0.19420671779 0.00086075787333 0.030941879757
          -0.19665426035 0.00018116548049 0.033751361915 0.32689742963 0.021075979129 0.12362314604
          -0.075285938987 0.021444564035 -0.0022682327462 -0.14632828411 -0.0069088361731 -0.011253516534
          -0.15197559627 -0.010160449685 -0.0075491210289 -0.15200889996 -0.010600335866 -0.0071587601844
          -0.060190571764 0.02903327371 -0.023194489291 -0.15101374446 -0.017428747814 -0.015401028041
          0.33767762254 0.020468523578 0.11396852845 0.24647644835 0.021595402639 0.071573512972
          -0.11782889157 -0.011958449806 -0.0043232948347 0.35921550394 0.039686778461 0.13347335128
          0.35966125589 0.035955876316 0.13645271024 0.36397489262 0.029068427979 0.13736298053
          0.36003726398 0.032223748376 0.14358988907 -0.053677832947 -0.028912770425 0.01716703384
          -0.039030756198 -0.01597874696 0.0008755309297 0.3476665362 0.02948024525 0.13910382694
          -0.053331008905 -0.0029132680259 0.0082807717896 0.19221536908 0.000412211355 0.010000224397
          0.18261497025 0.0071592703187 0.018879699193 0.18835830611 0.026910554385 0.039802037496
          0.31734944265 0.037243744569 0.10583809489 0.18455138168 0.0083271715072 0.038854258015
          0.10025792754 0.022746887691 0.010128060204 0.065736724758 0.010984063244 0.014619938621
          0.21641170689 0.036080496744 -0.012599422813 0.06546797896 0.012235241638 0.013741823545
          -0.13616466291 -0.0050670158191 0.013690346871 -0.099292670391 0.019797764355 0.0072982934199
          -0.13898083085 -0.0030398549752 0.011222679772 0.19748470703 0.031472271766 -0.007251113044
          0.18962782562 0.028388232667 -0.0060619001365 0.20762027023 0.026260225193 -0.002770545828
          0.2094240181 0.028883578534 -0.0042970369601 0.20350128008 0.014057000737 0.0047811056528
          0.20047960073 0.015342191794 -0.0014427091036 0.20190275387 0.017887883088 0.0015649947717
          0.072891325779 0.020193898546 -0.015559664907 -0.15073703968 -0.0020246293126 0.017521465186
          -0.15853454054 -0.0078561429144 0.015960107281 -0.18684624279 0.001315560523 0.01665523949
          -0.18864819681 0.0056981788037 0.019930633771 -0.19358499394 0.0064691772783 0.020204944019
          -0.19969628956 0.0015518555312 0.025185409344 -0.20013989221 0.0026694239724 0.024381513803
          -0.19749470141 0.0013374661733 0.024960772099 -0.19022058816 0.0084028059897 0.018074416969
          0.27544825969 0.028424991235 0.069282321519 0.22122378732 0.028614601041 0.0097016524119
          -0.19914549306 0.0029714502649 0.027869069729 -0.19893711371 0.0027977026572 0.027941624343
          0.32876669986 0.019285072677 0.1002149288 0.32872440825 0.0193465181 0.10017481959
          0.28817899969 0.026271847998 0.080356373812 0.27971486073 0.022311039082 0.061261237944
          0.26980453142 0.018182456763 0.068261723396 -0.18920188933 0.0024063686565 0.026552211384
          0.33252557201 0.032222076674 0.12121344919 0.31686441649 0.027081553133 0.095229534759
          0.36444330641 0.029240447773 0.1345062367 0.28655973532 0.026922956751 0.07950025776
          0.33889099486 0.034399716411 0.11405434717 -0.19326200913 -0.0016930156209 0.020880483797
          0.34121847187 0.033315273619 0.12514525079 0.24458317283 0.019410411822 0.079281080934
          0.21971952467 0.019045852169 0.07913122896 0.22568209621 0.0058215762843 0.075555682362
          0.18942038196 0.015631507907 0.040157770343 0.31046421035 0.034785022746 0.10394446636
          0.31519021369 0.037115560657 0.10570950004 0.22819953951 0.015070568664 0.066798117633
          0.23041006752 0.013181349242 0.065180580097 0.2319259975 0.013169512163 0.073348610696
          0.36016950015 0.031665141992 0.14231089241 0.36019442134 0.03166697802 0.14231787681
          0.3651405786 0.042856596418 0.1413415885 0.36081389587 0.029748437462 0.14292015285
          -0.14367944397 -0.01009046548 -0.0012587379889 0.36242835127 0.032115661797 0.14101556354
          0.36474107949 0.030281534213 0.13556366143 0.36592621334 0.02903902737 0.13776086707
          0.36148062854 0.029915804751 0.14171127651 0.36996843462 0.026255771707 0.13972859974
          0.042879858909 0.11480639515 -0.094493466328 -0.15828146635 -0.010486485101 0.0040363348536
          -0.15277602292 -0.0056331162485 0.0079474570588 -0.15287660263 -0.0060999084883 0.0050810983214
          -0.16376522511 -0.012779513541 0.018924023448 -0.15804438018 -0.010878872227 0.0040090622182
          -0.15743153147 -0.0088854591547 0.0027406958093 -0.15699127449 -0.0090922295834 0.0032055667339
          -0.17586727511 -0.0046749797587 0.034543223847 -0.15058354371 -0.0056226274368 0.021331135266
          -0.1584822802 -0.0084133125503 0.016577447252 -0.16965508148 -0.0031798360202 0.014529567966
          -0.17034297839 -0.0028518038659 0.010333481186 -0.087200144229 0.023359826582 -0.017376392812
          -0.077082951222 0.01158741834 -0.007438568168 0.31834815621 0.028575304214 0.10926201697
          -0.083104241918 0.0095512183338 -0.017604741855 -0.083360163313 0.010945535079 -0.015909688166
          -0.06982766442 0.016523311413 -0.017256953627 -0.078833646958 0.023257544417 -0.0047315621828
          -0.068892631428 0.00064178577965 -0.015153806754 -0.088453120042 -0.0091413863913 -0.012974078576
          -0.087930179046 0.014543466534 -0.016194789452 -0.099486352894 -0.012572536196 -0.0072690917397
          -0.19422558634 -0.0035736091667 0.02117415963 -0.080042302423 0.011960014365 -0.016633037496
          0.28077262931 0.035780472398 0.074312929077 0.28440292498 0.038365511008 0.073797227236
          0.2844028895 0.038364346426 0.073797457615 0.28071257535 0.039891222899 0.073499961069
          0.28344356381 0.041918261755 0.073095718212 0.2830044034 0.034598001863 0.074544084325
          0.28491864119 0.038510435239 0.068603790602 -0.18137538335 -0.0078309551127 0.015524920292
          -0.19802624079 -0.0020439889055 0.029905199469 -0.19871643636 -0.0033892897234 0.029567522434
          0.28656535139 0.029936722843 0.079008255668 0.36971300323 0.025406155718 0.14885489273
          0.36622842508 0.028361271699 0.14481461309 0.37342800235 0.025905376789 0.14184643814
          0.36607664429 0.02755012972 0.14528017933 -0.17700438297 0.00055175019028 0.020293058435
          0.36070217526 0.030840337085 0.13300620305 0.32746220815 0.035574077131 0.11905818309
          0.32003376437 0.040671810799 0.11413019785 -0.11178872839 -0.0040530783375 0.0053533178274
          -0.079383483935 0.0092975060959 0.020834974901 -0.079367068847 0.010048670553 0.020714265428
          0.33122630543 0.034349529974 0.11971886437 0.33236141025 0.032694223198 0.12171104824
          0.33417361864 0.031682450347 0.12112167858 0.33354939385 0.03425804612 0.11617679953
          0.042662749807 -0.0083991797933 0.0048783155143 0.24701512858 0.035565321384 0.077106712261
          -0.20101863375 1.5952680285e-05 0.025701021017 -0.19781289734 -0.00023869642498 0.026640077763
          0.22312253954 0.013782450498 0.021893939965 -0.097604891867 -0.013480087256 0.002582142433
          -0.14719739894 -0.0038422501466 0.022635735349 0.26991748727 0.019433205798 0.082299087053
          0.27028068473 0.018568548148 0.08146169053 0.27131449467 0.019264079527 0.07743325625
          0.27215278662 0.024418407792 0.071774815229 0.27380696104 0.010458393282 0.073183032199
          0.27235033673 0.010406170728 0.073979936036 0.28203088679 0.017101448707 0.077248766923
          0.28045442051 0.019727587303 0.081730655158 0.28957802745 0.018651140124 0.092419158981
          0.28941095177 0.01777830404 0.093848059904 0.28724864706 0.020035406257 0.092567671954
          0.28612540601 0.015281279905 0.078577736731 0.28791706667 0.021686003695 0.07924227291
          0.26989276843 0.022530151603 0.073309441816 -0.18921966708 0.0017547729109 0.026399751819
          -0.0067553677463 -0.018801984943 0.0037757489296 0.29119538092 0.030537675902 0.096217273441
          0.22207850296 0.0040651943492 0.049592137486 0.21658066854 0.0042443456831 0.045413330154
          0.22096947073 0.0068169688416 0.046432310465 0.21536236417 0.0015072447329 0.044203852901
          0.23024844358 0.012493223106 0.0346822369 0.084252932402 0.069265189132 0.066928946069
          0.35092509189 0.028442244729 0.11452253169 -0.18429609003 0.0044063031056 0.030420101681
          0.31762887008 0.033831327702 0.11243792653 0.0018302091807 0.018779408362 -0.012331439516
          0.005014130741 0.021663630087 -0.0032247993726 -0.082359071705 -0.0063029034025 0.028627400011
          0.35340454879 0.021153813527 0.11747193084 0.16620494866 0.029681735166 -0.0012226822947
          0.20769724309 0.015611995909 0.025628891745 0.21880612431 0.019095540749 0.03084678879
          -0.20026682326 -0.0010855640728 0.026343158164 -0.19980873333 -0.0025301795095 0.027288213914
          -0.19954901174 -0.0039781814977 0.026174819966 -0.19855176615 -0.0018849302138 0.026212969124
          0.33597206195 0.010292586145 0.15683379637 -0.10369907941 -0.0083949032092 0.024168519944
          -0.094123901987 -0.0086546137119 0.015700129845 0.17594412344 0.023401302394 0.053509550808
          -0.18204063297 -0.0084656687001 0.014053331377 0.35941929299 0.028877376114 0.135669347
          0.20887836349 0.034333685265 0.038467035635 0.22783616086 0.025759109803 0.052659984369
          0.34587747089 0.030553388986 0.12576678186 0.33401177296 0.02839939756 0.11978496818
          0.33357449433 0.029415780557 0.11922493034 0.33083425612 0.031889513634 0.11964661053
          0.32714761857 0.030997901055 0.12447229264 0.32799090358 0.034786809124 0.11975065379
          0.33123129224 0.027952994695 0.12319639492 0.32811344499 0.027339062032 0.11766894251
          0.33817146284 0.029236662218 0.12865961144 0.33367625132 0.031939103452 0.12860924569
          -0.16669143494 0.0011816882911 0.020836959206 -0.16933137801 -0.0068414219695 0.020578001488
          0.15865030634 0.031922680638 0.0020631579666 0.044330191296 0.010870154684 -0.046873097612
          -0.090035705113 -0.009087123844 -0.043247756904 0.3542907743 0.038362422073 0.13782365032
          0.31573161306 0.030527891896 0.10434067073 -0.11480164159 -0.0061490665703 -0.025586943406
          -0.19990816222 -0.0017422330091 0.031340372636 -0.014233409311 -0.056325748529 0.088031784046
          0.16766912856 0.052898697564 0.029532248915 0.20886344958 0.036696540646 0.027550804089
          0.36172646769 0.030686700522 0.13411913156 0.079422495626 -0.0028761672914 -0.011305877158
          0.1742797645 0.026074248967 0.03272220632 -0.136910154 -0.0090246421568 0.00081224976749
          0.14234979668 0.033799072877 0.0017217726952 0.037936179201 0.01328125867 -0.015735581523
          0.039055527756 -0.012038903058 -0.014306196823 -0.18778966805 -0.0010907972509 0.03010178339
          -0.18176740656 -0.0076486098479 0.019521672204 -0.19370821971 -0.0038550663568 0.026729170415
          0.051409540624 0.00151487987 -0.013953812983 0.33273252173 0.030646709143 0.1081972507
          -0.19539576567 -0.0023841891398 0.020299090051 0.28844814893 0.024509689297 0.091500582772
          -0.18767293187 -0.0010017736074 0.02348895484 -0.1954017561 -0.0027305739546 0.023562397586
          -0.19563528372 -0.0030476456214 0.023217347046 -0.19510957995 -0.0029472492218 0.019591614748
          -0.19537002547 -0.0032272335233 0.019735304699 0.18027843392 0.0056214920836 -0.0084802122501
          0.24270839819 0.035585587239 0.08611869681 0.15526840078 0.025903998182 0.043066393995
          -0.19051417136 -0.0088012886523 0.019517738997 -0.19106461325 -0.0076379292728 0.019644466016
          -0.19206281628 -0.0077679793872 0.019560203318 -0.19047256574 -0.008736874847 0.019529523634
          0.35695132381 0.013657581061 0.12678544835 -0.18783849412 -0.0045545055562 0.014275399336
          -0.18489828124 -0.0057599811165 0.01788867456 -0.18303936104 -0.0075230823395 0.015379233228
          -0.019169944464 -0.051673586247 0.079756871668 0.16935659627 0.010526688386 0.083013002581
          0.10062736031 0.014603212824 0.014576197764 -0.18834723829 -0.0095028685924 0.014598476148
          -0.19083572358 -0.0039635536953 0.021559338285 -0.19492678272 -0.0077213117587 0.018429166405
          -0.19472713565 -0.0060599262968 0.014981726288 -0.19131971842 -0.0046838741897 0.02186072433
          -0.1913400102 -0.0044761914976 0.022012629119 -0.19100093842 -0.0053597804177 0.02178539856
          0.17184543643 0.014664523254 -0.0020897404783 0.30541500818 0.040328137902 0.098768915632
          -0.18692887352 -0.0054640546576 0.014843940511 -0.0059708808769 0.0068897191981 -0.029926057065
          0.036881086497 0.029456683237 -0.049813030243 0.3093359608 0.028325086274 0.097935664346
          0.31003827471 0.028161671405 0.097705396102 0.30487074123 0.025482199395 0.097671342802
          0.30489781747 0.022636804091 0.097478095141 0.30604651414 0.025492575797 0.09911607582
          0.31026047642 0.031147557116 0.10243457812 0.35429440112 0.032113532409 0.13737787476
          0.35408179781 0.031640891873 0.13625615965 0.34417667083 0.032964757202 0.1235916306
          0.35454512509 0.029725825597 0.13795259066 0.35749826848 0.032212405782 0.1311824394
          0.3433035527 0.029783367848 0.12629849591 0.34315572053 0.031108133195 0.12462439973
          0.34840971698 0.035048162529 0.12277587869 0.34338200976 0.030944257466 0.12240631466
          0.34325280814 0.030019053818 0.1262856638 0.34194135183 0.034148316297 0.13098578438
          0.34685712297 0.031233688648 0.12898410909 0.3579187616 0.030151293293 0.13128672509
          -0.18403474863 -0.0096053835961 0.032136710481 -0.1822265972 -0.0077930434401 0.0323156879
          -0.18458139003 -0.0080147895388 0.030672852072 -0.18671104505 -0.0098503334654 0.029079448449
          0.30174964655 0.03809617588 0.093737715324 -0.18819224122 -0.0001799544408 0.028691893656
          -0.18212137563 -0.0069324596644 0.032445098741 -0.18237582962 0.0032176164152 0.028356197356
          0.2972874592 0.040172554694 0.08885886222 -0.18327871462 -0.0077234133705 0.027150574262
          -0.18492484906 -0.0082793094323 0.030586292232 -0.089981507949 0.00065746887898 -0.0031743560445
          -0.086407554439 -0.00094217943649 -0.0046531246933 -0.1205163255 -0.0034463927869 -0.0073103049016
          -0.11973652144 0.0020616036387 -0.0021057427952 -0.12063257623 -0.0032913236139 0.0067271870202
          -0.12077388795 -0.0041599429349 0.0077493134354 -0.18816177238 0.006950411677 0.020337884051
          -0.20182133149 -0.0035427900334 0.028482237741 -0.10598339218 -0.0021796207324 0.0011860482022
          -0.1069891442 0.006687963964 -0.0055761415666 0.1468833252 0.030516514241 0.034580708252
          0.32412179982 0.027966141857 0.10787113702 0.16116064767 0.029918276865 0.020118008527
          0.1661669028 0.045480097112 0.024065457162 -0.1353937862 -0.013764840257 0.0035019870132
          0.24522555249 0.032183300654 0.08791576831 0.21452743725 0.031096083948 0.054166291849
          -0.14420013385 -0.0082122514017 0.004216260887 -0.15971998877 -0.0019653210294 0.0051699167076
          -0.14855776456 -0.01061362806 0.0078714645724 0.31581723508 0.028832504416 0.11106860571
          0.17051598524 0.018399098664 0.029835304338 0.32590084823 0.030858607642 0.10900575922
          0.33436126946 0.03764735115 0.12013154597 -0.16273488475 -0.011158324197 -0.0037119424422
          -0.16085993008 -0.00046249559867 0.0053321581122 0.2770198705 0.039353819657 0.077685543564
          -0.071400802179 0.011330034644 -0.018686923466 -0.15869749572 -0.0011930120334 0.0030688804109
          -0.16274172671 0.0003497328969 0.0056788420144 0.15914065719 0.038597471308 -0.024323345261
          -0.16312870448 0.0088937767677 0.0071471775079 -0.14930542858 0.0091235873341 0.0059281306388
          -0.16109556085 -0.0045498135622 0.0081647516789 0.33457849137 0.035898818298 0.13205234724
          0.33732595827 0.028825925488 0.13075932424 0.34012463621 0.030595891011 0.12920239652
          0.33529206777 0.034757587402 0.12788827942 0.11182868616 0.0066015873519 0.016672535679
          0.095740516125 0.026472746272 0.0071355226825 0.077461028628 0.0051533352037 -0.0099145393565
          0.089917663895 -0.0010046924597 -0.0056360047351 0.091038868975 -4.1263091539e-05 0.0042133734295
          0.086184316472 0.0025118503993 0.0035014900434 0.083408120601 0.00086974067999 -0.016250475808
          0.08642922907 -0.0076246497614 -0.003044390144 0.086320518055 -0.0072580949403 -0.0034705053288
          0.085639326394 -0.010223492841 -0.01038277274 0.35583588322 0.026987881526 0.12839414984
          0.364588943 0.027477153549 0.13143255214 0.36490425417 0.028856592831 0.13159970306
          0.35536545135 0.029464434049 0.12833689447 0.35615199662 0.027511341078 0.12584589784
          0.35505388949 0.028108863586 0.12623543002 0.35276001789 0.031106103271 0.12133702197
          0.35671825618 0.02859075002 0.12111358539 0.017379262052 -0.00051853946036 0.0028917361045
          0.05121631891 0.013808830094 -0.0038316529486 -0.19673746472 -0.0030510382306 0.030825506525
          -0.19677285322 -0.0030102525165 0.028764101822 -0.19603885406 -0.0026934666539 0.031218792737
          0.24840572915 0.017561792541 0.06395444456 0.2275537998 0.012979282817 0.048895787976
          0.21618182789 0.014793162258 0.05164560584 0.2180295228 0.010981460373 0.042259786885
          0.22711984312 0.019910425204 0.066441498618 0.21497206336 0.011014281656 0.060654710625
          0.21522618633 0.014331451152 0.057610549862 -0.18583557701 -0.0052450033715 0.025660793638
          -0.18690039044 -0.00067015570643 0.025869989472 -0.18513837101 -0.0020796857291 0.029406087548
          -0.18660612892 -0.001151921459 0.030406171427 0.32734849051 0.010135662264 0.10412576429
          0.3407404348 0.029780878539 0.090505110352 0.3424053689 0.023755213065 0.13385477242
          0.32532744357 0.026759423911 0.13142070253 0.3250805506 0.027050548915 0.13153833039
          0.33229549645 0.032610800159 0.13678014666 -0.022115197805 -0.008801329211 -0.036035600646
          0.30113645329 0.034234431272 0.10752788249 0.30129003881 0.033780255494 0.10699523888
          0.30265023035 0.034021866428 0.10357269563 -0.024661979656 -0.012682494125 -0.022158559199
          -0.051295888816 -0.018471439985 0.013397172512 -0.05682965824 -0.028767399327 0.013896142426
          -0.064892492999 0.00021132524533 -0.0063341928668 -0.077751843024 -0.0073045650722 0.012213131632
          -0.051926285471 -0.0027144658844 0.012453325143 -0.055086738756 -3.9629452443e-05 0.012232624797
          -0.05514316495 -0.0072665354052 0.0031151581281 -0.056559603972 0.0016465367047 0.0051379674314
          -0.066032365388 -0.0075399597631 0.021703456009 -0.074923401675 -0.0011173109143 0.028027096035
          -0.071881427463 -0.013632406 0.032189603391 -0.088064654599 -0.010484194757 0.020268477753
          -0.092266036612 -0.015436873211 0.018103545381 -0.055052234906 -0.0044281528142 0.0071228223958
          0.30859684884 0.035432350501 0.096487474412 -0.17758856787 -0.0065033866267 0.0071579844146
          -0.18645945211 -0.00030880983054 0.019930406597 -0.18661756888 -0.00017687569126 0.018072126625
          -0.18269984549 -0.0029959846358 0.020509866261 -0.19314176399 -0.0034842378457 0.022834715903
          -0.19301010077 -0.0020913014285 0.021276489952 -0.18939576221 -0.0025442361487 0.029024518465
          -0.19292650723 -0.0031975739686 0.021025375999 -0.18905257176 -0.001287329883 0.018696255649
          -0.17804207777 -0.0069516673433 0.0064485436489 -0.17953812891 0.00043493052481 0.011469537575
          0.048878380967 -0.010211621649 -0.0020708765398 0.25823955254 0.0082818162043 0.077395804239
          0.29921611421 0.033000320582 0.097520260765 -0.17895157303 0.0015201478562 0.01152069349
          -0.18008746465 0.0050889579719 0.010285139788 0.33483410096 0.0073800671053 0.127417339
          0.32166329216 0.019426172498 0.12218873333 0.32429269507 0.018499741259 0.1215425028
          -0.14248551489 0.0024971277664 0.0016855293141 -0.1968876876 -0.0011541578024 0.029744476919
          0.21278982394 0.028863141262 -0.015032375224 -0.18291776809 -0.003098568004 0.022846125738
          -0.18428126512 -0.0084855728848 0.019200100263 -0.18446421276 -0.0093802555827 0.019417184522
          -0.19062949464 -0.0044743007201 0.025950066706 -0.18958490584 -0.0026632886695 0.024784195398
          -0.19682802128 -0.0049112678836 0.02488116542 -0.19513601311 -0.0031561461885 0.025622457251
          0.32018343551 0.033347539868 0.11176784927 0.31885500661 0.033429681048 0.1075563389
          0.17076648056 -0.0091832074656 0.012296958355 -0.06296594509 -0.019129599042 -0.028250939442
          -0.085322113094 -0.01039621884 -0.018311471769 0.16702340666 -0.0028418452555 0.0043759264446
          0.16041281161 -0.0023620315132 0.033425043219 -0.056596917852 0.0070265543181 0.0049470797195
          -0.092028219289 0.0060376370878 -0.010505425313 -0.05983350416 0.012996284638 0.0035779606462
          -0.052710728945 0.012838354089 0.0037514652959 0.34997132059 0.030533975372 0.13322058119
          0.35358368635 0.02972140254 0.13891054617 0.36069526924 0.027267904321 0.14252711545
          -0.15634398162 -0.0014119080084 0.011571814402 -0.15608116128 0.012132588114 0.018349350437
          -0.17145255475 0.0064984497453 0.010482631868 -0.17063697888 0.0069080554623 0.010954692184
          0.28767765168 0.031457112389 0.070934629635 0.29438718251 0.022524532385 0.077590478442
          -0.17903756683 0.0072850936089 0.024098819195 -0.17909717732 0.0069245851829 0.023721260736
          0.24987507135 0.028635601908 0.069085325859 -0.1879888265 -0.0029400839504 0.013781544155
          -0.12464201731 0.0025637977182 -0.011391174002 0.32042916934 0.03547135335 0.12312597039
          -0.12402858617 0.0030635623273 -0.011313721752 0.31952926144 0.027739759529 0.11721537333
          0.32215392777 0.032466114769 0.11489946134 0.33863208749 0.033617117504 0.12320330153
          0.33239854875 0.035154453225 0.12391467679 0.32505367508 0.032771861829 0.12002626609
          0.33046415869 0.034854070424 0.12912080924 0.36008194882 0.030276180316 0.13290567243
          0.30821813813 0.045481675281 0.043743316058 0.31667982035 -0.001769706577 0.020687748442
          0.2861798813 0.026776971201 0.039867779996 0.30826379705 0.039649896619 0.083309267237
          0.29626510112 0.038210832086 0.11073771191 0.32889373752 0.030833706151 0.088269360139
          0.32429313882 0.034541362028 0.090139864146 0.15683783379 0.01196698104 0.047325705624
          0.14825651464 -0.00057846906363 0.042008261578 -0.075128803869 0.021145274506 -0.015583204035
          -0.075197243208 0.015802459197 -0.0092764297662 -0.089709504 0.0094054461714 -0.0020326910713
          -0.20336790649 -0.00030755611342 0.028507123473 -0.20353169078 -0.00044643606907 0.028404162285
          0.29956938636 0.036818746117 0.091585912882 0.30235857003 0.037749748612 0.093151738855
          -0.18813171595 -0.00045444324144 0.023583612789 -0.18827432617 -0.0011884121796 0.02447112221
          -0.19379302529 -0.0027601076191 0.025383522828 -0.19173031654 0.002999106423 0.024758388662
          0.29784446539 0.039123408957 0.088226158941 -0.19363435689 -0.0021297847581 0.025781929507
          -0.20240501226 -0.0015658257749 0.024965797637 -0.20196413262 -0.00099068600443 0.028699066901
          -0.17591637684 0.0089085972072 0.010463682945 -0.17045399808 0.0032755439723 0.0086907222992
          -0.16965297334 0.010063112672 0.00040267654567 -0.15814543878 0.018559230392 -0.0017149301035
          0.26486345923 0.027851517243 0.075415112175 -0.16971136291 0.010107982713 0.00043780759081
          -0.17713273721 0.0096712395253 0.0097033303156 -0.17235112877 0.012490310574 0.011034784381
          -0.16766285731 0.0037680820991 0.015643464891 -0.16042075359 0.0048673001873 0.003142942305
          0.35663114351 0.030082860916 0.13533283674 0.35613877106 0.031801470089 0.13569284329
          0.34936066562 0.033172604761 0.13846575385 0.34667188473 0.029907828096 0.13444334719
          0.35066109496 0.028364953264 0.13286782925 0.35062216395 0.03196810664 0.12682694885
          0.34714031899 0.028121461063 0.12779013472 0.3430723514 0.032736609695 0.13344013183
          0.19053297174 -0.057814168689 -0.01077564862 0.26622241429 0.015297419906 0.051945554693
          0.27600927171 0.025352457933 0.060600478889 0.28437438779 0.019582590736 0.069318796391
          0.27896508658 0.025725734142 0.074932355312 0.27879045005 0.0096154876004 0.069946409624
          -0.047131130511 0.018243984724 -0.015146028563 -0.010061349536 0.032670462537 -0.032957631007
          -0.046279235617 0.017675901365 -0.016684296378 -0.046197772161 0.019004921882 -0.015095414931
          -0.11961271717 -0.01614080515 -0.00063905816922 0.320425851 0.041891841735 0.11152203757
          0.31535282528 0.036885348094 0.10592021219 0.31360179997 0.038047332982 0.11003482222
          0.025682210239 0.026517306738 -0.010949810877 0.31725887402 0.041285665764 0.10321361746
          0.031579218386 0.02707674895 0.0062407811429 0.3157080633 0.033315112422 0.10435772384
          0.32764467603 0.033587249077 0.12157354084 0.32081120229 0.031750443633 0.12233907038
          0.31236350987 0.040318446807 0.10591922143 0.037953939612 0.019342154298 -0.045081706878
          -0.060144624638 -0.0056611303517 0.00014926453766 -0.065518973479 -2.0816681712e-17 6.9388939039e-18
          -0.064714064383 -0.0024964324974 0.0076865574604 -0.064543322134 0.0077770474878 0.0060898278055
          -0.064733731811 0.0076500456075 0.0044858523978 -0.064766775681 0.0080802043402 0.0040724092885
          -0.064965678592 0.0031180917777 0.0038396145561 -0.070667168618 0.0039479128397 0.012792470495
          -0.079065892985 -0.0013469243606 0.01211277589 0.16510318956 -0.0010741614029 -0.0020927384175
          -0.19432385549 8.0581984616e-05 0.026448773362 -0.19436390869 2.4138533684e-05 0.026486281376
          -0.19443032927 4.1455694034e-05 0.026439775299 0.35530443531 0.031922444842 0.13167167634
          0.35552469301 0.03214474789 0.13195343477 0.35112504746 0.036126760469 0.13343592298
          0.34941508318 0.033847398795 0.130781198 0.34728313407 0.037911914915 0.12585645176
          0.3477326062 0.037428329899 0.12530233457 0.35514329566 0.032706801514 0.13321926889
          0.34745808775 0.037329601949 0.12555235154 -0.19942592108 -0.0027231232153 0.027461110887
          -0.18955064238 -0.0072683745822 0.022484843682 -0.18247311752 0.0084696912171 0.022065602755
          -0.17570414583 0.00036042792779 0.0096326858809 0.20489172252 0.021500007138 0.023697578453
          0.067022007968 0.00059678747125 0.010121572764 0.066713476914 0.0020233674214 0.011837231202
          0.07574424926 -0.003330762581 0.018597506414 0.071345454226 -0.0035755927796 0.010839388946
          0.056320041624 -0.024580668448 0.0089551955924 0.058606528134 0.0038108437966 0.016240698915
          0.057936779986 0.0024191683153 0.021944214234 0.042319021606 -0.0058385488009 0.029956736633
          -0.072815258038 0.0023984321337 -0.0050817505453 -0.074814416688 -0.0022226942831 -0.014676336801
          -0.087943429341 -0.010405438491 0.021432068087 0.059809957571 -0.011390557494 0.032307932833
          0.062838255751 -0.0033924189449 0.034588984176 0.07491953904 -0.0051156613211 0.02586773639
          0.08781226248 -0.0072491374626 0.016404673433 -0.1352797388 0.0012615407075 0.012217038644
          0.25242237653 0.037849316751 0.074717360092 0.22805502281 0.021983130024 0.049975626546
          0.24338178036 0.03523475737 0.061841916581 0.25558253011 0.025937752031 0.057004699171
          0.25456449347 0.031671831521 0.060976886095 0.23151837517 0.027394699002 0.04992670945
          0.23161150722 0.024921900514 0.052882968171 -0.13214948933 0.0032289796409 -0.0047529601242
          -0.13380436945 0.0090093242865 -0.0045928006488 -0.14330449385 0.0015580425317 9.2069392016e-05
          -0.15432709978 0.0075174601134 0.0041743520343 -0.15544959074 0.0013883079435 0.0052142779174
          -0.15434898191 0.0078079138558 0.0038282910921 -0.025958388379 -0.013097783848 -0.029085892169
          0.33054799536 0.020362184853 0.12948217952 -0.0096985164562 -0.006652801334 -0.013250780926
          0.33006179282 0.020468209039 0.12791564405 0.33980317016 0.031778919692 0.11977286046
          0.3149899692 0.032554234949 0.099379330288 -0.11973490789 -0.022467562907 0.0016934654434
          -0.11400775081 -0.0098507499963 0.0053704312486 -0.10891718107 -0.01449052919 -0.01007202444
          -0.089447357963 0.0033939799034 -0.027084709137 0.31523586301 0.029682165722 0.11339909398
          0.31588653625 0.030041919663 0.11097118339 0.3151785205 0.030264614755 0.11369758069
          0.3160078528 0.029854934126 0.11331349584 0.31347582735 0.028773230053 0.11334149283
          0.31314063481 0.02756307888 0.11282160241 0.31043585305 0.031282003208 0.10898232356
          0.3082389381 0.027917455731 0.10569540389 0.10765049817 0.0071557849122 0.026147330882
          -0.12626044029 -0.016185355262 0.013969307374 -0.13185425772 -0.016529432428 -0.00013560305316
          -0.1381703704 -0.0057346278543 0.0074869120907 -0.15060117185 -0.005352541856 -0.0036143073412
          -0.067899790321 0.0082632637544 -0.0013975821539 -0.094459091459 0.0051821256213 0.0046119448063
          -0.15080333974 -0.0068257017809 -0.0020771598087 -0.15076362386 -0.0043640147654 0.0039453197293
          0.28899719482 0.035418526567 0.07352881585 0.23496514585 0.035086965193 0.033721656878
          0.21417068571 0.035377593023 0.028397744009 0.2097973227 0.039923368943 0.020027907651
          0.29308006235 0.02560109722 0.083604282546 0.23831016022 0.036949723322 0.031491045998
          0.20916662139 0.039201901707 0.018718189166 0.20824179741 0.037749624032 0.019365938562
          0.29058240986 0.033129976443 0.081597531448 0.19290490442 0.018216738361 0.024006824372
          -0.090118493871 0.011215982164 -0.023575581975 0.16085739173 0.0081062556927 0.0061394852585
          0.16109555931 0.0063879795225 0.0061441973298 0.16149019983 0.0092747953306 0.0023261276947
          0.35733246996 0.034634793418 0.13467441795 0.35328159342 0.032474789292 0.12903742036
          0.35777897296 0.032936918997 0.13078218732 0.12019749144 0.011022964075 -0.016951658315
          0.12033214325 0.0080596350256 -0.0044027463698 0.11679554132 0.032454320484 -0.0051806031946
          0.13599862847 0.031116228989 0.0089021077946 0.16969128951 0.020424840147 0.0047310934958
          0.1383586034 0.0097554199906 0.0090390331236 0.12882471234 0.017184058132 0.0025559066968
          0.3590229067 0.032489781919 0.12992429652 0.24353938813 0.019866529243 0.041333668409
          0.31626373404 0.034641711852 0.11043961884 -0.13604226142 -0.013219103539 -0.012305225385
          -0.13925800044 -0.0095970880932 -0.0069255633814 0.33693440386 0.012985744477 0.1124740773
          -0.14368787278 -0.012161213624 -0.0022370240546 -0.13332691054 -0.0033641309511 -0.0028778075932
          0.23115867584 0.025733520281 0.053841639771 -0.12397272759 0.0031619803949 -0.010863638252
          -0.060615928955 0.021110224706 -0.017913175906 -0.075226432692 0.017677953806 -0.0069717893131
          -0.071911959805 0.015660504502 -0.009038832743 -0.061173409665 0.011393880044 -0.0056461549087
          -0.063661802524 0.014256864311 -0.0087171243847 -0.089384555926 0.015337763358 -0.016730520989
          -0.19374998309 -0.00097631763732 0.022408625676 -0.19477892089 0.00063994679889 0.02273639873
          -0.20111734123 0.0008650889948 0.025352793968 -0.094297087941 0.014165263671 -0.017518911944
          -0.071245780051 0.02470092707 -0.030248421113 0.059083594735 0.021840239385 -0.0026120096601
          0.29864111965 0.039226110368 0.086706479767 -0.069755899954 -0.027100640149 -0.015315992111
          -0.067669025552 -0.0088208685251 0.0061536389533 -0.096147561297 -0.0095337495681 -0.031436843553
          -0.19036050573 -0.0015454069062 0.024898808064 -0.058005477594 -0.013547191096 -0.024104284689
          -0.061832927951 -0.01402530832 -0.015529839025 -0.071149414047 -0.0066721096088 -0.014047620741
          -0.072064069532 -0.0049060571115 -0.016279110303 0.22824431477 -0.005095726027 0.037903652996
          0.22258947704 0.011706116987 0.032066365869 0.30326033601 0.03733435029 0.09707073541
          0.23615995819 -0.00014284052974 0.0095848179862 0.29942099009 0.034925947042 0.099062291062
          0.19906050489 0.0095175845584 0.022901697614 0.20238311039 0.014125282547 0.015397758883
          0.21094901319 0.010394262957 0.028001290217 0.094532038993 0.019863698916 -0.027730527888
          0.32044561716 0.03687461993 0.10995317762 0.1936763631 -0.010974625068 0.011870788159
          0.18797370098 0.043063182218 0.0093027400057 -0.2021151915 -0.0023225358373 0.02768668477
          -0.19961614236 -0.0027487856257 0.027401828452 0.29629232709 0.022480672888 0.066196272674
          -0.20139258862 -0.0028819549109 0.026226565056 0.30474404971 0.025253516662 0.094681597965
          0.30542587085 0.026917194377 0.092965866701 0.30359843356 0.028510941577 0.098422950829
          0.30299893001 0.033199796064 0.10080409495 0.31393219105 0.018676899531 0.096152314528
          0.28324558297 0.027760088168 0.10216518827 0.2870698156 0.043918754281 0.10215726534
          0.28814208941 0.043305607101 0.10174510714 -0.1744261813 -0.013538208603 0.027120839782
          -0.1630834501 -0.0082066189589 0.021913947897 -0.16539246616 -0.010090358793 0.020222451655
          -0.1504044095 -0.01063028503 0.014225957505 -0.17339194171 -0.004968702766 0.036697679014
          -0.20395168845 -0.0028487537514 0.028321344073 -0.11617980996 -0.0044768847611 0.027192047714
          0.082272987549 0.016228369386 -0.0066514965341 -0.11050380146 -0.004370821629 0.014550959623
          -0.1213000643 0.010018515675 0.022993614615 -0.10773946424 0.015490390914 0.029443002698
          -0.11327320265 -0.0074458111267 0.029015386034 -0.19008259673 0.00029354587102 0.020449975036
          -0.17282322623 0.0036530902792 0.0025253106201 -0.17460796819 0.0053167310731 0.0010129001936
          -0.17604794584 0.0021776213869 0.012344328125 -0.1730711933 0.0071296390461 0.012253814747
          -0.18925097018 0.0062586653728 0.020713704019 0.30202711719 0.035146351297 0.10263790144
          0.30068441416 0.033918025791 0.097124989631 0.31727934875 -0.0077828574279 0.084238011544
          0.27395828664 0.025181327844 0.05914327875 0.27886928628 0.017027439824 0.049159032803
          0.29786180822 0.0014682513994 0.056944875261 0.30006876898 0.010652482154 0.08977643524
          0.30123680212 0.024271582745 0.10120660103 0.29837689761 0.021778785282 0.10265233107
          0.30526107831 0.089272594087 0.062146133622 0.28745972953 0.023920320418 0.043455286755
          0.27507832716 -0.0013032327096 0.032967108553 0.19209847518 0.0055929749625 0.050209396334
          0.073709106278 0.033801156759 -0.024961010076 0.074969158168 0.026417042171 -0.032229179929
          0.087425156033 0.029016796668 -0.041539963331 0.13384674775 0.018904731376 -0.0077570042986
          0.13011559931 0.034828677192 0.019114882444 0.13365141337 0.039762976676 0.018669284876
          0.12054220502 0.03095964603 0.032179567284 0.13131972317 0.020075075305 0.039496171945
          0.13218844109 0.018770782866 0.031442178646 0.13928381213 0.026112019025 0.039636592417
          0.13950211433 0.029310301059 0.041590170732 0.15642461035 0.036602259552 0.041721661921
          0.15381697781 0.03794571175 0.043252667626 0.14532949303 0.027590658676 0.026981798799
          0.16251284383 0.040471482546 0.026690669837 0.15729255407 0.020711061669 0.035669058968
          0.1351137678 0.031512306817 0.020659058072 0.13040579229 0.034541120659 0.019006550368
          0.12934787404 0.040059709913 0.019864700547 0.1436563451 0.030349821937 0.024758733808
          0.2743264097 -0.0062160564738 0.068098383814 0.26372829518 0.046109485573 0.06988550335
          0.25699955532 0.035398003738 0.070380828882 0.27445480883 -0.0061934975179 0.068086285769
          0.32266347104 0.099148686682 0.064953653766 0.18327471417 0.040069857005 0.018519733165
          0.30112137583 0.027549146696 0.096967394494 0.36955830707 0.027799780921 0.14166093496
          0.36958244306 0.027003341288 0.14409478856 -0.13996034072 -0.014474757752 -0.007890555994
          -0.13609668747 -0.013903482321 0.002540726922 -0.17399767327 -0.013504570757 0.022723057432
          0.31946831094 0.025082640062 0.10285448333 -0.17555598564 -0.005523890565 0.032911923528
          0.31350053624 0.0065357182655 0.10127130747 0.31217859275 -0.0046736788915 0.082073386745
          0.31107791626 0.042418098179 0.089102542781 0.30761168998 0.042581094173 0.091821248687
          0.2993617427 0.0076397540873 0.093661181024 0.31754508945 -0.0019828853945 0.078249997522
          0.32718418489 0.00580846236 0.097343991996 0.18776760266 0.01803139062 0.012741864755
          0.33295873314 0.023064081906 0.096651174963 0.33378754021 0.017237121069 0.1038059812
          0.35067383528 0.020141264154 0.085574470417 0.32106966707 0.021901043658 0.10829846395
          -0.14426587546 0.0078107843508 0.013591141853 0.36396682828 0.03250456067 0.14297537223
          0.36295171966 0.033395183471 0.14291410327 -0.14505997832 0.0084016922906 -0.0013070328489
          0.36268473759 0.030609288448 0.14243323273 0.36160671968 0.030221232452 0.1421629025
          0.36148008716 0.030360658962 0.1419442019 0.30007096263 0.020560499268 0.10217659322
          0.33819996855 0.033639566037 0.12632861896 0.29214458662 0.022618387698 0.093713259715
          0.28633966718 0.027633339014 0.10305225788 0.36682755512 0.014947378002 0.12113038203
          0.36171853992 0.03770763832 0.11735398431 -0.19756780076 -0.0022986982676 0.029193103142
          -0.19845184207 -0.0023072264351 0.031205188851 -0.20034896274 -0.0049243625424 0.030028276447
          0.262983554 0.01741076618 0.053351975586 0.262987359 0.017386993224 0.053333612367
          -0.19940788638 -0.003125219705 0.032065162654 0.263974493 0.021318743215 0.051199280851
          0.26441222237 0.019232226174 0.049255581102 -0.19827888097 -0.0026064544865 0.030953949783
          -0.19798396301 -0.00043069974856 0.029254221165 -0.19744698737 -0.002077555565 0.030033854161
          0.29146937383 0.031061593521 0.082247655911 0.35966724741 0.025975146562 0.13821137893
          0.36863284893 0.03508296395 0.14637761614 0.36208693128 0.023600472716 0.14396418568
          0.36604961021 0.027612113808 0.13736452092 0.28819008261 0.031866631652 0.089812762385
          0.36215824594 0.028229947128 0.14068274736 0.35939168507 0.028836358691 0.13565372608
          0.3589911461 0.036345348161 0.13933952661 0.30890120125 0.036673176483 0.1030230123
          -0.19707620496 -0.00038858828464 0.028688669835 -0.19728723847 -0.0019553286624 0.027530103096
          -0.19781611357 -0.0020627684747 0.025339219196 -0.19545251952 -0.0019274176691 0.028346749775
          -0.19850082955 -0.0018428224302 0.029566588383 -0.19891700259 -0.0010397873863 0.029570022649
          -0.19894103438 0.00050503969939 0.032227935522 -0.19966603528 0.00052487823323 0.029551607719
          0.13931941779 -0.00043991374146 -0.029421690054 0.13669763812 0.0060847841773 -0.029385144913
          0.16347252946 0.0058486790127 0.0047813626524 0.11828794186 -0.0039456010386 -0.011940630472
          0.11761676626 -0.010275407718 -0.019136043217 0.12899807151 0.00053704730308 -0.017479281375
          -0.15708604593 -0.0087545564092 0.021431707756 -0.15771072171 -0.015900646466 0.029030916323
          -0.15036806701 -0.0046003467627 0.0041227091061 -0.17187267421 -0.013809643162 0.016657016842
          -0.17432932907 -0.014745030796 0.0096784600081 0.34558624611 0.03068138705 0.12371434851
          0.34476436041 0.031235575048 0.12488444701 0.34390708505 0.031475883325 0.1253175039
          0.34447512676 0.031596152821 0.1252109224 0.34400987842 0.033241302322 0.12518726676
          0.34237299922 0.031682477577 0.12557153054 0.34385678727 0.030344268134 0.1269510922
          0.34382901045 0.030334472156 0.12700533507 -0.19547184013 -0.0037154826302 0.02424438366
          -0.19377858924 -0.0088205960558 0.023582067696 -0.20005936178 -0.004230218933 0.025158798698
          -0.19920273518 -0.0033006548318 0.025039174616 -0.20050180321 0.00031102451351 0.028074858635
          -0.20264852909 -0.0016975412836 0.028557072085 -0.19817600972 -0.0060874037806 0.022622857788
          -0.19638166192 -0.0035773006754 0.0239371459 0.30329269182 0.035401646131 0.095390973806
          0.19128545997 0.00094247166502 0.010940077994 0.17690813426 0.019028660283 0.043487591431
          0.30136430476 0.035680599181 0.099093219484 0.31537508525 0.036564609506 0.11450752825
          0.31470215131 0.034577632552 0.11493295692 0.18815549126 0.01072945101 0.035563109391
          0.32256040403 0.037139229716 0.11665007661 0.31781125526 0.035777640649 0.11727707861
          0.32048944774 0.038055057357 0.11013551523 -0.10113892521 0.0052492069389 0.013504269345
          -0.11205106895 0.011233484244 0.0096376712984 -0.10312074148 0.0055141045287 0.020205699563
          -0.12232946601 0.014627555715 0.026196444125 -0.15587024771 0.01220233089 0.021297906144
          -0.19685278588 -0.0058237148517 0.023524064356 0.32500871299 0.030661380182 0.10970218584
          0.28893471087 0.04029351294 0.089971070327 -0.1967515014 -0.00079978099119 0.023880523842
          -0.19627802218 -0.00031813429959 0.031180755062 -0.18656280865 0.00206335545 0.024419801033
          0.29374582688 0.022071769189 0.078363842697 -0.18842130011 0.0019006503287 0.026111516024
          -0.1835050298 0.0025124352259 0.029492654471 -0.18927966462 0.0010901163001 0.033673858275
          -0.18954680386 0.0018271185181 0.03271902535 -0.19134384544 0.0027581768581 0.032154918353
          0.20779435596 0.037663906939 0.019691274126 0.28069344309 0.021703634661 0.065520853951
          0.27751332897 0.031155710132 0.067776513643 0.27781408698 0.026942599142 0.067030868203
          0.31427592423 0.036849782539 0.10213048607 0.31413120196 0.044483446047 0.092926005694
          0.32126033006 0.042159871895 0.099927265124 0.27841173766 0.020942096812 0.071174546547
          0.28612858642 0.028975254952 0.070172217871 0.28297690554 0.021644088545 0.070427008427
          0.27859940619 0.032556214292 0.071585957138 0.2820924018 0.029288186161 0.063336924872
          0.28279663025 0.021667102577 0.07104887274 0.28811498542 0.034742789745 0.071586225967
          0.28836589449 0.026783712503 0.078617958254 0.28894460716 0.026396452316 0.078630270386
          0.28902764439 0.025885701665 0.074560849206 0.28234284574 0.029960224403 0.070851933425
          0.27996425783 0.028695358797 0.071207109353 0.28181796333 0.01944152723 0.070539525688
          0.29296444656 0.024831905156 0.079687224498 0.29300300985 0.024743881309 0.079602621619
          0.29287885502 0.024903176584 0.079641276733 0.29227859196 0.02641192142 0.079536609113
          0.29305873132 0.030770135214 0.081035335254 0.28684293774 0.024253792433 0.075177142278
          0.28687088058 0.024573531975 0.07498486579 0.29245890552 0.029003572292 0.081326364351
          -0.19155944803 -0.00085870178448 0.03046000587 -0.19291129211 -0.008495483018 0.028961611847
          -0.19894066861 -0.0016820482008 0.028856231456 -0.20131755182 -0.0049940474766 0.030892705689
          -0.20122912444 -0.0048767340636 0.031100178687 -0.19833200406 -0.0064842063914 0.029842457695
          0.3657901415 0.032869690369 0.14899091621 0.36721278392 0.030501618211 0.14571085765
          0.36891970892 0.03217695833 0.1414771306 -0.19643313753 -0.0021309942121 0.027759967172
          0.36808050981 0.031110306872 0.13728648097 0.3716977029 0.034992641476 0.13688659049
          0.36679532273 0.03003688447 0.14532663692 0.36030818465 0.034340560746 0.12888910155
          -0.16042075919 0.0091227731196 0.0019969522478 -0.15514456217 0.013789903074 0.0053755649876
          -0.1473761247 0.0081969137418 0.0021332918334 -0.15702740516 0.0041658394577 -0.0010764575949
          -0.15693129336 0.0036665386796 -0.00055049016057 -0.16055837979 -0.032744416358 -0.025610064691
          -0.15560663484 0.012543085587 0.0081846616604 0.26256445538 0.040737519431 0.087089421821
          0.27336290014 0.039257644272 0.077440894442 0.27515430223 0.040209396967 0.076756477917
          -0.1991484972 -0.0025909354682 0.02740670446 -0.18440467347 -0.0037964772026 0.013779979235
          -0.015756875048 -0.0068541384606 0.012954309117 -0.013317535325 -0.009623749313 0.010168881908
          0.028675588993 -0.0097619183062 0.027795647815 0.029863832493 -0.01051366892 0.026477661378
          0.026758858916 -0.0088683250522 0.011089956107 -0.14278949768 0.0038557930657 0.020453966058
          0.016362247275 -0.0023347484402 0.020029746642 -0.074921781741 -0.0030267687517 -0.015013002335
          -0.063190292694 -0.0033721913287 -0.0035497492808 -0.019912921257 0.017492834951 0.020593228774
          0.31016587702 0.029605875573 0.099555123711 0.31055459211 0.029444124628 0.099891974738
          0.12120406637 0.0092029994236 0.0057560987357 0.31311361927 0.023529071705 0.091753145235
          0.31982202798 0.028239729732 0.083854304768 -0.20106042689 -0.0033152409393 0.027515666617
          -0.051662060197 0.0049814977838 0.019035218449 0.34254380653 0.036447466684 0.10173281986
          0.3425720372 0.036179951797 0.10248451969 0.28891533095 0.02392415883 0.086162231379
          0.16689341383 0.02319453445 0.02702862587 0.14761026555 0.024131560826 0.024339244088
          0.15427522333 0.00058865137022 0.029614455866 0.15214825077 0.0029921311645 0.031840073818
          0.15661707063 0.0090317804627 0.033750065499 0.17280373574 0.0079236411115 0.027017651518
          0.17364268908 0.013126564385 0.02979286758 0.19001004979 0.012250982778 0.045364624326
          0.18910509259 0.01327918125 0.044872778796 0.18736200913 0.013244622252 0.059954752322
          0.19022605289 0.017403204367 0.056015024428 -0.11717345303 -0.011943075206 -0.019364706442
          -0.12970695786 -0.0085636937195 0.0016648645644 0.31672808197 0.024113617312 0.10414608093
          0.3176141383 0.041872397425 0.10299792508 0.31830622179 0.040264840942 0.10497727207
          0.31906364984 0.039119515919 0.10702941112 0.320954097 0.041931619926 0.11109760149
          0.32712419869 0.038380776311 0.11387453953 0.32525843652 0.033761885024 0.10833865524
          0.31943615711 0.038450100083 0.10682167356 0.3318412993 0.042395560191 0.11550378944
          0.32803268587 0.041044044627 0.11723858186 0.31662141239 0.040086218223 0.10716806333
          0.3206550288 0.038850258005 0.10477266637 0.053047601898 0.021966507956 -0.01415646866
          0.049247087584 0.031612684729 -0.0089926699553 0.017168732946 0.030612083455 -0.011857175175
          0.3453118238 0.024789640971 0.12723607735 0.34435076187 0.029617355701 0.12645075266
          0.34640268373 0.031569442665 0.1257462127 0.34579871552 0.030551082069 0.12671623409
          0.3457910601 0.030676794849 0.12649030569 0.35777491481 0.030612146452 0.14207925426
          0.34252152091 0.030479638834 0.13142450959 0.34517608852 0.028832067283 0.1308206775
          0.34415529315 0.030296403831 0.12948921922 0.29934002121 0.030566072606 0.050185718636
          0.3042620627 0.028612678433 0.047919119915 0.25737542811 0.018879203941 0.041200343355
          0.24399694553 0.0044144227493 0.027608615515 -0.17028661129 -0.0097690603914 0.001076565853
          -0.16810340047 -0.011545309755 0.002272943263 -0.16663749419 -0.0056773667383 0.0061176384588
          -0.17445226637 -0.0060171926431 0.0067860267563 0.18228416666 0.0081632336674 -0.010937676316
          0.18539664262 0.022838726203 0.023847831964 -0.17318434077 -0.0052131135189 0.0065566394862
          -0.16775138765 -0.0039106589637 0.0059197897511 -0.16772918349 -0.0038765218438 0.0059125339458
          -0.1684129078 -0.0036729200161 0.0053859440733 -0.16862900101 -0.0041244547941 0.0055278726624
          -0.004288634877 0.0065999862678 0.055743679349 -0.00222900228 0.0058626769288 0.055351013052
          0.064201993521 0.058214081707 0.0078841755865 0.066858007717 0.040170563281 0.015191275545
          0.070487285802 -0.0075545096887 -0.028714339841 0.016459969568 -0.043292680631 0.012994344307
          0.059731416577 -0.013926644022 0.045722922557 0.073934074804 -0.0044422248712 0.042736813851
          0.17291468543 0.097081184837 0.041305930491 0.15707402344 0.016233344817 0.036640586971
          0.36185022561 0.032782814721 0.13257093506 0.35630555361 0.031745673345 0.13288254341
          0.34805353107 0.035155665613 0.13665452737 0.35056177223 0.035630405657 0.1332122441
          0.36002152421 0.026318062755 0.13709658718 0.36662252275 0.028475676888 0.13605894448
          0.36556438111 0.028071935303 0.13509073528 0.36437676066 0.028094966763 0.14333862144
          -0.026128567315 0.012415205128 0.039156840641 0.32569207487 0.032803056558 0.11983144271
          0.32251106976 0.027091986866 0.11664299349 0.29930399886 0.030717034483 0.089638496446
          0.30115880566 0.027236572088 0.086070442644 0.30096231943 0.027304612338 0.086093530558
          0.29701372731 0.028729294207 0.078319687033 0.29911200874 0.025750589338 0.085225062901
          0.29602455659 0.027552025532 0.085950165061 0.30077344267 0.030488004903 0.087658391217
          -0.08880287428 0.00042480958397 -0.03119873271 -0.092053773651 -0.0048786463998 -0.029540271814
          -0.11133363776 0.017843226546 -0.025797779237 -0.080638364603 -0.005572276841 0.0043828583971
          -0.19791946085 -0.0034620387089 0.02664592827 -0.18861410887 -0.0038944692465 0.031476832198
          -0.18867188786 -0.0038425843544 0.030051971107 -0.19065983133 -0.0050678576941 0.029608980805
          -0.18452311363 -0.0034078563627 0.032170612667 0.33097143288 0.034111071088 0.12839436619
          -0.16230705566 -0.0037614897796 0.0055528730339 -0.088755387323 0.017208067851 -0.0023911035222
          -0.090219071748 0.013983479065 -0.00098750440938 -0.074103736259 0.00653744065 -0.0076303115556
          -0.05027251437 0.018221668918 0.0090715338121 -0.05150358538 0.01904326204 0.0061674946533
          -0.049469884302 0.006560986174 -0.0042933362333 -0.049528526457 0.0066772141069 -0.0043259377855
          -0.053504135503 0.016469057939 0.0070475654528 0.26080966636 0.033735270039 0.066328191344
          0.25130932815 0.034714879021 0.077934697779 0.2948840581 0.048420798203 0.075329292537
          0.29603811539 0.037492384165 0.084033363652 0.2922263751 0.035804107441 0.082013552719
          0.29077162054 0.034601119017 0.080783401229 0.29071162225 0.035433782206 0.081458014659
          0.29193712183 0.034839151259 0.081172285902 0.29593533119 0.037576542684 0.084085515742
          0.36469452923 0.036800232855 0.12366125178 0.29200849615 0.039110007372 0.081013060943
          0.29121202757 0.038853335326 0.081220058292 0.29120266123 0.038833312656 0.081247379646
          0.29073424751 0.03925339244 0.083352750067 0.29104316058 0.036051606984 0.080443658814
          0.29055468517 0.034621632587 0.081667971822 0.29162335659 0.037918820516 0.082674901056
          0.29645359193 0.036945859246 0.085121776661 0.20962525007 0.0060435586202 0.009829497473
          0.22327847976 0.00594257278 0.034091111428 0.24430271239 0.002475721534 0.029006471906
          0.2316820558 0.0029689475629 0.036733920901 0.18629707745 0.019307207494 0.0059378840565
          0.24923228233 0.0094407574942 0.070243049663 -0.051869725568 0.026201112049 0.0052866109113
          -0.072825723232 0.014600120226 -0.013350094135 -0.071407280961 0.017007157687 -0.0059449605706
          -0.046496347102 0.02114593142 -0.020353050556 -0.067200699789 0.02329318327 -0.0081688949256
          0.25167233779 0.026574544624 0.070488547956 0.25071364271 0.029077025361 0.06979569974
          0.26841498591 0.030227517687 0.054943635503 0.2678377383 0.033352277169 0.05358194898
          0.30081217107 0.043664012107 0.090430415789 0.28827518701 -0.0032036052866 0.085731910454
          -0.015449119318 0.022705347166 -0.025488598632 -0.017481158216 0.022635328219 -0.027015433431
          -0.02082420913 0.014371814307 -0.037498708482 -0.0087872854022 0.012800534703 -0.030397309014
          -0.0041286491092 0.012236098751 -0.031492817002 0.021238501117 0.0095165158531 -0.068589807557
          -0.16670122124 -0.0017862021728 0.018501502829 0.12318869879 0.04314593187 -0.030026619825
          0.098242233093 0.012429284805 -0.027906975533 0.10136896587 0.033339623312 -0.020131231427
          0.10148824884 0.033473202147 -0.020147633042 0.12458276928 0.041261736098 -0.031842270087
          0.32062641435 0.028682130719 0.10356397605 0.32001883525 0.031937257816 0.10831511904
          0.32246938219 0.03420038132 0.10482986747 -0.047274446266 0.0033165153047 0.023574923108
          -0.045627362539 -0.0025058622206 0.019508582961 0.20249320401 0.060976200756 0.068595613106
          0.21436452903 0.022060506418 0.0343123967 0.19320606287 0.024996727617 0.045705831868
          -0.072651889156 -0.0028331021297 -0.02617767027 -0.080570791209 0.008206876488 -0.021913425083
          -0.079197319196 0.02587986273 -0.0087003883041 -0.087403979378 0.018126874692 -0.017953426248
          -0.17027009615 0.0045658461271 0.0089582210769 0.32095724227 0.036709278905 0.10600386546
          0.31991815211 0.028972031016 0.11344929355 -0.14164419092 0.0014499211061 -0.012428419939
          -0.13766563918 0.0046668551771 -0.014063867072 0.32175764273 0.032477245395 0.1150011766
          0.31585097964 0.030560249166 0.10418644407 0.31310952825 0.029935495657 0.10394876074
          0.30988927561 0.029378564973 0.098020356647 0.31174272307 0.026305365411 0.10146691144
          -0.069935087424 -0.056850217475 -0.036221787155 -0.061945120131 -0.17170424741 -0.11812493043
          -0.089705235573 -0.051464041578 0.025552683695 0.36576293682 0.036507125402 0.14881645661
          0.36675268011 0.037137633771 0.14638408291 0.36120731011 0.02917616304 0.14297346306
          0.36259308482 0.030751712613 0.14223299827 -0.1972612483 -0.0039705935032 0.036204588731
          -0.19244013056 -0.0092390394721 0.030184753949 -0.19585028105 -0.0045221722047 0.034588536712
          -0.19544783778 -0.0041303122233 0.034208417786 -0.19499475013 -0.0013512299023 0.034124518012
          -0.20076832083 -0.0043535928579 0.030534275438 -0.19915381377 -0.0023695643396 0.031373715498
          0.30313369517 0.036402848053 0.097394807712 0.23846625339 0.0013151465258 0.037036576475
          0.26056015562 0.012021174609 0.042344589776 0.26726942426 0.011207916784 0.055419530291
          0.26851271037 0.013479933282 0.051009437773 0.26624574819 0.018425321085 0.047867703248
          0.24938463292 0.01396300868 0.050514317606 0.25580811533 0.0042142154903 0.056727047128
          0.19463305705 -0.057287368437 -0.012823697298 0.22878157295 0.00090340209283 -0.0052907583327
          0.20519044665 0.054227726132 0.013405745921 0.22615460017 -0.0031877691577 0.036468955596
          0.29314436554 0.073070401411 -0.053879762778 0.29782161768 0.010915837043 -0.0175675014
          0.47710414661 0.0041352091797 0.093774315793 0.25242674735 -0.014441911296 -0.031165689216
          0.22610653587 -0.0029980317301 0.0361862129 -0.13098934684 -0.0095427731212 0.026955009409
          -0.13657815445 -0.01630148222 0.032443830298 -0.14015628369 0.012878864099 0.040118273277
          -0.13645236359 -0.0058314161817 0.023858110433 0.15925739448 0.030670680683 0.0029328289098
          0.093496574692 0.00024922643197 -0.022403542897 0.093521476566 0.00033076604276 -0.022271971228
          0.093333919086 0.0004876095522 -0.022449307205 0.089227378603 0.010892415612 -0.028756751963
          0.078606826614 0.0044720770205 -0.005921793192 0.09749088598 0.040105167482 -0.0027641578147
          0.07900296313 0.0035310688079 -0.0053869785812 0.037734035695 -0.0035698471716 -0.031927390141
          0.063266038055 -0.0029097976557 -0.040950697317 0.054990108037 -0.011894814804 -0.043242968904
          0.092385181325 0.01628801516 -0.029217061599 0.14147721817 0.033916390662 0.0086184879912
          0.14381498011 0.054884332085 -0.016106728298 0.14707595293 -0.021950864615 -0.019452743474
          0.35827404283 0.03384871599 0.13412181884 0.35624167694 0.027720644568 0.13795865199
          0.3166498955 0.032860109562 0.11103861576 -0.098170404329 0.010385051176 0.0097034843887
          -0.10378165562 0.016742014824 0.013654330139 -0.10139150785 0.01634099254 0.0078425020492
          -0.10459943807 0.017723142672 0.0044808968724 -0.10074212382 0.015453546433 0.0076569169416
          0.29823511575 0.028837729498 0.089010173553 0.29760989065 0.026513687194 0.090997881518
          0.30093398684 0.020483092207 0.090922323118 0.30377858308 0.029639764637 0.09962112266
          0.30157377165 0.026185173931 0.099871307905 0.30143070488 0.02761786384 0.10040250581
          0.30061426961 0.027175755675 0.10075533158 0.29995814122 0.0280715747 0.10142773847
          0.29599115438 0.029165044197 0.10175481924 0.16356004578 0.026835320995 0.024838661138
          -0.11189988992 -0.0063176969288 0.0081596578604 -0.11624605845 -0.0029186188446 0.0048356995227
          0.34947907361 0.035352340813 0.13451108225 0.28603133329 0.039735396557 0.0906370439
          -0.1928317328 -0.0010087765017 0.022503916375 -0.081158621645 -0.0066972353556 0.0012175573722
          0.2849007523 0.039086526842 0.091897234592 -0.1162779897 -0.00034114317578 -0.0082238367371
          -0.1035760731 -0.0093826556877 -0.015205006428 -0.10431096223 -0.01050033062 -0.015168908602
          0.29499556847 0.037611011003 0.097548853562 0.29489722888 0.037249756512 0.098311110624
          0.28895038607 0.039434397557 0.095545253652 -0.20039076686 -0.0025655118658 0.026334927191
          -0.19104066119 0.0028441020542 0.02624536706 -0.20042512735 -0.0021839890565 0.025972265262
          -0.20126299143 -0.0022517998117 0.026185183255 0.10378631104 0.029635369739 0.0076214989214
          0.091138634143 0.027586871225 0.015334094164 0.13637762428 0.058651411529 -0.012113591312
          0.1366157443 0.057582392976 -0.014368699576 0.13553112205 0.035074873925 0.011237400639
          0.16348104454 0.029271795482 0.04312422255 0.17222474697 0.036524588182 0.042391513752
          0.17223103497 0.038455786482 0.040116726547 0.10754315207 0.030669862109 -0.0086294680122
          0.1375753018 0.032401769813 0.075699591738 0.16514312987 0.011820964827 0.077241397878
          0.17104804471 0.037207233198 0.042555843581 0.30763279621 0.031160455758 0.098118881117
          0.3030170071 0.026191347639 0.095919106953 0.30320497003 0.027691316178 0.088730862203
          0.29997387202 0.035316401495 0.086349083727 0.30047082176 0.030490428128 0.10048736946
          -0.13013668401 -0.0049971486681 -0.0027902631433 -0.13525195289 -0.0048375355429 -0.0023259490634
          -0.13441250937 -0.0067039080603 -0.0031051776076 -0.20144506172 -0.0022861680083 0.026270342188
          0.29599992085 0.02600500517 0.10034486703 0.29864303754 0.01737543185 0.10928140741
          0.30101980848 0.026215748 0.1161595889 0.30778113518 0.017973409267 0.12519971207
          -0.022960778955 -0.010372455814 -0.017344088081 -0.009427316222 -0.0068838976852 -0.013473261023
          -0.20371134534 -0.00049098460862 0.028462296844 -0.20453304869 6.1104066611e-05 0.029927802216
          -0.20124062106 -0.0030262209185 0.03285155531 -0.18219284237 0.0078566923372 0.023168295677
          0.023154609306 -0.00050479489765 0.015687323013 -0.1834966383 0.0070740366325 0.022627295167
          0.29078563382 0.029085753679 0.09675024582 0.29456691901 0.028110923213 0.10062112298
          0.29431054241 0.028723170284 0.10111062582 0.30613622961 0.032655093111 0.096157801939
          -0.023929520313 0.025455384946 0.021305555689 0.31073215587 0.034936260926 0.099599047045
          0.31101062427 0.031862874879 0.10300575986 0.30650204463 0.035943321834 0.10351429633
          0.31786551166 0.034069555007 0.091983346833 0.31567196331 0.038002852432 0.10169753284
          0.31360335488 0.030226676087 0.10184771007 0.31301948358 0.033208711652 0.098923589264
          0.3109491402 0.030638773565 0.096086826701 0.19093731604 0.016983160345 0.028093136346
          0.19276365623 0.01887394724 0.028585985364 0.19290071248 0.018167618082 0.0241835183
          0.19301006335 0.018137984506 0.023972294404 -0.093693328504 0.016685162569 -0.021881810533
          0.17102259452 -0.014885842292 -0.0027777950793 0.20285637055 0.033124730211 0.0037487012663
          0.19902650866 0.010808009009 0.012739616981 0.19889452779 0.011059673741 0.012446171081
          0.20074294844 0.011705089752 0.0093311923972 0.20395131475 0.0012875095746 0.003785169581
          0.35410732632 0.016822736401 0.1143687157 0.3531562444 0.015800257326 0.11453202136
          0.36547134531 0.020393919024 0.1303481139 0.19464339177 0.029613940153 -8.0795606871e-05
          0.18898412454 0.023648056593 -0.0028476003974 0.18727120889 0.031206908711 0.026439421493
          0.19107344777 0.02283898638 0.014138644447 0.20397568624 0.017633354425 0.045260216236
          0.18990797772 0.014938915363 0.046278101333 0.1868051199 0.015105322186 0.043326228211
          0.17827082996 0.018242975632 0.024016889295 0.18889984929 0.013311098958 0.046831490092
          0.28413324181 0.028994274233 0.079973862614 0.28734786668 0.026805540909 0.081779790733
          0.2864225809 0.026939114753 0.079733277601 -0.17675305262 -0.0060504584633 0.009619451295
          -0.17665164259 -0.0060027340531 0.013011271408 -0.13490085662 0.0010166170495 0.025592755948
          -0.161471779 -0.0027212550999 0.0096615078481 0.024599329269 -0.0086877664133 -0.018118544654
          -0.014502820259 -0.010725602623 0.010687092188 0.022574209585 -0.017398469314 0.00094014594778
          0.026998500146 -0.0070111635739 -0.01373444768 0.025163898241 -0.01422647888 0.0014226675066
          -0.0030496886699 -0.0066286499568 -0.0048952965298 -0.18615700442 0.0038449131573 0.027728121534
          -0.18600573768 0.0045351694466 0.027208604409 -0.18925920474 0.0015766323276 0.026533272449
          -0.18967337496 0.0032707772486 0.020038530823 -0.1839123953 0.0077990376126 0.021554542259
          -0.18243628906 0.0086163705594 0.022230555823 -0.19627523543 0.010249535874 0.026793288293
          0.29728359118 0.021538969421 0.077366991929 0.29535827683 0.022401059938 0.078601253487
          0.21120457469 0.032678989673 0.053927028293 0.21102661394 0.034726011964 0.058480811493
          0.24282342358 0.033643557282 0.074682910501 0.30323603803 0.025709848482 0.095947138446
          0.34994884793 0.035020840971 0.11698296469 0.29969545256 0.033368113983 0.088640445797
          0.29984839444 0.033799672393 0.08926139355 0.30107298874 0.034120776536 0.089456465006
          0.30090374284 0.033403338423 0.088403749458 0.29867812864 0.036251362384 0.088532265731
          0.30175248047 0.03933319221 0.09633572957 0.30295250888 0.036997298402 0.094852124645
          -0.17487244326 -0.0012288386426 0.03291645973 0.24101325462 0.022020332641 0.033845911069
          0.24031116538 0.021348922655 0.034390808114 0.23937637991 0.019871789373 0.032936674994
          -0.18036625766 -0.0083840413003 0.032112857026 -0.17361363555 -0.010447232682 0.025552360415
          -0.15888674129 0.012858930071 0.028559413007 -0.15543476545 0.011226497468 0.020223928745
          -0.15481718818 0.012344610262 0.02343278633 -0.15650725619 0.010889860807 0.020001207886
          -0.16293958485 0.008414418765 0.01714408645 -0.15946112349 0.0055069775839 0.0223735891
          -0.15322224502 0.0069596905679 0.025967626707 -0.15578625125 0.012141355894 0.019476286794
          -0.15318099808 0.0095195831106 0.0279100312 -0.15476174082 0.015275683969 0.02568919752
          -0.18064251683 0.0072639758696 0.028153802213 -0.17835828735 0.0066396085473 0.028556487586
          -0.17852550721 0.0071427081225 0.027447889356 -0.17741790843 0.0081855681242 0.024468468601
          -0.17886516794 0.0072802035899 0.02906317996 -0.17878549566 0.0083445281387 0.030366693243
          -0.17918112832 0.0071608284121 0.030186381232 -0.17740100367 0.01021507252 0.027512307115
          -0.19774215885 -0.00062843721048 0.024785215229 -0.19401473012 -0.0016863451477 0.02705045231
          0.26815217404 0.031080776457 0.085116020401 0.28504523955 0.028784844473 0.079863904915
          0.28500188213 0.028703935071 0.079880655707 0.28792297505 0.021705859074 0.079221214087
          0.27445436723 0.014493832568 0.083749387739 0.27590135688 0.014415674383 0.08094553145
          0.27908988999 0.020696085117 0.092297643038 0.27633986944 0.025330372974 0.08886643439
          0.28035705056 0.021812790556 0.09306207211 0.28901764667 0.023929042609 0.08607581169
          0.29017807443 0.025826030946 0.085797016974 -0.14673187701 0.0020887794127 0.021920347448
          -0.14679711987 0.0034417820489 0.020615949563 -0.14268859485 0.00094680913699 0.02043248239
          -0.14258578686 0.0001079995195 0.021200680144 -0.14300388713 -0.0046906918798 0.015024198495
          -0.15459257365 -0.0028619686198 0.012400320999 -0.16369377459 -0.0030662243016 0.023034734068
          -0.15881983201 0.0084751479518 0.015854207417 -0.16645537587 0.0067787170745 0.021442515904
          -0.16502563757 0.0078645035684 0.023026970194 -0.1652322099 0.0095412125792 0.025461454651
          -0.18426189923 0.0037134187686 0.013790386657 -0.18422648373 0.0037386500495 0.013803520907
          -0.18708166571 -0.00018066937287 0.016988579874 -0.18717438943 -0.0001877611359 0.016821443241
          -0.1834888204 0.0012081201007 0.015637803639 -0.18425993117 0.0012950374617 0.013728128218
          -0.1759931195 0.0039109762766 0.015704391198 -0.17000873674 0.0077210925191 0.0071434520514
          -0.17015717445 0.0073616157209 0.0087372584759 -0.16945432535 0.0044689432293 0.0094383213106
          -0.166737815 -0.0024726416288 0.0045396087023 -0.17067972685 0.0083894206078 0.010231530889
          -0.17628736776 0.0029147082474 0.014553893461 -0.19359345492 0.0064804661702 0.020213131287
          -0.19943466297 0.0013010377516 0.024939260248 -0.13504019273 0.003181108555 0.011027697993
          -0.13545220712 -0.0033537572888 0.0057840187161 0.25396151313 0.029175475514 0.090808367606
          0.29180366759 0.04035082244 0.094140035303 0.28386574359 0.04452348359 0.098461285395
          0.31295312889 0.016385970743 0.13216250643 -0.12907361507 0.0028460451197 -0.002235238822
          -0.13563043084 -0.0041258848781 -0.0029652700407 -0.13665761103 -0.0007651804949 0.0062051797668
          0.0078495544372 0.0007758198189 -0.023345416701 0.0072595822377 0.00060861623908 -0.027749999561
          -0.18211438124 -0.012131703505 0.020848803054 -0.180425591 -0.0033227497702 0.019714165321
          -0.18215621643 -0.0045421040127 0.017681583199 -0.18439314851 -0.0090411978767 0.024384391023
          -0.18557550256 -0.0068075556226 0.021410022106 -0.19455743414 -0.005889938155 0.024677959363
          -0.1950292539 -0.006451559108 0.025832265208 0.29936396758 0.038820999367 0.086638918545
          -0.18857738638 0.0033422796249 0.025971430049 0.31960458246 0.032511360721 0.11109554707
          0.31938414329 0.032574716992 0.11205901916 0.32007615556 0.033323661871 0.11206198078
          0.19505892262 0.023514659251 0.046640124536 0.19690067647 0.028576460528 0.037261598455
          0.3245560471 0.040014291924 0.11230668749 -0.11987377834 -0.0038731195182 0.004894225266
          -0.097827902687 -0.032940844388 -0.00028193845778 -0.11724634146 -0.0063436409022 0.01117246105
          -0.10517714889 -0.0046350970928 0.0099968280878 -0.1050283011 -0.0047884235114 0.0099254989537
          -0.10745313582 -0.0068261198809 0.0096095398674 -0.084095323118 -0.0016475926532 -0.0049753327927
          -0.089427525829 -0.011814263462 0.00066665886977 -0.089426992191 -0.011814709058 0.00067822473067
          -0.093245850015 -0.0054046900641 0.0006186939669 -0.083150258498 -0.0015169249684 0.007881307132
          -0.11259877165 -0.0056805245891 -0.010855820258 -0.11923545902 -0.0066204468719 -0.0084778863422
          0.29896096369 0.038206030228 0.097669526807 0.29373644865 0.038470106512 0.099011029876
          0.2994539531 0.029501122246 0.098344892525 0.29742476022 0.037337200072 0.089590320891
          -0.19758086995 -1.5535820853e-05 0.021895772429 -0.1951264946 0.0004447927992 0.022229261517
          -0.19376539318 -0.00042216570509 0.022413043969 -0.19376328187 -0.00042710295342 0.022428962348
          0.12685215374 -0.024584884266 -0.0070653693342 0.12516785871 -0.026569542743 -0.0016733255958
          0.17088594678 0.0079352319285 0.017348068218 0.1721392305 -0.0075549758114 0.010275452696
          0.11432843998 -0.00545429405 0.007352659294 0.11299265731 -0.014133042857 0.0032528113901
          0.16711376551 -0.0029312798474 0.0043116016586 -0.15353085636 -0.0076675799685 0.014264456496
          -0.15666846548 -0.0088438532245 0.0065423235585 -0.15597493259 -0.0093487838738 0.0062623341781
          -0.14943806749 -0.012253373024 0.0084405846308 -0.14892634824 -0.0094894698656 0.0083752285502
          -0.15035271614 -0.0045968366541 0.0041485396396 -0.17570757442 -0.0064443302922 0.011854422707
          -0.1718867376 -0.01306924116 0.017131768775 -0.16555055993 -0.0064864852374 0.009497077744
          -0.16359534506 -0.0055855251633 0.0081954161832 -0.15149512978 -0.0078824525599 0.0074825301233
          -0.16716550105 -0.012425714101 0.0035896626629 -0.1731126891 -0.0075576090379 0.01777538694
          0.33510384015 0.035003221199 0.12718702886 0.33529735806 0.035416533058 0.11788162884
          0.33449137651 0.037306479379 0.12013029147 0.32896345849 0.033695595349 0.11847212819
          0.32650752915 0.034151872074 0.11985906028 0.3260153362 0.035115190076 0.12103559318
          0.32416886642 0.033074694662 0.11962180437 0.32723696771 0.035600655211 0.11799633313
          0.33558611137 0.034511941854 0.12747055389 0.27129145768 0.036442525882 0.099109614851
          -0.19487890611 -0.006883205208 0.032962415429 -0.19165200847 -0.0035685025429 0.030567512503
          -0.19070089875 -0.0027715796436 0.030897204315 -0.18991924562 -0.008564882904 0.031205824046
          -0.19459048939 -0.0044130519661 0.029539470919 -0.19840232457 -0.0028248961448 0.029685051558
          -0.19904732079 -0.004666791643 0.030617457578 -0.1992594819 -0.0045345710065 0.031099631629
          -0.19806004546 -0.0035798116887 0.02877839836 0.27571110821 0.02772004672 0.069946325285
          0.26958172013 0.024370362165 0.076769371706 0.27246632148 0.02963312047 0.076276175921
          0.27278539191 0.028206897603 0.074740914403 0.28507321204 0.029610415541 0.080861000367
          0.28556808172 0.029942925804 0.079899628448 0.28682041009 0.02928617558 0.079784021595
          -0.19010436726 0.00092823370955 0.013082065498 -0.18573837996 -0.0051191222028 0.016711180278
          -0.17681382315 -0.007202722367 0.014246372886 0.22589770476 0.0079030614223 0.023623303496
          0.2071511872 0.0029766804738 0.022781577848 0.20806068319 -0.00080603979967 0.020499888584
          0.21046228266 0.0033395539801 0.022637315109 0.21206811597 0.0032374720987 0.019331620866
          0.22175342491 0.0032482064557 0.036389804251 0.20815394715 -0.00092109091218 0.020128124096
          0.20630295521 0.02383970877 0.016155222511 0.22653243817 0.012000693096 0.022423620976
          0.23789722092 0.022597009251 0.034493031723 0.23771525602 0.022711094551 0.035192764082
          0.24048895834 0.0044182887515 0.03153485517 0.2376040085 0.0076321787611 0.042033841615
          0.23562696756 0.02401870666 0.037913160731 0.23595055709 0.029821628294 0.044990397908
          0.24139799822 0.012376986201 0.053926528719 0.31628052841 0.034535416451 0.1103087972
          0.31292245105 0.035709947275 0.10987012905 0.312897268 0.03491585637 0.11061335499
          0.073756430906 0.014396539482 -0.020364460815 0.077810437653 0.019569843297 -0.018736065326
          0.30885306358 0.032854865027 0.10649945527 0.19385585793 0.019587104617 0.048659571901
          0.2120229926 0.038249987681 0.044399502919 0.19346484123 0.025993924565 0.04075232863
          0.19788663608 0.024848065746 0.047346967493 0.17852783818 0.011430563673 0.021498675826
          0.18057763135 0.022997594287 0.022571546186 0.31274821504 0.033919202749 0.10594907382
          0.30431788576 0.037658279631 0.10038099426 0.30636433075 0.032243671375 0.099342810697
          0.31449828277 0.036596932732 0.1089364172 0.31629654918 0.038721608277 0.10689015768
          0.30958712524 0.035985149522 0.1033991402 0.054276550902 0.035764254202 -0.060287805283
          0.037342121915 0.018706759258 -0.045575320787 0.050185693593 0.0063343902919 -0.026163283908
          0.061984447333 0.028704912614 -0.020205127022 0.085893342519 0.010460848236 -0.018726239608
          0.17934345527 -0.013310036591 0.014726927377 0.18495431692 -0.0007726521974 -0.0026023330264
          0.19167308571 0.00076915292672 0.0091982857327 0.18975061915 -0.0045871666493 0.017698683672
          -0.10275288983 -0.010938759322 -0.019032974753 -0.093467255769 -0.0049477115833 -0.030456563642
          -0.092084158106 -0.0046375267267 -0.02970467918 -0.10540147217 -0.010787843285 -0.023611994143
          -0.099259738939 -0.0081928208191 -0.023681998837 -0.089589022339 0.01476713474 -0.017850781078
          -0.20425729196 -0.014969321633 0.031320407311 -0.10243688486 -0.022405622653 0.02345179494
          -0.13628063592 -0.013331792019 0.019773238693 -0.13689002737 -0.010620626502 0.0036946601123
          -0.12576280626 -0.012156677679 0.012708502432 -0.10682788527 -0.011720892262 0.0099551128961
          -0.11406270315 -0.0052143004945 0.022019369982 -0.1936570237 -0.0073631725608 0.019307076472
          -0.19301308509 -0.0019135291417 0.020030168218 -0.19275372552 -0.0023168269685 0.020389322217
          -0.19346935939 -0.0034282378495 0.01945646897 -0.19541402555 -0.0031938491515 0.025806070481
          -0.19566547063 -0.0033763432533 0.026046150944 -0.19584226688 -0.003966029185 0.024955465363
          -0.19703054067 -0.0033537623102 0.02500335396 -0.19910258238 -8.904866979e-06 0.028759049508
          -0.19858861916 -0.0032280719665 0.02713141116 -0.19681580162 -0.00267614113 0.030367327384
          -0.19572517645 -0.0019377656171 0.026709064305 -0.20046008641 -0.0016670250743 0.027607765975
          -0.19150397256 3.001774971e-05 0.01757184627 -0.19133023584 0.00034857986057 0.021511277045
          -0.18750919305 0.00018070025737 0.024704684854 -0.18753936935 -0.000118020911 0.024974507902
          -0.19132367447 -0.0026966734477 0.02451094046 -0.19119490531 0.00084143512391 0.02435166456
          -0.18001321313 0.0022143579953 0.020300818208 -0.18823736593 0.0021418516719 0.019179018035
          -0.1875870958 0.0028630151041 0.018572660701 -0.18563523297 0.0026182618363 0.019093402085
          -0.18608804507 0.0027436352877 0.017668319087 -0.18081652486 0.0067463283554 0.019799237717
          -0.18236038651 0.0070532761106 0.015259438596 0.29906363304 0.033644571197 0.086668779336
          0.29724263106 0.034799991042 0.088613950224 0.29765077189 0.036422488495 0.091215429828
          0.30174270511 0.04001765118 0.095370768915 0.30476354842 0.02867197733 0.088973427572
          0.30727169593 0.036241874089 0.090065146916 0.30744304127 0.030079221387 0.094446496277
          0.3020171332 0.024593811374 0.095014617806 0.3080608102 0.02860057283 0.095842155346
          0.31120780318 0.035288748365 0.1000522921 0.31078814889 0.034490449458 0.099567714984
          0.31170845637 0.028342851662 0.094143963706 0.3094641165 0.029343668906 0.099733305847
          0.30978670521 0.028466373653 0.10106708332 0.36015837802 0.032040254495 0.13067636578
          0.36252639869 0.029750401002 0.13483816352 0.36606758743 0.02265576068 0.13551158188
          0.36927222877 0.026456678759 0.1329766666 0.36828345127 0.026686900176 0.13332721137
          0.36659033369 0.029831120127 0.13605559136 0.35868185519 0.03281853094 0.13133890779
          0.35914676414 0.032231720251 0.13557703492 0.35908697586 0.034791239486 0.13475317978
          0.35943079533 0.018248760907 0.13969555183 0.35875342888 0.030764026007 0.13221184402
          0.36194235627 0.032416904605 0.13426676788 0.35847458258 0.030106014506 0.13645544601
          0.29168225746 0.035457437197 0.088167165577 0.24551698888 0.014502351653 0.0734225646
          0.25627805699 0.028009788512 0.089127518118 0.25194358353 0.054390502662 0.074045258858
          -0.16856298952 0.0019878400479 0.015155306386 -0.1877277922 -0.001433429114 0.01641879998
          -0.17065156747 -0.017469891148 0.031415214139 -0.18268007738 -0.0043535992121 0.01931409311
          -0.18029956114 0.0037161882707 0.01269908423 -0.18444339145 -0.0026430974312 0.020419122668
          -0.18453931376 -0.0032510436023 0.019919380485 -0.18245069165 0.00051055346959 0.016847419097
          -0.18295337976 -0.0031233788802 0.022274696896 -0.18065430214 -0.0051465924137 0.024374636354
          -0.18806674803 0.00046620242891 0.018918670053 -0.18671474915 0.0011855778387 0.019433728236
          -0.18423797898 -0.0031227771629 0.020428813424 0.20235482021 0.056877628427 -0.024921114944
          0.21171319799 0.044445406245 0.0020342437143 0.20152258248 0.02805015019 -0.014081429277
          0.19136513986 0.015857154547 -0.031979338295 0.25247900792 0.12227197891 -0.04730497917
          0.072474860848 0.012066346015 -0.00050490162829 0.067209116358 0.016266242867 0.0055402046122
          0.075702568875 0.017941910829 0.023279640503 0.074569939351 0.016306711278 0.022253929356
          0.073822214311 0.018441501086 0.022184511086 0.079583309119 0.015904293741 0.022265240426
          0.070993388865 0.007423668645 0.022545220508 0.10771981079 0.012405932541 0.022369197444
          0.067487184422 0.010094057682 0.012031129561 -0.086333782382 0.019782021961 -0.025115453603
          -0.090359672696 0.016288307677 -0.028755304667 -0.19385751639 0.0019550557301 0.023362372204
          -0.1852317355 -0.00028693874648 0.016873548623 -0.021113975853 0.0025126071807 -0.031406333417
          -0.024046643352 0.0052139056322 -0.029996273728 -0.052536570876 -0.008067821745 -0.029396959722
          -0.062614276356 0.0070201728764 -0.031484144724 -0.065920709763 0.0011552457706 -0.035530701827
          -0.034790143991 0.015025026156 -0.030044990297 -0.036197435794 0.0077629581061 -0.03552621246
          -0.063294033593 0.0022762742792 -0.033415848701 -0.057307199252 -0.0061603514664 -0.032012216111
          -0.18636051416 -0.0026094579048 0.018054451552 -0.18448500455 -0.0031345819968 0.014191835396
          -0.18424069845 -0.0034177275332 0.013891045496 -0.18421150773 -0.0075048135298 0.01767462793
          -0.19950143068 -0.00097265879513 0.028461958267 -0.084916720402 -0.025973520236 -0.016346526463
          -0.10794551344 -0.010095185829 -0.0096458446054 -0.10751190066 -0.024430068495 -0.0057940334209
          -0.10247253345 -0.018371146882 -0.0099622861497 -0.10685143963 -0.012650166061 -0.018964987763
          -0.11259440996 -0.016129801515 -0.018150969822 -0.084912811405 -0.032673567449 -0.032246473365
          0.30959589874 0.026148517645 0.10300297916 0.30908413442 0.029259774884 0.095884996559
          0.32075093396 0.026722292625 0.1043967422 0.31980903004 0.037359729177 0.10578070151
          0.31449755288 0.030999770209 0.10426171257 0.31964785148 0.037342537961 0.10598739387
          0.31825087705 0.031323659866 0.10768259356 0.31849036909 0.030536534782 0.10850705751
          0.31281635499 0.031041232553 0.10009657874 0.31138143344 0.029881377486 0.098758888583
          0.30512692399 0.034302633733 0.1017206122 0.31780553104 0.028970587585 0.10434469477
          0.31862566166 0.02616666141 0.10711675716 -0.090723293801 0.013004961866 0.019779362163
          -0.088821295394 -0.0048052447647 0.016062985442 -0.1994993719 -0.0017898804435 0.028948904007
          -0.19874177461 -0.0020175514988 0.028705602295 -0.2019639894 -0.002641704693 0.027201760628
          -0.20242418721 -0.0013513323898 0.028218558025
        </DataArray>
        <DataArray type="Float64" Name="Strain" NumberOfComponents="9" format="ascii" RangeMin="0.0079512790337" RangeMax="0.3229050594">
          0.15595014896 0.00884991322 0.0092478047757 0.00884991322 -0.0082385198415 0.0079951118639
          0.0092478047757 0.0079951118639 0.1273246833 0.064991764871 -0.0012181329626 0.011842003336
          -0.0012181329626 -0.0036231501244 0.0040885482804 0.011842003336 0.0040885482804 0.048976278387
          -0.029551568007 -0.0045415252314 -0.013688773613 -0.0045415252314 0.014762850453 0.0006866925756
          -0.013688773613 0.0006866925756 0.0058110132179 0.09751351252 0.0097101294792 -0.0048853313491
          0.0097101294792 -0.039897740917 0.0043523162641 -0.0048853313491 0.0043523162641 -0.029002231151
          0.11116389037 0.011686955536 0.0028860559096 0.011686955536 -0.00053643420603 0.0096272481055
          0.0028860559096 0.0096272481055 0.097250622204 0.05229620801 -0.001025364535 -0.017957565778
          -0.001025364535 -0.011763936513 -0.0039658487534 -0.017957565778 -0.0039658487534 0.019174283012
          0.13961250302 0.0089845954752 0.0014751269723 0.0089845954752 -0.0051370964652 0.010245745823
          0.0014751269723 0.010245745823 0.12844809246 0.060894962631 0.0082741146771 -0.034855149839
          0.0082741146771 0.0083170757417 0.015603235037 -0.034855149839 0.015603235037 0.0069905723546
          0.1848728097 0.00159254454 0.12813642578 0.00159254454 -0.059700625226 -0.0027822637971
          0.12813642578 -0.0027822637971 0.15488692643 0.062674383976 0.002691464211 -0.011397978458
          0.002691464211 -0.010187581405 0.00014837053563 -0.011397978458 0.00014837053563 0.028954479362
          0.058088721716 -0.0020104132095 0.0081205804985 -0.0020104132095 0.0043335260827 0.0078379158996
          0.0081205804985 0.0078379158996 0.081106555069 0.038548262311 0.00027991148838 -0.0061850859817
          0.00027991148838 -0.014187970955 -0.0078492739145 -0.0061850859817 -0.0078492739145 -0.0027601937716
          0.031713490504 -0.00048842780543 -0.013499164684 -0.00048842780543 -0.0061289171361 0.0041149416336
          -0.013499164684 0.0041149416336 0.018745408451 0.057734134526 0.0077997960186 -0.034709428969
          0.0077997960186 0.0034639518936 -0.00023497359121 -0.034709428969 -0.00023497359121 0.049515909138
          0.11243628896 0.010390334266 0.002162214165 0.010390334266 -0.0013573790906 0.0069870980281
          0.002162214165 0.0069870980281 0.092336532835 0.050551867294 0.011484405141 -0.0095167827367
          0.011484405141 -0.0095799125737 0.0023446717191 -0.0095167827367 0.0023446717191 0.011268211201
          0.086920811467 -0.0014409488867 0.0024974973741 -0.0014409488867 -0.00014464610779 -0.0050453237997
          0.0024974973741 -0.0050453237997 0.09727616959 0.084189787768 0.010135168906 0.014136230453
          0.010135168906 -0.0018378118119 0.0071583159067 0.014136230453 0.0071583159067 0.067974582963
          0.10921845846 0.011448094205 0.0060234093391 0.011448094205 -0.0041211739894 0.0067825701396
          0.0060234093391 0.0067825701396 0.091051499404 -0.011359522446 0.011882790933 0.0032570494634
          0.011882790933 0.016076862639 0.0063309750755 0.0032570494634 0.0063309750755 0.043781393607
          0.16839729755 0.012047376334 0.0074268710035 0.012047376334 -0.011237892638 0.008415799954
          0.0074268710035 0.008415799954 0.12264313712 0.072582436336 0.0028947101407 -0.0074270617801
          0.0028947101407 -0.01274954774 0.0024918456848 -0.0074270617801 0.0024918456848 0.023568560016
          0.12523606404 0.0045771561901 -0.0056407948071 0.0045771561901 -0.03105464181 0.013931407805
          -0.0056407948071 0.013931407805 0.0081974839286 0.088820933254 0.010822161706 0.010521862459
          0.010822161706 -0.0084705832043 0.0055958583558 0.010521862459 0.0055958583558 0.072242525432
          0.15813547183 0.023410661323 0.026682429952 0.023410661323 -0.02948101587 -0.0064862759919
          0.026682429952 -0.0064862759919 0.056060184052 0.10105584096 0.010691182654 0.0074563067963
          0.010691182654 -0.00044975305234 0.0096297988055 0.0074563067963 0.0096297988055 0.091823200593
          -0.024070004547 4.4590679754e-05 -0.014867405272 4.4590679754e-05 0.008524366289 -0.002372859034
          -0.014867405272 -0.002372859034 0.018996376421 0.077650967951 0.00081885961576 -0.0076230724835
          0.00081885961576 -0.016763466148 0.0023096068012 -0.0076230724835 0.0023096068012 0.01836092506
          0.016624046876 -0.0039637211806 -0.00017519269494 -0.0039637211806 -0.0021005128333 0.0075620420991
          -0.00017519269494 0.0075620420991 -0.0035453736576 0.090514231955 0.0014791803841 -0.017408017251
          0.0014791803841 -0.027097822092 0.0058898786113 -0.017408017251 0.0058898786113 -0.027110027855
          0.15677708838 0.011636001328 0.021052873043 0.011636001328 -0.0086688172931 0.011315056102
          0.021052873043 0.011315056102 0.1266219814 0.10254368603 0.011518677216 0.011851899725
          0.011518677216 -0.010692180848 -1.385193552e-05 0.011851899725 -1.385193552e-05 0.06237607896
          0.083650977123 0.0071662570404 0.015483330508 0.0071662570404 -0.014317186143 0.0033524191808
          0.015483330508 0.0033524191808 0.045385509236 0.082854912737 0.011632565085 0.0046885438512
          0.011632565085 -0.036480572492 -0.0010731157099 0.0046885438512 -0.0010731157099 -0.027600017524
          0.065276708683 0.00059444715533 -0.014799627461 0.00059444715533 -0.01118297249 0.0019422361253
          -0.014799627461 0.0019422361253 0.027358559698 0.076607588408 0.0016301089851 -0.023619471473
          0.0016301089851 0.024654506299 0.00076090584268 -0.023619471473 0.00076090584268 -0.035634215622
          0.092311497727 0.00028197802927 0.0031632317229 0.00028197802927 -0.029342253664 0.0027117068096
          0.0031632317229 0.0027117068096 -0.01390405604 0.096874044837 0.0084486912789 0.011951400095
          0.0084486912789 -0.018102163503 0.0065558252394 0.011951400095 0.0065558252394 0.052794441859
          0.05821916249 0.0089991028123 -0.0044356193301 0.0089991028123 0.017825443669 -0.01007274842
          -0.0044356193301 -0.01007274842 0.01319847511 0.12073185515 -0.001252267456 0.05103151341
          -0.001252267456 -0.038332431475 0.009127996692 0.05103151341 0.009127996692 0.079978181267
          0.067960020029 0.0057996381653 -0.016135886481 0.0057996381653 -0.020930418389 0.0011014167688
          -0.016135886481 0.0011014167688 0.0039735930838 0.070770090103 -0.0009039998177 0.0065553249343
          -0.0009039998177 -0.018825212915 0.005419390511 0.0065553249343 0.005419390511 0.010313730468
          0.11936887726 0.011447493091 3.1597961741e-05 0.011447493091 -0.0010074823971 0.0080522426749
          3.1597961741e-05 0.0080522426749 0.10461733923 0.16516382761 0.010267830998 0.02174054345
          0.010267830998 -0.0091301231795 0.0094875538116 0.02174054345 0.0094875538116 0.13429681429
          0.027180076562 -0.0017606564966 0.0045831444884 -0.0017606564966 0.015642223497 0.0040924039582
          0.0045831444884 0.0040924039582 0.068975068749 0.052703982385 -0.00083584730138 -0.014256607397
          -0.00083584730138 -0.007072590652 0.00017679637345 -0.014256607397 0.00017679637345 0.02671690708
          0.064152079001 -0.00074825622264 -0.014665262161 -0.00074825622264 -0.010652236052 -0.00074742373447
          -0.014665262161 -0.00074742373447 0.025527320775 0.015767457226 0.00086066980231 -0.012570794131
          0.00086066980231 0.0021299927892 -0.0011314344764 -0.012570794131 -0.0011314344764 0.018178930118
          0.14809603597 0.012956850972 0.0076067484539 0.012956850972 -0.0070304240098 0.0092705735824
          0.0076067484539 0.0092705735824 0.12811720151 0.058544227438 -0.00018834260586 -0.013714557781
          -0.00018834260586 -0.0071642399445 0.0012750891463 -0.013714557781 0.0012750891463 0.016412849157
          0.084422306437 -0.0025986234947 -0.007083434479 -0.0025986234947 -0.020143320481 0.00037241161131
          -0.007083434479 0.00037241161131 0.0042283352969 0.090745411447 0.0026705128798 0.0072405835634
          0.0026705128798 -0.021427923693 0.0039263339522 0.0072405835634 0.0039263339522 0.0036124191346
          0.022201311043 -0.0022165619238 -0.0071926400108 -0.0022165619238 -0.002582452871 -0.00030644965683
          -0.0071926400108 -0.00030644965683 0.034005266422 0.12503652986 0.010789064509 0.0011323779098
          0.010789064509 -0.0079933387916 0.0076965171731 0.0011323779098 0.0076965171731 0.096577055649
          0.024273872846 -0.0044186265252 -0.0054023906834 -0.0044186265252 -0.0044795201433 0.0022956112044
          -0.0054023906834 0.0022956112044 0.036381530464 0.034288010268 -0.00041269832529 -0.0089437107554
          -0.00041269832529 0.0013060016017 0.00072954883694 -0.0089437107554 0.00072954883694 0.029073013118
          0.019294623363 -0.0019274505759 -0.015517021131 -0.0019274505759 0.00069497885546 0.0076003819497
          -0.015517021131 0.0076003819497 0.0027669200153 0.031351294013 0.0028207230774 -0.0097577000649
          0.0028207230774 0.0024804368559 -0.0088696237147 -0.0097577000649 -0.0088696237147 0.0012643412858
          0.062348950913 -0.00028913328901 -0.015277327627 -0.00028913328901 -0.0098138266152 0.00081011994542
          -0.015277327627 0.00081011994542 0.027877291411 0.072691741581 -0.00020406924191 -0.023089846956
          -0.00020406924191 0.02572935302 0.0089034549208 -0.023089846956 0.0089034549208 -0.003480636571
          0.052437170984 -0.0037813973234 -0.0075049075569 -0.0037813973234 -0.0086501376832 -0.0010025434427
          -0.0075049075569 -0.0010025434427 0.030139243396 0.041989656425 -0.0022008181016 -0.02022327964
          -0.0022008181016 -0.0080121989392 0.0019543222354 -0.02022327964 0.0019543222354 0.021686036526
          0.085240436138 -0.0017460614048 -0.0057703541632 -0.0017460614048 -0.019855497561 0.0033364971854
          -0.0057703541632 0.0033364971854 0.0017067789118 0.038198101925 0.0074267901175 0.0046107491616
          0.0074267901175 -0.025585994276 -0.010671858192 0.0046107491616 -0.010671858192 -0.017908787009
          0.061864327671 0.0070844723137 0.0050670839163 0.0070844723137 0.0059049555269 0.0075796668272
          0.0050670839163 0.0075796668272 0.081864450317 0.05581356869 -0.0013279617603 -0.007146208748
          -0.0013279617603 -0.0084889961225 0.0014175532007 -0.007146208748 0.0014175532007 0.032541920847
          0.072381409883 -0.0013249561786 -0.0064146425733 -0.0013249561786 -0.011841653178 0.0007676751608
          -0.0064146425733 0.0007676751608 0.024100989155 0.057705998212 0.0063853675072 -0.014647126862
          0.0063853675072 -0.009889005273 -0.0020514806617 -0.014647126862 -0.0020514806617 0.019507056234
          0.13026200724 0.0095299518755 -0.0014993048727 0.0095299518755 -0.0046009782651 0.0073033179497
          -0.0014993048727 0.0073033179497 0.1113599634 0 0 -0.1291427273
          0 0 -0.03547855033 -0.1291427273 -0.03547855033 -0.054361555377
          0.024862967379 -0.0032245161583 -0.0050192250534 -0.0032245161583 0.00062788487576 -0.0012220232584
          -0.0050192250534 -0.0012220232584 0.027564515083 0.014858867694 0.0055296279389 -0.0090685235914
          0.0055296279389 0.00067986056211 0.0015888246807 -0.0090685235914 0.0015888246807 0.020514144375
          0.010811696691 0.0035975463277 -0.018667468505 0.0035975463277 -0.0066026999826 -0.0034448578181
          -0.018667468505 -0.0034448578181 -0.001080103354 0.034762953384 -0.0068283021448 0.0081003003253
          -0.0068283021448 -0.014084423039 0.0066469288592 0.0081003003253 0.0066469288592 0.011994465264
          0.10648848645 0.0085377364669 -0.0013623073663 0.0085377364669 0.00064603119252 0.0071618113951
          -0.0013623073663 0.0071618113951 0.10399673199 0.12955698556 0.00090506615806 0.0014227746879
          0.00090506615806 -0.023269691048 0.0027578201162 0.0014227746879 0.0027578201162 0.023614582892
          0.17018174499 0.0092691600934 0.010218041373 0.0092691600934 -0.012350042715 0.0092054071967
          0.010218041373 0.0092054071967 0.13610206975 0.069454895792 -0.034648707904 0.024287534961
          -0.034648707904 -0.024537867119 -0.093049711802 0.024287534961 -0.093049711802 0.1246003002
          0.12076389386 0.020225727475 -0.031537978433 0.020225727475 -0.015005473895 -0.01635489602
          -0.031537978433 -0.01635489602 -0.01236408881 -0.029810357324 0.003127199337 -0.0056486125189
          0.003127199337 0.0062379016253 0.0011227911214 -0.0056486125189 0.0011227911214 0.024173359268
          0.14116160622 0.010680809992 0.0019136797522 0.010680809992 -0.0081050886073 0.010853932303
          0.0019136797522 0.010853932303 0.12242433615 0.12105793909 0.010519752127 -0.0015004954416
          0.010519752127 -0.002874544569 0.0072953841134 -0.0015004954416 0.0072953841134 0.10493207621
          0.065232379823 -0.0056225677011 -0.037702759406 -0.0056225677011 0.0007318978415 -0.0026722596073
          -0.037702759406 -0.0026722596073 0.0036336252243 0.065234920324 -0.023095244717 0.0029720362742
          -0.023095244717 -0.015710790087 0.0038288253772 0.0029720362742 0.0038288253772 0.043301143857
          0.082389176348 0.0017228636477 -0.0077964310782 0.0017228636477 -0.019875761738 0.0049949587315
          -0.0077964310782 0.0049949587315 0.0071934696042 0.081617613727 -0.0046522668133 -0.00088287696393
          -0.0046522668133 -0.033033816522 0.0037256541177 -0.00088287696393 0.0037256541177 -0.02168204405
          0.059725762258 -0.0020926915902 0.0063818114108 -0.0020926915902 -0.016200981492 -0.0085602645249
          0.0063818114108 -0.0085602645249 0.0017732252689 0.13154915161 0.0089110424018 0.0028845307323
          0.0089110424018 -0.0043938490512 0.0065685290396 0.0028845307323 0.0065685290396 0.10544890449
          0.063415032954 0.0017418362707 -0.013702695248 0.0017418362707 -0.01359625891 -0.00087183243145
          -0.013702695248 -0.00087183243145 0.022322938232 0.054485496283 0.0019860335075 -0.011323729389
          0.0019860335075 -0.010709486439 0.00034938044723 -0.011323729389 0.00034938044723 0.024871144239
          0.047822403842 -0.0013855069941 0.0042927167106 -0.0013855069941 0.0094086597795 0.0063147786874
          0.0042927167106 0.0063147786874 0.093060910029 0.12878801053 0.0050029500261 0.017462983683
          0.0050029500261 0.0010235725043 0.0062775789197 0.017462983683 0.0062775789197 0.12724323769
          0.16672713001 0.013591021183 0.018615254934 0.013591021183 -0.0073204465828 0.0086552428793
          0.018615254934 0.0086552428793 0.136131972 0.051258631359 0.0040163809089 0.0073672334173
          0.0040163809089 0.0079102538518 0.010391258866 0.0073672334173 0.010391258866 0.098489473752
          0.12602325821 0.0086562379054 0.0015232188986 0.0086562379054 -0.0061142562583 0.0096155305769
          0.0015232188986 0.0096155305769 0.090447154332 0.050336954946 0.0043268734848 -0.016173754831
          0.0043268734848 0.016123925552 -0.011004846848 -0.016173754831 -0.011004846848 0.010484604819
          0.021762123045 0.0081123457259 -0.0031255517583 0.0081123457259 -0.012049063879 0.012163613448
          -0.0031255517583 0.012163613448 0.0093947690201 0.16228168431 0.011247329411 0.014361963639
          0.011247329411 -0.010346922625 0.0099214200555 0.014361963639 0.0099214200555 0.1306956233
          0.034627150262 0.0009699870386 -0.0054093979868 0.0009699870386 -0.0024861762998 0.0015643883193
          -0.0054093979868 0.0015643883193 0.031176509393 0.073637157819 0.0008054053263 -0.0073151321551
          0.0008054053263 -0.019088896442 0.0018835405583 -0.0073151321551 0.0018835405583 0.017261841497
          0.12305485648 0.010144806828 -0.0015537256644 0.010144806828 0.00013681546077 0.0056958146699
          -0.0015537256644 0.0056958146699 0.11765340156 0.18063199627 0.014308291191 0.0068077028204
          0.014308291191 -0.037654625934 0.0047039715715 0.0068077028204 0.0047039715715 0.060569934217
          -0.070013892909 0.018072162639 -0.015926008131 0.018072162639 0.013470776592 -3.2277264084e-05
          -0.015926008131 -3.2277264084e-05 0.021503814209 0.040375234568 -0.025229752927 -0.053433644787
          -0.025229752927 -0.018525893932 0.0094959721193 -0.053433644787 0.0094959721193 0.02073851915
          0.060007676228 -0.0034662450305 -0.0011965761158 -0.0034662450305 -0.02883003818 0.0034886641066
          -0.0011965761158 0.0034886641066 -0.025064615621 0.087213495666 0.0097455827324 0.010770900806
          0.0097455827324 -0.0070479355461 0.0057330481543 0.010770900806 0.0057330481543 0.072204351031
          0.095288912963 0.0082946192737 -0.0048667188776 0.0082946192737 -0.04365497976 -0.0045910427134
          -0.0048667188776 -0.0045910427134 -0.019435139349 -0.0074544207325 0.0022257549239 -0.0029875561807
          0.0022257549239 0.0044931651736 -0.0011292126975 -0.0029875561807 -0.0011292126975 0.035880713974
          0.078264169701 0.00024602730933 -0.0053413299357 0.00024602730933 -0.018257507475 0.00032842271936
          -0.0053413299357 0.00032842271936 0.015559051216 0.017099731049 -0.0026698292944 0.0082861265051
          -0.0026698292944 -0.011919471144 0.0017798353193 0.0082861265051 0.0017798353193 -0.0036803533334
          0.12982200484 0.0047862911939 0.017794561087 0.0047862911939 0.0043819780225 0.0064046940235
          0.017794561087 0.0064046940235 0.14080605173 0.016130774362 -0.0015915129271 -0.0057750484347
          -0.0015915129271 0.00284642953 0.0014377552545 -0.0057750484347 0.0014377552545 0.034228718634
          0.055666217785 0.0051047151365 0.0088021992117 0.0051047151365 0.012024955989 0.0078967165941
          0.0088021992117 0.0078967165941 0.074494782644 0.1426311412 0.01095344464 0.0040529191371
          0.01095344464 -0.0060417599387 0.0061656499811 0.0040529191371 0.0061656499811 0.11812007295
          0.05466848333 -0.0042790882104 -0.012939109618 -0.0042790882104 -0.018307085115 -0.0014330647548
          -0.012939109618 -0.0014330647548 0.0055857799378 0.074003958507 0.0047310902 -0.0083906859408
          0.0047310902 -0.013928456979 0.00090983206394 -0.0083906859408 0.00090983206394 0.021153780664
          0.024415923407 -0.0036548941316 -0.010556716465 -0.0036548941316 -0.0060151076127 0.0071408623938
          -0.010556716465 0.0071408623938 -0.0060021494015 -0.060683054407 0.0044899672818 0.018158600921
          0.0044899672818 0.025122757391 0.0058281941054 0.018158600921 0.0058281941054 0.029125011409
          0.032753209939 0.0065767152688 0.0029893952808 0.0065767152688 -0.0042100076613 -0.0049196188708
          0.0029893952808 -0.0049196188708 0.017901302978 -0.070880206514 0.0037476973962 0.0053195207291
          0.0037476973962 0.023118604784 -0.0053011076266 0.0053195207291 -0.0053011076266 0.033628566913
          0.16721680639 0.01113206616 0.024690896487 0.01113206616 -0.016412134746 0.0050642802945
          0.024690896487 0.0050642802945 0.12138887205 0.064834827481 0.00082265676758 -0.013639713042
          0.00082265676758 -0.010929993893 -0.0002534771652 -0.013639713042 -0.0002534771652 0.02634507946
          0.067137222672 -0.0055199291806 0.001716886938 -0.0055199291806 -0.0021571562069 0.0020734024204
          0.001716886938 0.0020734024204 0.035411943196 0.06896161566 0.0026782313457 0.0065329032127
          0.0026782313457 -0.025444028938 -0.00353304217 0.0065329032127 -0.00353304217 -0.025285352629
          0.073373846758 0.0035723739629 -0.013893631219 0.0035723739629 -0.020196701978 0.00314339506
          -0.013893631219 0.00314339506 0.0069340853004 0 0 -0.056817992282
          0 0 -0.018582722202 -0.056817992282 -0.018582722202 0.057241261832
          0.14824763541 0.0050946380129 0.020584835767 0.0050946380129 -0.0024583772472 0.0063037319048
          0.020584835767 0.0063037319048 0.13908596289 0.010853563717 -0.0029143175737 0.0055533939769
          -0.0029143175737 0.0062785846224 -0.00095054393117 0.0055533939769 -0.00095054393117 0.0076052969572
          0.059164706638 0.0011373042175 -0.0070070679392 0.0011373042175 -0.013657445565 4.8929117984e-05
          -0.0070070679392 4.8929117984e-05 0.013732850101 0.15003023704 0.010570862319 0.0069068605526
          0.010570862319 -0.0066635212074 0.0096907382167 0.0069068605526 0.0096907382167 0.1364414969
          0.16096255336 0.011785163609 0.012016023922 0.011785163609 -0.0047592800243 0.01323704882
          0.012016023922 0.01323704882 0.13594979695 0.082695025295 0.0072968175378 -0.0062143826975
          0.0072968175378 -0.029016326204 0.0012857846168 -0.0062143826975 0.0012857846168 -0.026521466551
          0.017152347284 0.0021536516831 -0.015053835104 0.0021536516831 -0.0045537293469 0.0087796715396
          -0.015053835104 0.0087796715396 0.011529101697 0.044086411957 -0.00021103151004 -0.0058324484299
          -0.00021103151004 -0.0012502546324 0.00074409804344 -0.0058324484299 0.00074409804344 0.028541052674
          -0.073323925293 -0.0019976563349 -0.0015526400033 -0.0019976563349 0.024448997643 0.010905700335
          -0.0015526400033 0.010905700335 0.026336365622 0.048465875539 0.001448981767 -0.019549599479
          0.001448981767 -0.014815160475 0.0019470671759 -0.019549599479 0.0019470671759 0.0064396671391
          0.11483071657 0.012109983303 0.0159440428 0.012109983303 -0.0011856387075 0.010860342212
          0.0159440428 0.010860342212 0.11189064954 0.05794202739 -0.003039036917 -0.008764511863
          -0.003039036917 -0.008927610351 0.0010806573377 -0.008764511863 0.0010806573377 0.029824585625
          0.060940171677 0.001921290278 -0.016181139743 0.001921290278 -0.010958976941 0.0010842526214
          -0.016181139743 0.0010842526214 0.018184066745 0.15520187824 0.0047208627925 0.0073184182526
          0.0047208627925 -0.006504474074 0.010574041432 0.0073184182526 0.010574041432 0.12489907407
          0.14611052856 0.010914338985 -0.00077054993199 0.010914338985 -0.0097448284124 0.008647942791
          -0.00077054993199 0.008647942791 0.11020652571 0.062840022407 -0.00020547894609 -0.014693816121
          -0.00020547894609 -0.010805658268 -0.00033634037333 -0.014693816121 -0.00033634037333 0.027768344037
          -0.043927109409 -0.0046223261056 -0.0014749634009 -0.0046223261056 0.014256113139 0.0014085176852
          -0.0014749634009 0.0014085176852 0.025056944499 0.051265219895 -0.0022300009913 -0.0088450145737
          -0.0022300009913 0.020728163063 0.0067537044391 -0.0088450145737 0.0067537044391 0.010057179617
          0.090327100865 -0.00082212390388 -0.0043437911639 -0.00082212390388 -0.023839082702 0.00010253893614
          -0.0043437911639 0.00010253893614 0.0064393395624 0.057995961725 -0.00097652930855 -0.039584603548
          -0.00097652930855 0.020347822259 0.005748835325 -0.039584603548 0.005748835325 -0.023961184974
          0.018491920414 0.0041560637411 -0.0034743775932 0.0041560637411 -0.00083811971745 -0.0017223276748
          -0.0034743775932 -0.0017223276748 0.026374357764 0.11202582557 0.0073781070111 0.0073849169385
          0.0073781070111 -0.0038563632276 0.0079596018937 0.0073849169385 0.0079596018937 0.089894416048
          0.0848377458 0.00017353662298 -0.0024435631875 0.00017353662298 -0.03456520633 0.0018540008358
          -0.0024435631875 0.0018540008358 -0.033129663285 0.039291931715 0.02645916264 -0.025610775593
          0.02645916264 -0.0011857676256 0.0062790091213 -0.025610775593 0.0062790091213 0.018506418428
          0.059561520381 -0.0051009010876 -0.026282212714 -0.0051009010876 0.0093623891541 -0.00096858215881
          -0.026282212714 -0.00096858215881 0.027030799726 0.023784623873 0.0004000382805 0.0090636882716
          0.0004000382805 0.0047911767111 0.00024410895287 0.0090636882716 0.00024410895287 0.039173257054
          -0.016630489155 -0.0033009680723 0.0023935160328 -0.0033009680723 0.0036274746051 -0.0027110447892
          0.0023935160328 -0.0027110447892 0.018467286124 0.0069309590821 -0.0015262651522 0.0018618851862
          -0.0015262651522 -0.004919974483 0.00032033481439 0.0018618851862 0.00032033481439 0.027069765881
          0.06435882912 0.00044188222329 0.0062254266319 0.00044188222329 -0.0069286972952 0.011416515642
          0.0062254266319 0.011416515642 0.026811268751 0.033124833042 -0.0036341445777 -0.014592953946
          -0.0036341445777 -0.0015491362193 0.0024093413886 -0.014592953946 0.0024093413886 0.02651995762
          0.13180701215 0.0047393410438 0.0060515494267 0.0047393410438 -0.01603350242 0.0065124549333
          0.0060515494267 0.0065124549333 0.068944277569 0.062265740947 0.00087171297481 -0.013466009074
          0.00087171297481 -0.00982157729 -0.00077163658212 -0.013466009074 -0.00077163658212 0.02577704026
          0.13229998105 0.010255278675 -0.00067065471588 0.010255278675 -0.0080475320669 0.0077902039568
          -0.00067065471588 0.0077902039568 0.095561077826 0.034842352453 0.0016695689199 -0.0051149706241
          0.0016695689199 -0.0069086343157 -0.00012249785563 -0.0051149706241 -0.00012249785563 0.026500624192
          -0.013006753307 -0.0035690970388 -0.0011723112307 -0.0035690970388 0.0052039925185 -0.0023509265627
          -0.0011723112307 -0.0023509265627 0.026031602516 0.061812637871 -0.0053708512327 -0.012354930024
          -0.0053708512327 -0.027095094088 -0.010134689026 -0.012354930024 -0.010134689026 -0.017004753067
          0.091515028175 0.002771183111 -0.0039315718116 0.002771183111 -0.019284386603 0.0020102748441
          -0.0039315718116 0.0020102748441 0.0061646144817 0.065384927291 0.00017497168817 -0.015252957025
          0.00017497168817 -0.010142271298 0.00076132239759 -0.015252957025 0.00076132239759 0.024740723549
          0.16342125227 0.0089807440843 0.0023182566095 0.0089807440843 -0.013410097434 0.011688587309
          0.0023182566095 0.011688587309 0.11681091879 0.14805077641 0.0080015878604 0.0053851777088
          0.0080015878604 -0.0079038817605 0.010170635425 0.0053851777088 0.010170635425 0.11518842815
          -0.029059444644 -0.0070897521087 -0.0070947506689 -0.0070897521087 0.011278789982 0.00080733338053
          -0.0070947506689 0.00080733338053 0.027209921897 0.10807115879 0.0064544218467 0.0071639823895
          0.0064544218467 0.00076853135617 0.0081488342059 0.0071639823895 0.0081488342059 0.089785779292
          0.064737543678 -0.0081502032143 -0.002106764318 -0.0081502032143 -0.02342046901 0.0037596822045
          -0.002106764318 0.0037596822045 -0.01856685083 0.13292960789 0.0058854929051 0.0043464300796
          0.0058854929051 -0.012596215006 0.0099864542884 0.0043464300796 0.0099864542884 0.080673524813
          -0.004329748851 -0.0045092522561 -0.0108657977 -0.0045092522561 0.0057666262045 -0.0032643105075
          -0.0108657977 -0.0032643105075 0.017823643598 0.13332578949 -0.0005928173187 0.009133128717
          -0.0005928173187 0.0020391702153 0.0079030149218 0.009133128717 0.0079030149218 0.14908498076
          0.023793227452 0.0001765695679 -0.016810385874 0.0001765695679 -0.0057889663632 0.0083575395623
          -0.016810385874 0.0083575395623 0.0010384577929 0.11768154839 0.01068451378 0.0047611255244
          0.01068451378 -0.0060712541681 0.0070749278465 0.0047611255244 0.0070749278465 0.091891052914
          0.050163777664 -0.00076940050951 -0.017512804886 -0.00076940050951 0.0072469756535 0.0044217772553
          -0.017512804886 0.0044217772553 0.024396974691 0.062602276602 0.0018750660912 -0.015311438024
          0.0018750660912 -0.013649026798 -0.00087812581827 -0.015311438024 -0.00087812581827 0.020140286487
          0.15682013815 0.0089587950241 0.0035009763667 0.0089587950241 -0.013226406695 0.0089614679901
          0.0035009763667 0.0089614679901 0.11297716165 0.15371981628 0.008190425119 0.0085657173091
          0.008190425119 -0.0089211902241 0.010825181614 0.0085657173091 0.010825181614 0.1239759052
          0.11720868187 0.0030610418693 0.012318422497 0.0030610418693 -0.023817515519 0.017553543953
          0.012318422497 0.017553543953 0.0010152614938 -0.078199290362 -0.0062942121519 0.0018294414315
          -0.0062942121519 0.017260131764 0.0072211624338 0.0018294414315 0.0072211624338 0.024885405513
          0.16286474255 0.0094023509736 0.014828861218 0.0094023509736 -0.0075891969044 0.0098672139298
          0.014828861218 0.0098672139298 0.13041194718 0.16677242642 0.0086017693082 0.0040882700094
          0.0086017693082 -0.0098764644481 0.010124295001 0.0040882700094 0.010124295001 0.13257546643
          -0.032358518421 0.00034555439017 0.00038738818797 0.00034555439017 0.018219429901 0.0071654784566
          0.00038738818797 0.0071654784566 0.015285707071 0.048197604716 -0.006299341765 -0.043426266903
          -0.006299341765 0.0086845842128 -0.015155027971 -0.043426266903 -0.015155027971 0.023788268768
          0.054954663982 -0.0019868410382 -0.020749090544 -0.0019868410382 -0.015764278776 -0.0043054420752
          -0.020749090544 -0.0043054420752 -0.017605326918 0.05921005465 0.002364028438 -0.010114633956
          0.002364028438 -0.01020433776 0.00023539920606 -0.010114633956 0.00023539920606 0.028561817593
          0.064277415863 -0.0014912549558 -0.014720000799 -0.0014912549558 -0.014133689819 0.0036200236368
          -0.014720000799 0.0036200236368 0.014765426103 0.071738984867 0.011080711352 0.012413989428
          0.011080711352 -0.010401266317 0.0043753536044 0.012413989428 0.0043753536044 0.060820723619
          0.15150142551 0.011648425713 0.00037235615199 0.011648425713 -0.010690266685 0.0091537707694
          0.00037235615199 0.0091537707694 0.095266083184 0.048161605105 0.002051140769 0.0082797231728
          0.002051140769 0.0093988164349 0.005059788504 0.0082797231728 0.005059788504 0.09103771202
          0.1142117011 0.0071938679949 -0.0022230885872 0.0071938679949 -0.0017914523418 0.011499724528
          -0.0022230885872 0.011499724528 0.10972081475 0.061644960064 -0.0012830235407 -0.0044142060282
          -0.0012830235407 -0.0051925964344 0.0024660080211 -0.0044142060282 0.0024660080211 -0.018092816203
          0.010894096476 -0.00030057141821 -0.0017561319988 -0.00030057141821 -0.0027134733411 -0.0017855557844
          -0.0017561319988 -0.0017855557844 0.01822834293 0.036123207876 -0.0060214206009 -0.014237422034
          -0.0060214206009 -0.012739257349 0.0086385911943 -0.014237422034 0.0086385911943 0.029951116752
          -0.062465128357 0.0035818878569 -0.012703965731 0.0035818878569 0.017079155786 -0.010775944067
          -0.012703965731 -0.010775944067 0.043096300602 0.1143347249 0.0044475370058 -0.012228269414
          0.0044475370058 -0.014758195377 0.018185728079 -0.012228269414 0.018185728079 -0.015189418448
          0.0053594678865 0.0013282797156 -0.0020847619294 0.0013282797156 0.0041180897641 -0.0064635141853
          -0.0020847619294 -0.0064635141853 0.0098979834935 0.042637968855 -0.015322284482 -0.019485622105
          -0.015322284482 0.0064885916827 0.015873498861 -0.019485622105 0.015873498861 0.032391301417
          0.049726057743 0.001204914091 -0.016556939019 0.001204914091 -0.014817831532 0.0018514512803
          -0.016556939019 0.0018514512803 0.0088561088522 0.064663511453 0.0026531457669 -0.0078154763213
          0.0026531457669 -0.011212806283 0.00033609235912 -0.0078154763213 0.00033609235912 0.029556411353
          0.083703604602 0.0023712991786 0.015995506602 0.0023712991786 -0.0062875962931 0.0041520156056
          0.015995506602 0.0041520156056 0.034124529763 0.13390239386 0.014171878549 0.0092283443258
          0.014171878549 -0.010997756616 0.0039117961596 0.0092283443258 0.0039117961596 0.077743442017
          0.13391108453 0.0078337685135 0.0066525759285 0.0078337685135 -0.010591319068 0.01032132127
          0.0066525759285 0.01032132127 0.086279213276 0.06750676314 0.0063440036441 -0.0068577234552
          0.0063440036441 -0.020487880352 0.0021727700715 -0.0068577234552 0.0021727700715 -0.029915717082
          0.15325125027 0.0089594505604 0.0063596874636 0.0089594505604 -0.010115961463 0.0069510787079
          0.0063596874636 0.0069510787079 0.11818003625 0.084695236987 0.0099043117811 -0.0068359459018
          0.0099043117811 -0.030775013402 0.00045741329893 -0.0068359459018 0.00045741329893 0.086623077551
          0.041722543383 0.0030341442686 -0.0061302055111 0.0030341442686 -0.0064774049274 -0.00065952648088
          -0.0061302055111 -0.00065952648088 0.03250355698 0.070923840808 0.0015599022356 -0.0064279677554
          0.0015599022356 -0.013057872565 -0.0014729747838 -0.0064279677554 -0.0014729747838 0.022468917781
          0.090537254737 0.005289981073 -0.0062567705418 0.005289981073 -0.0033096153835 0.009693201088
          -0.0062567705418 0.009693201088 0.0026152775558 0.016114026956 -0.008584855757 -0.0093250572132
          -0.008584855757 -0.00056410905724 -0.0092552713643 -0.0093250572132 -0.0092552713643 0.002730444826
          0.044572960655 0.0013303569985 -0.014356147185 0.0013303569985 -0.01027228957 -0.0020023997226
          -0.014356147185 -0.0020023997226 0.02276081433 0.12129211698 0.0052365826253 0.0079946116207
          0.0052365826253 -0.011704614242 0.012019031654 0.0079946116207 0.012019031654 0.085799831746
          -0.032584579343 0.0044849390555 0.0012270180663 0.0044849390555 0.019934073508 0.0034878781991
          0.0012270180663 0.0034878781991 0.045426702916 0.05386288388 -0.00029898532328 -0.013797002262
          -0.00029898532328 -0.0086478117656 0.00011024142818 -0.013797002262 0.00011024142818 0.026856359554
          -0.021994476196 0.0012785523846 -0.012543159154 0.0012785523846 0.0073717272658 0.0060577075753
          -0.012543159154 0.0060577075753 0.015632722985 0.066280241303 -0.025650978009 -0.013592069499
          -0.025650978009 -0.024005673455 -0.0021623462186 -0.013592069499 -0.0021623462186 0.059918706879
          0.079176047157 -0.0019384747094 -0.010988722773 -0.0019384747094 -0.029073811653 0.0010295170989
          -0.010988722773 0.0010295170989 -0.0079517505339 0.11521239862 0.0062574420863 0.01110040836
          0.0062574420863 -0.010411633136 0.0071390508341 0.01110040836 0.0071390508341 0.068753486326
          0.069576460224 0.0022393487623 -0.016164851553 0.0022393487623 -0.023591735549 0.003038384737
          -0.016164851553 0.003038384737 0.006101122451 0.13952045296 0.011272856896 -0.019379712779
          0.011272856896 -0.046915474408 -0.0060796656951 -0.019379712779 -0.0060796656951 -0.024807846133
          0.14476891276 0.010242105225 -0.0016203568506 0.010242105225 -0.0092366691961 0.0066718927077
          -0.0016203568506 0.0066718927077 0.11155253661 0.060465016272 -0.0019836599685 -0.010741258786
          -0.0019836599685 -0.0088525459763 0.0008169146966 -0.010741258786 0.0008169146966 0.02895641993
          0.021098243661 0.0027860184579 -0.019771470542 0.0027860184579 -0.0058799535342 0.0076773725594
          -0.019771470542 0.0076773725594 0.0082362747643 0.036357824004 0.0011566377848 -0.0075266142735
          0.0011566377848 -0.0033055206227 0.0016799940661 -0.0075266142735 0.0016799940661 0.0032031678217
          0.15304814563 0.0055646937477 0.020784947193 0.0055646937477 -0.0027446963396 0.0061629431561
          0.020784947193 0.0061629431561 0.13900584766 0.0411610408 0.011348883148 -0.025404184664
          0.011348883148 -0.01837290381 0.0094225481009 -0.025404184664 0.0094225481009 -0.0019258625148
          0.16304211747 0.0093259875537 7.9871539806e-06 0.0093259875537 -0.015144135522 0.0068884312541
          7.9871539806e-06 0.0068884312541 0.0998316294 0.072539262322 -0.0003950451386 0.0055829972749
          -0.0003950451386 -0.024482889553 0.007154200276 0.0055829972749 0.007154200276 0.040031635704
          0.023089131256 0.0026833337212 -0.011994799691 0.0026833337212 -0.0057494221155 0.00079947667667
          -0.011994799691 0.00079947667667 0.017531335102 0.12564709172 0.038585463174 0.033032127317
          0.038585463174 -0.062693231 0.025924614316 0.033032127317 0.025924614316 0.040485946142
          -0.0095028590311 -0.0063899569076 -0.0071645849037 -0.0063899569076 0.0055446943085 0.0010147402664
          -0.0071645849037 0.0010147402664 0.027202520739 0.037741170174 0.006249658474 -0.015204472272
          0.006249658474 -0.012276873253 -0.0028438813224 -0.015204472272 -0.0028438813224 -0.0015936746055
          0.082645349612 -0.0017891148964 -0.0081518305894 -0.0017891148964 -0.028832122473 -0.0060701171917
          -0.0081518305894 -0.0060701171917 -0.0034002299135 0.058029428322 -0.00065849165967 -0.012198080339
          -0.00065849165967 -0.010166483051 0.0012659890021 -0.012198080339 0.0012659890021 0.023829754995
          0.16408721734 0.013640933313 0.0091634810256 0.013640933313 -0.0078859576133 0.011682992625
          0.0091634810256 0.011682992625 0.14122459011 -0.037401545369 0.0011226747816 -0.001454881688
          0.0011226747816 0.014495801665 -0.0011672838476 -0.001454881688 -0.0011672838476 0.024974629448
          0.15787578635 0.0093845883818 0.023683038414 0.0093845883818 -0.0092118252739 0.0082340802918
          0.023683038414 0.0082340802918 0.13513818945 0.15170917585 0.0070424703508 0.0059283301133
          0.0070424703508 -0.005770938156 0.0095114562564 0.0059283301133 0.0095114562564 0.12607924141
          0.097428774062 0.0073784858591 0.013263564399 0.0073784858591 -0.0071567184514 0.00795913919
          0.013263564399 0.00795913919 0.082382650842 -0.01303981619 -0.0016038777059 -0.023038398468
          -0.0016038777059 -0.0026071831073 -0.0049425377999 -0.023038398468 -0.0049425377999 0.030318240672
          0.040895772324 0.0063637201256 -0.024203859149 0.0063637201256 0.0035856430132 0.0033201500112
          -0.024203859149 0.0033201500112 0.07192118842 0.060614727294 0.0015452298672 -0.0081573195786
          0.0015452298672 -0.0098884475404 -0.00079227290931 -0.0081573195786 -0.00079227290931 0.031209709623
          0.040823600571 0.010532922872 -0.02403774711 0.010532922872 -0.0052696859031 -0.0035425404838
          -0.02403774711 -0.0035425404838 0.010097484133 0.063573158178 -0.00030729891755 -0.012305079488
          -0.00030729891755 -0.011141306166 0.00030869584351 -0.012305079488 0.00030869584351 0.026342122082
          0.058280374195 0.00012534520762 -0.016522836928 0.00012534520762 -0.009184877399 0.0030105306361
          -0.016522836928 0.0030105306361 0.025125680717 0.13901935487 0.0071660986123 8.0928728591e-05
          0.0071660986123 -0.0086621159349 0.0074344119002 8.0928728591e-05 0.0074344119002 0.096478371354
          0.16465506763 0.0093185883007 0.0070404663307 0.0093185883007 -0.011521396039 0.012230319948
          0.0070404663307 0.012230319948 0.13037971969 0.0051533177116 0.0024361696141 0.0076294915731
          0.0024361696141 -0.0053145740296 -0.0010964824013 0.0076294915731 -0.0010964824013 0.023416183901
          0.061044835072 0.0012104533919 0.0033352680666 0.0012104533919 0.029547837263 -0.0048897287476
          0.0033352680666 -0.0048897287476 -0.013125932592 0.17311949517 0.013481542242 0.0090163076722
          0.013481542242 -0.01456347089 0.009857207034 0.0090163076722 0.009857207034 0.13526761355
          0.093803437261 0.0048407565292 0.0043773672104 0.0048407565292 0.0040266246667 0.0056157259396
          0.0043773672104 0.0056157259396 0.1009158105 0.059525799877 -0.0002529685657 -0.01790395341
          -0.0002529685657 -0.0082070067927 0.00020190710933 -0.01790395341 0.00020190710933 0.027505464601
          0.059795199528 -0.022052156282 -0.013063968349 -0.022052156282 -0.038921432148 0.022611199883
          -0.013063968349 0.022611199883 -0.023286416576 0.1416190951 0.0061652856123 0.00061334325377
          0.0061652856123 -0.014205877957 0.010109036527 0.00061334325377 0.010109036527 0.088819342246
          0.059675651794 -0.0019109662722 0.0085322763976 -0.0019109662722 -0.006350526465 0.0048533263732
          0.0085322763976 0.0048533263732 -0.0066037015892 0.0097521061321 0.0034744362848 -0.018431905198
          0.0034744362848 0.018171695631 -0.0019982667884 -0.018431905198 -0.0019982667884 0.065021895736
          0.05495439947 0.00040172052277 -0.01741182161 0.00040172052277 -0.010140729335 0.0016040588855
          -0.01741182161 0.0016040588855 0.013835184495 0.072147832836 0.002007051384 -0.0089669004207
          0.002007051384 -0.02092065213 0.0011063809934 -0.0089669004207 0.0011063809934 -0.0062182673264
          0.095314931494 0.0052489917834 -0.0090317186087 0.0052489917834 -0.034157367663 7.0295772104e-05
          -0.0090317186087 7.0295772104e-05 -0.026731935758 0.061464015432 0.0016608289509 -0.0068518826804
          0.0016608289509 -0.010478481294 0.00064142555833 -0.0068518826804 0.00064142555833 0.029752744902
          0.048416426205 0.0022647996332 -0.016408817023 0.0022647996332 0.0072884785939 0.0050106856206
          -0.016408817023 0.0050106856206 0.087433444885 0.045356709422 -0.0022554696046 -0.017728402219
          -0.0022554696046 -0.013093930897 0.0040742472133 -0.017728402219 0.0040742472133 0.015037544866
          0.098921503224 0.003861877235 0.0012603654735 0.003861877235 0.010394187007 -0.00060389971276
          0.0012603654735 -0.00060389971276 0.13143416914 0.096485714654 -0.0027034352613 -0.0079728446969
          -0.0027034352613 -0.02664087328 0.00042774881164 -0.0079728446969 0.00042774881164 -0.026731343213
          0.056477119179 -0.0017547314645 0.013854530484 -0.0017547314645 0.010715781151 0.0105016083
          0.013854530484 0.0105016083 0.065475647453 0.075352291443 -0.0022773048145 0.00081244458247
          -0.0022773048145 -0.0197202486 0.0041983030661 0.00081244458247 0.0041983030661 0.029651938698
          0.16208783986 0.0032538688039 0.030799916474 0.0032538688039 -0.0079389173285 0.014005936298
          0.030799916474 0.014005936298 0.12009472509 0.16591937355 0.010415059576 0.018039568517
          0.010415059576 -0.0067164203479 0.007743851679 0.018039568517 0.007743851679 0.13586133087
          0.16202789658 0.0068986195187 0.012610131205 0.0068986195187 -0.020290719076 0.014706249741
          0.012610131205 0.014706249741 0.085124516691 0.10876928443 0.0092430484316 -0.0013240756044
          0.0092430484316 0.00014868947383 0.0099539804752 -0.0013240756044 0.0099539804752 0.11245627776
          0.12077268184 -0.0018397418337 -0.016282348908 -0.0018397418337 0.016967532023 -0.046043552865
          -0.016282348908 -0.046043552865 -0.099058961517 0.12133883663 0.013342690374 0.0078212946413
          0.013342690374 -0.0087437121269 0.0077610942431 0.0078212946413 0.0077610942431 0.078186415879
          -0.014367670862 -0.011973286012 -0.015554751832 -0.011973286012 0.011762041246 0.0044267702108
          -0.015554751832 0.0044267702108 0.02000160819 0.064650779966 -0.008358422267 -0.038119273677
          -0.008358422267 0 0 -0.038119273677 0 0
          0.067838718071 0.004986042932 -0.016863652495 0.004986042932 0.013678625067 0.0065683510044
          -0.016863652495 0.0065683510044 0.0098722308634 0.063878506051 -0.0020758833199 -0.026095784135
          -0.0020758833199 0.0031242853975 -0.00059612525134 -0.026095784135 -0.00059612525134 0.01945394005
          0.16904216136 0.011149601225 0.019323357526 0.011149601225 -0.009599659418 0.008339678483
          0.019323357526 0.008339678483 0.13503860091 0.11111392069 0.0082608075514 0.0065391629597
          0.0082608075514 -0.0044535217556 0.007748384877 0.0065391629597 0.007748384877 0.084991338814
          0.023044928723 -0.0015260309106 -0.0077783179838 -0.0015260309106 -0.00658684811 -0.0021801996944
          -0.0077783179838 -0.0021801996944 0.02304816383 0.06163805702 0.00046075053016 -0.0047311115133
          0.00046075053016 -0.0087488140609 0.0017153505183 -0.0047311115133 0.0017153505183 0.032664391605
          0.061668996669 0.0028403969328 -0.016617916189 0.0028403969328 -0.010048524924 -0.00063818821315
          -0.016617916189 -0.00063818821315 0.018579963316 0.034749249065 -0.0034832395279 -0.011901009075
          -0.0034832395279 -0.0077939348426 0.00078968375906 -0.011901009075 0.00078968375906 0.027752324576
          0.050732268277 0.00024242489014 -0.0089516324439 0.00024242489014 0.012967437046 0.0067723370069
          -0.0089516324439 0.0067723370069 0.010096931172 0.036915003891 0.0080130992906 0.00097702565494
          0.0080130992906 0.0076843175035 0.0029310659198 0.00097702565494 0.0029310659198 0.074541835692
          0.049889471533 -0.002756170389 -0.036882142446 -0.002756170389 0.014141844516 -0.0077203100374
          -0.036882142446 -0.0077203100374 0.029072257819 0.09909229404 0.0085087954431 0.00093049228602
          0.0085087954431 0.0027950782425 0.0074788248805 0.00093049228602 0.0074788248805 0.10528298178
          0.033152225494 0.0014950790137 -0.0095615270197 0.0014950790137 -0.003339880941 0.0017029200329
          -0.0095615270197 0.0017029200329 0.028762928895 0.062344675674 0.007183033661 -0.012069586759
          0.007183033661 -0.014088861444 0.0036291482978 -0.012069586759 0.0036291482978 0.022296285664
          0.069521144923 0.0055259997755 0.0079270398404 0.0055259997755 -0.0020736801008 -0.0010734762778
          0.0079270398404 -0.0010734762778 0.043899826608 0.06736842841 0.0012685375557 -0.010587368326
          0.0012685375557 -0.019031256862 -0.0032287923055 -0.010587368326 -0.0032287923055 -0.035163872846
          0.063823797286 0.0014120887345 -0.008202493375 0.0014120887345 -0.0094314000088 0.00035746664364
          -0.008202493375 0.00035746664364 0.029510424512 0.011086382919 0.0050360089846 0.007023581564
          0.0050360089846 0.011792128566 0.0036080863434 0.007023581564 0.0036080863434 0.082052573203
          0.084718947612 0.007094628076 -0.003340151293 0.007094628076 0.0085627370016 -0.0025489819236
          -0.003340151293 -0.0025489819236 0.10936052703 0.078905815048 0.0011039451588 0.016411658592
          0.0011039451588 0.0022099381481 0.012428697414 0.016411658592 0.012428697414 0.08550280651
          0.14676841528 0.0088688052097 -4.4266890268e-06 0.0088688052097 -0.0097474452338 0.008812380139
          -4.4266890268e-06 0.008812380139 0.10559244054 0.065001236732 0.0015983703071 -0.014795144664
          0.0015983703071 -0.012967248445 0.00066939621941 -0.014795144664 0.00066939621941 0.022870995809
          0.085316706804 -0.0022583620163 -0.0061746384264 -0.0022583620163 -0.027552547898 -0.0073079018944
          -0.0061746384264 -0.0073079018944 -0.018648954761 0.047671060712 -0.0035963436829 -0.0089715681027
          -0.0035963436829 -0.0059921012237 0.00080977219111 -0.0089715681027 0.00080977219111 0.032225220901
          0.046144872796 0.00022215507509 -0.0089521609285 0.00022215507509 -0.0077917251334 -0.0014944748652
          -0.0089521609285 -0.0014944748652 0.024980821537 0.078874711694 0.012950983402 0.0079549292476
          0.012950983402 0.0090207231588 0.0072264612119 0.0079549292476 0.0072264612119 0.089814862388
          0.031993552865 0.035869724434 -0.00011191847353 0.035869724434 0.030889541481 0.049311991344
          -0.00011191847353 0.049311991344 0.095802043235 -0.027051594203 -0.0029550327911 -0.0032112775542
          -0.0029550327911 0.0081890819816 0.0044265401758 -0.0032112775542 0.0044265401758 0.0062206350982
          0.077496422791 -0.0038705408601 -0.0084708729347 -0.0038705408601 -0.019999781562 0.0026346352241
          -0.0084708729347 0.0026346352241 0.015133606396 0.091435592152 -0.0066470640858 -0.0056023673775
          -0.0066470640858 -0.030964493112 0.0068165185921 -0.0056023673775 0.0068165185921 -0.02596565362
          0.12050322304 0.0079414260488 0.00089764680656 0.0079414260488 -0.0059670419277 0.0084756709483
          0.00089764680656 0.0084756709483 0.10089964345 0.16181229429 0.0073017231279 0.019543930543
          0.0073017231279 -0.006671294925 0.0085663012012 0.019543930543 0.0085663012012 0.13623302398
          0.1693672337 0.010306263817 0.0064903322142 0.010306263817 -0.010425148287 0.0095620053066
          0.0064903322142 0.0095620053066 0.12324278945 0.17939563583 0.010982674635 0.0099802274898
          0.010982674635 -0.0095384452888 0.0090386539531 0.0099802274898 0.0090386539531 0.13272126928
          0.084028128506 0.00039805098679 -0.0029501665522 0.00039805098679 -0.022696874927 -0.0026755787837
          -0.0029501665522 -0.0026755787837 -0.0077297947775 0.109527895 0.011256422174 0.0080688389772
          0.011256422174 -0.011393329258 0.0061937970225 0.0080688389772 0.0061937970225 0.075271115847
          0.013644303883 0.013864963094 0.0088311333474 0.013864963094 0.015004490489 0.0077046609521
          0.0088311333474 0.0077046609521 0.083161515116 0.12456704332 0.0084574422561 0.0044460113077
          0.0084574422561 -0.0061009098101 0.0073789858461 0.0044460113077 0.0073789858461 0.099963442348
          -0.014885723124 -0.0040106646303 -0.0028798517075 -0.0040106646303 -0.0058515223878 -0.0012256984766
          -0.0028798517075 -0.0012256984766 0.022899136568 0.12823160807 0.0021890221664 0.021080468061
          0.0021890221664 0.0011703620413 0.0076392576562 0.021080468061 0.0076392576562 0.11127937948
          0.12241585119 0.010400403086 0.0046960877004 0.010400403086 -0.0090884490212 0.0086055889788
          0.0046960877004 0.0086055889788 0.088765903896 0.096380985568 0.0088357827439 0.0028553585588
          0.0088357827439 -0.034389845136 0.0046300648138 0.0028553585588 0.0046300648138 -0.02091334686
          0.14498590289 0.012434978838 0.019082263942 0.012434978838 0.0027722075698 0.0038100071641
          0.019082263942 0.0038100071641 0.12952266546 0.054462843578 0.0049003662203 -0.021054526584
          0.0049003662203 0.017962291565 0.0034089596982 -0.021054526584 0.0034089596982 0.023806782274
          0.084541987099 -0.00032860277729 -0.0070404823481 -0.00032860277729 -0.018889197223 -0.00084020181903
          -0.0070404823481 -0.00084020181903 0.0039180526272 0.080963836223 0.0056337423839 0.0092058492258
          0.0056337423839 -0.023843880868 0.002734532393 0.0092058492258 0.002734532393 0.02063474724
          0.042668562125 0.0072398249026 -0.044278721653 0.0072398249026 0.013795383188 0.0048109115084
          -0.044278721653 0.0048109115084 0.029958502658 0.039394157188 -0.0052973887925 -0.0072479147729
          -0.0052973887925 -0.0083608942453 0.0002392555923 -0.0072479147729 0.0002392555923 0.032984462168
          0.035479850889 -0.0018860962456 -0.012458824762 -0.0018860962456 -0.010525214905 0.00054905907557
          -0.012458824762 0.00054905907557 0.017078213903 0.08159744779 0.0026180246076 -0.0037274379641
          0.0026180246076 -0.0251364881 -0.003450490585 -0.0037274379641 -0.003450490585 -0.014025193203
          0.071541195992 0.0031736024639 0.010086860346 0.0031736024639 -0.00056704117732 0.0030125575328
          0.010086860346 0.0030125575328 0.063569147438 0.084128367195 -8.8644879426e-05 -0.0052360305279
          -8.8644879426e-05 -0.024540396393 0.0029583011485 -0.0052360305279 0.0029583011485 -0.0062995227818
          -0.029289532829 -0.0038843804391 -0.00946612041 -0.0038843804391 0.013970565344 -0.0047099673436
          -0.00946612041 -0.0047099673436 0.011094743526 0.084122104674 0.0030202488985 0.0040289510971
          0.0030202488985 0.0015750334084 0.014548021741 0.0040289510971 0.014548021741 0.13267074776
          0.084770366309 0.0092835448494 0.018393767744 0.0092835448494 -0.010926797387 0.0070564030119
          0.018393767744 0.0070564030119 0.04767326724 0.061613851066 -0.00061317768497 -0.011993627016
          -0.00061317768497 -0.0077563932312 -0.001289735493 -0.011993627016 -0.001289735493 0.029624930703
          0.024080616318 0.0030292080043 -0.0081300499979 0.0030292080043 0.00088151629444 0.00075727826964
          -0.0081300499979 0.00075727826964 -0.00012002868263 0.048818035755 -0.0038346214753 -0.013611857264
          -0.0038346214753 -0.0096053423338 -0.0001362613428 -0.013611857264 -0.0001362613428 0.024385522131
          0.080593576826 0.002172368198 -0.0090214711037 0.002172368198 -0.020778701447 0.0018533853628
          -0.0090214711037 0.0018533853628 -0.00079790142411 0.049935400117 0.0048752962389 -0.034657515685
          0.0048752962389 0.0073743918371 0.0081512350931 -0.034657515685 0.0081512350931 0.034246823857
          0.066566181601 0.00047920534952 -0.012819068788 0.00047920534952 -0.018107629494 -0.0014168592129
          -0.012819068788 -0.0014168592129 0.010259257619 0.15496272769 0.0062678532119 0.011320551895
          0.0062678532119 -0.007334453068 0.0093603996322 0.011320551895 0.0093603996322 0.13428188531
          0.031535607941 0.0038754805247 0.013695360772 0.0038754805247 0.0006204699462 0.0038295329939
          0.013695360772 0.0038295329939 0.039772887459 -0.042960913657 -0.0028049512507 -0.0014892017569
          -0.0028049512507 0.010139208343 -0.0038277637782 -0.0014892017569 -0.0038277637782 0.019340039723
          0.13410849661 0.010910646497 0.0021437882188 0.010910646497 -0.0098059643012 0.0074324073729
          0.0021437882188 0.0074324073729 0.088311414419 0.034407638332 -0.00079900668019 -0.0048161798253
          -0.00079900668019 0.023940084318 -0.0011033403704 -0.0048161798253 -0.0011033403704 0.0158416472
          0.14913963233 0.00901213264 -0.0033623368331 0.00901213264 -0.011671374417 0.011551721965
          -0.0033623368331 0.011551721965 0.10517292107 0.052567429327 0.006217741539 -0.00842937879
          0.006217741539 -0.013363035021 -0.01101961983 -0.00842937879 -0.01101961983 0.0020659567356
          0.077159342371 0.0015893115511 -0.0052556574402 0.0015893115511 -0.016910653084 5.1626812533e-05
          -0.0052556574402 5.1626812533e-05 0.017297583407 -0.043144469698 -0.0040150885074 0.0010938168206
          -0.0040150885074 0.015738816227 0.004504376483 0.0010938168206 0.004504376483 0.045902119627
          0.056788504043 0.00051882243736 -0.0073551954919 0.00051882243736 -0.0095423185973 0.0004733307295
          -0.0073551954919 0.0004733307295 0.02943583792 0.15983410374 0.010684665141 0.015802626802
          0.010684665141 -0.0059025963429 0.0076353316994 0.015802626802 0.0076353316994 0.13564242203
          0.064650779966 -0.008358422267 -0.038119273677 -0.008358422267 0 0
          -0.038119273677 0 0 0.030420530827 -0.0017248148381 -0.02378699629
          -0.0017248148381 0.010290791559 0.0063122400732 -0.02378699629 0.0063122400732 0.03301321383
          0.048656665438 -0.0063719104347 -0.040296788815 -0.0063719104347 0.0036072098643 -0.016400994555
          -0.040296788815 -0.016400994555 0.045011431217 0.027158890196 0.0048586635867 -0.0052725525981
          0.0048586635867 -0.0037131390062 -0.0021122992534 -0.0052725525981 -0.0021122992534 0.031317188761
          0.028992644941 0.0017304119754 -0.015151725581 0.0017304119754 -0.02087009052 -0.0076324257743
          -0.015151725581 -0.0076324257743 -0.0052345647935 0.04529911618 0.0023808434338 -0.015156602922
          0.0023808434338 -0.013905217638 -0.00077279799474 -0.015156602922 -0.00077279799474 -0.013339853994
          0.090589403468 0.0047801263833 -0.00060186332586 0.0047801263833 0.00860507923 -0.0039549531574
          -0.00060186332586 -0.0039549531574 0.077517385135 0.070985314777 0.0062344197183 -0.0091143395589
          0.0062344197183 -0.013891292978 0.0022558762325 -0.0091143395589 0.0022558762325 0.010116722438
          0.032110695451 0.0018571909287 -0.023878578134 0.0018571909287 0.0099147013054 -0.0040636524665
          -0.023878578134 -0.0040636524665 0.048356554858 -0.038252659326 -0.0037706480584 0.0033580648708
          -0.0037706480584 0.018097176882 0.0045636037557 0.0033580648708 0.0045636037557 0.025387571283
          -0.015613149181 -0.0015140038787 -0.0077046098547 -0.0015140038787 -5.5677518008e-05 -0.0042948374187
          -0.0077046098547 -0.0042948374187 0.01703328063 0.15453035742 0.010598654029 0.021358050878
          0.010598654029 -0.0055538553796 0.0063753889262 0.021358050878 0.0063753889262 0.13835921035
          0.1559031254 0.0089828340941 0.006375325385 0.0089828340941 -0.011536636064 0.01028554651
          0.006375325385 0.01028554651 0.10512614213 0.15956872894 0.0090492436326 -0.00021287860139
          0.0090492436326 -0.011277131452 0.0099112034143 -0.00021287860139 0.0099112034143 0.10867295008
          0.094144518287 0.0060365053486 0.012352152062 0.0060365053486 -0.0055110468551 0.008015684824
          0.012352152062 0.008015684824 0.090432683407 0.16443291225 0.010343405897 0.019763006572
          0.010343405897 -0.0084660730429 0.008362549451 0.019763006572 0.008362549451 0.13189188488
          0.15929505674 0.0092320707636 0.016232015934 0.0092320707636 -0.0082360677314 0.0075774377041
          0.016232015934 0.0075774377041 0.13086245233 0.075436311449 0.004345219473 -0.0024423805933
          0.004345219473 -0.0123313038 0.0027111126705 -0.0024423805933 0.0027111126705 0.018407150175
          0.11742361805 0.0063869035281 0.0056561656316 0.0063869035281 -0.0090728165867 0.0083572959201
          0.0056561656316 0.0083572959201 0.090769985353 0.1278897632 0.012511887653 0.0014164128249
          0.012511887653 -0.0051111830403 0.009852644481 0.0014164128249 0.009852644481 0.11242108289
          0.094596095576 0.018240369701 0.0058275696419 0.018240369701 -0.037861596699 0.0034372887088
          0.0058275696419 0.0034372887088 -0.018029382107 0.069191908962 -0.017520542132 -0.0080176800102
          -0.017520542132 -0.025446508113 -0.0054754941657 -0.0080176800102 -0.0054754941657 -0.025934253157
          0.035457696319 0.00010876903463 -0.010673812775 0.00010876903463 -0.0086746152188 -0.003807652042
          -0.010673812775 -0.003807652042 0.021466799589 0.058888593286 -0.0021029078368 -0.054277726034
          -0.0021029078368 0.017122938523 0.0022285155352 -0.054277726034 0.0022285155352 -0.014539485462
          0.057344864259 0.0035405674749 -0.014524317202 0.0035405674749 0.01554598692 -0.014122328917
          -0.014524317202 -0.014122328917 -0.0051980400754 0.1114224837 0.0056273092325 0.0087515761806
          0.0056273092325 -0.0082178178938 0.010236048593 0.0087515761806 0.010236048593 0.090767713366
          0.067484937008 -0.0010573664613 -0.010466771876 -0.0010573664613 -0.011170130285 7.6714631972e-05
          -0.010466771876 7.6714631972e-05 0.028902611918 0.16151163254 0.012321143079 0.0033233254778
          0.012321143079 -0.010406773402 0.0070807254482 0.0033233254778 0.0070807254482 0.111849436
          0.043358924893 7.3899354538e-05 -0.013359040551 7.3899354538e-05 -0.012160269669 0.001275558957
          -0.013359040551 0.001275558957 0.010693390553 0.16237651006 0.010236476545 0.016996402693
          0.010236476545 -0.010003676184 0.01056345992 0.016996402693 0.01056345992 0.13672170352
          0.037229581738 0.0027912222574 -0.012860552396 0.0027912222574 -0.012277722233 0.0013651023844
          -0.012860552396 0.0013651023844 0.0027911032106 0.0026358694416 0.0007705729648 -0.011072539519
          0.0007705729648 0.0063244113962 0.0068254649024 -0.011072539519 0.0068254649024 0.025014278202
          0.066664394358 -0.0015800910763 -0.0075312182465 -0.0015800910763 -0.012676218287 0.00024561825268
          -0.0075312182465 0.00024561825268 0.027328292377 0.16842509718 0.010807826075 0.016290404269
          0.010807826075 -0.017848064029 0.010688071725 0.016290404269 0.010688071725 0.12934960687
          0.075941128521 0.0048560260756 0.00395585518 0.0048560260756 0.010373018204 0.0073469585539
          0.00395585518 0.0073469585539 0.09799575218 0.12964631945 0.0071642774318 0.0020097628511
          0.0071642774318 -0.0022885695478 0.0089696930787 0.0020097628511 0.0089696930787 0.11124879789
          0.02695405695 -2.7642062148e-05 -0.0052733350041 -2.7642062148e-05 -0.013181644515 -0.0043949092673
          -0.0052733350041 -0.0043949092673 0.0046127883251 0.11666305605 0.0079372151511 0.0069085776014
          0.0079372151511 -0.015671745007 0.0043709778151 0.0069085776014 0.0043709778151 0.057873928703
          0.064075155992 0.00058747721522 -0.012442928087 0.00058747721522 -0.010459156355 0.0007787831463
          -0.012442928087 0.0007787831463 0.024929704052 0.067620837272 -0.001935320923 -0.0029689263564
          -0.001935320923 -0.020456954759 -0.0013675208331 -0.0029689263564 -0.0013675208331 -0.014162185537
          0.17586317938 0.01157519185 0.011175578219 0.01157519185 -0.020761869782 0.0065499635294
          0.011175578219 0.0065499635294 0.056592697702 0.095046219836 0.01040682895 0.0067266207289
          0.01040682895 -0.0053832163271 0.0059738318921 0.0067266207289 0.0059738318921 0.083294003766
          -0.016941789193 0.0023807334416 -0.017888422808 0.0023807334416 0.010237679245 -0.0032153981238
          -0.017888422808 -0.0032153981238 0.030631471315 0.11212039088 0.010269531442 -0.00039983142055
          0.010269531442 -0.0019657151164 0.008814987078 -0.00039983142055 0.008814987078 0.10907212742
          0.049981794414 0.0022874539563 -0.011577543657 0.0022874539563 0.0061415298374 0.0039459938773
          -0.011577543657 0.0039459938773 0.026772361098 0.014484624708 -0.0026752104751 -0.0032408710629
          -0.0026752104751 0.002858814098 -0.0020159819526 -0.0032408710629 -0.0020159819526 0.011578726212
          0.16905399448 0.0098855181342 0.010706789003 0.0098855181342 -0.0090125562716 0.009879448712
          0.010706789003 0.009879448712 0.14160194321 0.059851258872 -3.715701287e-05 -0.0074432305733
          -3.715701287e-05 -0.018999930406 0.0013826500655 -0.0074432305733 0.0013826500655 -0.020089949237
          0.075462473957 0.00071586846741 -0.0058410675366 0.00071586846741 -0.012769780904 0.00063057959332
          -0.0058410675366 0.00063057959332 0.022265835913 0.056530505316 0.00028058694523 -0.015960929244
          0.00028058694523 -0.0052957943015 0.0012362919599 -0.015960929244 0.0012362919599 0.026770412283
          0.024489834884 -0.0018599494697 0.0032119010848 -0.0018599494697 0.0068140697057 0.0073098642425
          0.0032119010848 0.0073098642425 0.064234564701 0.051663760135 -0.0015089249552 -0.0065217929806
          -0.0015089249552 -0.0085825061512 0.00049368739889 -0.0065217929806 0.00049368739889 0.030270459503
          -0.01976094049 -0.0064304232314 -0.0070123938832 -0.0064304232314 0.0026051909883 0.0028014762461
          -0.0070123938832 0.0028014762461 0.027979048571 0.067749544134 0.00056532841572 -0.0091906225932
          0.00056532841572 -0.010938265239 -0.00042923993742 -0.0091906225932 -0.00042923993742 0.027654677264
          0.063949630355 0.0041267125928 0.012960852349 0.0041267125928 -0.012336434344 0.0047885110805
          0.012960852349 0.0047885110805 0.021030773043 0.046004756593 0.0081032815687 0.018656160759
          0.0081032815687 0.0036961775385 0.003232199835 0.018656160759 0.003232199835 0.057351774157
          0.099641658585 0.0084058140975 -0.00025322718912 0.0084058140975 -0.0010831925267 0.0096988946635
          -0.00025322718912 0.0096988946635 0.10461056989 0.10627082259 0.0095513855432 0.023319712248
          0.0095513855432 -0.0081647095724 0.0078231880034 0.023319712248 0.0078231880034 0.070514830831
          0.083008114376 0.00068972608718 0.0075850285178 0.00068972608718 -0.022571346386 0.0045335276492
          0.0075850285178 0.0045335276492 0.0083387708982 0.12541063887 0.011395312127 0.0071373935393
          0.011395312127 -0.015144738485 0.0054132494754 0.0071373935393 0.0054132494754 0.068760066051
          -0.024504240583 -0.0014854233516 -0.018012705837 -0.0014854233516 0.0094331630685 -0.0086537726475
          -0.018012705837 -0.0086537726475 0.017536092588 0.0033038764283 -0.0096109562453 -0.013910620912
          -0.0096109562453 0.0053620575174 0.0027289138072 -0.013910620912 0.0027289138072 0.035763261965
          0.069907888861 -0.00077140057844 0.011091396405 -0.00077140057844 -0.0073864499283 0.0030385317022
          0.011091396405 0.0030385317022 0.052003672104 0.064587773018 3.744095462e-05 -0.013418204566
          3.744095462e-05 -0.0099238743501 9.4329499021e-05 -0.013418204566 9.4329499021e-05 0.023838064689
          0.064442871202 0.0017565054011 -0.01364063862 0.0017565054011 -0.010314986525 5.0038933922e-05
          -0.01364063862 5.0038933922e-05 0.026551947924 0.063749917483 -0.0016993123996 -0.015017683357
          -0.0016993123996 -0.012953885093 0.00016280328906 -0.015017683357 0.00016280328906 0.020691903434
          0.034185563124 0.0009540475091 -0.011293715558 0.0009540475091 -0.00086398582037 0.00073301315454
          -0.011293715558 0.00073301315454 0.018345629489 0.062145310826 0.00066077428365 -0.014771201709
          0.00066077428365 -0.010052306986 0.00075023118752 -0.014771201709 0.00075023118752 0.028294357822
          0.062377299504 -0.0069450206292 -0.033212552309 -0.0069450206292 0.0087130473122 -0.015584937628
          -0.033212552309 -0.015584937628 0.029826346837 0.098211310286 0.011709718811 -2.4149668869e-05
          0.011709718811 -0.0006295881897 -0.0020516799083 -2.4149668869e-05 -0.0020516799083 0.12460334688
          0.075462845973 0.00041302899195 -0.0061998196218 0.00041302899195 -0.015489275598 -0.00061821349377
          -0.0061998196218 -0.00061821349377 0.023107895285 -0.058496579753 0.0082286398863 0.0035419099386
          0.0082286398863 0.012747163391 0.00094381123424 0.0035419099386 0.00094381123424 0.029927506164
          0.053493005377 -0.0038539796816 -0.014562837129 -0.0038539796816 -0.016793330236 -0.0015574193007
          -0.014562837129 -0.0015574193007 0.00055038316227 0.050677010393 -0.00030632017626 -0.014834785963
          -0.00030632017626 -0.0090352106508 -0.0030639504287 -0.014834785963 -0.0030639504287 0.023420414378
          0.11082125561 0.0088833608777 0.0074027638058 0.0088833608777 -0.0026823725236 0.010203207173
          0.0074027638058 0.010203207173 0.088393734562 0.21513497245 0.039260018616 0.0046558003396
          0.039260018616 -0.063851779008 0.02864911588 0.0046558003396 0.02864911588 0.042063951834
          0.070967794995 -0.0036299010077 -0.005081623396 -0.0036299010077 -0.01933200175 0.0053108456927
          -0.005081623396 0.0053108456927 -0.023560587637 0.072592197505 -0.0017416996649 -0.0055392414763
          -0.0017416996649 -0.015724502583 0.003170735369 -0.0055392414763 0.003170735369 0.0095371831753
          0.047289358627 -0.021961413589 -0.024426145573 -0.021961413589 -0.0068930755662 -0.0065167348387
          -0.024426145573 -0.0065167348387 0.0010980202451 0.094226455602 0.010595298913 0.0020951470967
          0.010595298913 0.0042841228867 0.0079765406262 0.0020951470967 0.0079765406262 0.10688443176
          0.015216280637 0.00145664449 0.0037062371599 0.00145664449 -0.0014750485905 0.0063147115255
          0.0037062371599 0.0063147115255 -0.013264990157 0.061377980556 -0.00021850634412 -0.015102852562
          -0.00021850634412 -0.009819209932 0.00015406884406 -0.015102852562 0.00015406884406 0.027721308762
          0.10996170173 0.00065236850778 0.016744405551 0.00065236850778 0.0020017205085 0.0079161699238
          0.016744405551 0.0079161699238 0.15267177575 0.071290381025 0.0017833764149 -0.0096372610841
          0.0017833764149 -0.014507556409 -0.0010053870973 -0.0096372610841 -0.0010053870973 0.020701147351
          0.1286385084 0.0079423096156 -0.00075462730489 0.0079423096156 -0.006488917966 0.011361774408
          -0.00075462730489 0.011361774408 0.11201696337 0.00073470170977 -0.003934012789 0.014295640835
          -0.003934012789 0.015288638959 0.0074476224789 0.014295640835 0.0074476224789 0.045688447128
          0.14086321309 0.010581433539 0.0036090387013 0.010581433539 -0.014088147735 0.0097782532094
          0.0036090387013 0.0097782532094 0.083662493301 0.14232995874 0.0073426251412 0.0010040500979
          0.0073426251412 -0.014888490891 0.010652046838 0.0010040500979 0.010652046838 0.085296244593
          0.070834339934 -0.0013334672911 -0.013805567954 -0.0013334672911 -0.01146014237 0.0021940518207
          -0.013805567954 0.0021940518207 0.021381483252 0.0748813671 0.0077379858427 0.0042504823171
          0.0077379858427 -0.0036628864956 0.0028549400874 0.0042504823171 0.0028549400874 0.074217282125
          0.16043293671 0.016901760898 0.021998325334 0.016901760898 -0.016397721406 0.0064580631066
          0.021998325334 0.0064580631066 0.13778090376 0.043208565449 0.0037591507248 -0.010828398693
          0.0037591507248 -0.0054000793467 0.00047611442867 -0.010828398693 0.00047611442867 0.034017775797
          0.064010691493 -0.00092611385529 -0.012855257282 -0.00092611385529 -0.0118175039 0.00057732256588
          -0.012855257282 0.00057732256588 0.024921577552 0.0089755053827 -0.0017143582429 -0.017969489567
          -0.0017143582429 -0.0027796813117 -0.0042386495602 -0.017969489567 -0.0042386495602 0.0049831189057
          0.025630186138 -0.0039016632239 -0.01332848146 -0.0039016632239 -0.00623406384 0.0065094888828
          -0.01332848146 0.0065094888828 -0.0049787083721 0.1093363681 -0.0026788407303 0.00026161932701
          -0.0026788407303 -0.0083019342396 -0.021656935772 0.00026161932701 -0.021656935772 -0.010966292434
          0.11248073703 0.0062323406254 0.012250389979 0.0062323406254 -0.0099435869273 0.010741047431
          0.012250389979 0.010741047431 0.073157234776 0.091323852172 0.0085823464421 0.0033227405379
          0.0085823464421 -0.025317027092 -0.00082476664682 0.0033227405379 -0.00082476664682 -0.00089880682943
          0.05695628294 -0.00071037991856 -0.014622185276 -0.00071037991856 -0.0082188804872 0.00021394732638
          -0.014622185276 0.00021394732638 0.026746338176 0.13432546704 0.01190759153 0.0053190052877
          0.01190759153 -0.016679272298 0.008330187251 0.0053190052877 0.008330187251 0.051685849385
          0.04661409541 0.00027858653221 -0.0088220261187 0.00027858653221 -0.0090989832932 -0.0035447687679
          -0.0088220261187 -0.0035447687679 0.021768830001 -0.0021609993085 0.0028698375924 -0.0092310898812
          0.0028698375924 -0.0034240769436 -0.0097557818029 -0.0092310898812 -0.0097557818029 0.022537028285
          0.13415814117 0.011511607554 0.0059775634963 0.011511607554 -0.0011362536963 0.010912595895
          0.0059775634963 0.010912595895 0.1341834321 0.069794686907 -0.0032603991255 -0.02223540948
          -0.0032603991255 -0.005236051542 0.010269516075 -0.02223540948 0.010269516075 0.06491314985
          0.14862219744 -0.00042298019347 0.029779977786 -0.00042298019347 -0.012874611755 0.013783300718
          0.029779977786 0.013783300718 0.13607538936 0.056891042453 0.0029182476436 -0.014521248471
          0.0029182476436 0.02006767539 0.0074218876842 -0.014521248471 0.0074218876842 -0.0066261045479
          0.071392768473 0.0047550352179 -0.025170196553 0.0047550352179 -0.027567358199 0.0046742224784
          -0.025170196553 0.0046742224784 -0.0015246729976 0.042008173528 -0.0022918213778 -0.008335851135
          -0.0022918213778 -0.002386248073 -0.0012334675533 -0.008335851135 -0.0012334675533 0.026721840424
          0.093408991404 0.00014136187918 -0.0077151926363 0.00014136187918 -0.030436896652 -0.0066670847618
          -0.0077151926363 -0.0066670847618 -0.015997765186 0.13096055574 0.010123363176 -0.0022966634837
          0.010123363176 -0.008045823313 0.0077724143608 -0.0022966634837 0.0077724143608 0.094965587004
          0.047784494437 0.0057952615285 -0.012128304827 0.0057952615285 -0.003165869956 0.0010455480471
          -0.012128304827 0.0010455480471 0.025716034459 0.017292328164 0.0017257854158 -0.010944241596
          0.0017257854158 -0.0039398773735 0.0056215911124 -0.010944241596 0.0056215911124 0.004763426565
          0.083169007123 -0.0015025314892 -0.011737501783 -0.0015025314892 -0.021826639142 -0.00075925454255
          -0.011737501783 -0.00075925454255 0.0082038311023 0.023536363708 0.0019153651645 -0.016744500101
          0.0019153651645 -0.0085119938989 0.0085892656311 -0.016744500101 0.0085892656311 0.0010723254754
          0.069396945292 0.00047944791529 -0.012260692496 0.00047944791529 -0.014027651572 0.0015180940804
          -0.012260692496 0.0015180940804 0.019768344102 0.081322844042 0.016094025822 -0.019167503024
          0.016094025822 0.034485722238 0.013156804492 -0.019167503024 0.013156804492 -0.031387267118
          -0.083879508485 0.0060590167618 -0.002282511692 0.0060590167618 0.029867857974 0.0085228725815
          -0.002282511692 0.0085228725815 0.024192364541 0.04896561339 0.0017573928066 -0.013723025185
          0.0017573928066 -0.016982686761 -0.0029567484352 -0.013723025185 -0.0029567484352 -0.0040408762883
          0.10735202722 0.010523176647 0.0049662967422 0.010523176647 -0.0045779259922 0.006240039915
          0.0049662967422 0.006240039915 0.090671447002 0.038501954292 -0.000890914681 -0.0079838374065
          -0.000890914681 -0.004620786939 0.0015372834716 -0.0079838374065 0.0015372834716 0.033441842829
          0.06184887683 0.00090530278885 -0.0084332676813 0.00090530278885 -0.0096245811282 2.4717785512e-06
          -0.0084332676813 2.4717785512e-06 0.029881870736 0.11254884227 0.0079843179792 0.0061146994438
          0.0079843179792 -0.0073557514652 0.01004725891 0.0061146994438 0.01004725891 0.089963374632
          0.047788594495 -0.00072578490853 -0.0095240895447 -0.00072578490853 -0.0081130435352 0.0015932513742
          -0.0095240895447 0.0015932513742 0.011277523308 0.026716504727 0.0066581256299 -0.0059792755183
          0.0066581256299 -0.0031889159888 -0.0014382934561 -0.0059792755183 -0.0014382934561 0.026785626115
          0.075026858093 -0.000444034189 -0.027265023357 -0.000444034189 0.025294637671 -0.0094121590919
          -0.027265023357 -0.0094121590919 -0.043136232195 0.10783323591 0.014111318021 0.014088093225
          0.014111318021 -0.025473564922 0.0012345372355 0.014088093225 0.0012345372355 0.033353166231
          0.077440762406 0.0014022811734 -0.0060965941857 0.0014022811734 -0.017313211656 -0.0019921089546
          -0.0060965941857 -0.0019921089546 0.016367780222 0.078201581291 0.0085944587637 0.00856420108
          0.0085944587637 -0.026749083621 0.0023168701079 0.00856420108 0.0023168701079 -0.010525435144
          0.065877001061 0.01060129189 0.0087973180304 0.01060129189 -0.001360910047 0.002259287042
          0.0087973180304 0.002259287042 0.045144220776 0.16338774042 0.0099767875727 0.01038097081
          0.0099767875727 -0.0092593020564 0.0059787720805 0.01038097081 0.0059787720805 0.13582417223
          0.13603335506 0.012266491391 0.0037033336535 0.012266491391 -0.0010530983874 0.0097503735547
          0.0037033336535 0.0097503735547 0.13298734958 0.061727969612 0.0030877759817 0.022317702817
          0.0030877759817 0.0044545444204 0.0011719708614 0.022317702817 0.0011719708614 0.043996217814
          0.075331426519 0.0013002363457 -0.01227364433 0.0013002363457 -0.018350159731 0.0030119576656
          -0.01227364433 0.0030119576656 0.013065023715 -0.0082695612219 -0.0022369751699 -0.0040543361381
          -0.0022369751699 0.0015685478345 0.003392572609 -0.0040543361381 0.003392572609 0.0020923618825
          0.063814184524 0.00088673519973 -0.0081139224799 0.00088673519973 -0.0096950383438 -0.00091813854482
          -0.0081139224799 -0.00091813854482 0.028559685916 0.00067072394178 0.0053984819075 -0.010095030673
          0.0053984819075 0.0046143290075 -0.0048612412869 -0.010095030673 -0.0048612412869 0.0039788761804
          -0.055616689687 0.0068843896106 -0.019785878294 0.0068843896106 0.0068462809884 0.0011166746362
          -0.019785878294 0.0011166746362 0.032622933814 0.060544626786 0.0040424101265 -0.0018489289168
          0.0040424101265 -0.0090368445937 -0.0085296568486 -0.0018489289168 -0.0085296568486 0.037469850479
          0.10515499566 0.0038298746576 -0.0053110456926 0.0038298746576 -0.02874465087 0.0045265010768
          -0.0053110456926 0.0045265010768 -0.051854690922 0.074623407898 -0.0025661869008 -0.0083000837639
          -0.0025661869008 -0.016423682707 -0.0009100795987 -0.0083000837639 -0.0009100795987 0.020333678306
          -0.019915487108 -0.012746768914 -0.0011283232784 -0.012746768914 0.0076022677895 0.0036617719777
          -0.0011283232784 0.0036617719777 0.020708898755 0.08930468652 0.0096318113672 0.0062392089154
          0.0096318113672 0.0050036566354 0.0084666026337 0.0062392089154 0.0084666026337 0.090429485877
          0.15767665273 0.0082125053408 0.025671833015 0.0082125053408 -0.0065987307829 0.0075007149401
          0.025671833015 0.0075007149401 0.13305112771 0.12753315992 0.0024470928877 0.01698718235
          0.0024470928877 -0.0012500498439 0.0065310075969 0.01698718235 0.0065310075969 0.11361988296
          0.15841652362 0.0084388283352 0.0058520936102 0.0084388283352 -0.0090778354964 0.0074129893067
          0.0058520936102 0.0074129893067 0.13408754132 0.025344516124 -0.0080599348874 -0.028466469123
          -0.0080599348874 0 0 -0.028466469123 0 0
          0.035658315059 0.010078614217 -0.01524346193 0.010078614217 -0.013524389493 0.034152724615
          -0.01524346193 0.034152724615 0.069601255673 0.16593830049 0.008556445828 0.011592329166
          0.008556445828 -0.0090529907898 0.0089448651657 0.011592329166 0.0089448651657 0.13612905004
          0.053223280767 0.0011849565973 -0.0067106645501 0.0011849565973 0.015633955229 0.013748481674
          -0.0067106645501 0.013748481674 0.014667590419 0.11387488308 0.0064566208683 0.007430010757
          0.0064566208683 -0.020910337972 0.0029422963105 0.007430010757 0.0029422963105 0.048352793041
          0.1498435176 0.01173865051 -0.00047295165802 0.01173865051 -0.013363993849 0.007823328885
          -0.00047295165802 0.007823328885 0.10289221566 0.033189622074 -0.0034803487976 0.0087277271429
          -0.0034803487976 -0.0053579836617 0.0037028480145 0.0087277271429 0.0037028480145 -0.012673815187
          0.14334830337 0.010883495935 0.006027561162 0.010883495935 -0.0082142554929 0.0099906145083
          0.006027561162 0.0099906145083 0.11805703774 0.035707744983 -0.0022862691693 -0.011568798877
          -0.0022862691693 -0.002548050797 -0.0033575240731 -0.011568798877 -0.0033575240731 0.01589165394
          0.044102187164 0.00046479167865 -0.0061628950147 0.00046479167865 -0.0052152232881 9.5149304151e-05
          -0.0061628950147 9.5149304151e-05 0.029920183126 0.054911746581 -0.0023722930166 -0.011209523423
          -0.0023722930166 -0.0071321433397 -0.00044525105987 -0.011209523423 -0.00044525105987 0.03234632238
          0.062806961931 0.00034055597376 -0.01687122637 0.00034055597376 -0.016764051893 0.00039604343719
          -0.01687122637 0.00039604343719 0.018375981612 0.12755246666 0.0088074508318 0.020580435117
          0.0088074508318 -0.0016756719886 0.0080519605212 0.020580435117 0.0080519605212 0.12950397465
          0.086043562364 0.010032980175 0.0027005832536 0.010032980175 0.0042211171354 0.008654489976
          0.0027005832536 0.008654489976 0.098315436974 0.058339058847 0.0044324030804 -0.013265282658
          0.0044324030804 -0.015253696261 0.0031715872747 -0.013265282658 0.0031715872747 0.014259942748
          0.16226833606 0.011604001404 0.014054068122 0.011604001404 -0.0098632161444 0.0051187277561
          0.014054068122 0.0051187277561 0.13461517712 0.08595932757 0.0057774196953 0.0047997659769
          0.0057774196953 -0.02074756143 0.0053582190456 0.0047997659769 0.0053582190456 0.0023762771858
          0.079367564517 -0.00016710118275 0.016962286498 -0.00016710118275 -0.0047463617405 0.0074389604038
          0.016962286498 0.0074389604038 0.074498138227 0.08101216668 -0.0016651484669 -0.010016688677
          -0.0016651484669 -0.030135944703 0.0024183124446 -0.010016688677 0.0024183124446 -0.0088406324987
          -0.067368833496 0.032609509421 0.0067622584542 0.032609509421 0.015304555123 0.00253687843
          0.0067622584542 0.00253687843 0.022118112314 0.15298570755 0.0078089360264 0.0096919526193
          0.0078089360264 -0.0087805902997 0.0097868028251 0.0096919526193 0.0097868028251 0.12546933756
          0.082150281273 -0.0038404430578 -0.0091260640379 -0.0038404430578 -0.027145720107 0.0018242705582
          -0.0091260640379 0.0018242705582 -0.0091956805612 0.052561441921 0.0059418466886 0.0050086824991
          0.0059418466886 -0.012039797032 0.00031647080476 0.0050086824991 0.00031647080476 0.025857061523
          -0.028341476839 4.3029271913e-05 0.012588235682 4.3029271913e-05 0.014051187541 0.0043578613636
          0.012588235682 0.0043578613636 0.047878631056 0.16223706009 0.010052073846 0.02270768478
          0.010052073846 -0.0072641436479 0.008381949682 0.02270768478 0.008381949682 0.12745414022
          0.073267601893 0.0015418615629 -0.0075836831412 0.0015418615629 -0.013562439228 0.00076649909097
          -0.0075836831412 0.00076649909097 0.022416220181 0.076165092089 0.0012836144289 -0.0054450122033
          0.0012836144289 -0.014341777469 -0.00028145094872 -0.0054450122033 -0.00028145094872 0.021741596286
          0.076332765915 0.0037975718349 0.0034058888739 0.0037975718349 0.0061800186315 0.0065897721251
          0.0034058888739 0.0065897721251 0.10327314042 0.068753315588 0.0013878614901 -0.013245920453
          0.0013878614901 -0.011325401255 -0.00096067428662 -0.013245920453 -0.00096067428662 0.023875722874
          0.077524942507 -0.00058662355484 -0.01086184707 -0.00058662355484 -0.02656024174 0.0002454706557
          -0.01086184707 0.0002454706557 -0.0023231181485 0.1234238353 0.012184699117 -0.00050138816049
          0.012184699117 0.0016210233793 0.010910776967 -0.00050138816049 0.010910776967 0.12633008403
          0.067788149062 0.013114884883 0.00098234509982 0.013114884883 0.016751416431 -0.018649680794
          0.00098234509982 -0.018649680794 -0.011805642338 0.14365308699 0.010830859516 -3.3164147801e-05
          0.010830859516 -0.016691124279 0.0096519182139 -3.3164147801e-05 0.0096519182139 0.085107557779
          0.090550842116 0.0061065641716 0.0069896348804 0.0061065641716 -0.020318317 0.0065046278149
          0.0069896348804 0.0065046278149 0.0048711939563 0.023288014015 -0.019807531841 -0.013751443397
          -0.019807531841 -0.017167259692 0.0055259767144 -0.013751443397 0.0055259767144 0.0059317997536
          0.043162801674 0.0040005648871 -0.021179605621 0.0040005648871 -0.012306706997 0.0058952790542
          -0.021179605621 0.0058952790542 0.0049817487846 0.010059349801 0.0061451890881 -0.019601424805
          0.0061451890881 -0.0016557879163 0.0037190914701 -0.019601424805 0.0037190914701 0.012004669491
          -0.013725194529 -0.0061432017733 0.00086959172462 -0.0061432017733 -0.0036896569116 -0.0015855393202
          0.00086959172462 -0.0015855393202 0.018384548035 0.16412297437 0.012211171865 0.01016516923
          0.012211171865 -0.008857432459 0.010570447707 0.01016516923 0.010570447707 0.1356277935
          0.16828287751 0.012565782309 0.0046818797796 0.012565782309 -0.0086765864915 0.010372339666
          0.0046818797796 0.010372339666 0.13087448174 0.052270368662 0.0029057055328 -0.0064085499071
          0.0029057055328 -0.0041329241749 0.00091130916424 -0.0064085499071 0.00091130916424 0.031610881252
          0.074748442482 -0.00036471047343 -0.005688538226 -0.00036471047343 -0.017532542897 -0.0010953505005
          -0.005688538226 -0.0010953505005 0.0026097602582 0.042524800957 0.0014480652965 -0.03186028417
          0.0014480652965 0.011157151967 -0.0020339119816 -0.03186028417 -0.0020339119816 0.035790582286
          0.058269977032 0.0053193149146 0.0077557108766 0.0053193149146 0.0053355156245 0.0092527111994
          0.0077557108766 0.0092527111994 0.079721582034 0.022473497082 -0.0019314798087 -0.0060971448571
          -0.0019314798087 -0.00055528169255 0.0021786478456 -0.0060971448571 0.0021786478456 0.025200304936
          -0.0054370487668 0.0040233977584 0.0014459029757 0.0040233977584 0.019482151171 0.0024776843998
          0.0014459029757 0.0024776843998 0.070968714499 0.056473649706 0.00044937138518 -0.006798025614
          0.00044937138518 -0.0081392532144 0.0011447376744 -0.006798025614 0.0011447376744 0.031630044188
          0.1274679615 0.0096586166439 0.0076408125424 0.0096586166439 -0.038316852772 0.0089547952003
          0.0076408125424 0.0089547952003 -0.00027046179424 0.09414692792 0.0042207160275 0.010821656782
          0.0042207160275 0.0030057377273 0.0047810996643 0.010821656782 0.0047810996643 0.098371210334
          0.10457204705 0.0096565827997 -0.00059201463299 0.0096565827997 0.0018108790697 0.010783862629
          -0.00059201463299 0.010783862629 0.11280637086 0.16371119431 0.011867352775 0.01875294489
          0.011867352775 -0.007754537527 0.0077005887251 0.01875294489 0.0077005887251 0.13654328257
          0.072400276589 0.00059032992686 -0.010663740522 0.00059032992686 -0.022008242952 0.0024278941264
          -0.010663740522 0.0024278941264 -0.057491773589 0.15895388736 0.0061724692159 0.011514968095
          0.0061724692159 -0.0084516184988 0.0084976384593 0.011514968095 0.0084976384593 0.13363356442
          0.11322725124 0.040977696563 0.081888966857 0.040977696563 -0.097632685335 0.0310556908
          0.081888966857 0.0310556908 0.16756502504 0.01893847973 0.00081252246652 -3.3579023432e-05
          0.00081252246652 0.0077344814828 0.0090991166162 -3.3579023432e-05 0.0090991166162 0.039426346167
          0.052345594174 0.0015599679999 -0.008586830621 0.0015599679999 -0.0055984897141 -0.00017943629758
          -0.008586830621 -0.00017943629758 0.032002818994 -0.0040469534586 -0.0017171800961 -0.0082742075964
          -0.0017171800961 -0.0021224051192 0.0070515060811 -0.0082742075964 0.0070515060811 0.0023845134435
          0.046534697695 -0.001777835434 -0.015618610985 -0.001777835434 -0.0089881735179 -0.0020911949921
          -0.015618610985 -0.0020911949921 0.025115681746 0.080852362026 0.00066108540792 -0.013479728393
          0.00066108540792 -0.026178321346 0.0003074093807 -0.013479728393 0.0003074093807 -0.01293551532
          0.15908343667 0.013002338009 0.026014371854 0.013002338009 -0.0099359467266 0.0046912511897
          0.026014371854 0.0046912511897 0.12803043837 0.058811727954 0.00024644519409 -0.051541598819
          0.00024644519409 0.013884927573 -0.0088550330043 -0.051541598819 -0.0088550330043 -0.035184203675
          -0.013320575149 -0.0071646475833 -0.012406200458 -0.0071646475833 0.0052605765017 -0.0031960693152
          -0.012406200458 -0.0031960693152 0.026444128855 0.063317234956 -0.00075477512401 -0.013311954235
          -0.00075477512401 -0.010338143218 -0.00072050516074 -0.013311954235 -0.00072050516074 0.025928547874
          0.11371514359 -0.0010540257973 0.0063702495871 -0.0010540257973 -0.033667939856 0.0049968239373
          0.0063702495871 0.0049968239373 -0.027828332714 0.053854154082 -0.00046870590261 -0.017667545069
          -0.00046870590261 -0.0065468912462 -0.0047284928647 -0.017667545069 -0.0047284928647 -0.0040557123804
          0.13896748224 0.0097282718855 0.0018086771319 0.0097282718855 -0.0071984318896 0.010344264295
          0.0018086771319 0.010344264295 0.12049584189 -0.00013846914779 0.0010063581286 -0.0059638866278
          0.0010063581286 0.0074645511328 0.0015275793512 -0.0059638866278 0.0015275793512 0.030547878483
          0.062482117462 -0.00027214339833 -0.013194641694 -0.00027214339833 -0.021455210938 -0.0069722281781
          -0.013194641694 -0.0069722281781 -0.014024296042 -0.030766741084 -0.0036459539138 -0.0067553848462
          -0.0036459539138 0.014150837671 -0.0029400594168 -0.0067553848462 -0.0029400594168 0.012061173392
          0.063131263791 0.010354755737 0.010190014535 0.010354755737 0.0016106568163 0.0057815577494
          0.010190014535 0.0057815577494 0.055904830762 0.040397182218 0.0095503719938 0.0037274464922
          0.0095503719938 0.014993305065 0.0035269665717 0.0037274464922 0.0035269665717 0.082355665172
          0.074084381831 0.011319695251 0.0077482340663 0.011319695251 0.0030401036722 0.0033009914325
          0.0077482340663 0.0033009914325 0.081851197845 0.031099789929 0.0037324855447 -0.0025274792175
          0.0037324855447 -0.0077980926744 -0.0031089647739 -0.0025274792175 -0.0031089647739 -0.0092493748445
          0.064427569423 0.00032430310164 -0.0033549092917 0.00032430310164 -0.034513100142 0.0022875952598
          -0.0033549092917 0.0022875952598 -0.029746605911 0.087686812434 -0.00064238567611 -0.0069969993162
          -0.00064238567611 -0.019625880453 -0.00036757905397 -0.0069969993162 -0.00036757905397 0.0069889274301
          0.069315903229 0.0049917440697 0.025070757876 0.0049917440697 -0.00013777102377 0.011281414954
          0.025070757876 0.011281414954 0.048973558136 0.070295789437 0.0084039184831 -0.011997732639
          0.0084039184831 -0.012894847071 -0.0051565127983 -0.011997732639 -0.0051565127983 0.0040539716859
          0.068803530216 0.0012612020817 -0.0011954513559 0.0012612020817 -0.019171105512 -0.00064415500648
          -0.0011954513559 -0.00064415500648 -0.023245272808 0.033756764626 0.0035891597491 0.0061346088132
          0.0035891597491 -0.011178296078 -0.00089159153476 0.0061346088132 -0.00089159153476 0.016453399259
          0.043638588231 -0.0010211069969 0.0088230583893 -0.0010211069969 0.014104735627 0.0034539496689
          0.0088230583893 0.0034539496689 0.08216341856 0.034086738311 0.0033336522774 -0.0055819697224
          0.0033336522774 -0.003711214084 0.00044073482577 -0.0055819697224 0.00044073482577 0.03150859531
          0.095841664959 0.005709514144 -0.011286598914 0.005709514144 -0.028477184174 0.012579510673
          -0.011286598914 0.012579510673 -0.035082777512 0.05609483403 0.0095373467957 0.0080734502723
          0.0095373467957 -0.0057011253983 -0.0037293794614 0.0080734502723 -0.0037293794614 0.01713234085
          0.17909341746 0.0047274033612 0.013144158956 0.0047274033612 -0.018029014454 0.0020220120237
          0.013144158956 0.0020220120237 0.11044963179 0.13342732823 0.011543738852 0.0014509703348
          0.011543738852 -0.0010456239131 0.0097956619704 0.0014509703348 0.0097956619704 0.1249605726
          0.053865741 0.0035756980547 -0.013187628529 0.0035756980547 -0.011907427236 -1.3636589507e-05
          -0.013187628529 -1.3636589507e-05 0.017949800327 -0.062140075518 0.0055836395346 -0.010307163462
          0.0055836395346 0.028745533699 0.0078380971796 -0.010307163462 0.0078380971796 0.038294552897
          0.062781575335 0.005801422427 -0.041103551241 0.005801422427 0.010998353925 0.0026442000183
          -0.041103551241 0.0026442000183 0.02038832395 0.054056612557 0.00033458032939 -0.015333731789
          0.00033458032939 -0.0067388825868 -0.0014041193613 -0.015333731789 -0.0014041193613 0.024928215937
          1.9314326626e-05 0.0023081172342 0.003093708705 0.0023081172342 0.01595805456 0.0050522973922
          0.003093708705 0.0050522973922 0.069112527956 -0.067212385003 -0.011162253559 -0.0093237199965
          -0.011162253559 0.019844724496 -0.0036945552073 -0.0093237199965 -0.0036945552073 0.025446070605
          -0.029263985034 0.0027172884168 -0.014012117757 0.0027172884168 0.024894585168 -0.0058869315575
          -0.014012117757 -0.0058869315575 0.017433903553 0.061146622816 -0.00045672598038 -0.015796698929
          -0.00045672598038 -0.0097455469197 0.00095043317185 -0.015796698929 0.00095043317185 0.024863770682
          0.020699666442 -0.003403572617 -0.0059660423454 -0.003403572617 -0.0019363670334 -0.0020794340525
          -0.0059660423454 -0.0020794340525 0.021943953671 0.058630270464 0.00075627068474 0.0069126613939
          0.00075627068474 0.0084967319711 0.0056607392317 0.0069126613939 0.0056607392317 0.096886919125
          0.04160541481 -0.00035940341948 -0.016126118982 -0.00035940341948 -0.0098311299597 -0.0020970491789
          -0.016126118982 -0.0020970491789 0.012662281618 -0.012877109303 0.0016935553032 -0.0017815663826
          0.0016935553032 0.0087349148191 0.0075692679075 -0.0017815663826 0.0075692679075 0.036709487365
          0.10683151063 0.0090544619916 0.015417805909 0.0090544619916 -0.023942403383 0.0069045409426
          0.015417805909 0.0069045409426 0.031628246365 0.05569893608 0.0034782742954 -0.026023116145
          0.0034782742954 0.020069868976 0.0034361949523 -0.026023116145 0.0034361949523 0.0041238423947
          0.093220325056 -0.0081391896673 -0.013455615298 -0.0081391896673 -0.034693100498 0.00084031408278
          -0.013455615298 0.00084031408278 -0.00044862088918 0.14456571625 0.0089735213692 0.0024198398298
          0.0089735213692 -0.0015558079645 0.00889268832 0.0024198398298 0.00889268832 0.1314198414
          0.11527048994 0.0046408142629 -0.0019330761687 0.0046408142629 -0.041439677369 -0.0082752408217
          -0.0019330761687 -0.0082752408217 -0.028468506789 0.15746500608 0.0084355794421 0.018105500617
          0.0084355794421 -0.017945520355 0.0042399856154 0.018105500617 0.0042399856154 0.095249030192
          -0.063669628775 0.0048846837239 -0.0096149364008 0.0048846837239 0.026181852051 -0.011115261173
          -0.0096149364008 -0.011115261173 0.04497112274 0.068055142781 -0.018052911647 -0.022938448227
          -0.018052911647 -0.0096436793813 -0.0041714556373 -0.022938448227 -0.0041714556373 0.018898243718
          0.15011432988 0.0077764694853 0.03140557223 0.0077764694853 -0.013680397276 0.0051577629536
          0.03140557223 0.0051577629536 0.1218080062 -0.041434891682 0.0090948097206 -0.0027257021244
          0.0090948097206 0.0068844342394 -0.0012346239957 -0.0027257021244 -0.0012346239957 0.026554104352
          0.011171537926 -0.0020353157635 -0.017504085792 -0.0020353157635 -0.00043428456896 -0.0058475107962
          -0.017504085792 -0.0058475107962 0.0058397749397 0.10996925179 0.011012339916 -0.0028458013162
          0.011012339916 -0.001326308389 0.0091668177101 -0.0028458013162 0.0091668177101 0.11263278228
          0.029870948771 0.0074149664324 -0.06122780713 0.0074149664324 0.0017734023851 -0.0014435814985
          -0.06122780713 -0.0014435814985 0.010142467364 0.15403199853 0.0071034841923 0.011827455805
          0.0071034841923 -0.0039079959514 0.0051276772637 0.011827455805 0.0051276772637 0.14499150145
          -0.068047459172 -0.0046717066281 0.0045759686455 -0.0046717066281 0.017559194434 0.0017560160532
          0.0045759686455 0.0017560160532 0.027086235977 0.022483509506 0.0052208461517 -0.0066221786716
          0.0052208461517 -0.0059684076727 -0.0014601887257 -0.0066221786716 -0.0014601887257 0.019832148227
          0.017132455042 0.005427966542 0.015736044641 0.005427966542 0.00082250999316 0.019007255586
          0.015736044641 0.019007255586 0.12681305298 0.082133479621 0.014923321707 -0.0020548410207
          0.014923321707 -0.0070157684416 -0.0056387338817 -0.0020548410207 -0.0056387338817 0.078018431088
          0.019804754768 -0.00069915382696 -0.018848388599 -0.00069915382696 0.01258867143 0.00066830925086
          -0.018848388599 0.00066830925086 0.068458976765 0.046759639361 0.00035078454564 -0.018563174909
          0.00035078454564 -0.011825618439 0.003623430415 -0.018563174909 0.003623430415 -0.0092746173283
          -0.048722889301 -0.00038607161414 -0.013775467947 -0.00038607161414 0.0091872134325 -0.006176413152
          -0.013775467947 -0.006176413152 0.037692195703 0.0043781855267 -0.0023190258314 -0.0080219802602
          -0.0023190258314 -0.0062043357362 0.0023396402728 -0.0080219802602 0.0023396402728 0.015015409233
          0.068681222408 0.00023031047237 -0.0060824492017 0.00023031047237 -0.012949716126 0.00077614022779
          -0.0060824492017 0.00077614022779 0.021061827266 0.10214356384 0.012047792877 0.0034471688534
          0.012047792877 -0.001758193621 0.0081293522523 0.0034471688534 0.0081293522523 0.098453039247
          0.083394539824 0.0036007555583 -0.0027193853893 0.0036007555583 -0.025768393008 0.0020725339427
          -0.0027193853893 0.0020725339427 -0.006936417277 -0.038120478466 -0.002120989395 0.00378579249
          -0.002120989395 0.018819501467 -0.0050509032297 0.00378579249 -0.0050509032297 0.015517088692
          0.00609848854 -0.0022014001709 0.0074700092969 -0.0022014001709 0.0055665252581 0.009565954307
          0.0074700092969 0.009565954307 0.040007051354 0.065919728249 0.00030718271219 0.00025409399455
          0.00030718271219 -0.023735622392 -0.0065576569313 0.00025409399455 -0.0065576569313 -0.033259058832
          0.07928287301 0.00020287824198 -0.011760307671 0.00020287824198 -0.020124337973 -0.0032377851375
          -0.011760307671 -0.0032377851375 0.017252062755 0.075747936273 -0.0052643368086 0.0008646742014
          -0.0052643368086 -0.033648455814 0.0081611344873 0.0008646742014 0.0081611344873 -0.017433842843
          0.027164097333 -0.0017922491477 -0.01529616278 -0.0017922491477 0.016773511181 0.0023826607675
          -0.01529616278 0.0023826607675 0.085372690458 0.10424871225 0.0019093293792 0.00062950846737
          0.0019093293792 -0.028986012232 0.004586009793 0.00062950846737 0.004586009793 -0.049790274414
          0.12514801988 0.0021346827997 -0.0058188409645 0.0021346827997 -0.037017373961 -0.011660530109
          -0.0058188409645 -0.011660530109 0.014739816158 0.083750056786 -0.004114629146 0.0059615474323
          -0.004114629146 -0.024726988702 0.0029153214926 0.0059615474323 0.0029153214926 0.0034774818483
          0.051225164213 -0.0017712064025 -0.0071397566878 -0.0017712064025 -0.0039826091097 0.00087233936897
          -0.0071397566878 0.00087233936897 0.029886799407 0.055518655408 -0.0012560945787 -0.011772435942
          -0.0012560945787 -0.0087778256663 0.00070980244324 -0.011772435942 0.00070980244324 0.02488385677
          0.12812977126 0.0077809118384 0.00026173264318 0.0077809118384 -0.0046610869831 0.010334890164
          0.00026173264318 0.010334890164 0.11095541475 0.026001735457 -0.012613945658 -0.018631968284
          -0.012613945658 -0.0093205148108 -0.0057668423853 -0.018631968284 -0.0057668423853 0.016935158774
          0.064555407851 0.0012817111952 -0.01446729184 0.0012817111952 -0.017257763773 -0.0025262800341
          -0.01446729184 -0.0025262800341 -0.00052036183853 0.06205473363 5.5219907369e-05 0.0059825953913
          5.5219907369e-05 -0.026116147057 -7.6953799646e-05 0.0059825953913 -7.6953799646e-05 0.016127842386
          0.16042348412 0.0073840676484 0.016937458983 0.0073840676484 -0.0043344968781 0.0075001416296
          0.016937458983 0.0075001416296 0.13857614389 0.030611022281 0.0020207843622 -0.001267063664
          0.0020207843622 -0.013784760914 0.0014833756265 -0.001267063664 0.0014833756265 -0.0084452885391
          0.17334013725 0.011624245718 0.0086816130827 0.011624245718 -0.0084203518063 0.0080466077647
          0.0086816130827 0.0080466077647 0.13351866184 0.15498181577 0.006067900909 0.027789306074
          0.006067900909 -0.0064160720398 -0.002912772714 0.027789306074 -0.002912772714 0.11505409338
          0.037425624781 0.01555269723 -0.023639273065 0.01555269723 0.012699124808 -0.0057457734587
          -0.023639273065 -0.0057457734587 0.035352269301 0.099958802018 0.0052575007501 0.010044549378
          0.0052575007501 -0.0046903528958 0.0027538797092 0.010044549378 0.0027538797092 0.085045824156
          0.056586017516 0.0020804396084 -0.0057645349502 0.0020804396084 -0.01850988309 -0.0008944157875
          -0.0057645349502 -0.0008944157875 -0.018545151305 0.11238651781 0.0024260014101 0.0010432310786
          0.0024260014101 -0.026967820338 -0.00016747359136 0.0010432310786 -0.00016747359136 -0.026078067686
          0.13511867113 0.011142239097 0.016668646634 0.011142239097 -0.0022822853758 0.0050449121022
          0.016668646634 0.0050449121022 0.1410986341 0.058465744921 0.0041633251623 -0.025828536339
          0.0041633251623 -0.010628910001 -0.022319802959 -0.025828536339 -0.022319802959 0.043474730069
          0.058940460914 0.00072008389286 -0.013146958554 0.00072008389286 -0.0099961697104 0.00058349490861
          -0.013146958554 0.00058349490861 0.027797566941 0.061856171487 0.0019554393347 -0.011910376931
          0.0019554393347 -0.010162458166 0.000947217991 -0.011910376931 0.000947217991 0.020878381671
          0.11749450774 0.0075271789293 0.015321825477 0.0075271789293 -0.0024997883732 0.0093560218266
          0.015321825477 0.0093560218266 0.12444601699 0.024871741351 0.00028819793 -0.0061958350652
          0.00028819793 0.0012177866304 -0.0038062322988 -0.0061958350652 -0.0038062322988 0.034723884906
          0.1587925389 0.017373501925 0.02136225841 0.017373501925 -0.011932807669 1.9785538087e-06
          0.02136225841 1.9785538087e-06 0.078661144761 0.078594166267 0.0020396626569 -0.0056331906604
          0.0020396626569 -0.014277070429 0.0012404247127 -0.0056331906604 0.0012404247127 0.017651626517
          0.10356825542 0.011558906232 0.0065327416437 0.011558906232 -0.0024543971895 0.0084110303616
          0.0065327416437 0.0084110303616 0.091964633325 0.031565555683 -0.0072924748022 -0.01450448698
          -0.0072924748022 -0.011847571743 0.0024882568566 -0.01450448698 0.0024882568566 0.01970355816
          0.043015650998 -0.00019842602268 -0.006527687233 -0.00019842602268 -0.0040784591752 0.0013721439321
          -0.006527687233 0.0013721439321 0.03125658374 0.063317514367 0.00026803664078 -0.016836599236
          0.00026803664078 -0.010501993863 0.00026543657837 -0.016836599236 0.00026543657837 0.026389526696
          0.044827556662 0.019683178496 0.0028035747678 0.019683178496 -0.0064979724596 -0.0013597115322
          0.0028035747678 -0.0013597115322 -0.016109079083 0.081872503627 0.00097071281704 0.0030660552009
          0.00097071281704 -0.031233893363 -0.0062202659285 0.0030660552009 -0.0062202659285 -0.031107166175
          0.14400830641 0.0076726711481 0.015897724899 0.0076726711481 -0.0098930167543 0.0096670914467
          0.015897724899 0.0096670914467 0.11303836717 0.066704718142 0.0018138757112 -0.0060275932845
          0.0018138757112 -0.010658773773 0.00079002463607 -0.0060275932845 0.00079002463607 0.027583788281
          0.066290485204 0.00077475146338 -0.0077173344477 0.00077475146338 -0.011169532586 -0.00018340608216
          -0.0077173344477 -0.00018340608216 0.025778279633 0.15884039737 0.0076699754865 0.013722451081
          0.0076699754865 -0.0078838115877 0.0084179703374 0.013722451081 0.0084179703374 0.13220618587
          0.048788027787 0.00070659634359 0.017291521182 0.00070659634359 0.00062224127451 0.0036153414609
          0.017291521182 0.0036153414609 0.050566700488 0.10104385232 -0.0016314317719 -0.011346252717
          -0.0016314317719 -0.044230704387 -0.011708413627 -0.011346252717 -0.011708413627 -0.05073782143
          0.047801736309 0.00010091425145 0.0038475806175 0.00010091425145 0.014493736794 0.0071734431699
          0.0038475806175 0.0071734431699 0.092141231052 0.094035264492 0.0063250669977 0.0009773236984
          0.0063250669977 -0.0027391553268 0.0037140089443 0.0009773236984 0.0037140089443 0.086393186646
          0.1444237943 0.01437504847 0.0037911604412 0.01437504847 -0.0023117597112 0.0085228993529
          0.0037911604412 0.0085228993529 0.13912951822 0.10172184311 0.0015048682326 0.011350513738
          0.0015048682326 0.0071002065848 0.0047903643777 0.011350513738 0.0047903643777 0.13904480689
          0.12179718378 0.010952646745 0.010508610822 0.010952646745 -0.031618988698 -0.0012379636845
          0.010508610822 -0.0012379636845 -0.0097721457233 0.040350882077 -0.00014118862842 -0.03405825793
          -0.00014118862842 0.0098916518801 0.0012166478291 -0.03405825793 0.0012166478291 0.039104154797
          0.062745380308 -5.765689788e-05 -0.012183221224 -5.765689788e-05 -0.011003081349 -0.00091979435916
          -0.012183221224 -0.00091979435916 0.022853585128 0.1356026221 0.010609947858 0.0068033065213
          0.010609947858 -0.00091355501116 0.0073937570142 0.0068033065213 0.0073937570142 0.14004133239
          0.060895393103 0.0077749934479 -0.021648479847 0.0077749934479 -0.017976413665 0.018311618117
          -0.021648479847 0.018311618117 0.052182491189 0.017285384251 0.0053626718938 -0.00838698515
          0.0053626718938 0.00054674411023 0.00017354569203 -0.00838698515 0.00017354569203 0.027135163952
          0.093040231903 0.0090343430861 0.011902631444 0.0090343430861 0.00019761965316 0.0073103667265
          0.011902631444 0.0073103667265 0.079655186308 0.18813472292 0.0091684048664 0.01466702894
          0.0091684048664 -0.021664223909 0.010417084676 0.01466702894 0.010417084676 0.12121691205
          0.13086646625 0.0080534576283 0.0026599713986 0.0080534576283 -0.0015289780305 0.009055293757
          0.0026599713986 0.009055293757 0.13165773382 0.034982290528 0.0063474010579 -0.005359899711
          0.0063474010579 -0.0050550157534 -0.0039826430848 -0.005359899711 -0.0039826430848 0.023547632699
          0.064871108409 0.0012432777235 -0.014461349576 0.0012432777235 -0.012273368951 0.0013159238171
          -0.014461349576 0.0013159238171 0.02587699867 0.096287089413 0.0009651357395 -0.0027347769458
          0.0009651357395 -0.028991126624 -0.0049050093215 -0.0027347769458 -0.0049050093215 -0.019507017151
          0.022277242876 -0.00076227486182 -0.0019536521992 -0.00076227486182 -0.019044623738 -0.0004347165501
          -0.0019536521992 -0.0004347165501 -0.0027522482705 0.13269979211 0.010250161374 0.0071123245373
          0.010250161374 -0.015095236101 0.0060000553222 0.0071123245373 0.0060000553222 0.070103683558
          -0.022832087608 -0.0065659067635 -0.014775115858 -0.0065659067635 0.0038681776981 -0.0011838040413
          -0.014775115858 -0.0011838040413 0.018815271801 0.0151323172 -0.0045585008144 0.0079557062836
          -0.0045585008144 0.015923414152 0.00093484167766 0.0079557062836 0.00093484167766 0.084712823845
          0.058995905449 -0.00093470145493 -0.013794929504 -0.00093470145493 -0.0095646521932 0.0008318075928
          -0.013794929504 0.0008318075928 0.028477806737 0.046869887145 -0.0033371729514 -0.01398576013
          -0.0033371729514 0.018095774995 0.0017979308166 -0.01398576013 0.0017979308166 0.02405926168
          0.053596178466 0.00053618204536 -0.011149106475 0.00053618204536 -0.016705049879 0.0024037710363
          -0.011149106475 0.0024037710363 0.011932332748 -0.034930407371 -0.0081150851467 0.0075680687135
          -0.0081150851467 0.013243241582 0.0037932147767 0.0075680687135 0.0037932147767 0.049606470861
          0.055282822285 -0.002723517387 -0.022616311363 -0.002723517387 -0.015032404255 -0.003655854
          -0.022616311363 -0.003655854 -0.020590558489 0.080612160853 0.0014308618755 -0.0068052470845
          0.0014308618755 -0.020658216768 0.00091825416369 -0.0068052470845 0.00091825416369 0.0037044519354
          0.036934554161 0.015824313459 -0.023388414739 0.015824313459 0.015321178519 -0.0054956820841
          -0.023388414739 -0.0054956820841 0.035278660523 0.13777728681 0.010584531083 -0.0013934047835
          0.010584531083 -0.010451784595 0.0083567842318 -0.0013934047835 0.0083567842318 0.096396528792
          0.046408848425 -0.0032409725883 -0.0011236154873 -0.0032409725883 -0.0028924289454 -0.0032898043328
          -0.0011236154873 -0.0032898043328 0.017188621587 0.11710914299 0.011565182251 0.015870190614
          0.011565182251 -0.014676238325 -0.005249917601 0.015870190614 -0.005249917601 0.080669608974
          0.18179085999 0.010414728773 0.01313646122 0.010414728773 -0.017312971284 0.011815771211
          0.01313646122 0.011815771211 0.13530880966 0.062870928652 -0.00039735464651 -0.013297723479
          -0.00039735464651 -0.01088587019 -0.00043376179741 -0.013297723479 -0.00043376179741 0.027557211883
          0.054941564697 -0.00030049795261 -0.0054269486751 -0.00030049795261 -0.01164769278 -0.0041187745101
          -0.0054269486751 -0.0041187745101 -0.0030941152218 0.10562202825 0.0067248822468 0.01658943953
          0.0067248822468 -0.019348889525 0.017258055106 0.01658943953 0.017258055106 0.077374858578
          0.057388763282 0.0073229931559 0.010577334972 0.0073229931559 0.0022215400915 0.0062196202659
          0.010577334972 0.0062196202659 0.076907021712 0.10619012433 0.010087825334 0.0082288622812
          0.010087825334 -0.01448647132 0.0047932964802 0.0082288622812 0.0047932964802 0.058003051384
          0.02804491631 0.0031864393105 0.00071496561591 0.0031864393105 0.012032535959 0.009541920057
          0.00071496561591 0.009541920057 0.11490029303 0.11346088674 0.0070582689006 0.0075221530563
          0.0070582689006 -0.0232985533 0.004857547913 0.0075221530563 0.004857547913 0.050009448948
          0.065552062933 0.0014306989589 -0.0099818024791 0.0014306989589 -0.009204372821 0.00042016836991
          -0.0099818024791 0.00042016836991 0.027050300499 -0.051140941649 0.0020518125143 0.0064330154355
          0.0020518125143 0.024308557799 0.0045469373981 0.0064330154355 0.0045469373981 0.058244696477
          0.15897707432 0.016054483739 0.0068173236668 0.016054483739 -0.002948472364 0.0075092181215
          0.0068173236668 0.0075092181215 0.13318016742 0.049113005975 0.0017352548103 -0.014705568277
          0.0017352548103 -0.012981503553 -0.0019737526985 -0.014705568277 -0.0019737526985 -0.021605097676
          0.13722441251 0.007994483001 0.003317090966 0.007994483001 -0.004128910913 0.010194502304
          0.003317090966 0.010194502304 0.12237418072 -0.0052482690103 -0.015901735652 -0.013956754547
          -0.015901735652 -0.008009260381 0.0032883561321 -0.013956754547 0.0032883561321 0.021313481519
          0.063326091188 0.00026480087575 -0.013631752798 0.00026480087575 -0.011015814259 0.00087314260295
          -0.013631752798 0.00087314260295 0.028981578275 0.047220885277 0.002095105816 -0.040695555241
          0.002095105816 0.004285472878 0.0020745715974 -0.040695555241 0.0020745715974 0.055990971135
          0.11018754079 0.0034007240877 0.019516260082 0.0034007240877 0.0046377787457 0.0054226602911
          0.019516260082 0.0054226602911 0.14409924695 0.15544493147 0.0025911258197 0.024914090184
          0.0025911258197 -0.013889090233 0.011502765167 0.024914090184 0.011502765167 0.12520789055
          0.15978633505 0.0088268222898 0.021974415156 0.0088268222898 -0.0096112558819 0.0068972777823
          0.021974415156 0.0068972777823 0.13067351157 0.11236630927 0.010173193661 -0.0033108671731
          0.010173193661 0.0029832959258 0.0067077004367 -0.0033108671731 0.0067077004367 0.11785183016
          0.1060896268 -0.0038715270683 -0.011483722463 -0.0038715270683 -0.0095656036612 -0.022548088705
          -0.011483722463 -0.022548088705 0.031358514601 0.079432363124 -8.5586885469e-05 -0.041943545337
          -8.5586885469e-05 -0.010464086934 -0.012636363601 -0.041943545337 -0.012636363601 -0.0032969153127
          0.15278389617 0.002704680538 0.011133961072 0.002704680538 0.00040185039481 0.0070668349536
          0.011133961072 0.0070668349536 0.14532052614 0.065511508161 0.0010588588214 -0.0072232872023
          0.0010588588214 -0.0095952595705 0.0010078854695 -0.0072232872023 0.0010078854695 0.027001693416
          0.062533592824 0.0021103913398 -0.0078443841158 0.0021103913398 -0.010172659778 -0.0014024654564
          -0.0078443841158 -0.0014024654564 0.030041016046 0.071499166906 -0.0024027424707 -0.0052545182351
          -0.0024027424707 -0.010842813803 0.0006677260266 -0.0052545182351 0.0006677260266 0.02749509171
          0.067775764295 0.012862897703 0.003680535392 0.012862897703 0.01521738115 -0.011149921714
          0.003680535392 -0.011149921714 0.025642872036 0.066619201159 0.00032849295936 -0.015676691301
          0.00032849295936 -0.011871311108 0.00011923114338 -0.015676691301 0.00011923114338 0.026380746099
          0.093594110397 -0.00099056332605 -0.010936581111 -0.00099056332605 -0.019998338857 0.00014207250363
          -0.010936581111 0.00014207250363 -0.0030621916985 0.077695679664 0.0079374273848 -0.0051857628929
          0.0079374273848 -0.019867460443 0.00015913531302 -0.0051857628929 0.00015913531302 -0.030957476433
          0.062615891645 0.00081879416113 -0.013627927039 0.00081879416113 -0.0091340831103 -1.4193984982e-05
          -0.013627927039 -1.4193984982e-05 0.02475165381 -0.047861780164 -0.00050149979707 -0.011678406464
          -0.00050149979707 0.0097916043699 -0.00067015631251 -0.011678406464 -0.00067015631251 0.032485286333
          0.052752206466 0.0017902420171 -0.0079677951972 0.0017902420171 -0.0079700301585 0.00067707710567
          -0.0079677951972 0.00067707710567 0.030731460004 0.062243593883 -0.024952155482 -0.01143664724
          -0.024952155482 0.005846440056 0.00044375470889 -0.01143664724 0.00044375470889 -0.028126449076
          0.15602000926 0.0089479243202 0.0081771702763 0.0089479243202 -0.011542176596 0.0092577044381
          0.0081771702763 0.0092577044381 0.11788499646 0.075857952584 0.0012312871976 -0.0032236362764
          0.0012312871976 -0.0057117578826 0.0095620952498 -0.0032236362764 0.0095620952498 0.084089898716
          0.030573894897 0.0028135993654 -0.026352230356 0.0028135993654 0.010683849516 -0.0034214065856
          -0.026352230356 -0.0034214065856 0.067661252883 0.021479585821 0.0049135701363 0.0086068395
          0.0049135701363 0.017092217434 0.0072191787106 0.0086068395 0.0072191787106 0.080997493273
          -0.071340484405 -0.02682637832 -0.028241577832 -0.02682637832 -0.10607736796 0.037302358946
          -0.028241577832 0.037302358946 0.031395121728 -0.026968164479 -0.014309462711 -0.0085123019471
          -0.014309462711 -0.00024094125444 0.002985877636 -0.0085123019471 0.002985877636 0.028449364411
          -0.020850133752 -0.017187988332 0.0021584817101 -0.017187988332 0.0059692698895 0.011002143633
          0.0021584817101 0.011002143633 0.012669630515 0.15231661743 0.011906104792 0.0078150377588
          0.011906104792 -0.0066019918429 0.0096941663058 0.0078150377588 0.0096941663058 0.14315135606
          0.036164190146 -0.00060903931202 0.0028303496898 -0.00060903931202 -0.016406270613 0.0036238080445
          0.0028303496898 0.0036238080445 -0.0097286249475 0.076655214788 0.0016073798991 -0.012204794539
          0.0016073798991 -0.020291367898 0.0038918667719 -0.012204794539 0.0038918667719 0.010484090854
          0.16871331654 0.011435230756 0.0092969937733 0.011435230756 -0.0087672321894 0.010823191671
          0.0092969937733 0.010823191671 0.13551775057 0.067941278483 -0.00060335416296 -0.0085000497256
          -0.00060335416296 -0.017404620489 -0.00082168517801 -0.0085000497256 -0.00082168517801 0.025968305916
          0.0080868293107 0.0034303732746 -0.021812677805 0.0034303732746 -0.0012919747354 -0.0019792935062
          -0.021812677805 -0.0019792935062 0.0093062088383 0.057700693568 0.0022707839263 -0.0077444487774
          0.0022707839263 -0.0080370327652 3.6481819696e-06 -0.0077444487774 3.6481819696e-06 0.029551894
          0.16318224939 0.0083786612764 0.01631058125 0.0083786612764 -0.0068698839126 0.009703155907
          0.01631058125 0.009703155907 0.14298536609 -0.0023110812987 0.0046221625264 -0.014984850525
          0.0046221625264 -0.0015255124305 0.0042824302574 -0.014984850525 0.0042824302574 0.02291150453
          0.11581488976 0.0074928150487 0.0063553729975 0.0074928150487 -0.005545331535 0.0093172317459
          0.0063553729975 0.0093172317459 0.090085045903 0.062062123305 -0.050345569746 -0.014830951624
          -0.050345569746 -0.10397615495 0.030064451421 -0.014830951624 0.030064451421 0.021130245203
          0.079817068659 0.01120704027 0.011065295335 0.01120704027 0.00078791547307 0.0082177422252
          0.011065295335 0.0082177422252 0.080227716259 0.048794293879 0.00065405459589 -0.011966729271
          0.00065405459589 -0.010193541587 -0.0058949089782 -0.011966729271 -0.0058949089782 0.0083469993322
          0.052992956536 -0.0021718926799 -0.0078240127354 -0.0021718926799 0.015459798094 0.0092369062401
          -0.0078240127354 0.0092369062401 0.011456920542 0.054380407579 0.013931020469 0.020391277135
          0.013931020469 0.0064856563283 -0.0014749646081 0.020391277135 -0.0014749646081 0.059514259713
          0.0026944128611 -0.0017572466474 -0.0097742093842 -0.0017572466474 0.0011334105614 0.00038796342528
          -0.0097742093842 0.00038796342528 0.022518547499 0.061331069013 0.00087884123011 -0.015320464527
          0.00087884123011 -0.011993291524 -0.00049500253498 -0.015320464527 -0.00049500253498 0.018733036813
          0.10083335481 0.0069155119044 0.0088935064578 0.0069155119044 -0.006208257223 0.010137920068
          0.0088935064578 0.010137920068 0.080089507906 -1.4919850431e-17 2.0841639963e-17 -0.081668450423
          2.0841639963e-17 -6.4212939049e-18 0.013363706977 -0.081668450423 0.013363706977 -0.027017548347
          0.065129999896 0.0015536210385 -0.014399269982 0.0015536210385 -0.010290210713 -0.00014413270198
          -0.014399269982 -0.00014413270198 0.025769906209 0.11961663847 0.0084493856109 0.0020326161268
          0.0084493856109 -0.033660053421 0.0075598646633 0.0020326161268 0.0075598646633 0.016410630471
          0.089168263268 0.00267636764 -0.011927237353 0.00267636764 -0.03385532976 -0.0038736637318
          -0.011927237353 -0.0038736637318 -0.019303530289 0.16850707198 0.0067963253623 0.006154746128
          0.0067963253623 -0.011970730183 0.011166358881 0.006154746128 0.011166358881 0.12270340228
          0.065064090986 0.00073796696337 -0.014031125886 0.00073796696337 -0.011003627666 8.8054040524e-05
          -0.014031125886 8.8054040524e-05 0.026643637807 0.059024352142 0.00059499790813 -0.015411611605
          0.00059499790813 -0.010243580374 0.00041846482178 -0.015411611605 0.00041846482178 0.023480013615
          0.056763940451 0.00083634821827 -0.01530252238 0.00083634821827 -0.0080032119634 -0.0009722649066
          -0.01530252238 -0.0009722649066 0.025089783755 0.067371360732 0.0017258030101 -0.016137616928
          0.0017258030101 -0.015623584237 0.0002701326119 -0.016137616928 0.0002701326119 0.0093287853107
          0.065162594239 -0.0019017420013 -0.010175455596 -0.0019017420013 -0.011378334744 0.00021371966445
          -0.010175455596 0.00021371966445 0.028875849735 0.098743562156 0.0039451120556 -0.0096800332921
          0.0039451120556 -0.034112121761 0.0077124742554 -0.0096800332921 0.0077124742554 -0.038960314426
          0.15386258972 0.0089100055199 0.019438609512 0.0089100055199 -0.005530621167 0.0060329197124
          0.019438609512 0.0060329197124 0.1302047355 0.065997935915 0.0010460294679 -0.012967378178
          0.0010460294679 -0.011690296921 0.0011157435785 -0.012967378178 0.0011157435785 0.027239370256
          0.06073294461 0.0011059780477 -0.012068844425 0.0011059780477 -0.0092252382819 0.00029305458595
          -0.012068844425 0.00029305458595 0.026326438101 -0.028538827041 -0.00053927414821 -0.0027169913759
          -0.00053927414821 0.010370030994 -0.0048832860249 -0.0027169913759 -0.0048832860249 0.0062640937865
          -0.030954690894 -0.00013845753369 -0.0015035671825 -0.00013845753369 0.013755679216 -0.0030143417373
          -0.0015035671825 -0.0030143417373 0.024299127437 0.053714099598 -0.015372515764 -0.041358214135
          -0.015372515764 -0.012516833624 0.012781337068 -0.041358214135 0.012781337068 0.0067432015898
          0.12545173389 0.0090985797727 0.0038228978126 0.0090985797727 -0.0076383636876 0.010714779499
          0.0038228978126 0.010714779499 0.082092068853 -0.015760765611 0.0020477003511 0.0011691434852
          0.0020477003511 0.013924572582 -0.00025011031619 0.0011691434852 -0.00025011031619 -0.014108074306
          0.050034449161 0.00014015839513 -0.0069732275885 0.00014015839513 -0.0064639868587 0.00073646162757
          -0.0069732275885 0.00073646162757 0.031719880357 -0.0014762683471 -0.0024507317267 -0.006303075805
          -0.0024507317267 0.001435918671 -0.001444903996 -0.006303075805 -0.001444903996 0.027583681441
          0.060861715171 -0.00021340220845 -0.017088846824 -0.00021340220845 -0.0094087767619 -0.00019472199128
          -0.017088846824 -0.00019472199128 0.026505652102 0.045230477691 -0.0070710181374 -0.01433010952
          -0.0070710181374 0.014123192943 0.0034726753578 -0.01433010952 0.0034726753578 0.025321333114
          0.071800612227 0.0022829078163 -0.012151006812 0.0022829078163 -0.012996462381 -0.0017222669124
          -0.012151006812 -0.0017222669124 0.024316902633 0.054953507736 -0.0027887699871 -0.024183998738
          -0.0027887699871 -0.014842203652 -0.0015731762617 -0.024183998738 -0.0015731762617 0.0001448643439
          0.090573479213 0.0058692830726 0.016221819331 0.0058692830726 -0.010009378014 0.0080202939868
          0.016221819331 0.0080202939868 0.07115366365 -0.084034038215 -0.010290113307 0.0066374130263
          -0.010290113307 0.014776794863 0.0026444900739 0.0066374130263 0.0026444900739 0.022118851517
          0.03566086144 -0.0019466784234 -0.0030298259725 -0.0019466784234 -1.1870496611e-05 -0.0013275006335
          -0.0030298259725 -0.0013275006335 0.024751199478 0.039476778072 -0.001678878722 -0.019809375686
          -0.001678878722 0.01002544106 0.0060175307053 -0.019809375686 0.0060175307053 0.034386897298
          0.068759257443 -0.00046181964048 -0.012046593065 -0.00046181964048 -0.011678140456 -0.00018676563685
          -0.012046593065 -0.00018676563685 0.026758061358 0.052527974679 0.011411115079 -0.031165106301
          0.011411115079 0.019118719376 0.013776137567 -0.031165106301 0.013776137567 0.0001294617252
          0.1281945991 0.0026262649599 0.005111927518 0.0026262649599 -0.028584047786 0.001392713526
          0.005111927518 0.001392713526 -0.0090658728703 0.11381185517 0.0023029959338 0.0077111105824
          0.0023029959338 -0.02293232908 0.010522593361 0.0077111105824 0.010522593361 -0.025253519174
          0.15837716795 0.010483611639 0.0030434780973 0.010483611639 -0.012490090898 0.0087032408601
          0.0030434780973 0.0087032408601 0.1113062393 0.16562657587 0.0091458745299 0.0057546691714
          0.0091458745299 -0.0091997467766 0.0057087430738 0.0057546691714 0.0057087430738 0.12980363729
          0.050809154837 -0.00041568752062 -0.012745695197 -0.00041568752062 -0.009016991972 -0.00086494148191
          -0.012745695197 -0.00086494148191 0.027344704686 0.15360466806 0.0081531316566 0.020570594139
          0.0081531316566 -0.0007859219682 0.0053718927972 0.020570594139 0.0053718927972 0.12751389737
          0.063470916035 0.0033406210403 0.018087365957 0.0033406210403 0.0058429128878 0.0081674943132
          0.018087365957 0.0081674943132 0.07134946198 0.1548556567 0.010139835392 0.0079605633414
          0.010139835392 -0.0084485538344 0.0093814350134 0.0079605633414 0.0093814350134 0.13166437726
          0.053745424864 -0.0010759723235 -0.00660206631 -0.0010759723235 -0.006124922701 0.0018036946746
          -0.00660206631 0.0018036946746 0.029738828393 0.070643831186 0.0035301545408 -0.021342967151
          0.0035301545408 0.019052773559 0.0058931855016 -0.021342967151 0.0058931855016 -0.0047395187969
          0.062581378032 0.00025811389344 -0.013873908007 0.00025811389344 -0.010267674579 0.0020224991112
          -0.013873908007 0.0020224991112 0.027041916711 0.018926732839 0.0012897655188 -0.0123966408
          0.0012897655188 0.00027272795394 -0.00093791057674 -0.0123966408 -0.00093791057674 0.021728904321
          0.10851489322 0.00017163895585 -0.00072987972857 0.00017163895585 -0.036871478192 0.0077494014556
          -0.00072987972857 0.0077494014556 -0.03695853876 0.13308225271 0.0060940124897 -0.0013613313865
          0.0060940124897 -0.0084940297949 0.0086546199984 -0.0013613313865 0.0086546199984 0.10218950687
          0.10673259733 0.0070401464723 -0.0047157307195 0.0070401464723 -0.017773435237 0.0089645172722
          -0.0047157307195 0.0089645172722 0.02769625032 0.094486742244 0.0084383099166 -0.0076073445041
          0.0084383099166 -0.02822984154 -0.0017194293624 -0.0076073445041 -0.0017194293624 -0.028431698371
          0.133650285 0.010687202927 0.0014236760848 0.010687202927 -0.014627750827 0.0088546406827
          0.0014236760848 0.0088546406827 0.081940936178 0.027649096609 0.005372418049 -0.0083153318822
          0.005372418049 -0.0064951819692 -0.00013092740285 -0.0083153318822 -0.00013092740285 0.014489820375
          0.055730237322 0.0025529522143 0.0031864704547 0.0025529522143 -0.013134854207 -0.0045707848022
          0.0031864704547 -0.0045707848022 0.027427391327 0.16754934072 0.011632385815 0.0060606020209
          0.011632385815 -0.0099839564406 0.0099868026897 0.0060606020209 0.0099868026897 0.12388439052
          0.010294874366 -0.002736948413 -0.0085635287963 -0.002736948413 -0.011608413547 -0.002394888877
          -0.0085635287963 -0.002394888877 0.0061451462468 0.015262525952 -0.00078877175262 -0.0063794071844
          -0.00078877175262 0.0040741757766 -0.00023303773203 -0.0063794071844 -0.00023303773203 0.032494082044
          0.16888637237 0.0096643541531 0.018397124967 0.0096643541531 -0.0092114107126 0.008739054516
          0.018397124967 0.008739054516 0.13538742842 0.012787358904 -0.0016658737141 -0.013474804302
          -0.0016658737141 0.0005780825149 -0.0011914335456 -0.013474804302 -0.0011914335456 0.022799320062
          0.0034864831163 -0.0022758039138 -0.0029784268369 -0.0022758039138 0.00063613572081 -0.003371652841
          -0.0029784268369 -0.003371652841 0.015377489982 0.095300604184 0.0034530253968 0.0095295553421
          0.0034530253968 0.0021784078883 0.0093591306919 0.0095295553421 0.0093591306919 0.095493027888
          0.050302002731 0.0065362883205 -0.01341638921 0.0065362883205 0.009770594214 -0.0064111714963
          -0.01341638921 -0.0064111714963 0.033022282025 0.17547700611 0.014009270059 0.0069816245598
          0.014009270059 -0.0086060777846 0.0093561484991 0.0069816245598 0.0093561484991 0.13125960022
          0.056979715261 0.00088323367682 -0.013234582682 0.00088323367682 -0.010584914237 0.00032954375209
          -0.013234582682 0.00032954375209 0.017795949514 0.10026935921 0.0016382381034 -0.0054549620598
          0.0016382381034 -0.042280241889 -0.0084522877145 -0.0054549620598 -0.0084522877145 -0.046747703651
          0.034635462037 -0.0015016347417 -0.013411464366 -0.0015016347417 -0.0047267990866 -0.00070308946977
          -0.013411464366 -0.00070308946977 0.018533490809 0.070873697086 0.014469183148 -0.047785895076
          0.014469183148 -0.016363622325 -0.0047205374703 -0.047785895076 -0.0047205374703 0.011778031473
          0.042940245863 0.0038316887529 -0.017572983812 0.0038316887529 -0.00041293247324 0.0035135596698
          -0.017572983812 0.0035135596698 0.025754909219 0.013708304102 0.0004774064305 -0.011632226387
          0.0004774064305 0.0032978871382 0.0030590235312 -0.011632226387 0.0030590235312 0.025709403688
          0.1659488722 0.0065419244529 0.0082923928091 0.0065419244529 -0.0081201444848 0.0074985470998
          0.0082923928091 0.0074985470998 0.13798409611 0.11792154345 0.011020057584 0.0015539700381
          0.011020057584 -0.0066985757326 0.0065708070191 0.0015539700381 0.0065708070191 0.10336176152
          0.054622492242 0.0011175158686 -0.034444388538 0.0011175158686 0.017008491213 0.0011597642088
          -0.034444388538 0.0011597642088 0.003152809647 0.19662123684 -0.020219989803 0.020519171229
          -0.020219989803 -0.046775019012 0.0058519391773 0.020519171229 0.0058519391773 0.04617774216
          -0.027412787831 0.0035153673923 0.0047746585362 0.0035153673923 0.0074942890801 0.0014232024702
          0.0047746585362 0.0014232024702 0.028316861192 0.080703246757 -0.00018343429984 -0.0073750549421
          -0.00018343429984 -0.016546334371 0.0035676762444 -0.0073750549421 0.0035676762444 0.010828642727
          0.16428506399 0.0094156550059 0.011479510756 0.0094156550059 -0.0088948387028 0.0095031798249
          0.011479510756 0.0095031798249 0.11444622237 -0.023972540284 0.00018181731563 -0.011193834459
          0.00018181731563 0.008774818966 -0.0037802634529 -0.011193834459 -0.0037802634529 0.01760773779
          0.0015035073976 -0.0035342000051 -0.0076729940614 -0.0035342000051 0.0079352830272 -0.0026279831036
          -0.0076729940614 -0.0026279831036 0.027462586084 -0.015643416221 0.0058216467266 0.011943304101
          0.0058216467266 0.013564910114 -0.0030248787059 0.011943304101 -0.0030248787059 0.044143945487
          0.048052814085 -0.0048070615278 -0.036763744774 -0.0048070615278 0.012617499568 -0.0090220269254
          -0.036763744774 -0.0090220269254 0.0069162825468 0.064008167556 0.0073842211684 0.0083789919612
          0.0073842211684 -0.019961131789 0.0092294943186 0.0083789919612 0.0092294943186 0.023413443372
          0.17374916663 0.0077106395647 0.012298138438 0.0077106395647 -0.013762681123 0.0061117906873
          0.012298138438 0.0061117906873 0.13094379596 0.054464705055 -0.00030711379561 -0.0074090624059
          -0.00030711379561 -0.0071217504834 0.00021072284216 -0.0074090624059 0.00021072284216 0.030350940792
          0.088722973043 0.010511179271 -0.0097188666744 0.010511179271 -0.010772041734 0.0041967726313
          -0.0097188666744 0.0041967726313 7.3656469213e-05 0.063292385565 3.510425599e-05 -0.013595942327
          3.510425599e-05 -0.010181461371 -0.00046880480689 -0.013595942327 -0.00046880480689 0.024604823295
          0.064012695564 0.0050431289877 -0.012113856482 0.0050431289877 0.0027154549797 0.00049064910279
          -0.012113856482 0.00049064910279 0.073406515667 0.061794664415 -0.0020661610951 -0.011752518922
          -0.0020661610951 -0.018898389157 -0.0071077963133 -0.011752518922 -0.0071077963133 -0.0077278254733
          0.036360204632 0.0034827489018 -0.0040224084196 0.0034827489018 -0.011216286477 -0.0019601352563
          -0.0040224084196 -0.0019601352563 0.022941923417 0.14972568427 0.0071411714207 0.02116488593
          0.0071411714207 0.00035356529654 0.0070775816468 0.02116488593 0.0070775816468 0.13927408786
          0.063327438265 0.00053653398807 -0.014005229956 0.00053653398807 -0.010540301486 -0.001794974429
          -0.014005229956 -0.001794974429 0.021812431613 0.054366183731 0.00065001593119 -0.017156007752
          0.00065001593119 -0.0093316472363 -0.0012599628256 -0.017156007752 -0.0012599628256 0.019707450344
          0.15044218234 0.0097641313493 0.0076484524376 0.0097641313493 -0.0050843971654 0.008266182561
          0.0076484524376 0.008266182561 0.13672752072 -0.063570884682 -0.0012420671232 -0.0011570650724
          -0.0012420671232 0.010392256126 -0.00095967338745 -0.0011570650724 -0.00095967338745 0.033323131006
          0.079232971725 0.0044311823799 -0.006248585776 0.0044311823799 -0.021174251908 -0.00052418329402
          -0.006248585776 -0.00052418329402 -0.0065671959642 0.10565357433 -0.0026811782745 -0.0033752462339
          -0.0026811782745 -0.031922368318 0.003395048772 -0.0033752462339 0.003395048772 -0.049738210565
          0.061318261496 -0.0033955126513 -0.018951251646 -0.0033955126513 -0.019159692082 0.0053021461803
          -0.018951251646 0.0053021461803 0.00079624760402 0.1079490285 0.014250623409 0.01240464918
          0.014250623409 -0.0068792864485 0.010527788488 0.01240464918 0.010527788488 0.10809636486
          0.12653688343 0.0062496201114 0.0024918207072 0.0062496201114 -0.010379919576 0.0079807654131
          0.0024918207072 0.0079807654131 0.091731272855 0.014863935534 -0.0059849358188 0.013108184309
          -0.0059849358188 0.011921139408 0.007630691286 0.013108184309 0.007630691286 0.061094880228
          0.095532296958 0.0077464421973 0.0054264904608 0.0077464421973 0.0020421751655 0.0069761999198
          0.0054264904608 0.0069761999198 0.10074241659 0.065998636514 -0.0019099989913 -0.020795072691
          -0.0019099989913 -0.01940807884 -0.0073679732825 -0.020795072691 -0.0073679732825 0.0049771271807
          0.067098989287 -0.0021106592948 -0.0062102963147 -0.0021106592948 -0.010889104592 -0.0014038147196
          -0.0062102963147 -0.0014038147196 0.0287203988 0.024511305185 0.0041334714585 0.01176805886
          0.0041334714585 0.0077427755896 0.0048242535281 0.01176805886 0.0048242535281 0.049511928436
          0.06427112768 -0.0022909794681 -0.015870770874 -0.0022909794681 -0.017852582167 -0.0024895532028
          -0.015870770874 -0.0024895532028 -0.00059204188774 0.12397436904 0.010759074076 0.0034441328362
          0.010759074076 -0.0045198631299 0.0071381556879 0.0034441328362 0.0071381556879 0.1094706677
          0.11121529414 0.015429212073 -0.001587045737 0.015429212073 0.001616004018 0.0063355381364
          -0.001587045737 0.0063355381364 0.117755043 0.027978216854 -0.0029772362954 -0.0060848030596
          -0.0029772362954 0.0026453411993 0.0044719788229 -0.0060848030596 0.0044719788229 0.010615697688
          0.031567814043 -0.00038643542074 -0.019402843541 -0.00038643542074 0.010814261694 0.003704146057
          -0.019402843541 0.003704146057 0.047443252678 0.10479357251 0.0055882570732 0.0015162061436
          0.0055882570732 0.0013269021477 0.0090743289957 0.0015162061436 0.0090743289957 0.099646539811
          0.12596020661 0.0087742223377 0.00066011911636 0.0087742223377 -0.032634203534 0.00088996974034
          0.00066011911636 0.00088996974034 1.7894165623e-05 0.053639464464 -0.0017930584778 -0.0076324287046
          -0.0017930584778 -0.0086211051535 -0.0002176483129 -0.0076324287046 -0.0002176483129 0.030123370572
          0.15997581585 0.011223580073 0.011299207721 0.011223580073 -0.013450282107 0.0053166746728
          0.011299207721 0.0053166746728 0.13815576871 -0.045664060278 0.0020974987605 0.011703427893
          0.0020974987605 0.023583326375 0.0047046129644 0.011703427893 0.0047046129644 0.043283329377
          0.056321558323 0.0046343186542 -0.010884480994 0.0046343186542 -0.0096129588025 0.001092398031
          -0.010884480994 0.001092398031 0.02530329515 0.10549948792 0.0094269844385 -0.00020521287253
          0.0094269844385 -0.0008080601275 0.008417263967 -0.00020521287253 0.008417263967 0.11357016432
          0.085296239182 0.0049960567605 0.0031440362749 0.0049960567605 -0.025632373263 0.0020701745484
          0.0031440362749 0.0020701745484 -0.018653153645 0.094970927825 -0.0010618445371 0.0070609835754
          -0.0010618445371 0.0045891586175 0.0055541915008 0.0070609835754 0.0055541915008 0.12637926795
          0.10130657754 0.0040235988051 0.012521816734 0.0040235988051 -0.0089785582128 0.0096573755248
          0.012521816734 0.0096573755248 0.074073505774 0.15746512664 0.0075432404218 0.0028425373543
          0.0075432404218 -0.012326092021 0.011640836967 0.0028425373543 0.011640836967 0.11140924799
          0.096245860472 0.0068599805624 0.00049459138185 0.0068599805624 0.00348645042 0.010070107082
          0.00049459138185 0.010070107082 0.10474331914 0.036121678385 0.0040840870883 -0.010361528104
          0.0040840870883 -0.0048175917275 -0.0023871297454 -0.010361528104 -0.0023871297454 0.013378024204
          0.057000788411 -0.0012513246635 -0.014408371742 -0.0012513246635 -0.011934270373 0.00059789240677
          -0.014408371742 0.00059789240677 0.018861694097 0.049625565816 -0.011198742639 -0.044933316052
          -0.011198742639 0.006875036082 0.0024954576308 -0.044933316052 0.0024954576308 0.019649757648
          0.10729386052 -0.0064126354204 -0.0058731114556 -0.0064126354204 -0.012776142626 0.022063210222
          -0.0058731114556 0.022063210222 0.042201237896 0.0015632629204 0.0032919240856 -0.006761372237
          0.0032919240856 0.012229322227 0.00013303004698 -0.006761372237 0.00013303004698 0.010444911504
          -0.048795487863 -0.0014145488926 0.0027650080431 -0.0014145488926 0.017009923328 0.0016334532837
          0.0027650080431 0.0016334532837 0.022006387993 0.047508037864 0.0019531526519 -0.037657429816
          0.0019531526519 0.004049793737 0.0047605972288 -0.037657429816 0.0047605972288 0.030791592966
          0.094662032004 0.0090205216235 -0.00087396650216 0.0090205216235 0.0041897248311 0.0082370830672
          -0.00087396650216 0.0082370830672 0.1044246862 0.12886292967 0.0043917821212 0.01663920426
          0.0043917821212 0.0030790882635 0.0096630794128 0.01663920426 0.0096630794128 0.13250626731
          0.060455709244 -0.0031664364242 -0.00015802335593 -0.0031664364242 -0.02115338431 0.0013286703538
          -0.00015802335593 0.0013286703538 -0.023173782125 -0.023333670728 -0.0054239745143 -0.0099759667644
          -0.0054239745143 0.012918959308 -0.0046073587509 -0.0099759667644 -0.0046073587509 0.010838225977
          0.10119006442 0.0079650314512 0.015172040878 0.0079650314512 -0.0084419442893 0.0080035896115
          0.015172040878 0.0080035896115 0.054787657102 0.11461543933 -0.017548551184 0.011047412517
          -0.017548551184 -0.019929745117 0.0072504194876 0.011047412517 0.0072504194876 0.020807234139
          0.041396627169 -0.0090750140202 -0.019193850232 -0.0090750140202 -0.023502771314 -0.00045242662361
          -0.019193850232 -0.00045242662361 0.0032349232889 0.014753063086 -0.0090116023685 0.011123042022
          -0.0090116023685 0.011707695952 0.0067504762598 0.011123042022 0.0067504762598 0.070058241054
          0.10890822588 0.0064658380848 0.0046566219125 0.0064658380848 -0.014611088075 0.008406153699
          0.0046566219125 0.008406153699 0.050128967303 0.067358197997 0.00032333128777 -0.01371610829
          0.00032333128777 -0.012046945063 -0.00071357292488 -0.01371610829 -0.00071357292488 0.027762910791
          -0.029021069637 -0.00070869198009 -0.003321847646 -0.00070869198009 0.0099487354002 0.00080553768721
          -0.003321847646 0.00080553768721 0.025668406633 0.10880363537 0.0085469218213 -0.0012065048086
          0.0085469218213 -0.00074253241169 0.009915655248 -0.0012065048086 0.009915655248 0.10489031884
          0.0015581117858 -0.0053158398262 -0.0075518421134 -0.0053158398262 -0.0047035238875 -0.0070895253864
          -0.0075518421134 -0.0070895253864 0.017298075915 0.11407008226 0.0078870805976 0.0089658493252
          0.0078870805976 -0.0091500636197 0.008731159072 0.0089658493252 0.008731159072 0.073928492276
          0.1015343159 0.010798300689 0.0023072072947 0.010798300689 0.00078481426671 0.0088813253073
          0.0023072072947 0.0088813253073 0.098190069168 0.046260499282 -0.001706976023 0.00110796063
          -0.001706976023 -0.01800232469 -0.0039976299278 0.00110796063 -0.0039976299278 -0.017286236804
          0.11090120808 0.0045464841041 -0.0039441117432 0.0045464841041 -0.019074958852 0.0098624990183
          -0.0039441117432 0.0098624990183 0.027177331105 0.079664101494 0.00015208463328 -0.013338590366
          0.00015208463328 -0.019870556462 0.0054941716885 -0.013338590366 0.0054941716885 0.0069872707764
          0.080550693444 0.006004488111 0.013412776354 0.006004488111 -0.020236188253 -0.0053281561723
          0.013412776354 -0.0053281561723 -0.0019498719194 0.062608241949 0.018660179235 -0.068966870981
          0.018660179235 0.04321889621 0.014685187655 -0.068966870981 0.014685187655 -0.093683439345
          0.14387196026 0.012622289144 0.010333684092 0.012622289144 -0.003885880267 0.0080498163089
          0.010333684092 0.0080498163089 0.13396350735 0.12961748351 0.012352440505 0.0016965328206
          0.012352440505 -0.0032001840449 0.0087739169534 0.0016965328206 0.0087739169534 0.10140302013
          0.18861601303 0.0068086164339 0.012654501639 0.0068086164339 -0.017656832075 0.0016677778509
          0.012654501639 0.0016677778509 0.10887126563 0.097674947998 0.006655020427 0.0017249561562
          0.006655020427 0.0031313510749 0.0097305563941 0.0017249561562 0.0097305563941 0.10573341609
          0.13244512189 0.0097304988926 0.00031049946179 0.0097304988926 -0.0090507986189 0.0091203903823
          0.00031049946179 0.0091203903823 0.0957991213 0.16660410833 0.010120902934 0.0057941097812
          0.010120902934 -0.0090202536644 0.0079483778736 0.0057941097812 0.0079483778736 0.12829535508
          0.15618943754 0.010096332759 0.013463460771 0.010096332759 -0.0064052166927 0.0067393939703
          0.013463460771 0.0067393939703 0.13585718588 0.053562211968 0.0029112727741 -0.014577436552
          0.0029112727741 -0.013318973192 -0.0034001608687 -0.014577436552 -0.0034001608687 0.014349458122
          0.16429511945 0.0087923641696 0.014706746673 0.0087923641696 -0.011399981265 0.0077997680506
          0.014706746673 0.0077997680506 0.13472352711 0.062003665541 -0.0032746339679 -0.0074827607737
          -0.0032746339679 -0.0099825333897 0.0014737893758 -0.0074827607737 0.0014737893758 0.028033818546
          0.08918860142 0.0006703952658 -0.0042509097474 0.0006703952658 -0.024966378855 0.0035786368939
          -0.0042509097474 0.0035786368939 -0.010378042493 0.039489342899 -0.00067501933187 -0.016325590901
          -0.00067501933187 -0.003112854501 -0.00050068066882 -0.016325590901 -0.00050068066882 0.0028155955553
          0.066874608976 -1.2426428368e-05 -0.018661540249 -1.2426428368e-05 -0.016545969578 -0.00033271842625
          -0.018661540249 -0.00033271842625 0.0049802429616 0.020815490461 0.0030546340105 -0.012169637968
          0.0030546340105 -0.0018372493359 -0.0013680719987 -0.012169637968 -0.0013680719987 0.010181791679
          0.056594851678 0.0021542969015 -0.0055566616996 0.0021542969015 -0.018814405904 -0.0012748428251
          -0.0055566616996 -0.0012748428251 -0.018520726506 0.15687279211 0.014356192708 -4.246907658e-05
          0.014356192708 -0.012085283827 0.0068178802246 -4.246907658e-05 0.0068178802246 0.1190922426
          0.077896505111 0.00052332609045 -0.0082437088201 0.00052332609045 -0.02448929995 -0.00095883697614
          -0.0082437088201 -0.00095883697614 -0.015771598625 0.081801644007 0.01058351233 0.0053958796817
          0.01058351233 -0.02647963211 0.0034665421142 0.0053958796817 0.0034665421142 -0.017876883033
          0.064894757609 9.9339034297e-05 -0.010732341414 9.9339034297e-05 -0.01091273799 -0.00075097392334
          -0.010732341414 -0.00075097392334 0.026870416562 0.1020925757 0.00095422415229 -0.0079925575136
          0.00095422415229 -0.027712357617 0.00024268742151 -0.0079925575136 0.00024268742151 0.0048010609568
          0.06712348091 -0.00028236212604 -0.0086593636742 -0.00028236212604 -0.0089640389513 6.4883618758e-05
          -0.0086593636742 6.4883618758e-05 0.027437906501 0.092465258474 0.0037345559062 0.012604461503
          0.0037345559062 -0.018515358368 0.0065959599177 0.012604461503 0.0065959599177 0.03074972289
          0.11093484542 -0.0081858486585 -0.0061309873537 -0.0081858486585 -0.00024500981741 0.0037928907658
          -0.0061309873537 0.0037928907658 -0.032829073375 0.035599999352 0.011349352227 -0.033665155516
          0.011349352227 -0.047635460162 0.0040069567309 -0.033665155516 0.0040069567309 0.074900698216
          0.043300991184 0.0023884917694 -0.012343378624 0.0023884917694 -0.007142243361 -0.0028395022791
          -0.012343378624 -0.0028395022791 0.020760350472 0.045396615464 0.001037834932 -0.010055917912
          0.001037834932 -0.0073597593039 -0.0012697787576 -0.010055917912 -0.0012697787576 0.012634138717
          0.035484257682 0.056845810764 0.030925497217 0.056845810764 -0.069068321202 0.054020646286
          0.030925497217 0.054020646286 0.13911906796 0.17651640087 0.00576919624 0.015043252696
          0.00576919624 -0.011861319621 0.0072278308607 0.015043252696 0.0072278308607 0.12647202244
          0.030450681432 -0.0021968044277 -0.023120725912 -0.0021968044277 0.0057313946198 0.0063058086909
          -0.023120725912 0.0063058086909 0.03864284546 0.16014283758 0.0096376784115 0.017112901876
          0.0096376784115 -0.0080597447525 0.0081579121246 0.017112901876 0.0081579121246 0.13035164353
          0.14976399634 0.0044151976359 0.010677502986 0.0044151976359 -0.0017991070631 0.0035246131841
          0.010677502986 0.0035246131841 0.14187944979 0.15558303487 0.01089732981 0.0016040696759
          0.01089732981 -0.01462712554 0.007719915065 0.0016040696759 0.007719915065 0.11492519607
          0.12765527345 0.008757722977 0.0017124139827 0.008757722977 -0.0066298793546 0.009303553264
          0.0017124139827 0.009303553264 0.10176930062 0.094451952977 -0.0015943040397 -0.010562228548
          -0.0015943040397 -0.028570401266 -0.0018394169342 -0.010562228548 -0.0018394169342 -0.044606225393
          0.15451388403 0.0096173173267 -0.00082113601675 0.0096173173267 -0.014079613113 0.010522347798
          -0.00082113601675 0.010522347798 0.095218594432 0.060235190823 0.00056454558939 -0.01039457146
          0.00056454558939 -0.011837126943 -0.00056264402434 -0.01039457146 -0.00056264402434 0.018368522295
          0.063159212297 -0.00059289988662 -0.016178489695 -0.00059289988662 -0.010213828977 0.00019637343165
          -0.016178489695 0.00019637343165 0.017412741712 0.074787228561 0.0054979431364 -0.021865802282
          0.0054979431364 0.0086922131362 -0.010091039617 -0.021865802282 -0.010091039617 -0.0058888413521
          0.031717318702 0.0029234573182 -0.030097711834 0.0029234573182 0.0095258513351 -0.0061383906693
          -0.030097711834 -0.0061383906693 0.075175589853 0.050724480161 -0.011455813573 -0.046754382201
          -0.011455813573 0.001147803757 -0.00096540377896 -0.046754382201 -0.00096540377896 0.020057071695
          0.059795099955 0.001567554017 -0.013253614816 0.001567554017 -0.0085241595264 0.00043359262781
          -0.013253614816 0.00043359262781 0.027252116296 0.067677167076 0.0016213716649 -0.011440495637
          0.0016213716649 -0.010220555839 -0.00074842938467 -0.011440495637 -0.00074842938467 0.027533122483
          0.17053174128 0.0085876107852 0.010709493907 0.0085876107852 -0.011562688921 0.0082205371843
          0.010709493907 0.0082205371843 0.13679071213 0.16310845113 0.0077366680956 0.023101284683
          0.0077366680956 -0.0070453702209 0.0086017454916 0.023101284683 0.0086017454916 0.13269672297
          0.024821939694 -0.0026029251126 -0.0078766813532 -0.0026029251126 -0.009815284739 0.0039439089894
          -0.0078766813532 0.0039439089894 -0.0040701461063 0.052146403537 -0.021304082033 -0.0082505247373
          -0.021304082033 0.013740080762 0.011705689717 -0.0082505247373 0.011705689717 0.088605120744
          0.054281169999 0.0064510437863 0.011893721476 0.0064510437863 0.0077297606709 0.0044022628545
          0.011893721476 0.0044022628545 0.081146126304 0.082508031047 0.0095328013302 -0.001083956456
          0.0095328013302 0.0024012198811 0.0062420490383 -0.001083956456 0.0062420490383 0.073254626462
          0.12003635798 0.0040423628067 0.0085873944868 0.0040423628067 -0.024478393528 0.0053937352006
          0.0085873944868 0.0053937352006 0.024603873814 0.1618515927 0.009372435605 0.025182279977
          0.009372435605 -0.0061205341677 0.0050516260351 0.025182279977 0.0050516260351 0.13684151016
          0.11131747617 0.0056100108251 -0.0033151239956 0.0056100108251 -0.036226234809 0.0103276312
          -0.0033151239956 0.0103276312 -0.016356721137 0.0055561651535 -0.0048543861766 -0.0038650009609
          -0.0048543861766 0.0055902235611 -0.0050926094639 -0.0038650009609 -0.0050926094639 0.012525793891
          0.1255903607 0.0098622127387 0.0037805279685 0.0098622127387 -0.012006037227 0.010734958966
          0.0037805279685 0.010734958966 0.084912628338 0.1186866557 0.0057887418456 0.015195052014
          0.0057887418456 -0.00042009436336 0.010141784148 0.015195052014 0.010141784148 0.12366655707
          0.018195821812 0.0051326336113 -0.016984576505 0.0051326336113 -0.0055037408284 0.0025479273431
          -0.016984576505 0.0025479273431 0.010068094524 0.18500872984 0.01099146106 0.017277347631
          0.01099146106 -0.028588649227 -0.002117473717 0.017277347631 -0.002117473717 0.094995744469
          0.045948974819 0.0063860069972 0.017470465174 0.0063860069972 -0.0059635875327 0.0032415988375
          0.017470465174 0.0032415988375 0.050555473835 0.049990831565 -0.0061093667386 -0.023234007397
          -0.0061093667386 -0.027336413016 0.014844943131 -0.023234007397 0.014844943131 -0.0085200421554
          0.14196739899 0.0044597262919 0.0094095107062 0.0044597262919 -0.00044042967035 0.0036841129707
          0.0094095107062 0.0036841129707 0.1447408835 0.13928507852 0.017159186604 0.014270362645
          0.017159186604 -0.00078398444234 0.0071655997589 0.014270362645 0.0071655997589 0.14884444159
          0.086121972676 0.0010749691607 -0.007437867236 0.0010749691607 -0.016832454803 0.00033062645444
          -0.007437867236 0.00033062645444 0.0039566235837 0.047995347949 0.0014378961663 -0.0054245975807
          0.0014378961663 -0.0079250295638 0.0025412384188 -0.0054245975807 0.0025412384188 0.017532712001
          0.1324323259 0.010115579595 0.0031304633418 0.010115579595 -0.014401397166 0.0079180210413
          0.0031304633418 0.0079180210413 0.07648146104 0.14068511074 0.034615748919 0.035245911857
          0.034615748919 -0.054687908655 0.030640203019 0.035245911857 0.030640203019 0.061676110508
          0.12197871269 0.0013794426332 -0.0047515521601 0.0013794426332 0.0030933118783 0.010648553389
          -0.0047515521601 0.010648553389 0.10742595694 0.13637124991 0.010259934449 -0.0010168926565
          0.010259934449 -0.012473098306 0.0094354667791 -0.0010168926565 0.0094354667791 0.089182894559
          0.086404498786 -0.0067232894964 -0.0027852945322 -0.0067232894964 -0.028659132263 -0.0076969137306
          -0.0027852945322 -0.0076969137306 -0.018643128098 0.050207926759 0.00059768579371 -0.011250638921
          0.00059768579371 0.012772437489 0.0073375575769 -0.011250638921 0.0073375575769 0.021567736074
          0.05319425824 0.00090519612246 -0.0079559692752 0.00090519612246 -0.0065712538102 0.00052975764689
          -0.0079559692752 0.00052975764689 0.030690813469 0.064228702743 -0.0080814785527 -0.039697499066
          -0.0080814785527 -0.0051840573187 -0.0057605471456 -0.039697499066 -0.0057605471456 0.029585792825
          0.047679137834 0.0051261523658 -0.033151030224 0.0051261523658 0.0045366096235 0.0011726863301
          -0.033151030224 0.0011726863301 0.049827533756 0.0098818094553 0.0024505163155 -0.0112489667
          0.0024505163155 0.0017518390836 -0.00086552354219 -0.0112489667 -0.00086552354219 0.025447151968
          0.094227154104 0.00073082967565 0.0085727349609 0.00073082967565 -0.01772243458 0.0047718593652
          0.0085727349609 0.0047718593652 0.022496731613 0.069287252487 0.0037408394349 -0.00010989216373
          0.0037408394349 0.0074306533748 0.009354053237 -0.00010989216373 0.009354053237 0.098849955429
          0.046398182541 -0.00030769188824 -0.01191797719 -0.00030769188824 -0.0037596504556 -0.00027434154707
          -0.01191797719 -0.00027434154707 0.022568156281 0.12344267582 0.0063906847519 0.0082539789962
          0.0063906847519 -0.030924889993 0.0047370971444 0.0082539789962 0.0047370971444 0.001849757989
          0.14672923375 0.0083525182394 0.012444693624 0.0083525182394 -0.0026098046876 0.0093710066976
          0.012444693624 0.0093710066976 0.14363151429 0.16323776473 0.010458512516 0.016195951589
          0.010458512516 -0.0097551443713 0.0098016463386 0.016195951589 0.0098016463386 0.13028567166
          0.1620228243 0.0097515429507 0.014564547637 0.0097515429507 -0.0095033261285 0.0096402063504
          0.014564547637 0.0096402063504 0.13075926072 0.12365503848 0.011262517259 -0.00012963507104
          0.011262517259 -0.0073399481267 0.0081083476343 -0.00012963507104 0.0081083476343 0.099884480653
          0.13698711961 0.01173591996 0.0015405655632 0.01173591996 -0.0079312336661 0.0089874758969
          0.0015405655632 0.0089874758969 0.097296915673 0.054889279569 0.0069774409463 -0.008872024562
          0.0069774409463 -0.0086603596857 -0.0013247684562 -0.008872024562 -0.0013247684562 0.032080866562
          0.03275325001 0.0066166911872 0.0029351472886 0.0066166911872 -0.018550770693 0.0042895302912
          0.0029351472886 0.0042895302912 0.017377561272 0.068957284445 -0.0011423785252 -0.0085740947746
          -0.0011423785252 -0.016704426833 -0.0019484902086 -0.0085740947746 -0.0019484902086 0.0063026811557
          0.10734702036 0.0098118637263 -0.0028502553121 0.0098118637263 0.0021052871867 0.0089653228948
          -0.0028502553121 0.0089653228948 0.11198928702 0.016630197312 -0.0052572370993 -0.0061469514916
          -0.0052572370993 -8.0612241287e-05 0.0065626273025 -0.0061469514916 0.0065626273025 0.011244719634
          0.0076240289633 0.047856030313 -0.02504331985 0.047856030313 -0.0088846356361 -0.0080188761399
          -0.02504331985 -0.0080188761399 0.007488714763 0.11363265364 0.005056459454 0.0072479745313
          0.005056459454 -0.014706237204 0.0023367076962 0.0072479745313 0.0023367076962 0.048229944676
          0.007340490999 0.00025076458732 -0.0097843538762 0.00025076458732 0.001782568873 0.00035415788171
          -0.0097843538762 0.00035415788171 0.024604260969 0.015058663351 0.0095151745773 0.0061419778646
          0.0095151745773 0.012590677029 0.0010258962154 0.0061419778646 0.0010258962154 0.07412266663
          0.17138389996 0.0053319907454 0.0041128635437 0.0053319907454 -0.011375683533 0.0121872623
          0.0041128635437 0.0121872623 0.13200596376 0.050375156674 -0.00029138501203 -0.013526540666
          -0.00029138501203 -0.010338447645 -7.1570011065e-05 -0.013526540666 -7.1570011065e-05 0.011959698736
          -0.0015440035155 -0.0038454912128 -0.0045195430894 -0.0038454912128 0.0016531549449 -0.0026431609438
          -0.0045195430894 -0.0026431609438 0.036209904157 0.13830380735 0.019349662775 0.022124761707
          0.019349662775 -0.0052222501953 0.007626116627 0.022124761707 0.007626116627 0.12945468574
          0.16861532762 0.0065421118129 0.019512760163 0.0065421118129 -0.009025731962 0.0092207879591
          0.019512760163 0.0092207879591 0.13383496901 0.13079544018 0.0060134929846 0.0051516920844
          0.0060134929846 -0.0090065776316 0.011546814024 0.0051516920844 0.011546814024 0.094815537503
          0.073159870972 0.00032386528852 -0.011094662246 0.00032386528852 0.0090274728147 0.0059447836416
          -0.011094662246 0.0059447836416 0.092186718691 0.040718510224 0.0050837599239 -0.020235549592
          0.0050837599239 -0.0086753621422 0.0085575328205 -0.020235549592 0.0085575328205 0.0069254082674
          0.086199362778 0.0012538688811 -0.0053208218036 0.0012538688811 -0.028491723784 0.00012137637725
          -0.0053208218036 0.00012137637725 -0.0074119124599 0.14172261876 0.010749597829 0.0068046766312
          0.010749597829 -0.0034914298288 0.0081715633476 0.0068046766312 0.0081715633476 0.11893225736
          0.14670773083 0.011080083275 0.0038681250194 0.011080083275 -0.0080024477957 0.008642466885
          0.0038681250194 0.008642466885 0.12470035565 0.14692355989 0.01036060341 0.0034972602256
          0.01036060341 -0.006459815573 0.0079432220862 0.0034972602256 0.0079432220862 0.12096003343
          0.076033079769 0.0007510008119 -0.0067623931848 0.0007510008119 -0.015849753828 0.00023631999204
          -0.0067623931848 0.00023631999204 0.010954670606 0.14240243602 0.011098877907 4.2171104424e-05
          0.011098877907 -0.012317925342 0.0092759296247 4.2171104424e-05 0.0092759296247 0.089464671349
          0.043426184979 -0.00020002099998 -0.012310296116 -0.00020002099998 -0.0056786062391 -0.0028041156991
          -0.012310296116 -0.0028041156991 0.026004559788 0.14174206082 0.011231688905 0.0073038739454
          0.011231688905 -0.0049962529699 0.009454002338 0.0073038739454 0.009454002338 0.12260210218
          0.06037174967 0.00092596276796 -0.016030987936 0.00092596276796 -0.011898327136 0.00074783240452
          -0.016030987936 0.00074783240452 0.018591457789 0.11752112336 0.006275106875 0.0073207712057
          0.006275106875 -0.012909851366 0.005930763476 0.0073207712057 0.005930763476 0.08466024206
          0.09394889002 0.01074809605 0.013943530024 0.01074809605 -0.0031515746356 0.0044765816097
          0.013943530024 0.0044765816097 0.077453024789 0.0072712420239 -0.00013002465696 -0.017977844616
          -0.00013002465696 0.015116071553 0.0010920128065 -0.017977844616 0.0010920128065 0.067647101494
          0.062473552994 0.0017358867109 -0.01380924673 0.0017358867109 -0.010569128149 0.0013163549315
          -0.01380924673 0.0013163549315 0.026525365138 0.16579158751 0.011396954241 0.01882715599
          0.011396954241 -0.0085679116386 0.0094345948071 0.01882715599 0.0094345948071 0.13610443384
          0.066441328933 -0.0006124569496 -0.0083915525299 -0.0006124569496 -0.0092584813245 0.00040474936281
          -0.0083915525299 0.00040474936281 0.025352564809 -0.016255312525 -0.0039643439233 0.0011600337958
          -0.0039643439233 0.0010431503269 0.00077433759676 0.0011600337958 0.00077433759676 0.022069825165
          0.11248720473 0.014320848358 0.017364025808 0.014320848358 -0.0005824340848 0.0067144851885
          0.017364025808 0.0067144851885 0.11395893453 0.13507723291 0.0085736291812 0.0053651537326
          0.0085736291812 -0.014096969656 0.010961921794 0.0053651537326 0.010961921794 0.073099308458
          0.0097479806497 0.0069038265394 0.0059063591376 0.0069038265394 -0 0
          0.0059063591376 0 0 0.033228037167 0.0080347899622 -0.011292256507
          0.0080347899622 0.0031553154921 0.0068985616675 -0.011292256507 0.0068985616675 0.0064000346011
          0.094430912523 -0.0001004679928 -0.0098990763556 -0.0001004679928 -0.022187329277 0.0048572884471
          -0.0098990763556 0.0048572884471 -0.0032156263208 0.010775530654 -0.0050023743279 -0.0086609138075
          -0.0050023743279 -0.00012699329349 0.00064973162775 -0.0086609138075 0.00064973162775 0.019812779343
          0.018228018775 0.0079554132298 0.010268046259 0.0079554132298 0.017686187675 0.010982521424
          0.010268046259 0.010982521424 0.056305378061 0.061061830034 -0.0011704863174 -0.010789337793
          -0.0011704863174 -0.022469715833 -0.0014462965897 -0.010789337793 -0.0014462965897 -0.0094539780623
          0.039985449423 -0.0016238454321 -0.0044156976836 -0.0016238454321 -0.0015832423029 0.001864774827
          -0.0044156976836 0.001864774827 0.030654589711 0.056881609752 0.0087406966417 -0.048451567787
          0.0087406966417 0.018610805964 0.0059260921258 -0.048451567787 0.0059260921258 0.011252662521
          0.17198373288 0.012656392877 0.011680770804 0.012656392877 -0.015850826005 0.0036066979081
          0.011680770804 0.0036066979081 0.10347202331 0.062178864883 0.002564226681 -0.0057745271275
          0.002564226681 0.021399938653 0.0080313408565 -0.0057745271275 0.0080313408565 -0.00085926290417
          0.12217279416 0.015445638286 0.006281801964 0.015445638286 -0.0036590091885 0.0087706651859
          0.006281801964 0.0087706651859 0.098597939266 0.0092902108317 -0.0024661579416 -0.017232128584
          -0.0024661579416 -0.00086786336519 0.00027470318882 -0.017232128584 0.00027470318882 0.014667482205
          0.087085974148 0.0032254384834 -0.0023424228896 0.0032254384834 -0.024612377492 0.00059989014209
          -0.0023424228896 0.00059989014209 -0.011755069636 0.10099471604 0.0089687931976 0.0040914487049
          0.0089687931976 -0.00082115016827 0.007790454871 0.0040914487049 0.007790454871 0.098192317561
          0.08319505556 0.0045355174827 0.016064560188 0.0045355174827 -0.015129574723 0.0048490854466
          0.016064560188 0.0048490854466 0.036781883827 0.053984917706 0.0043231457035 -0.0029375676262
          0.0043231457035 -0.023259949229 0.002396827134 -0.0029375676262 0.002396827134 -0.010714546827
          0.16909093235 0.00901607995 0.0010590004044 0.00901607995 -0.014109206444 0.0087605840096
          0.0010590004044 0.0087605840096 0.11502027301 0.053021121253 0.0016997480732 -0.01804960408
          0.0016997480732 -0.012513911158 -0.0011244935906 -0.01804960408 -0.0011244935906 0.0018321642049
          0.15314273527 0.009817990081 0.0012674857648 0.009817990081 -0.0085692789527 0.0087246207389
          0.0012674857648 0.0087246207389 0.1174857413 0.042176738822 -0.0050404300557 -0.012441357312
          -0.0050404300557 -0.0084499812844 -0.0037876037658 -0.012441357312 -0.0037876037658 -0.0046384496031
          0.11285803538 0.0025897517125 0.021358739495 0.0025897517125 0.0020012091718 0.0066895721473
          0.021358739495 0.0066895721473 0.11233007299 0.16387428416 0.0097883733414 0.017059014421
          0.0097883733414 -0.0068286344925 0.0071326783462 0.017059014421 0.0071326783462 0.13660050644
          -0.022659869748 -0.005681135535 -0.013220017309 -0.005681135535 0.0075267696401 0.00809467064
          -0.013220017309 0.00809467064 0.02044434475 0.1268552789 0.011207479829 0.011826047285
          0.011207479829 -0.0010628500508 0.0083345848684 0.011826047285 0.0083345848684 0.1482304934
          0.080163859514 -0.00059444167653 -0.010091693575 -0.00059444167653 -0.017775319477 0.0025355824132
          -0.010091693575 0.0025355824132 0.013013616558 0.1888271266 0.011794254189 0.015570992546
          0.011794254189 -0.018216250093 0.007434783873 0.015570992546 0.007434783873 0.1160419923
          0.015836026513 -0.0070323749619 -0.0091773627529 -0.0070323749619 -0.014025746186 0.0078996917123
          -0.0091773627529 0.0078996917123 0.0059449793549 0.039489663708 0.0020535763997 -0.021051389829
          0.0020535763997 -0.0077888272992 -0.00027787836475 -0.021051389829 -0.00027787836475 -0.0055931154021
          0.10331835148 -0.001170559522 -0.0036868063348 -0.001170559522 -0.024718770802 -0.0031041430697
          -0.0036868063348 -0.0031041430697 -0.024862467468 0.050005420065 0.0038870578277 -0.033876396237
          0.0038870578277 0.0067684585651 0.0013974744581 -0.033876396237 0.0013974744581 0.041707513342
          0.067993186516 0.00087990267941 -0.013978607752 0.00087990267941 -0.013665930121 1.8520243733e-06
          -0.013978607752 1.8520243733e-06 0.015318589954 0.070300551546 -0.0074014246975 -0.033530762387
          -0.0074014246975 -0.009302828015 0.013904145733 -0.033530762387 0.013904145733 0.032034767548
          0.063842587352 0.00011212368957 -0.012544337704 0.00011212368957 -0.011943890143 0.0013082629541
          -0.012544337704 0.0013082629541 0.027156900491 -0.071281819425 0.0018754019033 0.0012029221129
          0.0018754019033 0.021712544828 0.0040174585833 0.0012029221129 0.0040174585833 0.036620888715
          0.061682048947 0.00021307898615 0.0055452176303 0.00021307898615 -0.022585473578 0.0019703964943
          0.0055452176303 0.0019703964943 -0.01244074905 0.17644593793 0.0092217530206 0.022015325861
          0.0092217530206 -0.015435708351 0.0061632602175 0.022015325861 0.0061632602175 0.13254402843
          0.018989155356 0.0039395574749 -0.0033100527245 0.0039395574749 -0.0060939447253 -0.001382342488
          -0.0033100527245 -0.001382342488 0.0048207417359 0.080555145117 0.0016588170905 -0.011688903766
          0.0016588170905 -0.019578248911 0.0050968229687 -0.011688903766 0.0050968229687 0.0016191471314
          0.064496095774 -0.0014513176003 -0.015496847218 -0.0014513176003 -0.015487809514 0.0055773690644
          -0.015496847218 0.0055773690644 0.014288247722 0.049417726347 0.0028159548093 -0.0092069037588
          0.0028159548093 -0.0066678472103 -0.0015738744679 -0.0092069037588 -0.0015738744679 0.024984547055
          0.050510964512 0.00055352006973 -0.013624392694 0.00055352006973 0.010323230658 -0.017378964991
          -0.013624392694 -0.017378964991 0.020536286785 0.0088835312565 -0.0022473889178 -0.002780993566
          -0.0022473889178 0.0011887032103 -0.0040842763266 -0.002780993566 -0.0040842763266 0.024268494826
          0.079243204959 0.00046278844059 0.01819025303 0.00046278844059 -0.0077323366411 0.002677984184
          0.01819025303 0.002677984184 0.072780633593 -0.027215644675 -0.012174040184 0.0013445455251
          -0.012174040184 0.0077351236 0.0022368890233 0.0013445455251 0.0022368890233 0.028392889648
          0.15903678955 0.0064928333576 0.0094890207047 0.0064928333576 -0.0077893122459 0.0085338745103
          0.0094890207047 0.0085338745103 0.14096062413 0.053233748053 0.0031648041237 0.0088215206969
          0.0031648041237 -0.0036656350071 -0.004443112538 0.0088215206969 -0.004443112538 0.02436799567
          -0.0072636558734 -0.00091537555143 -0.0046496346458 -0.00091537555143 0.010644442748 0.0061315224351
          -0.0046496346458 0.0061315224351 0.015763753246 0.16231799655 0.0097916905191 0.016600121009
          0.0097916905191 -0.0092305051368 0.0075118242132 0.016600121009 0.0075118242132 0.13294766143
          0.11051795938 0.0014055585923 0.0028722669761 0.0014055585923 -0.017044253773 0.0050716037743
          0.0028722669761 0.0050716037743 0.038088351098 0.18695312544 0.010921957802 0.0089526122128
          0.010921957802 -0.033566625136 0.013842384273 0.0089526122128 0.013842384273 0.081383340842
          0.14555145588 0.011381562139 0.012710120264 0.011381562139 0.00080160760299 0.0047806948896
          0.012710120264 0.0047806948896 0.14240854159 0.15379071528 0.0075809355944 0.0061949923855
          0.0075809355944 -0.0042767879129 0.0085382158611 0.0061949923855 0.0085382158611 0.13661720032
          0.11158495428 0.0070942097008 0.0046111496919 0.0070942097008 -0.0060452933652 0.0067157374153
          0.0046111496919 0.0067157374153 0.092715969694 0.065173450216 0.0017136141 -0.0085137394949
          0.0017136141 -0.010017730856 0.00061696003763 -0.0085137394949 0.00061696003763 0.029675266328
          0.061445332021 -0.0021812843284 -0.0091402885308 -0.0021812843284 -0.0098135799347 0.00018963523671
          -0.0091402885308 0.00018963523671 0.031996594832 0.037364087849 -0.0037232721971 -0.010574328928
          -0.0037232721971 -0.012633202394 -0.0024493223744 -0.010574328928 -0.0024493223744 0.012557523392
          0.061462054545 -0.00028472240032 -0.014703989065 -0.00028472240032 -0.0094680028984 0.00027948905019
          -0.014703989065 0.00027948905019 0.027502979261 0.1139963084 0.012887850026 0.0034060129155
          0.012887850026 -0.0069584829483 0.0078843648647 0.0034060129155 0.0078843648647 0.091392761012
          0.042460234643 -0.0022120959245 -0.035601406872 -0.0022120959245 0.015311356756 0.0055972103092
          -0.035601406872 0.0055972103092 0.042479011185 0.053728102248 0.0029496980847 -0.036021515741
          0.0029496980847 0.01484604626 -0.0017758963365 -0.036021515741 -0.0017758963365 0.024274443996
          0.11509518297 0.011508493617 0.0057019107992 0.011508493617 -0.0088274047969 0.0064717669798
          0.0057019107992 0.0064717669798 0.082051376211 0.12310301464 0.0091404182727 -0.0016173512119
          0.0091404182727 -0.0021383981063 0.0085184949949 -0.0016173512119 0.0085184949949 0.10634327543
          0.077471923675 0.0081599278049 0.0069518131079 0.0081599278049 -0.0036160601551 -0.0017099824784
          0.0069518131079 -0.0017099824784 0.10469510749 0.037687534043 -0.0028653981151 -0.0080922728821
          -0.0028653981151 0.0039819630643 0.0054358320329 -0.0080922728821 0.0054358320329 0.032243584892
          0.066848065298 0.0010078128482 -0.0080036852287 0.0010078128482 -0.013041279401 -0.0010245314137
          -0.0080036852287 -0.0010245314137 0.025149515322 0.10340785417 0.0045209003172 0.012852223178
          0.0045209003172 -0.01146099762 0.0066387376127 0.012852223178 0.0066387376127 0.070437041155
          0.05360967876 0.0095019261671 0.012763281167 0.0095019261671 0.0024233954256 0.002597625393
          0.012763281167 0.002597625393 0.07337162764 0.13218429829 0.0080779440314 -8.0164107461e-05
          0.0080779440314 -4.2136655721e-05 0.010412385811 -8.0164107461e-05 0.010412385811 0.12814686166
          0.10169923263 0.0034352100068 -0.0017449275281 0.0034352100068 -0.022077779168 0.01376270014
          -0.0017449275281 0.01376270014 0.012778421687 0.15908847654 0.0085970680744 0.023706505498
          0.0085970680744 -0.0051874971665 0.0088770482376 0.023706505498 0.0088770482376 0.13750923317
          -0.011653468074 0.0026267164415 -0.0027035570448 0.0026267164415 0.0010096317083 0.0059266242569
          -0.0027035570448 0.0059266242569 0.024355428685 0.16981750059 0.0099743932377 0.011318184394
          0.0099743932377 -0.0091750158178 0.0083302835787 0.011318184394 0.0083302835787 0.13660034304
          0.15715315067 0.0066286325279 0.021727127369 0.0066286325279 -0.0062241102661 0.0099496913539
          0.021727127369 0.0099496913539 0.13730508296 0.088907246359 0.0064993052575 -0.0099815471948
          0.0064993052575 0.0083347914165 0.0039154568018 -0.0099815471948 0.0039154568018 -7.9505638813e-05
          0.060565194037 -0.00068649705211 -0.01503681407 -0.00068649705211 -0.011839515433 0.0010719250206
          -0.01503681407 0.0010719250206 0.021259484413 0.083490648193 0.0058575612463 0.0080787706298
          0.0058575612463 0.0067070622522 0.0070738990972 0.0080787706298 0.0070738990972 0.095066639269
          0.015904656685 -0.0036455351882 -0.013376187379 -0.0036455351882 -0.0031833696766 -0.0008716410753
          -0.013376187379 -0.0008716410753 0.016831986815 0.030279578109 0.0012766117872 -0.013226918875
          0.0012766117872 -0.00038234092642 -0.0008969927747 -0.013226918875 -0.0008969927747 0.022678958781
          0.073232041616 0.0038229855232 -0.0040131423238 0.0038229855232 -0.020756111164 -0.00084104749613
          -0.0040131423238 -0.00084104749613 -0.0053761122193 0.15835724931 0.003550825723 0.019497312245
          0.003550825723 -0.0051407963313 0.0077043966807 0.019497312245 0.0077043966807 0.13868063181
          -0.028824408396 0.0025887804514 0.0088376374915 0.0025887804514 0.016173507133 0.0077495908933
          0.0088376374915 0.0077495908933 0.063557947131 0.050603657587 -0.00073707578337 -0.0097095469999
          -0.00073707578337 -0.012330115201 -0.0022232448364 -0.0097095469999 -0.0022232448364 -0.0026240195562
          0.066456460754 0.0027468174163 -0.016660960035 0.0027468174163 -0.014043939665 0.00083670172099
          -0.016660960035 0.00083670172099 0.027106118774 0.14180169332 0.012800217862 0.022202857336
          0.012800217862 -0.0088234430664 0.0038524494196 0.022202857336 0.0038524494196 0.12752110109
          0.16316127055 0.0079495058554 0.010112106569 0.0079495058554 -0.0098048082453 0.0096003680972
          0.010112106569 0.0096003680972 0.13879496206 0.045102171748 -0.020178051115 -0.01731068959
          -0.020178051115 0.0087674205051 -0.0082991817599 -0.01731068959 -0.0082991817599 0.072110828557
          0.080309111358 -0.0022007451638 -0.0016062915459 -0.0022007451638 -0.031846325313 0.0022128095286
          -0.0016062915459 0.0022128095286 -0.0269454583 0.061966391928 0.0070167047893 0.0013035298023
          0.0070167047893 0.018148501638 -0.011279393375 0.0013035298023 -0.011279393375 0.017375940162
          0.037986438605 0.00011132990358 -0.011828452421 0.00011132990358 -0.011148828517 -0.0004536516532
          -0.011828452421 -0.0004536516532 -0.0036428417434 0.069077042939 0.0017421464959 -0.0067462251119
          0.0017421464959 -0.011473662808 -0.00027143208531 -0.0067462251119 -0.00027143208531 0.026089764633
          0.0091125537223 -0.11014454811 -0.046159567703 -0.11014454811 -0.051207881448 -0.067589651868
          -0.046159567703 -0.067589651868 0.044426968411 0.059931118955 -0.0074252989694 -0.032329762194
          -0.0074252989694 0.002721851574 0.0045685252635 -0.032329762194 0.0045685252635 0.039147838478
          0.11578642073 0.019000957572 0.012034175565 0.019000957572 0.025860424125 0.020858234343
          0.012034175565 0.020858234343 0.017272919977 0.073246647751 -0.0031778735757 -0.01258454648
          -0.0031778735757 -0.025863781326 -0.0036726947861 -0.01258454648 -0.0036726947861 -0.01212846226
          0.066198132599 0.0017454622163 -0.0070919584297 0.0017454622163 -0.012419466234 -5.6616447101e-05
          -0.0070919584297 -5.6616447101e-05 0.026619496062 -0.01198826541 -0.002211717283 -0.0038387478505
          -0.002211717283 0.0063390048286 0.0040815522323 -0.0038387478505 0.0040815522323 0.021994037566
          0.078234291753 0.0039162398495 -0.0040750344363 0.0039162398495 -0.023366025141 0.00064727433354
          -0.0040750344363 0.00064727433354 -0.0071452368776 0.0058133937033 -0.0094520810762 -0.0076804499414
          -0.0094520810762 0.0065936664184 -2.4584391294e-05 -0.0076804499414 -2.4584391294e-05 0.027837876866
          0.084431621661 0.0091952459983 -0.0028500795194 0.0091952459983 0.0093661536339 0.011036135607
          -0.0028500795194 0.011036135607 0.095813175534 -0.022960570914 -0.0050497091699 -0.016571763412
          -0.0050497091699 0.0079688921242 0.0028570558965 -0.016571763412 0.0028570558965 0.03320764581
          0.12869257337 0.012759560507 0.0057085432397 0.012759560507 -0.020691517399 0.0042274685015
          0.0057085432397 0.0042274685015 0.047664652262 0.13029975662 0.0091203554118 0.0037967098697
          0.0091203554118 -0.025254859427 0.0061309033837 0.0037967098697 0.0061309033837 0.049479366183
          0.12483672917 0.011248122618 0.010186534857 0.011248122618 -0.023063503245 0.0017509386933
          0.010186534857 0.0017509386933 0.03785853342 0.15779567098 0.0084756074992 0.0058194079362
          0.0084756074992 -0.0074166578232 0.008979054857 0.0058194079362 0.008979054857 0.13650209565
          0.028249527273 -0.0010857218626 -0.015945180845 -0.0010857218626 -0.0068520405428 -0.00149757418
          -0.015945180845 -0.00149757418 0.0081135507403 0.068123608604 0.0035565247039 -0.0046346932108
          0.0035565247039 -0.020211782958 -0.0028093314239 -0.0046346932108 -0.0028093314239 0.0018557926115
          0.079266021143 0.0045538671097 0.014370411861 0.0045538671097 -0.0038302711763 0.0099365273613
          0.014370411861 0.0099365273613 0.083933050606 0.044136983629 -0.005827093317 -0.010184423735
          -0.005827093317 0.017850864815 0.0090834766328 -0.010184423735 0.0090834766328 0.011000553508
          0.054908507319 -0.0093803767235 -0.022263387749 -0.0093803767235 -0.018943454072 -0.0015448632963
          -0.022263387749 -0.0015448632963 0.021784986894 -0.029411098171 -0.0014360552403 0.0040035147728
          -0.0014360552403 0.0072495886339 0.0010190979156 0.0040035147728 0.0010190979156 0.024044306539
          0.15531294101 0.0091561479782 0.0041745095957 0.0091561479782 -0.010843004932 0.010606275688
          0.0041745095957 0.010606275688 0.13315342003 0.05788699998 0.0025269368355 -0.009610396244
          0.0025269368355 -0.018746243262 -0.003425351895 -0.009610396244 -0.003425351895 -0.030312534462
          -0.05638964324 0.00090276254564 -0.0056029687385 0.00090276254564 0.026573058457 0.0030708691077
          -0.0056029687385 0.0030708691077 0.015934633123 0.064056858035 0.0022857951213 -0.0096422141458
          0.0022857951213 -0.015461860595 -0.0016095247969 -0.0096422141458 -0.0016095247969 0.0061996324988
          0.18140841235 0.011721852477 0.012978324418 0.011721852477 -0.013607333974 0.0097598133217
          0.012978324418 0.0097598133217 0.13606825901 0.15991802263 0.0069554860764 0.0091345342416
          0.0069554860764 -0.0061760002664 0.011710036032 0.0091345342416 0.011710036032 0.13918361958
          0.16386604755 0.010240468606 0.015310624016 0.010240468606 -0.0062538517816 0.0079160867641
          0.015310624016 0.0079160867641 0.14293220415 0.12920117625 0.0053970526085 0.0076656202003
          0.0053970526085 -0.023697710361 0.0035133177029 0.0076656202003 0.0035133177029 0.048235835408
          0.15383805564 0.009445141995 -0.00047227989452 0.009445141995 -0.012108750472 0.010241317429
          -0.00047227989452 0.010241317429 0.095106433267 0.015191972893 -0.001561426515 -0.015173088408
          -0.001561426515 -0.0029244299594 -0.0033275975716 -0.015173088408 -0.0033275975716 0.021659104858
          0.14982654625 0.0044738813315 0.011619277047 0.0044738813315 -0.0040974394048 0.0044070020188
          0.011619277047 0.0044070020188 0.14522088136 0.06718689515 -0.0020940630175 -0.015327686483
          -0.0020940630175 -0.023059907622 -0.0041878855179 -0.015327686483 -0.0041878855179 0.00092461378765
          0.083010323615 0.0048577823854 0.017546576607 0.0048577823854 -0.00442580617 0.0047415100601
          0.017546576607 0.0047415100601 0.071557985773 0.042140574279 0.0001658536648 -0.017038655252
          0.0001658536648 -0.0052689733394 0.0038365844743 -0.017038655252 0.0038365844743 0.021689323446
          0.063292889721 0.0019608541663 -0.015312797452 0.0019608541663 -0.0086646658559 -0.00092150961824
          -0.015312797452 -0.00092150961824 0.025140175162 0.1552249125 0.01006562233 -0.0012659839068
          0.01006562233 -0.013844315955 0.011035689278 -0.0012659839068 0.011035689278 0.10886867117
          0.035566944922 0.0054120904683 -0.012748037989 0.0054120904683 -0.015139786731 0.053731524378
          -0.012748037989 0.053731524378 0.050603277493 0.063503929836 -0.00061803926146 -0.015749648351
          -0.00061803926146 -0.012040068238 0.00048931991281 -0.015749648351 0.00048931991281 0.027673827402
          0.10192128097 0.0053017299401 0.010951564268 0.0053017299401 0.00052227637803 0.0064007422587
          0.010951564268 0.0064007422587 0.090945955332 0.042688230039 0.0007511970137 -0.007686073868
          0.0007511970137 -0.0079086683186 0.0012349332946 -0.007686073868 0.0012349332946 0.026335396162
          0.022090310223 -0.0018508797058 -0.017826914177 -0.0018508797058 0.0025874864275 -0.00060867396493
          -0.017826914177 -0.00060867396493 0.014794125444 0.0054223140925 0.00076359482709 0.00021292731273
          0.00076359482709 -0.0037315288493 -0.0066140096705 0.00021292731273 -0.0066140096705 0.039987525556
          0.12439657148 0.014597328194 -0.044972202065 0.014597328194 -0.029883653898 -0.019751169341
          -0.044972202065 -0.019751169341 -0.0064042982763 0.19403485476 0.0080758720271 0.0097531470774
          0.0080758720271 -0.034369830383 0.0094742384516 0.0097531470774 0.0094742384516 0.10727336255
          0.024500227822 -0.0032851701529 -0.0048735442246 -0.0032851701529 -0.0013334471476 0.0010932073062
          -0.0048735442246 0.0010932073062 0.031755831037 0.13030480382 0.0059994151822 0.0022929745691
          0.0059994151822 -0.0085071063841 0.010206695187 0.0022929745691 0.010206695187 0.094558052055
          0.1676475576 0.0085239711383 0.0033173710353 0.0085239711383 -0.012535206328 0.0060555584145
          0.0033173710353 0.0060555584145 0.11432114314 -0.074458098837 -0.00067424286305 -0.010639010264
          -0.00067424286305 0.025599991894 0.0043653503593 -0.010639010264 0.0043653503593 0.018025193574
          0.04416729001 0.0017411608913 0.0049802401922 0.0017411608913 0.012230124203 0.0067515203029
          0.0049802401922 0.0067515203029 0.089640877529 0.12532622089 0.005964298432 -0.00014119295369
          0.005964298432 -0.00063225616011 0.009651684289 -0.00014119295369 0.009651684289 0.12035131197
          -0.0045303267448 -0.0053135101493 -0.0066616107986 -0.0053135101493 0.00081895330617 0.0064991546773
          -0.0066616107986 0.0064991546773 0.02142607586 0.07046225652 -0.0036932111338 0.012246836688
          -0.0036932111338 -0.012803696449 0.0073809975093 0.012246836688 0.0073809975093 0.024990003305
          0.062056247618 0.00055884758869 -0.0085622834899 0.00055884758869 -0.0063208235288 0.0015217863947
          -0.0085622834899 0.0015217863947 0.029889321632 0.14707910142 0.0042609787819 0.011257184585
          0.0042609787819 -2.1461790007e-05 0.0070990523682 0.011257184585 0.0070990523682 0.14877341844
          0.16314072606 0.00844151119 0.023781835658 0.00844151119 -0.0093568937791 0.0085529868929
          0.023781835658 0.0085529868929 0.13725565221 0.059419624275 -0.0013838816392 -0.015952440712
          -0.0013838816392 -0.011451050352 -0.0030304122231 -0.015952440712 -0.0030304122231 0.026621400431
          0.019387486176 0.00028456992329 -0.02543072853 0.00028456992329 0.013967760826 0.004951127162
          -0.02543072853 0.004951127162 0.045684653701 -0.0023657343834 0.01326628327 0.0079637347413
          0.01326628327 0.015180883805 -0.0020254754 0.0079637347413 -0.0020254754 0.05526284173
          0.0051006837099 0.0013853972695 0.0086810174145 0.0013853972695 0.0061788737178 -7.9920945157e-05
          0.0086810174145 -7.9920945157e-05 0.01469774213 0.072653933036 0.002120667037 -0.0019478533392
          0.002120667037 0.024854685715 0.0018914601905 -0.0019478533392 0.0018914601905 -0.021618033646
          0.16726365258 0.0074890094966 0.0059705987391 0.0074890094966 -0.0095414754113 0.0070047699886
          0.0059705987391 0.0070047699886 0.12913520823 0.081921557414 -0.0061563140244 -0.0070529669463
          -0.0061563140244 -0.0073921445187 0.0024310584453 -0.0070529669463 0.0024310584453 0.077688453688
          0.062261623954 0.0010519199716 -0.015468184356 0.0010519199716 -0.0120160563 0.00044174904166
          -0.015468184356 0.00044174904166 0.026885332701 0.078026379962 0.00070114838537 -0.0061632861229
          0.00070114838537 -0.018282395065 0.0026029451052 -0.0061632861229 0.0026029451052 0.013141951021
          0.0086425704602 -0.00014049751539 -0.0045493818184 -0.00014049751539 0.0051388950318 0.00071435559395
          -0.0045493818184 0.00071435559395 0.016373247025 0.17851818261 0.0069471016419 0.011971401125
          0.0069471016419 -0.018375593434 0.0073530574833 0.011971401125 0.0073530574833 0.13066764583
          0.064114196823 0.0034952481495 -0.012170008466 0.0034952481495 -0.010105251707 8.9194256061e-05
          -0.012170008466 8.9194256061e-05 0.026322642001 0.083647106898 0.0091011817144 0.015894294559
          0.0091011817144 -0.022353976497 0.0034711601825 0.015894294559 0.0034711601825 0.031932723465
          0.057893777841 0.0063343708996 0.0064325324 0.0063343708996 0.013094130025 0.0048267005115
          0.0064325324 0.0048267005115 0.081158594855 0.1037184665 -0.0052565875781 0.00045159003834
          -0.0052565875781 -0.0069502861118 -0.023786498592 0.00045159003834 -0.023786498592 -0.0090338651926
          -0.0038815431854 0.00046605248496 -0.014633457925 0.00046605248496 -0.0023741121842 -0.0052628818628
          -0.014633457925 -0.0052628818628 0.0043886251452 0.11743971892 0.0094522180007 0.0093112487857
          0.0094522180007 -0.023400669066 0.004797023038 0.0093112487857 0.004797023038 0.027418447058
          -0.043487576803 -0.00066983138687 0.01017558759 -0.00066983138687 0.021894948396 -0.0062754554527
          0.01017558759 -0.0062754554527 0.022192533131 0.069536852597 -0.00073185810813 -0.0077520893379
          -0.00073185810813 -0.01263185856 0.00059102093558 -0.0077520893379 0.00059102093558 0.023864204953
          0.13725095123 0.011041836239 -0.004211157915 0.011041836239 -0.011464052616 0.0069572864296
          -0.004211157915 0.0069572864296 0.097770021988 0.15220383606 0.0097176750422 0.0076696648687
          0.0097176750422 -0.007822892281 0.0066265623818 0.0076696648687 0.0066265623818 0.12004304351
          0.05516576258 0.0026382743423 -0.017123119552 0.0026382743423 -0.011507741298 0.00090966939816
          -0.017123119552 0.00090966939816 0.026584750343 -0.020886104211 0.0044844560464 -0.027194782315
          0.0044844560464 0.013885624045 0.0042517989321 -0.027194782315 0.0042517989321 0.011138476371
          0.074070392033 0.00055330990389 -0.0064822463606 0.00055330990389 -0.012952310241 0.00032069851852
          -0.0064822463606 0.00032069851852 0.024148370406 0.16860127808 0.0081606048804 0.004693867012
          0.0081606048804 -0.011371192873 0.010458876753 0.004693867012 0.010458876753 0.12353088587
          -0.078208015782 -0.0060927727363 0.0019934612703 -0.0060927727363 0.017878354754 -0.00072503266659
          0.0019934612703 -0.00072503266659 0.025086034988 0.053503540993 0.00081979350644 -0.010438460603
          0.00081979350644 -0.011985015122 -0.0042086550674 -0.010438460603 -0.0042086550674 0.010003299668
          0.063540121006 0.00058160285369 -0.04022679929 0.00058160285369 0.016793422904 0.0060720706458
          -0.04022679929 0.0060720706458 0.018219924395 0.038148290542 0.0015384034769 -0.014734518941
          0.0015384034769 -0.0062691126005 0.0044728986134 -0.014734518941 0.0044728986134 0.0226617219
          0.050029660963 0.0021700807941 -0.019315260558 0.0021700807941 0.0066186137206 0.00036631679729
          -0.019315260558 0.00036631679729 0.08450889579 -0.055054191445 -0.006396308107 0.013873435886
          -0.006396308107 0.021919804675 0.0039788306963 0.013873435886 0.0039788306963 0.042682965123
          0.07278693179 0.0024092106088 -0.0081676598072 0.0024092106088 -0.012487694064 0.00028308074322
          -0.0081676598072 0.00028308074322 0.026190433807 0.045264655393 -0.0020706255257 -0.0077948562115
          -0.0020706255257 -0.0047702816202 0.00076577556187 -0.0077948562115 0.00076577556187 0.03068178245
          0.15878265174 0.0071545378839 0.013424671482 0.0071545378839 -0.0043665117405 0.0070399438277
          0.013424671482 0.0070399438277 0.14149786942 0.085067387648 0.0055648193096 0.0051831963351
          0.0055648193096 0.0039002626571 0.0052781880352 0.0051831963351 0.0052781880352 0.10334565454
          0.10629530105 0.0061156578835 0.0019082871834 0.0061156578835 -0.00087544685286 0.0087078069954
          0.0019082871834 0.0087078069954 0.097599810585 0.062267841807 0.00041854147733 -0.014948652883
          0.00041854147733 -0.011434540414 0.00094041062778 -0.014948652883 0.00094041062778 0.025396320345
          0.058228253401 0.00092339672282 -0.01130023668 0.00092339672282 -0.0058882920066 -0.0039117104455
          -0.01130023668 -0.0039117104455 0.017937855713 0.025545285175 -0.0019770538548 0.011769086346
          -0.0019770538548 -0.00072420063187 0.0018924317684 0.011769086346 0.0018924317684 -0.013585691316
          0.043436520704 0.014297689254 -0.041958071224 0.014297689254 0.004174417216 -0.0073549192564
          -0.041958071224 -0.0073549192564 -0.00444789379 0.054188406894 0.00034529639096 -0.028454444192
          0.00034529639096 0.016924309289 -0.0042167674958 -0.028454444192 -0.0042167674958 0.0022425905463
          0.059679622568 -0.0002876819956 -0.015521544823 -0.0002876819956 -0.0090943441431 0.00020441474485
          -0.015521544823 0.00020441474485 0.024710881355 0.076282923523 -0.0052859915019 -0.0212592122
          -0.0052859915019 -0.018969527179 0.0013790230498 -0.0212592122 0.0013790230498 -0.00027465439196
          0.16240933158 0.010239304218 0.020781981344 0.010239304218 -0.007001109789 0.0090299905544
          0.020781981344 0.0090299905544 0.13777247297 0.062279467246 -0.00030659279454 -0.0033375574862
          -0.00030659279454 -0.01603916075 -0.00062654137782 -0.0033375574862 -0.00062654137782 -0.0056954187317
          0.097611496324 0.007416175752 -0.0041045406168 0.007416175752 -0.018080588063 0.002610955285
          -0.0041045406168 0.002610955285 -0.031357716974 0.13515533538 0.0092405397611 0.00050399204432
          0.0092405397611 -0.011699937158 0.0077116453713 0.00050399204432 0.0077116453713 0.087819606251
          0.065775949252 -6.6412487084e-05 -0.010584315982 -6.6412487084e-05 -0.018339868204 -0.00076437289711
          -0.010584315982 -0.00076437289711 0.0056764758771 0.057679229859 0.014217590533 -0.041535018294
          0.014217590533 0.0081894987887 0.0019511820179 -0.041535018294 0.0019511820179 0.031489810789
          0.053531235806 -0.0027458728525 -0.013499782521 -0.0027458728525 -0.0086614537711 0.0014364715902
          -0.013499782521 0.0014364715902 0.015720858994 0.054992299163 0.009721558521 0.013049916136
          0.009721558521 0.001265921026 0.0031899689892 0.013049916136 0.0031899689892 0.0731802864
          0.10059594978 0.0039945925394 -0.0064044740403 0.0039945925394 0.024022649493 0.0033926667274
          -0.0064044740403 0.0033926667274 -0.024290625365 0.050194580368 0.0055567913001 -0.034036883729
          0.0055567913001 0.0053595359515 0.0044062732907 -0.034036883729 0.0044062732907 0.02813849019
          0.11026620885 -0.027743968455 0.027044921984 -0.027743968455 -0.06910650414 -0.043019226238
          0.027044921984 -0.043019226238 0.037191404771 -0.074976468902 -0.0026211715926 0.0041336731115
          -0.0026211715926 0.017912045989 0.0076404134579 0.0041336731115 0.0076404134579 0.034117165495
          0.051759708154 0.00036381783786 -0.0043378325637 0.00036381783786 -0.0064526537559 0.0015064115999
          -0.0043378325637 0.0015064115999 0.03193041872 0.029408688449 -0.00021760327288 -0.020492520419
          -0.00021760327288 -0.0080877559402 -0.003809326619 -0.020492520419 -0.003809326619 -0.010065593651
          0.099459014683 0.0060023034302 -0.0015897424866 0.0060023034302 -0.038126942768 -0.008757980548
          -0.0015897424866 -0.008757980548 -0.030497202807 0.087805592645 -0.00030993803553 0.0040125119123
          -0.00030993803553 -0.032024366409 0.013308123182 0.0040125119123 0.013308123182 -0.034219199842
          -0.035971508375 -0.0052162052524 0.0069622788292 -0.0052162052524 0.012808627642 -0.0037886404796
          0.0069622788292 -0.0037886404796 0.025147286954 0.16630604905 0.01096143744 0.023433883062
          0.01096143744 -0.0089316319835 0.0073213282971 0.023433883062 0.0073213282971 0.13085004766
          0.16820136711 0.0131007147 0.022534141476 0.0131007147 -0.01760978084 0.010502692117
          0.022534141476 0.010502692117 0.13007599197 0.1164900349 0.0066953971662 0.010651560591
          0.0066953971662 -0.015259707944 0.0081473384376 0.010651560591 0.0081473384376 0.046142230254
          0.11973224988 0.0065854442468 0.003098226613 0.0065854442468 -0.0060697742203 0.009727304069
          0.003098226613 0.009727304069 0.096399739348 0.0066580254024 -0.017483568003 0.015928420165
          -0.017483568003 -0.046992777361 0.01390410188 0.015928420165 0.01390410188 0.14007133977
          0.083262379251 0.0039618675289 -0.01167583704 0.0039618675289 -0.016433851783 0.0076409118838
          -0.01167583704 0.0076409118838 -0.019856353241 0.036554549337 -0.0035115610836 -0.0047572455526
          -0.0035115610836 0.011473934716 -0.00054765792874 -0.0047572455526 -0.00054765792874 0.030337305565
          0.11121885069 0.010177741562 0.0027208984094 0.010177741562 -0.0034471592564 0.006855829394
          0.0027208984094 0.006855829394 0.097534721522 0.1224772289 0.0065835347921 -0.00020559510008
          0.0065835347921 -0.0065670257863 0.0092443421699 -0.00020559510008 0.0092443421699 0.10335934635
          0.075518846944 0.0088667127932 0.0065661568872 0.0088667127932 0.0088549820798 0.0049894503481
          0.0065661568872 0.0049894503481 0.094818531855 0.032974077194 0.0057289082159 0.0029955756628
          0.0057289082159 -0.0030975690148 -0.00049843394693 0.0029955756628 -0.00049843394693 0.0086773226689
          -0.046199960305 0.0086831752389 -0.0042241499657 0.0086831752389 0.020027515906 0.00012233080321
          -0.0042241499657 0.00012233080321 0.032120332267 0.05791952514 5.3833649758e-05 -0.012279053754
          5.3833649758e-05 -0.012138371371 -0.00024605466578 -0.012279053754 -0.00024605466578 0.025721649861
          0.14717670476 0.010216993721 0.0051409416418 0.010216993721 -0.0094630443486 0.0083905343954
          0.0051409416418 0.0083905343954 0.11641460575 0.081496598821 -0.010194653314 -0.012390581342
          -0.010194653314 -0.02108821726 -0.0096525551707 -0.012390581342 -0.0096525551707 -0.019903440989
          0.15551885878 0.011667922566 0.02047184676 0.011667922566 -0.0061224493476 0.0071481740489
          0.02047184676 0.0071481740489 0.13741611443 0.054367150754 0.0030066407455 -0.010303830295
          0.0030066407455 -0.0085822642423 0.0014998319629 -0.010303830295 0.0014998319629 0.025133214783
          0.14355466795 0.0040963317231 0.028401868099 0.0040963317231 -0.004939514246 0.010802047331
          0.028401868099 0.010802047331 0.12540418324 0.12642498622 0.0083278307192 -0.0015794658406
          0.0083278307192 -0.0067708660469 0.0083294885536 -0.0015794658406 0.0083294885536 0.096325477893
          0.087052441074 0.013002763737 -0.0017424400828 0.013002763737 0.0024114358183 0.008075491868
          -0.0017424400828 0.008075491868 0.096978128848 0.14348746599 0.0058165270153 0.019641351564
          0.0058165270153 -0.030421919309 -0.0090096224399 0.019641351564 -0.0090096224399 0.066444104788
          0.09607055103 0.010263284028 0.0095937929031 0.010263284028 0.0005775311545 0.0065959766311
          0.0095937929031 0.0065959766311 0.087646725745 -0.020360840173 -0.0017679738367 0.010181225921
          -0.0017679738367 0.010667452472 0.00575361888 0.010181225921 0.00575361888 0.021954962831
          0.056388724355 0.0053402279204 -0.0084186096088 0.0053402279204 0.02059894109 -0.0067380098436
          -0.0084186096088 -0.0067380098436 0.0056387951689 0.14456946828 0.010797256434 0.0061880663188
          0.010797256434 -0.0029363100198 0.010125312833 0.0061880663188 0.010125312833 0.13402818407
          0.061836626604 0.014270126705 -0.041511137267 0.014270126705 0.011366014682 -0.0061315246521
          -0.041511137267 -0.0061315246521 0.0018067210344 0.050993636966 0.0010612317087 0.0058112715876
          0.0010612317087 0.017071909511 0.0041966491598 0.0058112715876 0.0041966491598 0.092308970395
          0.1550610297 0.010272620281 0.0097868386729 0.010272620281 -0.0085592114955 0.0089880719744
          0.0097868386729 0.0089880719744 0.12376691578 0.062556574471 -0.00059211787508 0.019465417534
          -0.00059211787508 -0.0018867177184 0.0093958174557 0.019465417534 0.0093958174557 0.052944195899
          0.16642959237 0.01070538431 0.010431082291 0.01070538431 -0.0094335473382 0.0082150931575
          0.010431082291 0.0082150931575 0.13705139713 0.12001728166 0.006862707977 0.0037049505345
          0.006862707977 -0.0046643199455 0.0080177231905 0.0037049505345 0.0080177231905 0.10024727597
          0.056752993055 0.0059948278516 0.0066321301576 0.0059948278516 0.0066635418285 0.00080273843998
          0.0066321301576 0.00080273843998 0.074186888312 0.091143799897 0.0029922164692 0.015028448878
          0.0029922164692 0.0027774839531 0.009108238308 0.015028448878 0.009108238308 0.11724220542
          0.0030406842252 -0.0045896396021 -0.021422880702 -0.0045896396021 0.010619907149 0.0022539439778
          -0.021422880702 0.0022539439778 0.0024500703429 0.16375375417 0.0095038154695 0.020154329345
          0.0095038154695 -0.0091378311197 0.0080922863659 0.020154329345 0.0080922863659 0.13321914604
          0.046069498234 0.015390080379 0.0082503780914 0.015390080379 0.0058974971621 0.0033184207453
          0.0082503780914 0.0033184207453 0.082758277774 0.053880391163 0.0074363331481 0.018585367418
          0.0074363331481 -0.0036222726909 0.0076204399271 0.018585367418 0.0076204399271 0.029654658245
          0.16929373315 0.011249231438 0.020083788894 0.011249231438 -0.0097079484507 0.0076397125706
          0.020083788894 0.0076397125706 0.13055361221 0.048124624382 -0.0021619740066 -0.011424332753
          -0.0021619740066 -0.0092058301632 -0.00052734208874 -0.011424332753 -0.00052734208874 -0.021432477108
          0.15446168024 0.0096892007435 0.0099384383543 0.0096892007435 -0.0083906897122 0.0094479728293
          0.0099384383543 0.0094479728293 0.12386103307 0.032289746128 0.0075014604738 -0.0052021860232
          0.0075014604738 -0.007692556892 0.00047618660322 -0.0052021860232 0.00047618660322 0.031576011966
          -0.013948878 -0.0073806697887 -0.0081153744717 -0.0073806697887 0.0055323768035 0.0010003552059
          -0.0081153744717 0.0010003552059 0.018537464576 0.075910137759 0.0015013737194 -0.0051889470619
          0.0015013737194 -0.014029346188 0.0019764253301 -0.0051889470619 0.0019764253301 0.019986899685
          0.15930524697 0.0055025142575 0.00097201539021 0.0055025142575 -0.014254459016 0.01063821244
          0.00097201539021 0.01063821244 0.11510432625 0.022218460697 0.0016852271979 -0.0049904278512
          0.0016852271979 -0.00039770706232 -0.001037630607 -0.0049904278512 -0.001037630607 0.028600925353
          0.065700940964 0.001198229816 -0.0088768953035 0.001198229816 -0.011215295501 0.0014798486536
          -0.0088768953035 0.0014798486536 0.026165388814 0.070274401314 -0.00086309901524 -0.012929353367
          -0.00086309901524 -0.011852100514 0.0014149635592 -0.012929353367 0.0014149635592 0.020595024335
          0.13409341523 0.010994168499 0.001826919798 0.010994168499 -0.010122966133 0.010137920261
          0.001826919798 0.010137920261 0.087863149595 0.066071596609 0.013173488125 -0.033429260379
          0.013173488125 -0.019480372895 0.0066499714437 -0.033429260379 0.0066499714437 0.051961253492
          0.065193796689 0.00054587448143 -0.017402961789 0.00054587448143 -0.011198489638 -0.0001140145983
          -0.017402961789 -0.0001140145983 0.026687655605 0.059791080318 -0.0014159874064 -0.0011993618748
          -0.0014159874064 -0.023280885569 -0.0036094598328 -0.0011993618748 -0.0036094598328 -0.023030777845
          0.081240333932 -0.0030679370763 -3.2909367176e-06 -0.0030679370763 -0.026856342483 0.0038474706535
          -3.2909367176e-06 0.0038474706535 -0.038355110135 0.060385862656 -0.00065501536834 0.0049540987665
          -0.00065501536834 -0.022407208912 0.0020665156704 0.0049540987665 0.0020665156704 -0.0076681111774
          0.079165807008 -9.0524915982e-05 -0.0049098230334 -9.0524915982e-05 -0.018226300112 -0.00026853631497
          -0.0049098230334 -0.00026853631497 0.023012811018 0.073857693066 -0.0011549154387 -0.0080207699975
          -0.0011549154387 -0.018427805587 -0.00089920207835 -0.0080207699975 -0.00089920207835 0.021193505089
          0.077055073013 0.0027937420154 -0.0094416361811 0.0027937420154 -0.016266466041 -0.0020459832937
          -0.0094416361811 -0.0020459832937 0.020111000354 0.066348198835 0.0036085458182 -0.019694240152
          0.0036085458182 -0.0259289401 -0.0013641457897 -0.019694240152 -0.0013641457897 -0.0096288351854
          0.12307771541 0.010776012623 0.0015544895135 0.010776012623 -0.0072820187303 0.0091709985021
          0.0015544895135 0.0091709985021 0.095243365443 0.15104397302 0.018855302563 0.019805386943
          0.018855302563 -0.031040947477 0.0092949698673 0.019805386943 0.0092949698673 0.058102957423
          0.14700101008 -0.0038814469766 -0.0016792567468 -0.0038814469766 -0.011785420781 -0.014678970634
          -0.0016792567468 -0.014678970634 -0.026184101365 0.10357843385 0.0028131438917 0.0060134218884
          0.0028131438917 -0.01531398788 0.0025665992376 0.0060134218884 0.0025665992376 0.030943154623
          0.076007003784 0.0018206178992 -0.010381309402 0.0018206178992 -0.019140609774 -0.0020810104859
          -0.010381309402 -0.0020810104859 0.0040844449039 0.14209331469 0.010168340525 -0.00058254711469
          0.010168340525 -0.014635996843 0.0080735289126 -0.00058254711469 0.0080735289126 0.089604584169
          -0.05232928657 0.0078149759264 -0.0097565215455 0.0078149759264 0.010984998891 0.00089613526229
          -0.0097565215455 0.00089613526229 0.022824737335 -0.0096834211605 -0.0033016431216 -0.0087293956664
          -0.0033016431216 0.00046607984441 -0.0034707548346 -0.0087293956664 -0.0034707548346 0.0017491397272
          0.079115849906 0.012902424295 0.0033040125489 0.012902424295 0.0069265003209 0.0057856692987
          0.0033040125489 0.0057856692987 0.094995917622 0.091914428051 0.001302396114 -0.0046932831502
          0.001302396114 -0.018145327514 -0.00045541671661 -0.0046932831502 -0.00045541671661 -0.031048149774
          0.042516011432 -0.010314029256 -0.0512177835 -0.010314029256 0.013153727513 -0.010486586278
          -0.0512177835 -0.010486586278 -0.0030941454481 0.15012548249 0.0095208390024 0.0002104991616
          0.0095208390024 -0.011477352971 0.0099854397701 0.0002104991616 0.0099854397701 0.10438629039
          0.064863433978 -6.9510218676e-05 -0.016712307408 -6.9510218676e-05 -0.01333306271 0.001989336077
          -0.016712307408 0.001989336077 0.021725121995 0.059365321508 0.000733645588 -0.012445547074
          0.000733645588 -0.0092882983005 0.0002694080171 -0.012445547074 0.0002694080171 0.02891797931
          0.11376444654 0.010209504629 0.0016371666838 0.010209504629 -0.0019747203604 0.0084674988573
          0.0016371666838 0.0084674988573 0.10493418651 0.10175052779 0.0092363427448 0.0085891181687
          0.0092363427448 0.00087907766605 0.0081181781255 0.0085891181687 0.0081181781255 0.090991759414
          0.060937684042 0.006821905594 -0.031879120215 0.006821905594 0.016489278102 0.013647214026
          -0.031879120215 0.013647214026 0.00013770396664 0.070651577041 -9.7271309823e-05 -0.013929977764
          -9.7271309823e-05 -0.014926114589 -0.00018289660284 -0.013929977764 -0.00018289660284 0.023311294246
          0.061176529276 -0.00035580320136 -0.015044793417 -0.00035580320136 -0.010020632321 0.00021643633266
          -0.015044793417 0.00021643633266 0.026385196159 0.075878309857 0.0039941290323 -0.0064198861921
          0.0039941290323 -0.015441016222 0.0015280471503 -0.0064198861921 0.0015280471503 0.017743530089
          0.050404113015 0.00365562764 -0.016594229896 0.00365562764 -0.010425185872 0.00080381789688
          -0.016594229896 0.00080381789688 0.014369544572 0.16363073477 0.011011013558 0.0077813078177
          0.011011013558 -0.01046816715 0.010198148352 0.0077813078177 0.010198148352 0.12344104852
          -0.029364225513 0.0016496819075 -0.020246259796 0.0016496819075 -0.00056798261243 -0.0023216794992
          -0.020246259796 -0.0023216794992 0.0094555865493 0.16069851309 0.010662566289 0.012119026317
          0.010662566289 -0.010272004881 0.010113965726 0.012119026317 0.010113965726 0.12867701875
          0.082074962411 0.0028251391176 -0.0073412122657 0.0028251391176 -0.018614617167 0.0023701148836
          -0.0073412122657 0.0023701148836 0.014171034768 0.067427213993 -0.00048218181438 -0.012877346673
          -0.00048218181438 -0.011868219333 0.00043744198014 -0.012877346673 0.00043744198014 0.026810681798
          -0.076739333537 -0.0051140608551 -0.00065409567198 -0.0051140608551 0.017672681965 0.0010908867344
          -0.00065409567198 0.0010908867344 0.020864611356 -0.020187092731 -0.00067150482381 -0.008593465496
          -0.00067150482381 0.004362682895 0.00029099061541 -0.008593465496 0.00029099061541 0.017726242677
          0.028825979037 0.0013365711771 0.0066925247914 0.0013365711771 0.016330199389 -0.0025760160705
          0.0066925247914 -0.0025760160705 0.11087859321 0.066187474784 0.00010438869269 -0.014409293683
          0.00010438869269 -0.012775357904 -0.00035596874944 -0.014409293683 -0.00035596874944 0.022436615187
          0.12922742496 0.007931037001 0.0031971715297 0.007931037001 -0.011061971746 0.0097281175365
          0.0031971715297 0.0097281175365 0.095236375276 0.078420258945 0.0011121919431 -0.0063513089921
          0.0011121919431 -0.01512454916 0.0001053385862 -0.0063513089921 0.0001053385862 0.022097335715
          0.2242666337 0.0059288956224 0.061926951621 0.0059288956224 -0.046844357356 -0.01294508416
          0.061926951621 -0.01294508416 0.063824791947 0.064605519117 -0.00013065168431 -0.013606111605
          -0.00013065168431 -0.012138708029 -0.00029644616914 -0.013606111605 -0.00029644616914 0.024590107239
          0.066124447095 -0.0002587717294 -0.0085850910021 -0.0002587717294 -0.01167952132 0.0019851615641
          -0.0085850910021 0.0019851615641 0.025437908077 0.11154217435 0.010328012954 0.0037354149204
          0.010328012954 -0.0034001310816 0.0075448901945 0.0037354149204 0.0075448901945 0.098643621166
          0.050891269374 -6.7130775314e-05 -0.011399060798 -6.7130775314e-05 -0.011779620691 -0.0041902332774
          -0.011399060798 -0.0041902332774 0.0041987284195 0.028034622495 0.00037229403443 0.0056781295532
          0.00037229403443 -0.0016705666715 0.016026231247 0.0056781295532 0.016026231247 -0.011782553228
          0.11176784389 0.0063117635918 0.0074526279824 0.0063117635918 -0.0059369429848 0.0060624685202
          0.0074526279824 0.0060624685202 0.091913287779 0.15621898843 0.0084056245434 -0.0002051658819
          0.0084056245434 -0.01493805603 0.011702533278 -0.0002051658819 0.011702533278 0.10068126597
          0.06619180015 9.2275670182e-05 -0.010626847751 9.2275670182e-05 -0.011461288471 0.00036027848739
          -0.010626847751 0.00036027848739 0.027307891036 0.030944348351 -0.0063990216508 -0.0089764770589
          -0.0063990216508 -0.0022804472498 -0.0018915932517 -0.0089764770589 -0.0018915932517 -0.0028029738377
          0.085450433648 -0.011566663085 -0.00045810343902 -0.011566663085 -0.016704525374 0.013152360127
          -0.00045810343902 0.013152360127 0.012426027837 0.084747525306 0.0071983514888 0.002643411401
          0.0071983514888 -0.034298887772 0.0035482805199 0.002643411401 0.0035482805199 -0.017474444364
          0.12115054503 0.011447191282 0.0098202996922 0.011447191282 0.0060453355801 0.0067043900559
          0.0098202996922 0.0067043900559 0.14793822742 0.042947508875 0.00084440923862 -0.010123469818
          0.00084440923862 -0.0055676781109 -0.0006568268447 -0.010123469818 -0.0006568268447 0.034941569819
          0.051357191999 0.0063695174523 0.007933919114 0.0063695174523 -0.014622796752 0.0085763314243
          0.007933919114 0.0085763314243 0.028320754749 0.18885163631 0.0070781616159 0.012305454144
          0.0070781616159 -0.01761159371 0.0013978279306 0.012305454144 0.0013978279306 0.10932474821
          0.064178985955 0.0019460651179 0.015559785107 0.0019460651179 -6.4941084007e-05 0.007396734739
          0.015559785107 0.007396734739 0.076553319155 0.036548853213 0.00082904475048 -0.0077158502836
          0.00082904475048 -0.0047174419895 -0.0013004137629 -0.0077158502836 -0.0013004137629 0.015482840689
          0.0035909095332 -0.0024142256549 -0.0094763746593 -0.0024142256549 0.0046344956142 -0.0016530788402
          -0.0094763746593 -0.0016530788402 0.018959013731 0.06117745629 0.0014671671209 -0.012609000552
          0.0014671671209 -0.012011879869 0.00033700962963 -0.012609000552 0.00033700962963 0.017738256098
          0.11400224709 0.010885127085 0.0075577103893 0.010885127085 -0.0086946397326 0.0096769979663
          0.0075577103893 0.0096769979663 0.091416616953 0.11425760727 0.0058739027899 0.0075262929993
          0.0058739027899 -0.0061261160932 0.010321958472 0.0075262929993 0.010321958472 0.088171473076
          0.062025194925 0.0031860083477 -0.0053190119828 0.0031860083477 0.026481828972 -0.010974730451
          -0.0053190119828 -0.010974730451 -0.012204110997 0.051360668632 0.0025399537777 -0.012075200125
          0.0025399537777 0.013198589287 0.010849123756 -0.012075200125 0.010849123756 0.010404556213
          0.047711008483 0.0052842902762 -0.033574700274 0.0052842902762 0.0046342963914 0.00031990341622
          -0.033574700274 0.00031990341622 0.053187228384 0.045399105225 0.0091823417341 0.005696542592
          0.0091823417341 0.010124488553 0.0076448163199 0.005696542592 0.0076448163199 0.079419383231
          0.0051936505153 -0.0035037978052 0.0072546278186 -0.0035037978052 0.010932592994 0.0040542424621
          0.0072546278186 0.0040542424621 0.046296529097 0.061203355191 0.0016601800935 -0.015013663865
          0.0016601800935 -0.0095379078748 3.078027924e-05 -0.015013663865 3.078027924e-05 0.029361680828
          0.089591915616 0.0011916891521 0.010577545831 0.0011916891521 -0.019776584669 0.0082648918112
          0.010577545831 0.0082648918112 0.041441574734 0.15877974717 0.0096608760177 0.024967061578
          0.0096608760177 -0.0069488976419 0.0084656935737 0.024967061578 0.0084656935737 0.13191455486
          0.032970445393 0.0047280721533 0.0037515558379 0.0047280721533 -0.0063435855628 0.0026728894816
          0.0037515558379 0.0026728894816 0.013315830567 0.17188527683 0.010706544102 0.015695581251
          0.010706544102 -0.026831747281 0.010950864456 0.015695581251 0.010950864456 0.097541569286
          0.064520752254 0.009898087393 -0.017132988109 0.009898087393 -0.026127568581 -0.0079717312471
          -0.017132988109 -0.0079717312471 -0.012991347901 0.0097507623687 0.00080460122683 -0.0076086130213
          0.00080460122683 -0.0072050619168 0.0025434981048 -0.0076086130213 0.0025434981048 0.0092076349566
          0.11870256051 0.0076796666368 0.0053153680423 0.0076796666368 -0.018683056709 0.0036391482953
          0.0053153680423 0.0036391482953 0.034155436393 -0.0059926202282 0.0044655881171 0.0012324057146
          0.0044655881171 0.0010446899101 -0.0060966674325 0.0012324057146 -0.0060966674325 0.015132357728
          0.13668211848 0.017893484624 0.017348852779 0.017893484624 -0.00071745044612 0.0062076730657
          0.017348852779 0.0062076730657 0.1452328039 -0.039888121405 -0.0020843256994 0.012203493363
          -0.0020843256994 -0.00043945294049 -0.00058773747565 0.012203493363 -0.00058773747565 0.023582894658
          0.10500081177 0.011386267221 0.008597212796 0.011386267221 -0.0018977699954 0.0090961945214
          0.008597212796 0.0090961945214 0.091809520622 0.023211649292 -0.0029547622694 -0.01233941791
          -0.0029547622694 -0.006694624646 0.0038843287639 -0.01233941791 0.0038843287639 0.0078668845322
          0.09695936841 0.0036231556327 0.002321050178 0.0036231556327 0.00058562477083 0.0097768922574
          0.002321050178 0.0097768922574 0.10578602344 0.16683539322 0.013048513625 0.0081487031049
          0.013048513625 -0.010528516253 0.0079567275416 0.0081487031049 0.0079567275416 0.13598136573
          0.056100817156 0.0015182198736 -0.028899474241 0.0015182198736 0.013629790588 0.0029657786389
          -0.028899474241 0.0029657786389 -0.0024668349718 0.016887583265 -0.0030198644322 -0.0075296902254
          -0.0030198644322 -0.008180447426 0.0015777521874 -0.0075296902254 0.0015777521874 0.015816731038
          0.072881167773 0.010413397418 0.010330852899 0.010413397418 0.0024730053349 0.0047553621959
          0.010330852899 0.0047553621959 0.078393567496 0.055436609514 0.0056862304591 -0.036076851934
          0.0056862304591 0.0075307674608 0.0082849385381 -0.036076851934 0.0082849385381 -0.0013608656222
          0.069251890346 0.0014778679769 -0.0062572515536 0.0014778679769 -0.011418765565 -0.0010655784109
          -0.0062572515536 -0.0010655784109 0.026506544327 0.047765642255 0.005429753692 -0.030399495623
          0.005429753692 0.0075258523014 0.0081376716107 -0.030399495623 0.0081376716107 0.025482602792
          -0.028117278184 0.0060170629307 0.0072564930754 0.0060170629307 0.011102460972 -0.00077671947232
          0.0072564930754 -0.00077671947232 0.023074739908 0.025344516124 -0.0080599348874 -0.028466469123
          -0.0080599348874 0 0 -0.028466469123 0 0
          0.054958561947 -0.0019855770904 -0.019874270276 -0.0019855770904 -0.015765556516 -0.0045794567651
          -0.019874270276 -0.0045794567651 -0.0055620711469 0.054951658219 0.005786974194 -0.015759162897
          0.005786974194 0.0039305139162 -0.0090379149044 -0.015759162897 -0.0090379149044 0.032688531895
          0.12503281742 0.0028039345187 0.0020366503112 0.0028039345187 -0.041162254423 -0.0022741825553
          0.0020366503112 -0.0022741825553 -0.0029358008373 0.096325920876 0.01068286641 0.0012498397311
          0.01068286641 0.0011283162932 0.0090999284259 0.0012498397311 0.0090999284259 0.10679987637
          0.050258198504 -0.0019945870638 -0.0068291818799 -0.0019945870638 -0.0056272497983 0.0015415088867
          -0.0068291818799 0.0015415088867 0.031238086022 0.046925717571 -0.0027017297994 -0.011542549817
          -0.0027017297994 -0.0058498295144 0.00032910710189 -0.011542549817 0.00032910710189 0.033817154036
          -0.0138078633 -0.0048618220797 -0.0070655291563 -0.0048618220797 0.0081906644071 -0.0010695549182
          -0.0070655291563 -0.0010695549182 0.01630752968 0.064999876933 0.0016942814028 -0.021809289583
          0.0016942814028 -0.012556696483 0.0012965145477 -0.021809289583 0.0012965145477 0.003008110918
          0.13379997172 0.0092895115763 0.0034614610335 0.0092895115763 -0.0073781649072 0.0084882383981
          0.0034614610335 0.0084882383981 0.10440009047 0.15495256864 0.0098980442171 0.0083873096553
          0.0098980442171 -0.0081654007769 0.010064864617 0.0083873096553 0.010064864617 0.1258290115
          0.049242511932 -0.0071981111489 -0.020865802355 -0.0071981111489 -0.020915569972 0.0059945252118
          -0.020865802355 0.0059945252118 0.002872631912 0.14227951653 0.0077873514955 0.0035864534156
          0.0077873514955 -0.014779693486 0.0087827833015 0.0035864534156 0.0087827833015 0.088968618855
          0.14818244446 0.006548332149 -0.0026394232383 0.006548332149 -0.011964644061 0.010524762544
          -0.0026394232383 0.010524762544 0.10116659883 -0.071125239 -0.0059464453584 -0.0034921901799
          -0.0059464453584 0.017479046647 0.004161412284 -0.0034921901799 0.004161412284 0.025863461467
          0.10075131092 0.01094241191 0.0034859647698 0.01094241191 0.0011434461719 0.0092623255301
          0.0034859647698 0.0092623255301 0.097343844082 0.13565901323 0.0083698801635 0.0022568330241
          0.0083698801635 -0.014474904238 0.0089976394664 0.0022568330241 0.0089976394664 0.088830051496
          0.16305141396 0.010035047985 0.018263141156 0.010035047985 -0.0085301435618 0.0078738520547
          0.018263141156 0.0078738520547 0.13524415923 0.061825401714 0.0065844146369 0.002476118333
          0.0065844146369 0.0098457121663 0.00046788485612 0.002476118333 0.00046788485612 0.092926282279
          0.034451236869 0.00096192997831 -0.003480989097 0.00096192997831 0.0097694424983 0.0052489080066
          -0.003480989097 0.0052489080066 0.1250588669 0.097171367506 0.0097322230648 0.0077455000627
          0.0097322230648 -0.024159490375 -0.0091173985671 0.0077455000627 -0.0091173985671 0.006927213606
          -0.029640546822 0.010582348284 0.0043520104474 0.010582348284 0.023649644298 -0.0012732581947
          0.0043520104474 -0.0012732581947 0.05429863327 0.099491285588 0.0082276224289 -0.0004828136032
          0.0082276224289 0.002507241204 0.01016601011 -0.0004828136032 0.01016601011 0.10440376596
          0.12737644313 0.010605211443 -0.002032369295 0.010605211443 -0.0075635185694 0.0088701561817
          -0.002032369295 0.0088701561817 0.1064335166 0.070366334568 8.6262437742e-05 -0.013655659099
          8.6262437742e-05 -0.014654620193 0.0011926083638 -0.013655659099 0.0011926083638 0.017908982477
          -0.023716293526 0.0022070690637 -0.0025890877423 0.0022070690637 0.0055490443011 -0.0028593451455
          -0.0025890877423 -0.0028593451455 0.01073970029 -0.061855431242 -0.0007080374883 -0.00019667668131
          -0.0007080374883 0.019881085854 -0.0053065083894 -0.00019667668131 -0.0053065083894 0.026409812493
          -0.036569666419 -0.001373847219 -0.0010002687388 -0.001373847219 0.024999670603 0.0048283703348
          -0.0010002687388 0.0048283703348 0.060865832279 0.12316458067 0.002193923828 0.008879535884
          0.002193923828 -0.021488292198 0.011828161651 0.008879535884 0.011828161651 0.049507819063
          0.007748844294 0.045205148649 -0.049380349726 0.045205148649 0.037808962207 0.011078037543
          -0.049380349726 0.011078037543 0.0023298687345 0.057977794634 0.0051180933601 -0.028037053921
          0.0051180933601 0.018938660984 0.0060903955318 -0.028037053921 0.0060903955318 -0.0034261200895
          0.028117012883 -0.0020191544754 -0.013439881429 -0.0020191544754 -0.0050803588913 -0.0032286042729
          -0.013439881429 -0.0032286042729 0.010148047535 0.034244911621 0.00072753124761 -0.013066660973
          0.00072753124761 -0.0025812552708 -0.0039309556342 -0.013066660973 -0.0039309556342 0.020700702948
          0.039178441617 -0.005558930528 -0.0023047694038 -0.005558930528 -0.0098203319341 0.0077190818937
          -0.0023047694038 0.0077190818937 -0.0018054793397 0.11267474496 0.0074006396994 -0.00082372112594
          0.0074006396994 -0.0017247540749 0.0080445039694 -0.00082372112594 0.0080445039694 0.10790713395
          0.14053167565 0.0050698651661 0.016188453012 0.0050698651661 -0.01066079655 0.0097939529273
          0.016188453012 0.0097939529273 0.1456339707 0.044411281535 0.0034845934496 0.0096707255728
          0.0034845934496 0.013162489387 0.0055169455764 0.0096707255728 0.0055169455764 0.080380903519
          0.059082560156 0.0098168464425 -0.058084514461 0.0098168464425 0.017653360241 0.013062922985
          -0.058084514461 0.013062922985 -0.041184250973 0.063345340535 -0.0040972405647 -0.028977436615
          -0.0040972405647 0.0051869024833 0.0054971459202 -0.028977436615 0.0054971459202 0.033657173135
          0.062800614732 -0.012520784991 -0.031015434088 -0.012520784991 -0.019417615606 0.0058557209385
          -0.031015434088 0.0058557209385 0.034236189028 0.06634526176 0.011680073906 0.012182043168
          0.011680073906 0.001957075229 0.0062581447752 0.012182043168 0.0062581447752 0.056545164417
          0.0048669685416 -0.0010716852339 0.022456054464 -0.0010716852339 -0.0044323134275 0.0067803786284
          0.022456054464 0.0067803786284 -0.007768813174 -0.06340914695 -0.00022345225244 -0.00050520663122
          -0.00022345225244 0.014227479616 0.0082525212138 -0.00050520663122 0.0082525212138 0.025841755957
          0.058196539313 0.0086883365933 -0.052737654657 0.0086883365933 0.0082213611223 0.0058419984215
          -0.052737654657 0.0058419984215 0.0037346081219 0.06256251456 0.00046394238783 -0.013690992741
          0.00046394238783 -0.0095516379456 -0.00030970595496 -0.013690992741 -0.00030970595496 0.025867184909
          0.13728952544 0.010849404066 0.0020462883963 0.010849404066 -0.011631511571 0.008811037753
          0.0020462883963 0.008811037753 0.08673349946 0.05731963692 0.00098348292704 -0.017347723356
          0.00098348292704 -0.0094076216765 0.0029084134638 -0.017347723356 0.0029084134638 0.021840919342
          0.022385105156 -0.00014167234817 -0.01122794522 -0.00014167234817 -0.0084571111199 0.0017266550256
          -0.01122794522 0.0017266550256 0.015739729714 0.14212179727 0.010386983505 0.0062059624279
          0.010386983505 -0.0052315729671 0.0082360685431 0.0062059624279 0.0082360685431 0.1190792699
          0.011977287385 0.00040416075854 -0.014927652672 0.00040416075854 -0.00049314549633 -0.0018619436795
          -0.014927652672 -0.0018619436795 0.021664030282 0.065320784864 -0.00011267866575 -0.0048190110401
          -0.00011267866575 -0.021447860855 -0.0011262747686 -0.0048190110401 -0.0011262747686 0.015793632176
          0.072283920452 -0.0044043527569 -0.0068324410234 -0.0044043527569 -0.0081674545775 0.021093903895
          -0.0068324410234 0.021093903895 0.067512058319 0.042266222843 -0.0015985153704 -0.017186080289
          -0.0015985153704 -0.0026204333625 0.00028556414693 -0.017186080289 0.00028556414693 0.025070005272
          0.068607728304 -0.0012681242545 -0.012971868161 -0.0012681242545 -0.012283005515 -0.0002598306131
          -0.012971868161 -0.0002598306131 0.020504162624 0.12485317123 0.01750812616 0.031623458026
          0.01750812616 -0.024504208938 -0.0016114933371 0.031623458026 -0.0016114933371 0.095473875189
          0.061236977292 -0.0016206637591 -0.011021858524 -0.0016206637591 -0.013424468144 -0.00020325870663
          -0.011021858524 -0.00020325870663 0.015231492216 0.068392478726 0.0035420310232 -0.0060587835158
          0.0035420310232 -0.018210652874 -0.0025981397335 -0.0060587835158 -0.0025981397335 -0.012483407528
          -0.0026916825804 0.0034521075425 0.012040276509 0.0034521075425 0.011054259515 -0.0022101762605
          0.012040276509 -0.0022101762605 0.052681543645 0.14927938527 0.010449796569 0.016559066524
          0.010449796569 -0.02248710089 0.0023258926324 0.016559066524 0.0023258926324 0.097085801146
          0.02222187539 0.000652188033 -0.021630902155 0.000652188033 -0.0069109852934 0.0023418332757
          -0.021630902155 0.0023418332757 0.0059828160615 0.020540802324 -0.00034707011512 -0.0047802029134
          -0.00034707011512 -0.0019636964749 0.001803241334 -0.0047802029134 0.001803241334 0.027167618268
          0.13331890631 0.0094317164052 0.0028106531922 0.0094317164052 -0.007225255099 0.0064346105767
          0.0028106531922 0.0064346105767 0.11183025749 0.1508923117 0.00061334998371 0.02894996676
          0.00061334998371 -0.0065717132196 0.0066811155651 0.02894996676 0.0066811155651 0.13009923195
          0.016810202696 -0.0042718748814 -0.0083053794354 -0.0042718748814 0.00028507851339 -0.0021468113018
          -0.0083053794354 -0.0021468113018 -0.0037822351993 0.14669249002 0.0047513768152 0.01154088772
          0.0047513768152 -0.0024614193503 0.0068397852334 0.01154088772 0.0068397852334 0.14121710193
          0.060348980375 -0.0008128609661 -0.014296649473 -0.0008128609661 -0.0086497114205 0.00079714680946
          -0.014296649473 0.00079714680946 0.027452351203 0.12330324784 0.010173432172 0.0063193956046
          0.010173432172 -0.018052799454 0.0063898940702 0.0063193956046 0.0063898940702 0.066667846968
          -0.024288046339 0.0033411414223 0.016923930477 0.0033411414223 0.010115613273 0.0065830642242
          0.016923930477 0.0065830642242 0.040497948018 0.16854763811 0.013420540872 0.0067384699944
          0.013420540872 -0.013595262843 0.0083771036686 0.0067384699944 0.0083771036686 0.12317442599
          0.075095976234 0.0082126033967 0.001678079801 0.0082126033967 -0.021988125182 0.0012516035456
          0.001678079801 0.0012516035456 -0.022015454579 0.11166110349 0.0098908543227 -0.00083721284468
          0.0098908543227 -0.0002965499062 0.0089624898614 -0.00083721284468 0.0089624898614 0.114886549
          0.03890564448 0.0023846380403 -0.010629870544 0.0023846380403 -0.0032080234497 -0.0027718144365
          -0.010629870544 -0.0027718144365 0.039083039677 0.14581027739 0.010138231425 -0.0017693502477
          0.010138231425 -0.0095890476108 0.0085773133064 -0.0017693502477 0.0085773133064 0.10980072775
          -0.049072629484 -0.0042163407504 -0.0047497737006 -0.0042163407504 0.01144871512 -0.00037211172977
          -0.0047497737006 -0.00037211172977 0.016618540015 0.088661023046 0.004012768509 -0.0032361046107
          0.004012768509 -0.02469041327 0.00013315112877 -0.0032361046107 0.00013315112877 -0.01529900268
          0.13404731279 0.0073699899631 -0.0007884595355 0.0073699899631 -0.0010514565413 0.0072395176655
          -0.0007884595355 0.0072395176655 0.11914828848 0.15244091315 0.0074319391528 0.0090436698352
          0.0074319391528 -0.0083894382118 0.0099246570682 0.0090436698352 0.0099246570682 0.12522539793
          0.059410134825 0.022487555125 -0.0043921410143 0.022487555125 -0.021321886138 0.0045709023869
          -0.0043921410143 0.0045709023869 -0.016040774118 0.13900019007 0.007352037308 -6.9991375477e-05
          0.007352037308 -0.010463943124 0.0088767201972 -6.9991375477e-05 0.0088767201972 0.095511792964
          -0.028619046856 -0.0016905979904 -0.01296373747 -0.0016905979904 0.010603245275 -0.0023887376347
          -0.01296373747 -0.0023887376347 0.015933634824 -0.024279148674 0.00047997899808 -0.011063272922
          0.00047997899808 0.010126413786 -0.0038285383371 -0.011063272922 -0.0038285383371 0.018453183454
          -0.012970334003 -0.0034521478497 -0.0056163835539 -0.0034521478497 0.010539253008 0.0010643126151
          -0.0056163835539 0.0010643126151 0.014946087717 -0.065810692808 0.00057915440329 0.0094414420076
          0.00057915440329 0.021567497768 0.0067522648656 0.0094414420076 0.0067522648656 0.012403944995
          0.13512370667 0.011326680978 0.0011554614916 0.011326680978 -0.0089736603224 0.0087348033027
          0.0011554614916 0.0087348033027 0.1133750898 0.14074284929 0.0091340079735 -0.00030900578891
          0.0091340079735 -0.0096648626006 0.0095964388382 -0.00030900578891 0.0095964388382 0.11370232416
          0.050685880527 0.005063990698 -0.015182315578 0.005063990698 -0.012805368738 0.00072751263104
          -0.015182315578 0.00072751263104 0.016042322471 0.08375681557 0.0083760632151 -0.0082813535518
          0.0083760632151 0.010049809242 0.0096890566244 -0.0082813535518 0.0096890566244 0.06806224884
          0.048361216916 -0.010135780012 -0.039123348579 -0.010135780012 0.0036481182493 -0.013461681164
          -0.039123348579 -0.013461681164 0.020755038023 0.13702174488 0.011865254538 -0.0020617090482
          0.011865254538 -0.012796852323 0.0099044906646 -0.0020617090482 0.0099044906646 0.095004116087
          0.06172058644 0.0066042054511 -0.0057089737097 0.0066042054511 0.0087859317117 0.0011278560734
          -0.0057089737097 0.0011278560734 0.091474029864 0.061847700188 0.0051239451651 -0.0061572626976
          0.0051239451651 -0.013954666413 0.003613331811 -0.0061572626976 0.003613331811 -0.0025139606299
          0.026666404302 0.0081763803401 -0.012815687208 0.0081763803401 0.0051314095609 0.0043042098415
          -0.012815687208 0.0043042098415 0.012409988043 0.063484505105 -0.0022698877168 -0.010006222194
          -0.0022698877168 -0.017468997211 0.0040668807887 -0.010006222194 0.0040668807887 0.0010150253628
          0.075330283629 -0.010969963124 -0.0024044099623 -0.010969963124 -0.037320215237 0.00096095005913
          -0.0024044099623 0.00096095005913 -0.03075574874 0.025344516124 -0.0080599348874 -0.028466469123
          -0.0080599348874 0 0 -0.028466469123 0 0
          0.1200865338 0.0081077028897 -0.0019713137246 0.0081077028897 -0.023386138867 -0.00050239453793
          -0.0019713137246 -0.00050239453793 0.028762844485 0.16548055966 0.0092265252861 0.0078343088589
          0.0092265252861 -0.0079705142421 0.0072957303332 0.0078343088589 0.0072957303332 0.13774533536
          0.035165133155 0.00090920103563 -0.011681786998 0.00090920103563 -0.0041959222308 -0.00046192967873
          -0.011681786998 -0.00046192967873 0.023906792831 0.0025622054324 0.0018386626668 -0.0065958127949
          0.0018386626668 0.0051168702657 0.0040846547857 -0.0065958127949 0.0040846547857 0.031971443396
          -0.0091447009571 0.0034956871908 -0.0090384333878 0.0034956871908 0.0084796830211 -0.005158436003
          -0.0090384333878 -0.005158436003 0.017057758449 -0.0063479558092 -0.00052188031839 -0.018949858223
          -0.00052188031839 0.0012258022372 0.0040022431404 -0.018949858223 0.0040022431404 0.0081510087107
          0.095879723156 0.00013711445007 -0.0020370557271 0.00013711445007 -0.034162815267 -0.0015170368156
          -0.0020370557271 -0.0015170368156 -0.024412356524 0.011434323361 0.012639271404 -0.00076425205533
          0.012639271404 0.014277585173 -9.8477163524e-05 -0.00076425205533 -9.8477163524e-05 0.072399178883
          0.076969780863 0.0033466634053 0.015437872162 0.0033466634053 -0.0044053957476 0.0014550737031
          0.015437872162 0.0014550737031 0.096057658411 0.0034692108662 -0.0062185081935 -0.019261836363
          -0.0062185081935 0.008607456777 0.0055421444271 -0.019261836363 0.0055421444271 0.027604525044
          0.081135381161 0.0094908153386 0.01282937737 0.0094908153386 0.0054310929181 0.0084461044644
          0.01282937737 0.0084461044644 0.080623972964 0.050962543666 0.012243689707 -0.011891873279
          0.012243689707 -0.018912549402 -0.0025448982069 -0.011891873279 -0.0025448982069 -0.0017046698214
          0.13641389174 0.0072327353879 -0.0017022980736 0.0072327353879 -0.007601067635 0.0094976704224
          -0.0017022980736 0.0094976704224 0.10327644379 0.030959761899 -0.00072095009215 -0.0031539387371
          -0.00072095009215 -0.003933248441 0.0013170309087 -0.0031539387371 0.0013170309087 0.024335313666
          0.13868528587 -0.0073158902992 0.0099935031623 -0.0073158902992 -0.028964072227 0.016252499071
          0.0099935031623 0.016252499071 0.038028188866 0.16794129622 0.0098332862072 0.0094465386657
          0.0098332862072 -0.0093111675509 0.0088276546749 0.0094465386657 0.0088276546749 0.13617496624
          0.10556534187 0.0057615123864 0.018173588892 0.0057615123864 0.0021738330039 -0.005575895925
          0.018173588892 -0.005575895925 0.10721306691 0.16237153428 0.0065857445148 0.017028310084
          0.0065857445148 -0.0053036185864 0.0077523946835 0.017028310084 0.0077523946835 0.14153003912
          0.19940463722 0.022893741224 0.0051218819231 0.022893741224 -0.035684915927 0.0047638806695
          0.0051218819231 0.0047638806695 0.060368496534 0.12473823238 0.010610710564 0.0073487124262
          0.010610710564 -0.010984291217 0.0095678387649 0.0073487124262 0.0095678387649 0.0735563882
          0.076392702431 0.0047543913706 -0.0078154346321 0.0047543913706 -0.013325586829 0.0032870389876
          -0.0078154346321 0.0032870389876 0.021069495745 0.16781708595 0.016859071787 0.016658325735
          0.016859071787 -0.010512955647 0.0046490890596 0.016658325735 0.0046490890596 0.13071882852
          -0.0001255276287 -0.0093996162387 -0.0090884595804 -0.0093996162387 -0.00070439018833 -0.0071093464485
          -0.0090884595804 -0.0071093464485 0.009620869685 0.1133302659 0.0063739291434 0.00090817682062
          0.0063739291434 -0.0017373471848 0.010957598453 0.00090817682062 0.010957598453 0.11321019967
          0.023037432577 -0.0031011562417 -0.0017545612675 -0.0031011562417 -0.018855028429 -0.0019731930884
          -0.0017545612675 -0.0019731930884 -0.00056976819833 0.16582961282 0.013427192961 0.019293152562
          0.013427192961 -0.019090440266 0.0021819367418 0.019293152562 0.0021819367418 0.062826717612
          0.10059909317 0.010061737832 0.0089290855145 0.010061737832 -0.0035098484357 0.0084663557297
          0.0089290855145 0.0084663557297 0.080192234786 0.054516005455 0.010314673501 0.010757259988
          0.010314673501 0.0030402698506 0.0013063380521 0.010757259988 0.0013063380521 0.075510148399
          0.00059121597764 0.00040356195416 0.0077911353947 0.00040356195416 0.010398482889 0.0030007812013
          0.0077911353947 0.0030007812013 0.030690150337 0.06524250262 0.0037808063935 0.0026023703157
          0.0037808063935 -0.019097658887 -0.00053461453041 0.0026023703157 -0.00053461453041 -0.012267531776
          0.042298498192 0.00081740921127 -0.005162017421 0.00081740921127 -0.0042143966604 -0.0023222947326
          -0.005162017421 -0.0023222947326 0.017905692106 0.067691880842 -9.3635804152e-05 -0.0077838659316
          -9.3635804152e-05 -0.012931463436 -0.00066518228859 -0.0077838659316 -0.00066518228859 0.024892242316
          0.070490965086 0.0012413958301 -0.012227903212 0.0012413958301 -0.01674569536 -0.00023146626561
          -0.012227903212 -0.00023146626561 0.0067345053472 0.066683089908 0.00048655346472 -0.015326320113
          0.00048655346472 -0.009875266317 0.00066809883632 -0.015326320113 0.00066809883632 0.024595292566
          0.038999821332 0.0060246726783 -0.011024241079 0.0060246726783 0.01176814412 0.00083715039667
          -0.011024241079 0.00083715039667 0.085039106496 0.026762669333 0.0061359430441 -0.0016398158845
          0.0061359430441 0.019995275434 0.010467637661 -0.0016398158845 0.010467637661 0.093212140518
          0.06600947085 -0.00011204669978 -0.0055972280432 -0.00011204669978 -0.013332909606 -0.00018772451572
          -0.0055972280432 -0.00018772451572 0.026401739635 0.10193465407 0.0072990089204 0.00075897479455
          0.0072990089204 -0.022243140299 0.00013129329841 0.00075897479455 0.00013129329841 -0.033503583802
          0.045535116758 0.0020016077161 -0.0097445115822 0.0020016077161 -0.00354577962 0.0022453256687
          -0.0097445115822 0.0022453256687 0.024167080333 0.035661037067 0.021417111505 -0.0090808593931
          0.021417111505 0 0 -0.0090808593931 0 0
          0.06273442803 0.00060255009011 -0.015829648075 0.00060255009011 -0.010439215151 0.00079524451433
          -0.015829648075 0.00079524451433 0.028700871304 0.10645017724 0.0062222424275 0.019943459395
          0.0062222424275 -0.047974623986 -0.0050356022968 0.019943459395 -0.0050356022968 0.077927004049
          0.035819546578 3.2308909448e-05 -0.0069746673894 3.2308909448e-05 -0.0042408292643 -0.0017978322754
          -0.0069746673894 -0.0017978322754 0.025457905126 0.1628385274 0.011466134347 0.01630381258
          0.011466134347 -0.008305318749 0.008191884985 0.01630381258 0.008191884985 0.13565632701
          0.12559915338 0.010358570583 0.0026327845959 0.010358570583 -0.010443529464 0.0077689548516
          0.0026327845959 0.0077689548516 0.090259038952 0.16187814205 0.0097779014384 0.014999859711
          0.0097779014384 -0.0087181878851 0.0087332121793 0.014999859711 0.0087332121793 0.13096383787
          0.062697581861 -0.0077684947306 -0.033369976356 -0.0077684947306 0.010625316041 -0.018516475832
          -0.033369976356 -0.018516475832 -0.024404753378 0.16500103457 0.00088592594765 0.0037938256996
          0.00088592594765 -0.012912890922 0.01366386705 0.0037938256996 0.01366386705 0.11026168049
          0.075088783975 0.0062767461715 -0.015629816887 0.0062767461715 -0.021135914022 0.0011648264135
          -0.015629816887 0.0011648264135 0.0040058436262 0.068319244745 -0.001485770042 -0.013507054686
          -0.001485770042 -0.0099942655427 -9.959374159e-05 -0.013507054686 -9.959374159e-05 0.027107792558
          0.12364404225 0.0087696031424 0.00067341421844 0.0087696031424 -0.0017204643217 0.0093849761308
          0.00067341421844 0.0093849761308 0.11048384227 0.13471493758 0.0091368394817 -0.001879354913
          0.0091368394817 -0.010307785003 0.010606110731 -0.001879354913 0.010606110731 0.10315511126
          0.059870391019 0.00098616723398 -0.011064806989 0.00098616723398 -0.010639008699 0.001383091545
          -0.011064806989 0.001383091545 0.025310135611 0.11663193565 0.011405906364 0.0057086967826
          0.011405906364 -0.0055796842427 0.0089181198408 0.0057086967826 0.0089181198408 0.09733743094
          0.036988395136 -0.00048691390037 -0.013025703856 -0.00048691390037 0.015881292572 0.0015561771722
          -0.013025703856 0.0015561771722 0.025149609179 0.036926758861 -0.0010362639705 -0.011632889952
          -0.0010362639705 -0.0047992945813 -0.0047465573741 -0.011632889952 -0.0047465573741 0.020755757524
          0.15589059813 0.0097251022057 0.0077552597002 0.0097251022057 -0.010308018949 0.013116038387
          0.0077552597002 0.013116038387 0.11462064431 0.12459243395 0.014686924192 -0.0001422703801
          0.014686924192 -0.0027057229127 0.0078464754634 -0.0001422703801 0.0078464754634 0.10522151185
          0.095873796569 -0.0011356953693 -0.006824188066 -0.0011356953693 -0.028934513993 0.0067896919246
          -0.006824188066 0.0067896919246 -0.029990837472 -0.028189576507 -0.011361197206 -0.011272366363
          -0.011361197206 0.0074305601161 0.0063020362861 -0.011272366363 0.0063020362861 0.022969494533
          -0.0064448811765 -0.0079661184058 -0.00043458710079 -0.0079661184058 -0.0014942963986 -0.00065602780961
          -0.00043458710079 -0.00065602780961 0.016126726782 -0.015390336663 0.021689973937 -0.04938469708
          0.021689973937 0.049104607245 0.022999767175 -0.04938469708 0.022999767175 0.0063713906057
          0.063894652078 -0.0011841498816 -0.012529728496 -0.0011841498816 -0.010479833553 -0.00037318573764
          -0.012529728496 -0.00037318573764 0.02710464156 0.088740542888 0.008249272295 0.0036555123909
          0.008249272295 0.0049998577769 0.010499596254 0.0036555123909 0.010499596254 0.10211703328
          0.058605513835 0.0011801739502 -0.014334941413 0.0011801739502 -0.0093784402041 0.0033021235826
          -0.014334941413 0.0033021235826 0.02391930508 0.06532642974 0.00058243879718 -0.015053868024
          0.00058243879718 -0.012856218516 -0.00022959601154 -0.015053868024 -0.00022959601154 0.025323935032
          0.15514081484 0.010151558026 0.0093745116966 0.010151558026 -0.0084247694716 0.0088116280104
          0.0093745116966 0.0088116280104 0.12497268333 0.021386243957 -0.00035438049907 -0.0037281713066
          -0.00035438049907 -0.0035922856191 0.00062112201297 -0.0037281713066 0.00062112201297 0.021176126169
          0.0669534682 0.0016420623662 -0.011299393558 0.0016420623662 -0.015268437692 -0.00065087539041
          -0.011299393558 -0.00065087539041 -0.0045862171301 0.13914453914 0.00060723824577 -0.042164406685
          0.00060723824577 -0.045091344053 0.0011761017709 -0.042164406685 0.0011761017709 -0.025411424172
          0.04919127456 0.0079160167036 -0.01380719938 0.0079160167036 -0.006165978634 -0.001111605444
          -0.01380719938 -0.001111605444 0.01602261539 0.10115359502 0.0074477521594 0.013554951594
          0.0074477521594 -0.011643704521 0.0028749571421 0.013554951594 0.0028749571421 0.059772120155
          0.077076305024 0.0086974944352 0.0090162313557 0.0086974944352 -0.015531763778 -0.00087671459585
          0.0090162313557 -0.00087671459585 0.030306801499 0.15165007438 0.0065045174574 0.01279709514
          0.0065045174574 -0.0018543606751 0.0058706815772 0.01279709514 0.0058706815772 0.14470982171
          0.15810736405 0.011746043673 0.008038628904 0.011746043673 -0.0075761650062 0.009708599279
          0.008038628904 0.009708599279 0.13614831952 0.072173093886 0.0011384554731 -0.006843079514
          0.0011384554731 -0.024296339111 0.0025983307749 -0.006843079514 0.0025983307749 0.011020110114
          0.11186748091 0.0063668790333 0.00063082858853 0.0063668790333 -0.00071464258912 0.009125958067
          0.00063082858853 0.009125958067 0.10554777023 0.0085119425234 0.0030429197249 -0.013007234632
          0.0030429197249 0.0032570075882 0.0012549866495 -0.013007234632 0.0012549866495 0.024240677952
          0.072783214895 0.0017027806808 -0.0079480571338 0.0017027806808 -0.015114092383 0.00045879219918
          -0.0079480571338 0.00045879219918 0.026338111844 0.10504692537 0.0068467496669 0.0025087697361
          0.0068467496669 -0.00089421799967 0.0090992837938 0.0025087697361 0.0090992837938 0.10069492668
          0.056110232976 0.00043402363879 -0.0079060380739 0.00043402363879 -0.0075118901499 0.0023945711055
          -0.0079060380739 0.0023945711055 0.030928939455 0.08721267708 -0.0096735908039 -0.0048082671031
          -0.0096735908039 -0.029897265458 0.0050244612565 -0.0048082671031 0.0050244612565 -0.01526449301
          0.092889565838 0.0069159167693 0.0085079907185 0.0069159167693 -0.0074688350194 0.0062962477856
          0.0085079907185 0.0062962477856 0.10891390103 0.1913316808 0.031213443138 0.0080923532143
          0.031213443138 -0.044530268546 -0.0010145555253 0.0080923532143 -0.0010145555253 0.096815347082
          0.076605503645 0.0078320665165 0.0039950099145 0.0078320665165 -0.026553673696 0.0017864931385
          0.0039950099145 0.0017864931385 -0.01872786725 0.042627491642 -0.00079341849597 -0.0044597561159
          -0.00079341849597 -0.02016232452 -0.0011458554619 -0.0044597561159 -0.0011458554619 -0.0080932180548
          0.039860303914 0.0021912899495 -0.055870567006 0.0021912899495 -0.0015909434146 0.0045293755828
          -0.055870567006 0.0045293755828 0.021495647313 0.13723533073 0.010900976022 0.0060121639215
          0.010900976022 -0.017994287584 0.0086619469996 0.0060121639215 0.0086619469996 0.050554152116
          0.070966474571 0.0012479152943 -0.017322913739 0.0012479152943 -0.023632908595 0.0051020502346
          -0.017322913739 0.0051020502346 -0.020721244597 0.16854845303 0.0062054388167 0.0014565617261
          0.0062054388167 -0.015317231079 0.018872740602 0.0014565617261 0.018872740602 0.13763374592
          0.15375111437 0.010778131722 0.023041918794 0.010778131722 -0.0062001645357 0.0068324837136
          0.023041918794 0.0068324837136 0.12949500374 0.016857414663 -0.0030382198302 0.0082295455711
          -0.0030382198302 0.0092024666955 0.0026765910523 0.0082295455711 0.0026765910523 0.072314051128
          0.0082993166249 0.0002684536156 -0.0038374738379 0.0002684536156 0.0041846610901 0.0050759867609
          -0.0038374738379 0.0050759867609 0.00076908993235 0.064671789783 0.0020984440295 -0.0077469270359
          0.0020984440295 -0.009632516281 0.00071686934003 -0.0077469270359 0.00071686934003 0.029697268285
          0.013852042423 0.0003179372512 0.0075652500449 0.0003179372512 0.018887556827 0.0046074082211
          0.0075652500449 0.0046074082211 0.078278279585 0.10309367585 0.005541392753 0.0057636756073
          0.005541392753 -0.010310246917 0.0039045411641 0.0057636756073 0.0039045411641 0.068341033103
          0.10908971489 0.0035764470624 0.00019735394054 0.0035764470624 -0.014185042499 0.012752382053
          0.00019735394054 0.012752382053 0.033672847528 0.09787337348 0.011462945964 -0.0069022123618
          0.011462945964 -0.044834594165 -0.0024611311381 -0.0069022123618 -0.0024611311381 -0.022056764685
          0.080722014718 0.010079600835 0.0044550502228 0.010079600835 -0.0015149028225 0.0095513534276
          0.0044550502228 0.0095513534276 0.061000143617 0.15404537952 0.0085817756545 0.0038195018504
          0.0085817756545 -0.0085604065601 0.0096778848317 0.0038195018504 0.0096778848317 0.11543398485
          0.07662969396 0.0039735120211 0.002751712928 0.0039735120211 0.0062221662632 0.005548215709
          0.002751712928 0.005548215709 0.092177108884 0.13608458347 0.0057163495795 0.0013472967381
          0.0057163495795 -0.0070432507039 0.010654775629 0.0013472967381 0.010654775629 0.11260523732
          0.0897149413 -0.0034485996069 -0.008829519502 -0.0034485996069 -0.026454555648 -0.0049197093811
          -0.008829519502 -0.0049197093811 -0.0077824603509 0.074003259153 0.0077185922925 -0.012560064371
          0.0077185922925 -0.020442530678 0.0023398288156 -0.012560064371 0.0023398288156 -0.034079038788
          0.068342389395 0.0043797560699 -0.005960725425 0.0043797560699 -0.016226401715 -0.00017109638117
          -0.005960725425 -0.00017109638117 0.0027065451669 -0.029724829573 -0.0098355485757 -0.013514411351
          -0.0098355485757 -0.00023999061315 -0.0070006683818 -0.013514411351 -0.0070006683818 0.017698556763
          0.16439125384 0.011850127982 0.01284629407 0.011850127982 -0.0082306288831 0.0074853818535
          0.01284629407 0.0074853818535 0.14226680315 0.16976989374 0.0083581142209 0.0031294671604
          0.0083581142209 -0.012591782687 0.0066223146754 0.0031294671604 0.0066223146754 0.11479211833
          0.16446307758 0.0060910521628 0.012867168424 0.0060910521628 -0.012698356263 0.0049420672323
          0.012867168424 0.0049420672323 0.13384441987 0.097069665744 0.002719996661 0.0024080249653
          0.002719996661 -0.028593670103 0.0068289925353 0.0024080249653 0.0068289925353 -0.034133944633
          0.045083180819 0.0013629467808 -0.0029221676242 0.0013629467808 -0.0065804781618 7.9568859301e-05
          -0.0029221676242 7.9568859301e-05 0.029228001556 0.17324293543 0.004210721737 0.0066760844726
          0.004210721737 -0.01888282312 0.0037776088669 0.0066760844726 0.0037776088669 0.097529000324
          0.066410558702 -0.0018258516586 -0.012306706285 -0.0018258516586 -0.011131864033 -0.00084042024864
          -0.012306706285 -0.00084042024864 0.026917978122 0.15364548736 0.0097869912174 0.00024117459037
          0.0097869912174 -0.01374175029 0.0082957224809 0.00024117459037 0.0082957224809 0.10123833094
          0.041315283837 -0.013641832802 -0.025167563957 -0.013641832802 -0.01754541729 -0.00036031194596
          -0.025167563957 -0.00036031194596 0.0025861727923 0.087305953359 0.013045404546 0.005709779384
          0.013045404546 -0.041198894469 0.0036040078109 0.005709779384 0.0036040078109 -0.017858982506
          0.14650626542 0.0080247649065 0.00019461767229 0.0080247649065 -0.011119778126 0.009783352114
          0.00019461767229 0.009783352114 0.10887521268 -0.036140904112 0.0036064947324 -0.010021380537
          0.0036064947324 0.011522117661 -4.9914766159e-05 -0.010021380537 -4.9914766159e-05 0.016483173741
          0.00045662206635 0.0050844613593 -0.0036182424312 0.0050844613593 0.0017462336294 -0.0015191546651
          -0.0036182424312 -0.0015191546651 0.02839025562 0.099496326821 -0.0015520209994 0.0031356671479
          -0.0015520209994 -0.033420492177 -0.00072514451473 0.0031356671479 -0.00072514451473 -0.020233079914
          0.031566060488 -0.0069874140774 -0.0058715588947 -0.0069874140774 -0.016293801451 -0.0045359199984
          -0.0058715588947 -0.0045359199984 -0.009139072965 0.085031108793 0.0024782348169 0.001060703679
          0.0024782348169 0.0051622992334 0.0055113459184 0.001060703679 0.0055113459184 0.10180936142
          0.05050391253 4.8824930216e-05 -0.014992126987 4.8824930216e-05 -0.0073714564979 0.0010463336896
          -0.014992126987 0.0010463336896 0.032259942678 0.001211263464 0.0005833237405 -0.0063718145629
          0.0005833237405 0.0038985183146 -0.0018444392701 -0.0063718145629 -0.0018444392701 0.034529379465
          0.080804186983 0.00070915912799 -0.011027867645 0.00070915912799 -0.024025305543 0.0057897215222
          -0.011027867645 0.0057897215222 -0.0036455175116 -0.039632213294 -0.0053411612135 0.0035292257183
          -0.0053411612135 0.0087728265457 0.0027180785491 0.0035292257183 0.0027180785491 0.030064864543
          0.068832767466 0.0024747289936 -0.0087355763331 0.0024747289936 -0.020564964815 0.0027382809909
          -0.0087355763331 0.0027382809909 0.0060932617425 0.077321872225 0.00091092493657 -0.0053264120832
          0.00091092493657 -0.014092848337 0.00048944081116 -0.0053264120832 0.00048944081116 0.015849276102
          0.13627097004 0.006377812684 0.0031837324112 0.006377812684 -0.010894270118 0.010924389382
          0.0031837324112 0.010924389382 0.090098755559 0.071162567837 -0.0012935232006 -0.0084466856099
          -0.0012935232006 -0.023894008436 -0.00042323573833 -0.0084466856099 -0.00042323573833 0.0054404690958
          0.045138612877 0.010115340335 0.0094037548747 0.010115340335 0.011887339141 0.0078541429509
          0.0094037548747 0.0078541429509 0.081440689864 0.034754484245 -0.003625345622 -0.0097908371719
          -0.003625345622 0.014772375027 0.002478136695 -0.0097908371719 0.002478136695 0.023493856231
          0.039859830419 -0.002936264795 -0.010120281334 -0.002936264795 -0.0022721977736 0.00027517811772
          -0.010120281334 0.00027517811772 0.03095297455 0.04922265518 0.0010444931551 -0.0088015727129
          0.0010444931551 -0.0030264164428 0.00034060927885 -0.0088015727129 0.00034060927885 0.03103846644
          0.11482565567 0.0021695238801 -3.1088583725e-05 0.0021695238801 -0.033591837018 0.0089280464139
          -3.1088583725e-05 0.0089280464139 -0.034559539523 0.071137938411 0.00044337280511 -0.026104067904
          0.00044337280511 -0.020462777714 9.1110560627e-05 -0.026104067904 9.1110560627e-05 -0.0033751547504
          -0.036985141578 -0.019635017168 -0.061105985214 -0.019635017168 0.0067120543724 -0.030854160692
          -0.061105985214 -0.030854160692 0.026922712503 0.062799438478 0.00056805709984 -0.026006979091
          0.00056805709984 0.0020359320043 -0.0011795377875 -0.026006979091 -0.0011795377875 0.027026370893
          0.072129408564 -0.0059079731075 -0.026358747975 -0.0059079731075 0.01359026576 -0.019202971355
          -0.026358747975 -0.019202971355 -0.0076206744672 0.063066810647 -0.0033321642901 -0.014721648809
          -0.0033321642901 -0.017680386563 -0.00093539112324 -0.014721648809 -0.00093539112324 0.022470311362
          0.089667543509 0.001335852964 -0.014661276172 0.001335852964 -0.027622537404 0.00041597520715
          -0.014661276172 0.00041597520715 -0.031159576072 0.090120481854 0.0031479159655 0.01361176225
          0.0031479159655 0.0032150655784 0.0062695077607 0.01361176225 0.0062695077607 0.135504679
          0.0025721865451 0.0046291779833 -0.0030409892603 0.0046291779833 0.0043668489797 -0.0033905799373
          -0.0030409892603 -0.0033905799373 0.016744671722 0.08389186481 0.0074978546231 -0.0058688346377
          0.0074978546231 0.0067098565808 -0.0045361524578 -0.0058688346377 -0.0045361524578 0.092711300398
          0.066709379447 0.0011480474633 -0.0085280799262 0.0011480474633 -0.029730421678 -0.0013230076477
          -0.0085280799262 -0.0013230076477 -0.022480727117 0.059891274233 -0.002303432233 -0.021383758402
          -0.002303432233 -0.013310067605 0.00067330204717 -0.021383758402 0.00067330204717 0.017092192878
          0.061848887036 -0.00030577441699 -0.0091068709823 -0.00030577441699 -0.014120098876 0.0016309467741
          -0.0091068709823 0.0016309467741 0.016960827377 0.12813670353 0.0088990143506 -0.00023281044302
          0.0088990143506 -0.011427022999 0.0074407187047 -0.00023281044302 0.0074407187047 0.069674030459
          0.084954557274 0.0015993587472 -0.014432978627 0.0015993587472 -0.006637623844 0.0039677868014
          -0.014432978627 0.0039677868014 0.069811195771 0.059612698051 -0.0039280025948 0.0035560949708
          -0.0039280025948 -0.0023724005725 0.0021037336907 0.0035560949708 0.0021037336907 0.036409779197
          0.046752726817 0.0032621371998 -0.0083143846145 0.0032621371998 0.015352474383 -0.00089599121101
          -0.0083143846145 -0.00089599121101 0.02503985363 0.11953724571 0.0071890785994 0.0037794354398
          0.0071890785994 -0.0064431952687 0.010243510465 0.0037794354398 0.010243510465 0.094371258012
          0.063323936999 4.6759775273e-05 -0.013424285243 4.6759775273e-05 -0.010196916675 -0.00039917591226
          -0.013424285243 -0.00039917591226 0.025536776249 0.018748811285 0.0055195436256 -0.013066471611
          0.0055195436256 -0.0031494538899 0.0014310521354 -0.013066471611 0.0014310521354 0.033858438396
          0.16573736452 0.0071597812185 0.0052018361733 0.0071597812185 -0.011885163017 0.011663334698
          0.0052018361733 0.011663334698 0.13215354515 0.081272748895 0.0066704209653 0.0085712122654
          0.0066704209653 -0.020573039303 -0.0014819283594 0.0085712122654 -0.0014819283594 0.0010190361294
          0.083118950199 -0.0027105141587 0.0027795786617 -0.0027105141587 -0.025499283453 0.0049059234047
          0.0027795786617 0.0049059234047 -0.034918450459 0.038104441045 0.0042538302411 -0.026244947901
          0.0042538302411 0.0088177977261 -0.0077896715147 -0.026244947901 -0.0077896715147 0.045530942759
          0.087232427994 0.0008651121296 0.018305633992 0.0008651121296 -0.009788846351 0.0077146297133
          0.018305633992 0.0077146297133 0.036937451326 0.13334341123 0.0058542591493 0.0054821368057
          0.0058542591493 -0.025073955355 0.0034458717074 0.0054821368057 0.0034458717074 0.040181841397
          0.026582059613 -0.0052035320719 -0.020048043453 -0.0052035320719 -0.0019418038021 0.0011087094909
          -0.020048043453 0.0011087094909 0.015119458235 0.076855867741 0.0034533996028 -0.0029429550072
          0.0034533996028 -0.024771967337 0.0068619677814 -0.0029429550072 0.0068619677814 -0.0016235888423
          0.17294530663 0.0079253532992 0.018906388614 0.0079253532992 -0.021866104237 0.0063241663924
          0.018906388614 0.0063241663924 0.10108142849 0.0041294318889 -0.0033213817535 0.01256919826
          -0.0033213817535 0.011705589511 0.0078382272464 0.01256919826 0.0078382272464 0.047163324077
          0.13918040593 0.010435377043 0.0020198685418 0.010435377043 -0.011034669452 0.0097318527704
          0.0020198685418 0.0097318527704 0.087718244061 0.16427042535 0.008707846368 0.012284091339
          0.008707846368 -0.0079177057776 0.0098061846467 0.012284091339 0.0098061846467 0.13243121098
          0.069976717686 -8.8258657827e-05 -0.010345761425 -8.8258657827e-05 -0.012307573052 -0.00043887115273
          -0.010345761425 -0.00043887115273 0.026774235186 0.15644765322 0.011055407833 0.004052035941
          0.011055407833 -0.0084263098886 0.0093777936592 0.004052035941 0.0093777936592 0.11911444366
          0.046899439189 -0.0025151614137 -0.01611648201 -0.0025151614137 -0.0071592681005 -0.0019059044191
          -0.01611648201 -0.0019059044191 0.026721818638 0.056771559457 0.0074800959033 0.019026798929
          0.0074800959033 -0.0021549847215 -0.0011466361655 0.019026798929 -0.0011466361655 0.046384349343
          0.026416636577 -0.0010409213101 -0.016732965908 -0.0010409213101 0.014675022612 0.0017065580273
          -0.016732965908 0.0017065580273 0.032856952313 0.13049281669 0.0097213403663 -0.0018943890844
          0.0097213403663 0.00019106346232 0.010321968325 -0.0018943890844 0.010321968325 0.12356876237
          0.063517074379 0.0010093129263 -0.013716480303 0.0010093129263 -0.010723808251 -9.8075715978e-06
          -0.013716480303 -9.8075715978e-06 0.026545744517 0.028524965047 -0.00024679618816 -0.014323414343
          -0.00024679618816 -0.0093044074227 -0.0041276245871 -0.014323414343 -0.0041276245871 0.0043856649391
          0.11034409155 0.0083012055231 0.0035884545433 0.0083012055231 -0.001783175104 0.0069111658971
          0.0035884545433 0.0069111658971 0.097637620426 0.07950495897 0.00060991338641 -0.0034176796573
          0.00060991338641 -0.028653394633 -0.00028454508745 -0.0034176796573 -0.00028454508745 -0.0032769384014
          0.14159322918 0.026492602175 0.027591802938 0.026492602175 -0.016453647227 0.045130264749
          0.027591802938 0.045130264749 0.041564116551 0.037191944615 -0.025157488718 -0.0049552178375
          -0.025157488718 0.0018061930673 -0.10535340944 -0.0049552178375 -0.10535340944 0.1769613787
          0.069523365146 0.00061373536623 -0.0092283170732 0.00061373536623 -0.012581698673 -0.00014158558092
          -0.0092283170732 -0.00014158558092 0.023018771014 0.1238609622 0.0078797346861 -9.2468726062e-05
          0.0078797346861 -0.0068490022792 0.0085577754851 -9.2468726062e-05 0.0085577754851 0.10118697874
          0.06850072593 0.0023874655801 -0.0092158236273 0.0023874655801 -0.011197484763 0.00049938845441
          -0.0092158236273 0.00049938845441 0.028635610637 0.15980320534 0.009689245822 0.015839455817
          0.009689245822 -0.0078408730558 0.0085521510485 0.015839455817 0.0085521510485 0.13240157202
          0.061627579329 -0.0033319192883 -0.002755078166 -0.0033319192883 -0.023142530654 4.5826865693e-05
          -0.002755078166 4.5826865693e-05 -0.0011172448462 0.16404489404 0.0080109607207 0.011636802349
          0.0080109607207 -0.0067693917088 0.0083020994955 0.011636802349 0.0083020994955 0.1363040917
          0.058555035409 0.0032447488136 -0.015251381462 0.0032447488136 -0.010348441662 -0.0058748636112
          -0.015251381462 -0.0058748636112 -0.0031591135427 0.062040227595 0.0049428769567 0.00017672191374
          0.0049428769567 -0.014143122106 0.0043625878284 0.00017672191374 0.0043625878284 -0.01110355366
          0.11441833066 0.0077873994214 0.0030135314638 0.0077873994214 -0.0007648647436 0.0086408745443
          0.0030135314638 0.0086408745443 0.10410050908 0.067348709191 0.0084732324103 -0.0092819280114
          0.0084732324103 -0.025656700181 0.0015426727582 -0.0092819280114 0.0015426727582 -0.015779403315
          0.089500843435 0.014539740242 0.0026636110068 0.014539740242 0.004415713495 0.015733166757
          0.0026636110068 0.015733166757 0.096500073929 -0.0029819186263 -0.0045028320122 -0.012120932245
          -0.0045028320122 0.0029637065574 0.00066504425305 -0.012120932245 0.00066504425305 0.021641294155
          0.091323245135 0.0079161303362 0.018373162931 0.0079161303362 -0.023831768171 -0.009612535257
          0.018373162931 -0.009612535257 0.0037691549101 0.010784653595 -0.0046406371007 -0.008172212413
          -0.0046406371007 -0.0003321789706 -0.0029309813199 -0.008172212413 -0.0029309813199 0.0097621797456
          0.15839965805 0.0092686358468 0.0072245400798 0.0092686358468 -0.0094921201259 0.0080061938694
          0.0072245400798 0.0080061938694 0.13722349722 0.1117889805 0.0095405949705 -0.00059771583497
          0.0095405949705 -0.0032728699506 0.008615962386 -0.00059771583497 0.008615962386 0.10512198828
          -0.032560515122 0.002465002828 -0.0063498673521 0.002465002828 0.0010040850047 -0.00074261569169
          -0.0063498673521 -0.00074261569169 0.010301292851 0.064103167328 -0.0055242232457 -0.0076935468123
          -0.0055242232457 -0.019637054861 0.0063467503574 -0.0076935468123 0.0063467503574 -0.010378881831
          0.049339107219 -0.0077730355369 0.0090884076101 -0.0077730355369 -0.019396103723 0.0057419266142
          0.0090884076101 0.0057419266142 -0.012329960958 -0.084944489271 -0.0019769246314 -0.0011910748811
          -0.0019769246314 0.019516483774 0.00051581555264 -0.0011910748811 0.00051581555264 0.059176492992
          0.077971644675 0.00062372822192 -0.0085407243463 0.00062372822192 -0.017141564758 0.0040651339496
          -0.0085407243463 0.0040651339496 0.014695821078 0.037751692217 0.00029975236323 -0.0020600769805
          0.00029975236323 -0.016647254495 0.0018964236328 -0.0020600769805 0.0018964236328 0.0050457715257
          0.11061723275 0.0020711593584 0.0030250647726 0.0020711593584 -0.017175151279 0.002308570174
          0.0030250647726 0.002308570174 0.035200651546 0.038114532329 0.0044784425848 -0.008468450448
          0.0044784425848 -0.0074434382946 0.0024612766166 -0.008468450448 0.0024612766166 0.031018095317
          0.13079631932 0.0084427451075 0.0028598743834 0.0084427451075 -0.00034808815758 0.0074024901891
          0.0028598743834 0.0074024901891 0.13117643657 0.075910442963 0.0020408761599 -0.011541134239
          0.0020408761599 -0.017390460958 0.0014746491939 -0.011541134239 0.0014746491939 0.011200793732
          0.11593176957 0.0083019781732 0.011432056313 0.0083019781732 0.0057443964175 0.005627015094
          0.011432056313 0.005627015094 0.13761967231 0.004898117666 0.0072774216016 0.00013747652152
          0.0072774216016 0.0098155655852 0.00057361014401 0.00013747652152 0.00057361014401 0.026123651509
          0.12927056552 0.010806461437 0.0054373879098 0.010806461437 -0.0056712580137 0.010153980706
          0.0054373879098 0.010153980706 0.10414314367 -0.00051747368615 -0.0044537130041 -0.010062065353
          -0.0044537130041 0.0037539153094 -0.0061583307304 -0.010062065353 -0.0061583307304 0.0074501764984
          0.08999431549 0.00095860899992 -0.0088746194529 0.00095860899992 -0.029253864447 0.0027896799683
          -0.0088746194529 0.0027896799683 -0.0087556356562 0.1246956679 -0.0021196040251 0.023323015393
          -0.0021196040251 -0.0083894876609 0.01504097989 0.023323015393 0.01504097989 0.11300782494
          0.098090197459 0.01088202132 0.0041889080495 0.01088202132 0.0042767175278 0.0086871822373
          0.0041889080495 0.0086871822373 0.097269621147 0.080757313989 0.011423747441 0.013220210942
          0.011423747441 -0.0033210096044 0.005052593939 0.013220210942 0.005052593939 0.081942332702
          0.038510345511 0.0026185946571 -0.016907174401 0.0026185946571 -0.0065096557666 0.0054257706435
          -0.016907174401 0.0054257706435 0.015884883905 0.096442126452 0.0070079525663 0.010089198207
          0.0070079525663 -0.023183365233 0.00023285838107 0.010089198207 0.00023285838107 0.019599083366
          0.042788045632 -0.0024625432141 0.010016909117 -0.0024625432141 0.011832014234 0.0058742814653
          0.010016909117 0.0058742814653 0.081414546617 0.068477090685 0.0085411664087 0.0044822946576
          0.0085411664087 -0.010757843379 0.0095321733535 0.0044822946576 0.0095321733535 0.050958590193
          0.061049756032 0.002188139782 -0.00035887286901 0.002188139782 0.025134267472 0.0034268348951
          -0.00035887286901 0.0034268348951 -0.013313998113 0.059575891369 0.0029009858269 -0.0018335219797
          0.0029009858269 0.031131943789 0.0021844732894 -0.0018335219797 0.0021844732894 -0.014186459919
          0.10747847278 0.006827514763 0.0086644830617 0.006827514763 -0.014626385351 0.0090987516098
          0.0086644830617 0.0090987516098 0.077111765945 0.083250916243 -0.0057614637433 -0.0082118061974
          -0.0057614637433 -0.027681489389 -0.0011718529413 -0.0082118061974 -0.0011718529413 -0.027455260178
          0.069575448602 -0.0019884341543 -0.0066062469504 -0.0019884341543 -0.0218599491 -0.0042198781016
          -0.0066062469504 -0.0042198781016 -0.013594977482 0.030205741961 0.0039728721723 0.015345650757
          0.0039728721723 0.0069937217767 0.0076758744554 0.015345650757 0.0076758744554 0.040191696454
          0.13798371982 0.011323961561 0.0009462990613 0.011323961561 -0.014448474133 0.0074164820768
          0.0009462990613 0.0074164820768 0.086961303477 0.056428162865 -0.0025895015254 -0.016656579662
          -0.0025895015254 -0.0099279804864 0.00098588108871 -0.016656579662 0.00098588108871 0.027597010234
          0.13546986313 0.010416941889 -0.00066556621063 0.010416941889 -0.002950443591 0.0097572859406
          -0.00066556621063 0.0097572859406 0.12657810754 0.12246996776 0.010119788331 0.0015500208079
          0.010119788331 -0.0060050383234 0.0074830021913 0.0015500208079 0.0074830021913 0.091806315874
          0.12543045861 0.010739688062 0.0091688771019 0.010739688062 0.002368061727 0.0081846101272
          0.0091688771019 0.0081846101272 0.14342068986 0.059211657452 -0.00082166382786 -0.012864143854
          -0.00082166382786 -0.0087695818524 0.00056412465815 -0.012864143854 0.00056412465815 0.028233697285
          0.1603206054 0.010629831933 0.017873398567 0.010629831933 -0.0060165349258 0.0079937967641
          0.017873398567 0.0079937967641 0.14154030008 0.085628294875 0.00054355873651 -0.0091267005082
          0.00054355873651 -0.026019183714 0.00023400236766 -0.0091267005082 0.00023400236766 0.0056077459216
          0.051897409011 0.006613838673 -0.031828122251 0.006613838673 -0.0058387136132 0.0008030522801
          -0.031828122251 0.0008030522801 0.039638977631 0.061986036568 0.0003089095993 -0.013493785742
          0.0003089095993 -0.010105021808 3.3705476765e-05 -0.013493785742 3.3705476765e-05 0.02664793064
          0.05237926728 0.011066356429 0.0055131776636 0.011066356429 0.0092464235216 0.005245689185
          0.0055131776636 0.005245689185 0.082246560405 0.068326229894 -0.0003899510652 -0.010920606784
          -0.0003899510652 -0.015122500252 -0.00048504681576 -0.010920606784 -0.00048504681576 0.021851069035
          0.021421203477 -0.014712075233 -0.0086656087649 -0.014712075233 -0.014214765045 -0.020356803998
          -0.0086656087649 -0.020356803998 -0.012070005223 0.14814502697 0.0067783122763 0.001156019618
          0.0067783122763 -0.0092901957817 0.0077625441126 0.001156019618 0.0077625441126 0.11811565461
          0.13295937292 0.0071268234954 0.0029862746802 0.0071268234954 -0.006340393398 0.010891631679
          0.0029862746802 0.010891631679 0.10492082741 0.12826104755 0.0077449920345 0.00058914817344
          0.0077449920345 -0.0040816677472 0.011292493011 0.00058914817344 0.011292493011 0.1037009141
          0.097582284739 0.0060498234715 0.001481591521 0.0060498234715 -0.00081881539693 0.0081216629019
          0.001481591521 0.0081216629019 0.10524787991 0.0031105755557 -0.0056392356596 0.019823551869
          -0.0056392356596 0.0025869564724 0.0098984140379 0.019823551869 0.0098984140379 0.030833126975
          0.052143845502 -0.00047811877705 -0.0099180395232 -0.00047811877705 -0.01047352032 -0.0007835999422
          -0.0099180395232 -0.0007835999422 0.0130174041 0.12263663367 0.0082440903752 0.0066878866465
          0.0082440903752 -0.01982944433 0.0095950320896 0.0066878866465 0.0095950320896 0.067665456212
          0.036839602473 0.00051554636751 -0.0059964063442 0.00051554636751 -0.003170212021 0.00070602806029
          -0.0059964063442 0.00070602806029 0.030099510136 0.12862227123 0.0094451707908 0.001625089118
          0.0094451707908 -0.0068480877964 0.0084674232805 0.001625089118 0.0084674232805 0.095600718472
          0.067364054466 -0.0034715595859 -0.016105324573 -0.0034715595859 -0.012698197324 0.00012154556895
          -0.016105324573 0.00012154556895 0.020871013412 0.094044789904 0.0067614634955 0.0058658116622
          0.0067614634955 0.0041839533188 0.0081257134756 0.0058658116622 0.0081257134756 0.1043345605
          0.040821475531 0.00095527494086 -0.032921923253 0.00095527494086 0.010942670934 0.0025637230521
          -0.032921923253 0.0025637230521 0.040723216434 0.047578210111 0.015822267399 -0.011775405211
          0.015822267399 -0.0091411788725 -0.010230142298 -0.011775405211 -0.010230142298 -0.010619573838
          0.083436690577 -0.0034029480593 -0.0047076034862 -0.0034029480593 -0.029664943688 0.0029462655383
          -0.0047076034862 0.0029462655383 -0.034891203486 0.092291735953 0.0097076379561 0.016375332842
          0.0097076379561 0.008805509077 0.0036162643065 0.016375332842 0.0036162643065 0.137523285
          0.013469893533 0.025908260908 -0.10974480484 0.025908260908 0.042175083469 0.02181312168
          -0.10974480484 0.02181312168 -0.078566374324 0.037393801806 0.0073485731585 -0.011798543481
          0.0073485731585 -0.013059430388 0.004739926576 -0.011798543481 0.004739926576 0.0063913841732
          0.026746547281 -0.0062853054445 -0.019216743766 -0.0062853054445 0.005167480056 -0.00448998111
          -0.019216743766 -0.00448998111 0.015948697075 0.03833775 0.0036255430942 0.0012917933178
          0.0036255430942 -0.014198199593 -0.00081441872317 0.0012917933178 -0.00081441872317 -0.0093767665131
          0.11162499338 0.0084220172572 -0.00070296918275 0.0084220172572 0.0019545670946 0.0077006700653
          -0.00070296918275 0.0077006700653 0.11483484342 0.10382126682 0.0015806642936 0.0096251569365
          0.0015806642936 -0.014501329627 0.00555655668 0.0096251569365 0.00555655668 0.109024146
          0.059341855277 -0.00058780823083 -0.014024252428 -0.00058780823083 -0.011173209339 -2.4494198866e-05
          -0.014024252428 -2.4494198866e-05 0.027896678578 0.072453027312 -7.3538689109e-05 -0.010607784158
          -7.3538689109e-05 -0.017273229334 6.2393575937e-08 -0.010607784158 6.2393575937e-08 0.018956457274
          0.012829534302 0.0054778420636 0.017683970969 0.0054778420636 0.0079789410154 0.003737536623
          0.017683970969 0.003737536623 0.036952251616 0.098928150031 0.0086263030469 0.0021528360432
          0.0086263030469 -0.0018608744578 0.0077639213934 0.0021528360432 0.0077639213934 0.099907562624
          0.06477591836 0.0018838465797 -0.015045663481 0.0018838465797 -0.012656891399 0.00021535477433
          -0.015045663481 0.00021535477433 0.023477997987 0.16307833258 0.0098055825487 0.013669685108
          0.0098055825487 -0.0092193877808 0.012009100466 0.013669685108 0.012009100466 0.13244800609
          0.12739119402 0.010228759138 0.0045534644383 0.010228759138 -0.011775830508 0.0076767169545
          0.0045534644383 0.0076767169545 0.076991573477 0.1228674762 0.014618613996 0.0015767361374
          0.014618613996 -0.0075698703836 0.0074436212184 0.0015767361374 0.0074436212184 0.095218030359
          -0.0023846247189 0.0006598274757 -0.0080784676129 0.0006598274757 0.00085241672748 -0.001455706685
          -0.0080784676129 -0.001455706685 0.02562580045 0.032319632169 -0.00275645017 -0.015265318322
          -0.00275645017 0.00021462582046 0.0021028002593 -0.015265318322 0.0021028002593 0.023105176647
          0.060226854223 0.0081956310472 -0.018652311043 0.0081956310472 -0.014654118241 0.00063054075064
          -0.018652311043 0.00063054075064 -0.00056521623469 0.11778695659 0.0059365177574 0.0072593025689
          0.0059365177574 -0.012516523833 0.0064174346691 0.0072593025689 0.0064174346691 0.080277581198
          0.052485072005 0.0040089254798 -0.010589950547 0.0040089254798 -0.013416567416 -0.0075517561933
          -0.010589950547 -0.0075517561933 -0.010994090661 0.082848428001 0.002749899141 -0.0068168143474
          0.002749899141 -0.018962752675 -0.00079910498855 -0.0068168143474 -0.00079910498855 0.0041868095514
          0.12316519248 0.0076533015639 0.0012952291283 0.0076533015639 -0.0025294028484 0.0087103484579
          0.0012952291283 0.0087103484579 0.12695663095 0.16454862641 0.0077768151558 0.012623553104
          0.0077768151558 -0.0068727980736 0.0024540942466 0.012623553104 0.0024540942466 0.13529626874
          0.0057315215781 0.0012611802539 -0.0029533269162 0.0012611802539 0.0037259602452 0.0012715201827
          -0.0029533269162 0.0012715201827 0.023211960736 0.058834524412 -0.022335429146 -0.058784369768
          -0.022335429146 0.0043101042735 -0.0013417775807 -0.058784369768 -0.0013417775807 0.0140462661
          0.065785298075 0.010763545181 -0.03210528488 0.010763545181 -0.0048806451631 -0.0046891594612
          -0.03210528488 -0.0046891594612 0.050036259395 0.16734981036 0.015171439712 0.00089946348779
          0.015171439712 -0.030398389691 0.016384905608 0.00089946348779 0.016384905608 0.038145167656
          0.016903511287 0.0052473791759 0.0062579750664 0.0052473791759 0.016282414081 0.0067521410963
          0.0062579750664 0.0067521410963 0.047974991586 0.048020209239 -0.0026303348252 -0.010484326457
          -0.0026303348252 -0.014430737063 -0.0033477003919 -0.010484326457 -0.0033477003919 0.0040832199464
          0.13927659891 0.0074315367557 -0.0005646335803 0.0074315367557 -0.01369743698 0.0087399938969
          -0.0005646335803 0.0087399938969 0.096396961149 0.13723842804 0.010714179875 7.357040077e-05
          0.010714179875 -0.010192033755 0.0094278251991 7.357040077e-05 0.0094278251991 0.097185255998
          0.051718031113 -0.0014991788382 -0.0076271773073 -0.0014991788382 -0.0073056914925 -0.00030871194291
          -0.0076271773073 -0.00030871194291 0.030129345028 0.14592374125 0.0096820331585 0.00026384042402
          0.0096820331585 -0.010305138554 0.0082831325947 0.00026384042402 0.0082831325947 0.10583319031
          0.022912052537 -0.0049496844525 -0.0060603134824 -0.0049496844525 0.0015330205108 0.0011974636439
          -0.0060603134824 0.0011974636439 0.03044242883 0.031726306544 -0.0044281754006 -0.017148924716
          -0.0044281754006 0.00078373191671 -0.00039019897877 -0.017148924716 -0.00039019897877 0.018625476863
          0.056640638562 -0.002169233128 -0.0069408316535 -0.002169233128 -0.0072721227864 0.0013132188145
          -0.0069408316535 0.0013132188145 0.031889629896 0.06303536715 -0.0030830537457 -0.0071829256412
          -0.0030830537457 -0.0089912202943 -0.00111699311 -0.0071829256412 -0.00111699311 0.028614301507
          0.086532467387 -0.021474003591 -0.039262079856 -0.021474003591 0 0
          -0.039262079856 0 0 -0.0066042253517 -0.004933690319 -0.0035239143386
          -0.004933690319 0.0058575954661 0.0015724800609 -0.0035239143386 0.0015724800609 0.0068420258523
          0.055396500035 0.0066642635485 -0.035113645336 0.0066642635485 0.0031299688185 0.00049388609563
          -0.035113645336 0.00049388609563 0.053379653484 0.052596055798 0.00662785951 0.0066294767686
          0.00662785951 -0.0094642349111 0.0088044217599 0.0066294767686 0.0088044217599 -0.01640560348
          0.053103666445 -0.00031590445135 -0.010541282611 -0.00031590445135 -0.007236701496 -0.00093412302433
          -0.010541282611 -0.00093412302433 0.024034512102 0.062498548603 0.002686215741 -0.010598746554
          0.002686215741 -0.01734193976 0.0011787002617 -0.010598746554 0.0011787002617 0.011923819816
          0.15720934441 0.0075109067154 0.015149887243 0.0075109067154 -0.0048421375093 0.0054382272355
          0.015149887243 0.0054382272355 0.13858468625 0.070251291476 0.0014857395344 -0.014031748283
          0.0014857395344 -0.02062723168 0.0024614699444 -0.014031748283 0.0024614699444 -0.0024616821384
          0.081258113307 -0.0015616151514 0.012030358257 -0.0015616151514 -0.018657739893 -0.01383063849
          0.012030358257 -0.01383063849 0.078362741875 0.053382086495 0.0011965420361 -0.0076892366078
          0.0011965420361 -0.0064750708296 3.9342773149e-05 -0.0076892366078 3.9342773149e-05 0.031997206546
          0.12849658065 0.0085684142287 0.014665772737 0.0085684142287 0.0060783393063 0.0085827071697
          0.014665772737 0.0085827071697 0.13810671056 0.16029379694 0.011510598517 0.0005573714357
          0.011510598517 -0.014554600062 0.0072506776593 0.0005573714357 0.0072506776593 0.099996227488
          0.084313922255 0.0012890781454 -0.0049811372111 0.0012890781454 -0.023608185568 0.0013995147557
          -0.0049811372111 0.0013995147557 0.0037514546652 0.16864680633 0.01185209245 0.0068184051665
          0.01185209245 -0.007637495535 0.0085449318761 0.0068184051665 0.0085449318761 0.12793565348
          0.016870407547 -0.0033773845532 0.0055784873008 -0.0033773845532 0.00029530466962 0.0031637185503
          0.0055784873008 0.0031637185503 0.0047904356151 0.15180861913 0.013758214067 0.024640568006
          0.013758214067 -0.00077095737137 0.0088329405689 0.024640568006 0.0088329405689 0.13016206146
          0.11181739909 0.0096589126272 -0.0019889674205 0.0096589126272 -0.003305809443 0.0090792834825
          -0.0019889674205 0.0090792834825 0.098769349454 0.050080733966 -0.001856598725 -0.0083817739232
          -0.001856598725 0.019091694196 0.0044640052197 -0.0083817739232 0.0044640052197 0.015494437516
          0.12904297591 0.0065593983963 -0.001355825683 0.0065593983963 -0.0031409854268 0.012089721794
          -0.001355825683 0.012089721794 0.1123519544 0.069420016652 0.0043893521927 -0.003964141365
          0.0043893521927 -0.018491060193 -0.00077506759741 -0.003964141365 -0.00077506759741 -0.026097932878
          0.16013563313 0.0084229384022 0.015813213193 0.0084229384022 -0.021148054652 0.011080580443
          0.015813213193 0.011080580443 0.08265169241 0.062786520441 0.0010489392509 -0.010027072048
          0.0010489392509 -0.0098064729084 -0.00021881073805 -0.010027072048 -0.00021881073805 0.027528611727
          0.16197648088 0.015555257794 0.015652457795 0.015555257794 -0.024736243039 0.010326061764
          0.015652457795 0.010326061764 0.08529616901 0.11721057181 0.0087852826886 0.006499941198
          0.0087852826886 -0.015440373705 0.0015336245793 0.006499941198 0.0015336245793 0.053688763058
          0.12629942089 0.0064418229142 0.0058196376479 0.0064418229142 -0.0073353471071 0.0097941404505
          0.0058196376479 0.0097941404505 0.10253551387 0.15941341503 0.0073603436476 0.013422061271
          0.0073603436476 -0.0034722788277 0.0061346336047 0.013422061271 0.0061346336047 0.14389778205
          0.1597941326 0.0077674008152 0.013220701819 0.0077674008152 -0.0038318361699 0.0053127521171
          0.013220701819 0.0053127521171 0.14354131599 -0.0032478768689 -0.0038543656169 -0.0076411479262
          -0.0038543656169 -0.0092683678609 0.001210850868 -0.0076411479262 0.001210850868 0.008416662155
          0.060811708947 0.010544740419 -0.037952896302 0.010544740419 0.019728091854 0.01563383446
          -0.037952896302 0.01563383446 -0.011013909595 0.067311913077 -0.00042091617806 -0.016550516953
          -0.00042091617806 -0.015805924187 0.0029155678032 -0.016550516953 0.0029155678032 0.0098484575342
          0.046958393319 0.0014887714217 -0.015411192929 0.0014887714217 -0.011978717661 0.002820839976
          -0.015411192929 0.002820839976 0.0043693644622 0.1876291655 0.015030698064 -0.0062789495566
          0.015030698064 -0.031245548078 0.0091901345425 -0.0062789495566 0.0091901345425 0.083288720387
          0.13711861282 0.010180513758 -0.00072403248972 0.010180513758 -0.010956088802 0.0087021900807
          -0.00072403248972 0.0087021900807 0.096902197967 0.13862077463 0.0066370149854 0.0062415996403
          0.0066370149854 -0.017240938801 0.0054193127673 0.0062415996403 0.0054193127673 0.053264437194
          0.050154424294 0.0006886370253 -0.01253194821 0.0006886370253 0.013419658283 0.0046859277907
          -0.01253194821 0.0046859277907 0.019974042675 0.09411836451 0.017543670234 -0.015830501293
          0.017543670234 0.015346017168 0.0090768000811 -0.015830501293 0.0090768000811 -0.0045754153468
          0.12937790151 0.0052043461285 0.017236470316 0.0052043461285 -0.030414185307 -0.0028709862608
          0.017236470316 -0.0028709862608 0.094843164263 0.037425018544 0.0018193451102 -0.03088859367
          0.0018193451102 -0.008283486241 0.0060619497176 -0.03088859367 0.0060619497176 0.052807472924
          0.045138520429 -0.0002104438842 -0.019507115023 -0.0002104438842 0.008722231101 0.0024815759825
          -0.019507115023 0.0024815759825 0.026645896193 0.081091602645 0.00011004211283 -0.006869916258
          0.00011004211283 -0.019888949226 0.0045584963374 -0.006869916258 0.0045584963374 0.0080147326217
          0.18128743318 0.0026637502413 0.010646733957 0.0026637502413 -0.026121770928 0.01349115878
          0.010646733957 0.01349115878 0.084923624548 0.18163748144 0.011930220536 0.020252889391
          0.011930220536 -0.036420595629 0.00035462518962 0.020252889391 0.00035462518962 0.068731495512
          -0.044202647818 0.00043817633129 -0.013551098782 0.00043817633129 0.018687547727 0.0061074262362
          -0.013551098782 0.0061074262362 0.033395310531 0.088481972298 0.0068901595027 -0.0055386506739
          0.0068901595027 0.0041941409199 0.0044860290974 -0.0055386506739 0.0044860290974 -0.016091453252
          0.017932171753 0.0010086388533 -0.0096194830232 0.0010086388533 -0.0067582501103 0.0043172820154
          -0.0096194830232 0.0043172820154 0.020837575812 0.029012572849 -0.0023703057561 -0.0065313867212
          -0.0023703057561 0.0024902976688 -0.00050556794335 -0.0065313867212 -0.00050556794335 0.030344985039
          0.058046787467 0.0050152106414 0.0067160414354 0.0050152106414 0.0030942786818 0.0059804611909
          0.0067160414354 0.0059804611909 0.067820072204 0.028315336313 -0.00055429930017 -0.016269311129
          -0.00055429930017 -0.0095043079237 -0.0010149697472 -0.016269311129 -0.0010149697472 0.0083259655854
          -0.04908744429 0.0048150648568 0.0078662523106 0.0048150648568 0.011507198458 -0.0029612166028
          0.0078662523106 -0.0029612166028 0.05385433106 0.16746404604 0.0021538800713 0.018203622593
          0.0021538800713 -0.019412447657 0.0021019795519 0.018203622593 0.0021019795519 0.096844328108
          0.071198818566 0.0011580409693 -0.011674522855 0.0011580409693 -0.012885507226 -0.0020419769105
          -0.011674522855 -0.0020419769105 0.02491230417 0.074953380128 0.021402982969 0.0096230118594
          0.021402982969 0.012075116135 0.0071221753027 0.0096230118594 0.0071221753027 0.12956098006
          0.13265726757 0.012966052424 -0.0023313392685 0.012966052424 -0.0078614755345 0.010135070274
          -0.0023313392685 0.010135070274 0.10387323676 0.0061075270658 0.0029938973187 0.0056854379444
          0.0029938973187 -0.011968693855 0.0037633015991 0.0056854379444 0.0037633015991 0.0065326941732
          0.087115027718 0.0039948588299 0.0096866440607 0.0039948588299 -0.026270180295 0.0056159539035
          0.0096866440607 0.0056159539035 -0.0014606328414 0.018916363446 0.0032907818295 0.0093680002128
          0.0032907818295 -0.0020892288614 -0.0026358593794 0.0093680002128 -0.0026358593794 0.025591543394
          -0.033642264373 0.0030112540172 0.0012681885001 0.0030112540172 0.021102934683 0.016774799722
          0.0012681885001 0.016774799722 0.058354749997 0.11431158331 0.0033939073936 0.011487400132
          0.0033939073936 -0.01050786407 0.0061880194745 0.011487400132 0.0061880194745 0.052502464865
          0.075465905463 -0.00094484326284 -0.0044953790187 -0.00094484326284 -0.022892974502 0.0023994047928
          -0.0044953790187 0.0023994047928 -0.022465616557 0.1593658804 0.0093572742417 1.7147912843e-05
          0.0093572742417 -0.014990964611 0.0092046078766 1.7147912843e-05 0.0092046078766 0.11559366168
          0.075129979393 0.0008928691245 -0.013039752506 0.0008928691245 -0.015959616549 0.0034850650318
          -0.013039752506 0.0034850650318 0.011423875238 0.072795980355 0.00055699687363 -0.0059462815541
          0.00055699687363 -0.014579121476 0.0006769280441 -0.0059462815541 0.0006769280441 0.023666583
          0.13571794899 0.010693835745 0.0036845228154 0.010693835745 -0.017523334011 0.008923169834
          0.0036845228154 0.008923169834 0.07631934733 0.040566471394 -0.0026195934773 -0.013337462843
          -0.0026195934773 -0.0043840285802 0.00037137506581 -0.013337462843 0.00037137506581 0.027221407909
          0.1000537088 -0.0057952016571 -0.010787619278 -0.0057952016571 -0.030890462264 0.0021922848048
          -0.010787619278 0.0021922848048 -0.022710843875 0.001892806987 0.0070169729948 -0.0050493096563
          0.0070169729948 0.00012164374282 0.0031426504896 -0.0050493096563 0.0031426504896 0.021642633221
          0.14563539096 0.0093310137163 0.011524428809 0.0093310137163 -0.002591712343 0.0096411915776
          0.011524428809 0.0096411915776 0.1431996248 0.075431827695 -0.00068083696723 -0.029682494897
          -0.00068083696723 0.014566515495 -0.016676434488 -0.029682494897 -0.016676434488 -0.035635103225
          0.026907030507 0.0075663117947 0.016923930635 0.0075663117947 -0.011614202329 -0.0025567818839
          0.016923930635 -0.0025567818839 0.028817853002 -0.075655305682 -0.008624881103 -0.0030975665425
          -0.008624881103 0.021976002882 0.0049620154965 -0.0030975665425 0.0049620154965 0.055435231093
          0.10033173539 0.006544930368 0.010303684186 0.006544930368 -0.0035311173305 0.0077070416405
          0.010303684186 0.0077070416405 0.080211837036 0.079262597028 0.0033276481535 -0.0079638872613
          0.0033276481535 -0.016661948038 0.0012686717871 -0.0079638872613 0.0012686717871 0.019980501002
          0.060746121529 0.0011404535836 -0.014383360528 0.0011404535836 -0.010294652365 -0.00015613907186
          -0.014383360528 -0.00015613907186 0.02645793625 0.12460366272 0.010466290332 0.0025069754285
          0.010466290332 -0.0092362022983 0.0061594851715 0.0025069754285 0.0061594851715 0.08433767598
          0.051320350894 0.0015392837992 -0.0055309284877 0.0015392837992 -0.013453726984 0.0011460604613
          -0.0055309284877 0.0011460604613 0.010792388921 0.065077454705 0.0056015444368 0.0081687200064
          0.0056015444368 -0.0086061843375 -0.0067177014716 0.0081687200064 -0.0067177014716 0.03433921776
          0.13774016999 0.0098863994808 -0.002388092178 0.0098863994808 -0.011222981462 0.0087189599146
          -0.002388092178 0.0087189599146 0.095489321658 -0.043747836322 0.0015215469119 0.0096402829781
          0.0015215469119 0.0050293101965 0.00051374913055 0.0096402829781 0.00051374913055 0.02437541414
          0.05016756985 -0.0010371173682 -0.017922402371 -0.0010371173682 0.012607567078 0.006008562374
          -0.017922402371 0.006008562374 0.013472733126 -0.019001934058 -0.0001308149147 -0.0019368951469
          -0.0001308149147 0.00098137446088 0.0069386149225 -0.0019368951469 0.0069386149225 0.01294318699
          0.056303475659 0.0047196770154 -0.015786584087 0.0047196770154 -0.0063641176626 -0.0010282091759
          -0.015786584087 -0.0010282091759 0.026651803776 0.061602290318 0.0014845760062 -0.020757002175
          0.0014845760062 -0.018904914197 -0.012989240657 -0.020757002175 -0.012989240657 -0.0063981923372
          0.03451930598 -0.0013460431713 -0.013052451628 -0.0013460431713 -0.0049584341293 0.0020480283142
          -0.013052451628 0.0020480283142 0.010459945693 0.028804867404 -0.0003191075421 -0.025168116213
          -0.0003191075421 0.009173533345 0.0060192672809 -0.025168116213 0.0060192672809 0.052951350404
          0.13721209094 0.011036319193 0.0024876524184 0.011036319193 -0.01154628503 0.0072293196717
          0.0024876524184 0.0072293196717 0.084714801922 0.12026801566 0.0043211979655 0.011957403937
          0.0043211979655 0.00089987389639 0.013098316307 0.011957403937 0.013098316307 0.13024013071
          0.043486946603 0.016584097765 0.0041313225513 0.016584097765 -0.013661492397 0.0018034932299
          0.0041313225513 0.0018034932299 -0.0029244033482 0.056870506102 -0.02028592338 -0.026842402321
          -0.02028592338 -0.0016358492846 -0.011486420512 -0.026842402321 -0.011486420512 0.022588228362
          -0.03763793706 0.0075060886254 0.013662087191 0.0075060886254 -0.001014331894 -0.003815758226
          0.013662087191 -0.003815758226 0.02237634336 0.017536685982 -0.00096027935526 -0.0059992559584
          -0.00096027935526 -0.0045006110256 0.0057975472515 -0.0059992559584 0.0057975472515 0.019320569507
          0.099121654416 0.0012425493275 0.008206012941 0.0012425493275 -0.026935777407 0.0026176532574
          0.008206012941 0.0026176532574 0.0035190879037 -0.0098571561054 -0.00033838316454 -0.01119189612
          -0.00033838316454 0.0075924669644 0.0021307369704 -0.01119189612 0.0021307369704 0.022731802153
          0.079160954675 -0.00028542037681 -0.011197924584 -0.00028542037681 -0.017688371278 -0.0023039627365
          -0.011197924584 -0.0023039627365 0.015053817304 0.11955220903 0.0072796919047 0.0036202385165
          0.0072796919047 -0.0086615865119 0.0079238527144 0.0036202385165 0.0079238527144 0.095400864668
          0.00080052208889 -0.0068655568403 0.013732642623 -0.0068655568403 0.015517445492 0.0021063108341
          0.013732642623 0.0021063108341 0.043405922005 0.083232552865 0.0031891550084 -0.0050844022646
          0.0031891550084 -0.024922600052 0.0011473507267 -0.0050844022646 0.0011473507267 0.0038344781668
          0.053957697746 0.0013617036838 -0.014295609928 0.0013617036838 -0.008391880562 -0.0003546934296
          -0.014295609928 -0.0003546934296 0.030469455688 0.16957711999 0.010155533501 0.020557355607
          0.010155533501 -0.009595978351 0.010138286168 0.020557355607 0.010138286168 0.12490839318
          0.11589643618 0.014229829475 0.013842660931 0.014229829475 -0.023337791312 0.0069899151219
          0.013842660931 0.0069899151219 0.019037393438 0.016551977711 0.0055211421509 -0.0018905559434
          0.0055211421509 0.019876949142 -0.0010225140807 -0.0018905559434 -0.0010225140807 0.075582409132
          0.16808362566 0.011172056131 0.017273320725 0.011172056131 -0.012768930079 0.0091389996878
          0.017273320725 0.0091389996878 0.1265661504 0.054768346561 0.0082625646676 -0.042733359225
          0.0082625646676 0.0044061405473 0.0034081482938 -0.042733359225 0.0034081482938 0.032515493547
          0.057327979199 0.009047595339 -0.041154375214 0.009047595339 0.0037313028603 0.0034706233638
          -0.041154375214 0.0034706233638 0.033295226776 0.02899877459 -0.0017080737771 -0.0037226577259
          -0.0017080737771 -0.00036048003573 0.00047956146383 -0.0037226577259 0.00047956146383 0.024392003896
          0.1541843633 0.011663959326 0.015551712358 0.011663959326 -0.006477346747 0.0084579504062
          0.015551712358 0.0084579504062 0.12519695302 0.15195946588 0.0071291129565 0.020286523933
          0.0071291129565 -0.0049787348603 0.006987671364 0.020286523933 0.006987671364 0.13961779505
          0.15221244962 0.0035421942726 0.026864270246 0.0035421942726 -0.0085279335933 0.011106252095
          0.026864270246 0.011106252095 0.12938609526 0.02519326631 0.0036680525585 0.0010544099251
          0.0036680525585 0.0055856025331 -0.0030322314803 0.0010544099251 -0.0030322314803 -0.00019419757644
          0.070152531463 -0.014454709752 -0.0017245056265 -0.014454709752 0.005839555667 -0.0031317280931
          -0.0017245056265 -0.0031317280931 0.056016479191 0.14207471823 0.0044479125724 0.014892141823
          0.0044479125724 -0.012318627753 0.006637679535 0.014892141823 0.006637679535 0.11313481829
          0.11404296539 0.0057725023515 0.0090459893006 0.0057725023515 -0.0097406889344 0.010850975619
          0.0090459893006 0.010850975619 0.086240702682 0.13441858728 0.0075513710644 -0.00027689571343
          0.0075513710644 -0.0083950694564 0.0091169282197 -0.00027689571343 0.0091169282197 0.11384485215
          0.15526773891 0.0088972281059 8.4684313677e-05 0.0088972281059 -0.011072441604 0.0082529341279
          8.4684313677e-05 0.0082529341279 0.11734162531 0.15572274317 0.0089937531966 0.0067686697468
          0.0089937531966 -0.011815829615 0.0041897011428 0.0067686697468 0.0041897011428 0.12157929422
          0.059252191037 -0.00078363064325 -0.011598667671 -0.00078363064325 -0.0098701759638 0.0006758050753
          -0.011598667671 0.0006758050753 0.027634299391 0.044279689072 0.0024404381286 -0.017678697075
          0.0024404381286 -0.015692387895 -0.0086580444469 -0.017678697075 -0.0086580444469 0.0028119033487
          0.021933269429 0.0064479181891 -0.024171704646 0.0064479181891 -0.0164081297 -0.0073446754038
          -0.024171704646 -0.0073446754038 0.0084794790853 0.072014095545 -0.0021834436103 -0.011606597993
          -0.0021834436103 -0.01627215278 0.0006708932682 -0.011606597993 0.0006708932682 0.011293928613
          0.058488560338 -0.0016037642772 -0.013933596385 -0.0016037642772 -0.008790435057 0.0014904715568
          -0.013933596385 0.0014904715568 0.028867407507 0.066449168113 0.00078629002658 -0.0068582569467
          0.00078629002658 -0.014652011918 -0.0017341613586 -0.0068582569467 -0.0017341613586 0.029682024391
          0.19294342284 0.012114930693 0.015530284912 0.012114930693 -0.036651035601 0.0077773241752
          0.015530284912 0.0077773241752 0.049176414907 0.059792797728 -0.00024002411015 -0.012421518459
          -0.00024002411015 -0.010331790684 0.0010785676775 -0.012421518459 0.0010785676775 0.028568442971
          0.121365514 0.0085096101976 0.008441248042 0.0085096101976 -0.012718508338 0.0067412196848
          0.008441248042 0.0067412196848 0.080003890187 0.059315602823 0.0035931633097 -0.0056521431274
          0.0035931633097 0.019032989796 -0.010957629824 -0.0056521431274 -0.010957629824 -0.0072822146424
          0.12590532201 0.0088773717509 0.0102998213 0.0088773717509 -0.011157970533 0.0093813228619
          0.0102998213 0.0093813228619 0.080523644966 0.012309520157 0.0020036124837 -0.0080976123182
          0.0020036124837 -0.0022466396274 -0.00069831375182 -0.0080976123182 -0.00069831375182 0.0097746374745
          0.11818159136 0.004109706661 0.0044536090002 0.004109706661 -0.002981506774 0.0089429494586
          0.0044536090002 0.0089429494586 0.098636008681 0.15650300227 0.010852651105 0.020962993518
          0.010852651105 -0.011109567024 0.0071621685877 0.020962993518 0.0071621685877 0.13122175549
          0.10606191283 -0.00030456648793 0.0021988198078 -0.00030456648793 -0.03437581872 -0.0054629587142
          0.0021988198078 -0.0054629587142 -0.049825500432 0.061914362016 -3.4895710782e-05 -0.014779357076
          -3.4895710782e-05 -0.012588187176 -0.0012622905467 -0.014779357076 -0.0012622905467 0.02566153629
          0.074745955378 0.0032710900064 -0.00076131894689 0.0032710900064 -0.026958930438 0.00040841223835
          -0.00076131894689 0.00040841223835 -0.015877911022 0.15955634872 0.010807307012 0.015683737012
          0.010807307012 -0.0094333375205 0.0081033290435 0.015683737012 0.0081033290435 0.1337038329
          0.057010621281 -0.00063111477093 -0.014926838816 -0.00063111477093 -0.0090195936667 -0.00079977258685
          -0.014926838816 -0.00079977258685 0.028100702924 0.067409064182 -0.0013988437867 -0.0049884620364
          -0.0013988437867 -0.016809018147 -0.0011932316208 -0.0049884620364 -0.0011932316208 -0.016301967325
          0.069652659093 0.0037519142173 0.0068711137109 0.0037519142173 -0.014358719727 0.0010351549719
          0.0068711137109 0.0010351549719 0.019105092623 0.16293402302 0.0075029187272 0.022185145163
          0.0075029187272 -0.0093652782491 0.0065027201288 0.022185145163 0.0065027201288 0.13038654062
          0.051922123511 -0.01607571154 -0.03475380945 -0.01607571154 0.011121912025 -0.015118762141
          -0.03475380945 -0.015118762141 -0.0024947364262 0.050337793126 -0.0010552547284 -0.0065678264629
          -0.0010552547284 -0.0035186647419 -0.0014661644328 -0.0065678264629 -0.0014661644328 0.032900833788
          0.070152377852 0.00042411509692 -0.013557590134 0.00042411509692 -0.014476881901 -0.00041798336152
          -0.013557590134 -0.00041798336152 0.012893990899 0.13049681742 0.0062728194973 0.006191400397
          0.0062728194973 -0.012326131056 0.0088938269249 0.006191400397 0.0088938269249 0.081198144857
          0.043592844498 0.0081419362512 -0.021534060802 0.0081419362512 0.009766338649 -0.0044863866391
          -0.021534060802 -0.0044863866391 0.031531609941 0.10521680653 0.0017629565614 0.0061416917161
          0.0017629565614 -0.034323766864 0.00074053455929 0.0061416917161 0.00074053455929 -0.043163214237
          0.071665158484 0.0060321564741 -0.019683202888 0.0060321564741 -0.0089584919852 0.026058237402
          -0.019683202888 0.026058237402 0.017250246129 0.051912606136 -0.00059119736665 -0.011136719614
          -0.00059119736665 -0.010286225326 -0.0027901061446 -0.011136719614 -0.0027901061446 0.014796447115
          0.12374631258 0.0086803875852 -0.0031015040283 0.0086803875852 -0.0063579846154 0.0071684491266
          -0.0031015040283 0.0071684491266 0.10848898951 0.14056624837 0.0030417376194 0.018058472593
          0.0030417376194 -0.0053006866155 0.0067086926195 0.018058472593 0.0067086926195 0.10748486748
          0.17340469882 0.0096339114268 0.020776623721 0.0096339114268 -0.017474444609 0.01071870486
          0.020776623721 0.01071870486 0.11429430565 0.011767042119 0.041357735609 -0.020219015938
          0.041357735609 -0.039190160888 0.048438111452 -0.020219015938 0.048438111452 0.036000948486
          0.026111217642 -1.1218069104e-05 -0.012606007937 -1.1218069104e-05 0.0017964165231 0.0026137260594
          -0.012606007937 0.0026137260594 -0.0042848261097 -0.073612771558 -0.003300053381 -0.00040183781165
          -0.003300053381 0.012807908377 -0.004903012078 -0.00040183781165 -0.004903012078 0.046612709658
          0.049750908808 0.0012030708406 -0.016223755733 0.0012030708406 0.0085387426871 0.0081782643248
          -0.016223755733 0.0081782643248 0.080022413333 0.1306417849 0.0072902377818 0.0021275888357
          0.0072902377818 -0.004887674439 0.0093657186989 0.0021275888357 0.0093657186989 0.11120720013
          0.0069755913439 -0.0030016465432 -0.0084555916753 -0.0030016465432 -0.00039615680248 0.0031332648015
          -0.0084555916753 0.0031332648015 0.018773954793 0.10786116186 0.0096691643697 -0.0014052060161
          0.0096691643697 -0.00018778098211 0.0085621483949 -0.0014052060161 0.0085621483949 0.10535397918
          0.022624663585 -0.00060893845571 -0.014100733465 -0.00060893845571 -0.0090813313401 -0.0066139940754
          -0.014100733465 -0.0066139940754 -0.01594131322 0.16002351969 -0.011293288262 0.035531632976
          -0.011293288262 -0.025677994625 -0.011305874329 0.035531632976 -0.011305874329 0.047845530807
          0.037299155222 -0.023201001285 0.012438759875 -0.023201001285 -0.012061336921 0.0095359864532
          0.012438759875 0.0095359864532 -0.011602293899 0.15533795898 0.01031950258 0.008825374414
          0.01031950258 -0.011313419403 0.0088288394055 0.008825374414 0.0088288394055 0.12710499645
          0.10463644371 0.0087095863474 0.00083348604837 0.0087095863474 0.0027778295664 0.0071650311867
          0.00083348604837 0.0071650311867 0.10135844135 0.029115215549 0.0023914597121 -0.0098877489587
          0.0023914597121 -0.0009916079924 0.002204338426 -0.0098877489587 0.002204338426 0.014843748437
          0.12774119276 0.0096586910641 -0.0019594925341 0.0096586910641 -0.0052044722554 0.009192724783
          -0.0019594925341 0.009192724783 0.11915816653 0.096856092845 -0.0010745675764 -0.00099199133223
          -0.0010745675764 -0.036646779701 0.0039864005993 -0.00099199133223 0.0039864005993 -0.035132241717
          0.14780104384 0.0065196844953 0.017486440009 0.0065196844953 -0.015491625316 0.011816036981
          0.017486440009 0.011816036981 0.116125747 0.11726060783 0.011178149595 0.001451067832
          0.011178149595 -0.0013229070433 0.0092560090587 0.001451067832 0.0092560090587 0.11496829812
          -0.030159634705 -0.0088283984718 -0.0095729251614 -0.0088283984718 0.014791492771 0.0031572605901
          -0.0095729251614 0.0031572605901 0.021346382025 -0.040894758769 -0.013853436676 0.0059196287679
          -0.013853436676 0.011222535377 -0.0031332461924 0.0059196287679 -0.0031332461924 0.033354853223
          0.13821348181 0.0073868735914 0.0037069695554 0.0073868735914 -0.0063468764823 0.012089892264
          0.0037069695554 0.012089892264 0.12569527814 -0.028292609567 0.0070608879111 -0.0081324261929
          0.0070608879111 0.0094575181633 -0.0011364411512 -0.0081324261929 -0.0011364411512 0.027712578653
          -0.0042440303632 6.2852968656e-05 -0.0073640976854 6.2852968656e-05 0.0058522390578 0.0059285236294
          -0.0073640976854 0.0059285236294 0.01832097483 0.084571015458 0.0065206954719 -0.007154430351
          0.0065206954719 -0.021431294237 -0.004530337571 -0.007154430351 -0.004530337571 -0.032082306038
          0.010101844676 -0.0016268924782 -0.010212707726 -0.0016268924782 0.0051207189921 0.0012843661351
          -0.010212707726 0.0012843661351 0.035707367812 0.0031983445565 -0.00083292529917 -0.011315297765
          -0.00083292529917 -0.0027276927037 0.0010043398119 -0.011315297765 0.0010043398119 0.011444576121
          0.037583909239 0.00091958629632 -0.017005168385 0.00091958629632 -0.006809049501 0.0018334387441
          -0.017005168385 0.0018334387441 0.013688268328 0.16359866776 0.0070474143464 0.00054422321646
          0.0070474143464 -0.0096489597164 0.0067726321741 0.00054422321646 0.0067726321741 0.13125895385
          0.046472717828 0.0012294805991 -0.00918993232 0.0012294805991 -0.0099572267393 0.0019917952353
          -0.00918993232 0.0019917952353 0.022504680015 0.039149005464 0.0072254472921 -0.0214296384
          0.0072254472921 0.010558274089 0.00058742745783 -0.0214296384 0.00058742745783 0.069577399472
          0.12997160086 0.016118795036 0.0063038341486 0.016118795036 -0.014405854229 0.0057146028722
          0.0063038341486 0.0057146028722 0.084617101981 0.086926327305 0.0052959235733 0.0070515567144
          0.0052959235733 -0.02389666404 0.001698752963 0.0070515567144 0.001698752963 0.0027739757973
          0.077333320406 0.0094462832373 -0.005920859061 0.0094462832373 -0.0048820786381 0.0039928197651
          -0.005920859061 0.0039928197651 0.084122597223 0.064499383385 0.0015290408823 -0.0065088640584
          0.0015290408823 -0.010663469436 0.0004516517201 -0.0065088640584 0.0004516517201 0.029527928714
          0.061527554127 0.0012906478347 -0.0069631788516 0.0012906478347 -0.0096336364539 -0.00026211122582
          -0.0069631788516 -0.00026211122582 0.028111695679 0.1271269843 0.0096681674004 0.0078985644099
          0.0096681674004 -0.0052040368524 0.0087348473133 0.0078985644099 0.0087348473133 0.1217017303
          0.011380770005 -0.0044276674688 -0.01614959288 -0.0044276674688 0.013751871526 0.0012546610374
          -0.01614959288 0.0012546610374 0.067725819825 0.001655207817 0.0017740907847 -0.0062533825804
          0.0017740907847 0.0045523561282 -0.0020508624127 -0.0062533825804 -0.0020508624127 0.018413247573
          0.15943439075 0.010550963744 0.018905496519 0.010550963744 -0.011569431069 0.0089326163163
          0.018905496519 0.0089326163163 0.12771685475 0.039650868003 0.0021254714639 -0.013188613376
          0.0021254714639 -0.0082079417528 0.00063895079863 -0.013188613376 0.00063895079863 0.015168475437
          0.16689152529 0.010144102309 0.019363069373 0.010144102309 -0.0086255313841 0.011676863323
          0.019363069373 0.011676863323 0.12683262419 0.11141504082 0.023100730058 0.0075325188855
          0.023100730058 0.0016909669376 0.009434271412 0.0075325188855 0.009434271412 0.14740062142
          0.16169864008 0.0097992199025 0.021904079428 0.0097992199025 -0.01525762844 0.0060306074311
          0.021904079428 0.0060306074311 0.13263672281 0.11056978554 0.0057290257359 0.0011119895356
          0.0057290257359 -0.0030203144459 0.0095794155819 0.0011119895356 0.0095794155819 0.10612722888
          0.065264914792 -0.00026614474343 -0.0058730333496 -0.00026614474343 -0.021767382202 -0.0045054978609
          -0.0058730333496 -0.0045054978609 -0.00179512749 0.1616132818 0.010305688113 0.014463388896
          0.010305688113 -0.0075724998656 0.007360740506 0.014463388896 0.007360740506 0.133609544
          0.13260127519 0.008976511808 0.0021556887006 0.008976511808 -0.0025224629514 0.0078083529589
          0.0021556887006 0.0078083529589 0.11830240657 0.052317853022 -0.0026279867195 -0.012117785909
          -0.0026279867195 -0.0058559780187 0.0010965577054 -0.012117785909 0.0010965577054 0.029248832361
          0.043690748621 -0.0028653520846 -0.0078202795422 -0.0028653520846 -0.006986631544 -2.6639713627e-05
          -0.0078202795422 -2.6639713627e-05 0.031633518438 0.058837610872 0.00075000149609 0.009578222533
          0.00075000149609 -0.0014230299796 0.0094989679068 0.009578222533 0.0094989679068 0.072732052508
          0.063198149051 0.0020733758662 -0.010874650037 0.0020733758662 -0.0093285359963 0.0018759723226
          -0.010874650037 0.0018759723226 0.023126948718 0.047402413678 -0.002323765747 -0.010391153133
          -0.002323765747 -0.016515081451 -0.0024564446643 -0.010391153133 -0.0024564446643 0.0066563312832
          0.052085360199 -0.0036066686297 -0.013771731489 -0.0036066686297 -0.011299126912 -0.0007126208777
          -0.013771731489 -0.0007126208777 0.029298267597 0.063543290101 0.0019808279627 -0.034005087854
          0.0019808279627 0.0051339380046 -0.02407841818 -0.034005087854 -0.02407841818 -0.020130384336
          0.065694335097 0.001247420885 -0.015671512065 0.001247420885 -0.010357334485 0.0013490772653
          -0.015671512065 0.0013490772653 0.02614261054 0.16509449313 0.0087000079659 0.0082053983406
          0.0087000079659 -0.0087448568303 0.0095903076064 0.0082053983406 0.0095903076064 0.12254875951
          0.15840159145 0.0091595432251 0.0070689778948 0.0091595432251 -0.0067027833066 0.010053625305
          0.0070689778948 0.010053625305 0.13628425167 0.075348003034 -0.0019062667838 0.0010294046854
          -0.0019062667838 -0.01900790573 0.002989020487 0.0010294046854 0.002989020487 -0.031141013956
          0.017891510434 -0.012270853527 -0.0024949879605 -0.012270853527 -0.0095617700209 0.0068066750717
          -0.0024949879605 0.0068066750717 -0.00060671542859 0.056132006892 -0.00054553058932 -0.0015508498304
          -0.00054553058932 -0.016611283348 0.0017004223851 -0.0015508498304 0.0017004223851 -0.011183651551
          0.04281673545 -0.0018794406013 -0.013627205045 -0.0018794406013 -0.017540418942 0.015922482353
          -0.013627205045 0.015922482353 0.027618679706 0.059777601267 -0.00080989433592 0.0023568724714
          -0.00080989433592 -0.021232891059 0.010383637218 0.0023568724714 0.010383637218 -0.021058975472
          0.11432222713 0.012166530403 0.006504900315 0.012166530403 -0.0053039765428 0.0069758544361
          0.006504900315 0.0069758544361 0.081562617272 0.02319237371 -0.0019806858909 -0.005191144902
          -0.0019806858909 0.0016901651294 -0.0032968998199 -0.005191144902 -0.0032968998199 0.032716190892
          0.074918220235 -0.008419411042 0.019741869975 -0.008419411042 -0.015607779469 0.0038588055627
          0.019741869975 0.0038588055627 0.0020505404558 0.044479901725 -0.0020072407415 -0.054921409578
          -0.0020072407415 -0.00039666069368 -0.044332798796 -0.054921409578 -0.044332798796 0.0072935179189
          0.046445002616 -0.0025847660568 -0.0084822802617 -0.0025847660568 -0.0039595964689 0.0018064926122
          -0.0084822802617 0.0018064926122 0.033658571851 0.050431066166 -0.0020510789624 -0.007255724712
          -0.0020510789624 -0.0064313687068 0.00092698641758 -0.007255724712 0.00092698641758 0.032644778604
          0.12388780952 0.0062229722362 0.0092801450313 0.0062229722362 -0.023955942871 -0.0015607465249
          0.0092801450313 -0.0015607465249 -0.012218609026 0.069559879189 0.0061449406197 -0.010494727538
          0.0061449406197 -0.025674826648 0.0037562694115 -0.010494727538 0.0037562694115 -0.018968995279
          0.06510948113 0.00060957845305 -0.0063935965365 0.00060957845305 -0.025983701549 0.00043802866474
          -0.0063935965365 0.00043802866474 0.0020953618898 0.18059918318 -0.0029617984143 0.0026121349981
          -0.0029617984143 -0.03345225634 0.0038296839718 0.0026121349981 0.0038296839718 0.10348287231
          0.03309740335 -0.00024386317145 0.00044466725525 -0.00024386317145 -0.012728042593 0.004205324859
          0.00044466725525 0.004205324859 -0.016825982105 0.061767046695 -0.00014375430842 -0.012322277223
          -0.00014375430842 -0.01071759431 0.0010100379475 -0.012322277223 0.0010100379475 0.022189309922
          -0.0013250794717 0.0013311200493 -0.019910819352 0.0013311200493 0.0050974415365 0.0087781115941
          -0.019910819352 0.0087781115941 0.01948302257 0.072773959198 0.0007956917091 -0.0087463865071
          0.0007956917091 -0.0151307163 0.00020746949023 -0.0087463865071 0.00020746949023 0.025909240222
          0.035620187336 -0.0048903962516 -0.0096757850592 -0.0048903962516 -0.0051044052093 -0.0004069772038
          -0.0096757850592 -0.0004069772038 0.024055075526 -0.057521114158 -0.00897818065 -0.028247486139
          -0.00897818065 0.01093267344 -0.00019774274321 -0.028247486139 -0.00019774274321 0.033605669039
          0.081438613389 0.0076768911658 0.010703034409 0.0076768911658 -0.015289831313 0.0070718928605
          0.010703034409 0.0070718928605 0.0051164567123 0.050984432325 0.0006430875705 -0.0080103848797
          0.0006430875705 -0.0050061143247 0.0011484012837 -0.0080103848797 0.0011484012837 0.030166579716
          0.096832871648 0.0051793010069 -0.0030161767482 0.0051793010069 -0.022475033629 -0.0053325738079
          -0.0030161767482 -0.0053325738079 0.012159039875 0.068328296087 0.0015994227584 0.0052226988236
          0.0015994227584 -0.018027240049 0.0052275191405 0.0052226988236 0.0052275191405 0.0088913988982
          0.081086526001 0.0061319615592 0.008620323977 0.0061319615592 -0.022060176363 -0.0017407546317
          0.008620323977 -0.0017407546317 0.0050554965104 0.090959549306 0.0077117934023 -0.0028064178326
          0.0077117934023 -0.023629115397 -0.0016370732674 -0.0028064178326 -0.0016370732674 0.014690974323
          0.094022581797 0.0028723824193 0.013864768865 0.0028723824193 -0.0051338536216 0.010502309393
          0.013864768865 0.010502309393 0.073925315202 0.14697619109 0.010507903119 0.005716992616
          0.010507903119 -0.0072557490663 0.0078207023286 0.005716992616 0.0078207023286 0.11478657532
          0.0453820496 -0.0036296287991 -0.009500383495 -0.0036296287991 -0.01657969293 -0.00077545719907
          -0.009500383495 -0.00077545719907 -0.021236323797 0.026197270523 0.0084951804552 0.015729808507
          0.0084951804552 0.009058181374 0.0038056840241 0.015729808507 0.0038056840241 0.056968940388
          0.03100494272 0.0057914499268 0.011252122163 0.0057914499268 0.01042862985 0.0066793009307
          0.011252122163 0.0066793009307 0.060297327379 0.11306673566 0.0048724751575 0.0089364546185
          0.0048724751575 -0.012419141189 0.0084983858427 0.0089364546185 0.0084983858427 0.045702378939
          -0.005022075081 -0.0034031021216 -0.015453314055 -0.0034031021216 0.0060617920336 0.0023817114361
          -0.015453314055 0.0023817114361 0.010105343353 0.075866745184 0.0043468250516 -0.012325146797
          0.0043468250516 0.0099337626347 0.021705399874 -0.012325146797 0.021705399874 0.012550678097
          0.089311687067 0.0095312450426 0.0063934587701 0.0095312450426 0.0024263622365 0.0091117242423
          0.0063934587701 0.0091117242423 0.091793079334 0.075488043763 0.01055357502 0.010539623233
          0.01055357502 -0.015722044863 0.0053684210601 0.010539623233 0.0053684210601 0.044058639166
          0.031582881463 -0.0035791358645 -0.0026587236345 -0.0035791358645 -0.0089469416412 -0.0015877324408
          -0.0026587236345 -0.0015877324408 -0.010132398482 0.1404264271 0.009720439027 0.0048439783724
          0.009720439027 -0.025193499421 0.010680432844 0.0048439783724 0.010680432844 0.04429282673
          0.071161355986 0.0014449658321 -0.008723722268 0.0014449658321 -0.013451066769 0.00098422991682
          -0.008723722268 0.00098422991682 0.02242935251 0.16427165401 0.0098790634886 0.0098445188653
          0.0098790634886 -0.009431180394 0.0066269234112 0.0098445188653 0.0066269234112 0.13425172881
          0.0060449252604 -0.0025608185079 -0.022451112977 -0.0025608185079 -0.00085580932329 -0.0094764163275
          -0.022451112977 -0.0094764163275 0.0053007096467 0.16772930696 0.010037921802 -0.0030500065635
          0.010037921802 -0.013803316578 0.0079333248692 -0.0030500065635 0.0079333248692 0.11687841615
          0.033217215804 0.0026425309485 -0.0085423198998 0.0026425309485 -0.014487896278 -0.0042416993235
          -0.0085423198998 -0.0042416993235 -0.006828463277 0.031580200385 -0.0021041780178 -0.018309667147
          -0.0021041780178 -0.0043798357926 -0.0075631036563 -0.018309667147 -0.0075631036563 -0.0019139919052
          0.02214564055 0.0097363653989 -0.034182106754 0.0097363653989 0.002499894407 0.0076249690199
          -0.034182106754 0.0076249690199 0.02200728841 0.077627855217 0.0072213413988 -0.00049652368326
          0.0072213413988 -0.023202027882 0.0023518849723 -0.00049652368326 0.0023518849723 -0.020186381603
          -0.03241250117 0.00051089169502 -0.0073500111381 0.00051089169502 0.0097555624884 0.0039821034743
          -0.0073500111381 0.0039821034743 0.022746803591 0.066321337676 -0.00027880700813 -0.014384207084
          -0.00027880700813 -0.015128637731 -0.0002804953822 -0.014384207084 -0.0002804953822 0.022435029045
          0.1222534671 0.0078411087149 0.0016643895919 0.0078411087149 -0.0013360444956 0.0073107143933
          0.0016643895919 0.0073107143933 0.10888174081 0.15916609144 0.0061924360627 -0.00094711667096
          0.0061924360627 -0.014734930768 0.0088266048434 -0.00094711667096 0.0088266048434 0.11534368041
          0.0563649145 0.00064302739914 -0.017853323771 0.00064302739914 -0.020413599598 0.004109070623
          -0.017853323771 0.004109070623 -0.020246297455 0.11234418548 0.0065276260444 0.0069139544251
          0.0065276260444 -0.0027205698526 0.010011503205 0.0069139544251 0.010011503205 0.094698082294
          -0.027398427713 -0.0022767208505 -0.0049468812532 -0.0022767208505 0.0038557356722 0.0017688376396
          -0.0049468812532 0.0017688376396 0.028691510167 -0.0035924728446 -0.0035276406972 -0.0060778546295
          -0.0035276406972 0.0089821245406 0.0004697055192 -0.0060778546295 0.0004697055192 0.036141668921
          0.15505317469 0.0097459946177 -0.0019857012944 0.0097459946177 -0.014433693821 0.0097153254813
          -0.0019857012944 0.0097153254813 0.10591909964 0.024963075796 -0.0018742365002 -0.022748477833
          -0.0018742365002 -0.0088246751017 -0.00030579321712 -0.022748477833 -0.00030579321712 0.0013013604402
          0.10843046597 0.04191127203 -0.015014219387 0.04191127203 -0.024314979895 -0.023855255634
          -0.015014219387 -0.023855255634 -0.021542940013 0.077784720503 0.0029736242492 -0.0042956055387
          0.0029736242492 -0.015014509317 -5.073954064e-05 -0.0042956055387 -5.073954064e-05 0.015628243635
          0.068951644974 0.0023394862497 -0.0080678691381 0.0023394862497 -0.019057954297 -0.00016714583784
          -0.0080678691381 -0.00016714583784 0.0069896965705 0.035244165213 0.017071111001 -0.0033093036485
          0.017071111001 -0.0048669703118 0.0060741872408 -0.0033093036485 0.0060741872408 0.0054689252622
          0.057930327577 -0.0011317022835 -0.013786781029 -0.0011317022835 -0.0094836228006 8.8945497543e-05
          -0.013786781029 8.8945497543e-05 0.027161562644 0.10111980681 -0.0070518347463 0.00615151901
          -0.0070518347463 0.014603350219 -0.024506739644 0.00615151901 -0.024506739644 0.0077626709524
          0.030954821734 0.0080007700155 -0.027294726243 0.0080007700155 0.007569789444 -0.0059264923383
          -0.027294726243 -0.0059264923383 0.047785748673 0.042295288642 0.0051217576317 -0.0071427803225
          0.0051217576317 0.0073331557977 -0.0020298172036 -0.0071427803225 -0.0020298172036 0.029191702875
          0.12703376873 0.0049103895837 0.0033163870232 0.0049103895837 -0.0083375216961 0.011063314731
          0.0033163870232 0.011063314731 0.095681845102 0.052887461599 -0.0018961426692 -0.014555320711
          -0.0018961426692 -0.0070688823507 -0.00023632846868 -0.014555320711 -0.00023632846868 0.028722982548
          0.1650109991 0.008007254865 0.013849604255 0.008007254865 -0.0073190545156 0.0084185297579
          0.013849604255 0.0084185297579 0.1356046989 0.11981502435 0.0112538539 0.0034124378378
          0.0112538539 -0.0056347466857 0.0084860411773 0.0034124378378 0.0084860411773 0.094284605781
          0.085152642291 0.0033641152424 0.0091285817848 0.0033641152424 0.0031748242211 0.0067512920722
          0.0091285817848 0.0067512920722 0.095514102656 0.10758029609 0.0014543397199 0.0049832389976
          0.0014543397199 0.0017585707343 0.0034076764047 0.0049832389976 0.0034076764047 0.097257082639
          -0.0060663649428 -0.0063022095683 0.00076650009737 -0.0063022095683 0.0058097287893 0.0044249647242
          0.00076650009737 0.0044249647242 0.016101420196 0.046316322872 -0.0014987138164 -0.0059136771016
          -0.0014987138164 -0.0042242717331 0.00034680426526 -0.0059136771016 0.00034680426526 0.031843208861
          0.1408874205 0.012141700921 0.0013480063863 0.012141700921 -0.010476086168 0.0079087472014
          0.0013480063863 0.0079087472014 0.087727382201 0.1172255073 -0.0054949520275 0.028840240031
          -0.0054949520275 -0.021039458917 -0.007094970128 0.028840240031 -0.007094970128 0.047938786067
          0.12506206577 0.0065571662669 0.0047115391555 0.0065571662669 -0.011675693188 0.0098145527444
          0.0047115391555 0.0098145527444 0.086095079003 0.0022035807647 -0.0021498504241 -0.011143208381
          -0.0021498504241 0.0095305239942 0.0043990013551 -0.011143208381 0.0043990013551 0.032372387237
          0.081541353033 0.00016717436115 -0.015020828638 0.00016717436115 -0.022757490591 -0.0062079072664
          -0.015020828638 -0.0062079072664 -0.013306351635 0.14446192474 0.0088466379412 -4.511306419e-06
          0.0088466379412 -0.0074414127476 0.0085211531666 -4.511306419e-06 0.0085211531666 0.10804167867
          -0.014950409462 -0.0071279858893 0.00060082975153 -0.0071279858893 0.0057499810154 0.0041216852695
          0.00060082975153 0.0041216852695 0.020970886716 0.034095810695 -0.0025215861031 -0.00062130897698
          -0.0025215861031 -0.011641699551 -0.0032085483729 -0.00062130897698 -0.0032085483729 -0.01345973622
          0.12840656445 0.0043638524425 0.0055212528834 0.0043638524425 -0.014052716188 0.0094465309786
          0.0055212528834 0.0094465309786 0.073290238416 -0.034390081053 -0.011030994785 -0.0011390778645
          -0.011030994785 0.011845534747 -0.0070344506699 -0.0011390778645 -0.0070344506699 0.01888204914
          0.053982679914 0.00078436100973 -0.0074941722961 0.00078436100973 -0.0082259269901 -0.00025699914325
          -0.0074941722961 -0.00025699914325 0.030654921241 -0.02191204892 -0.026752355822 -0.0062291104563
          -0.026752355822 0.025104580717 0.007804003488 -0.0062291104563 0.007804003488 0.047082457697
          0.01339032988 -0.0067366801386 -0.01804470245 -0.0067366801386 0.0011975071949 0.0042155158347
          -0.01804470245 0.0042155158347 0.03811236584 0.063384704042 -0.0021185210811 -0.010716852368
          -0.0021185210811 -0.017575869762 0.0060282074566 -0.010716852368 0.0060282074566 0.0023168643331
          0.13218332045 0.010887317775 -0.00094797620248 0.010887317775 -0.010128934568 0.0099726731887
          -0.00094797620248 0.0099726731887 0.095246193501 0.11640297774 0.034850661668 0.010323774813
          0.034850661668 -0.040185762767 0.023226568926 0.010323774813 0.023226568926 0.040136905711
          0.14632325698 0.0087171203859 0.0072883066694 0.0087171203859 -0.0015343501279 0.0085246223677
          0.0072883066694 0.0085246223677 0.13756385033 0.044415824073 -0.0011801508973 -0.016563901031
          -0.0011801508973 0.018533767702 0.0011777544025 -0.016563901031 0.0011777544025 0.017142630542
          0.04573530971 0.0028012100481 -0.035323736128 0.0028012100481 0.014873760261 0.0062617108885
          -0.035323736128 0.0062617108885 0.0048906747151 0.15148750589 0.01086038233 0.010646774537
          0.01086038233 -0.0063214935299 0.0070743795015 0.010646774537 0.0070743795015 0.12547088743
          0.063160749969 0.0012519150137 -0.0082877828219 0.0012519150137 -0.0092885213401 -0.0018993649295
          -0.0082877828219 -0.0018993649295 0.026166997196 0.079449621324 0.010152373162 0.016539540978
          0.010152373162 -0.013419938987 0.005319226444 0.016539540978 0.005319226444 0.0014361713304
          0.027386699792 0.011316557763 0.0080605075581 0.011316557763 0.0066718883753 0.002561711009
          0.0080605075581 0.002561711009 0.074166264977 0.073598385276 0.0012779019384 -0.0068688434652
          0.0012779019384 -0.013458402174 0.00086753721865 -0.0068688434652 0.00086753721865 0.023835315917
          0.039142567104 -0.006363559588 -0.04589587053 -0.006363559588 -0.012704556626 0.011049727955
          -0.04589587053 0.011049727955 0.021855552195 0.16055378545 0.0096945208528 0.014923883973
          0.0096945208528 -0.0091405240981 0.0086238108079 0.014923883973 0.0086238108079 0.13416980865
          0.16628880667 0.010593515339 0.0098235558668 0.010593515339 -0.0094903957959 0.0079243514526
          0.0098235558668 0.0079243514526 0.13558023287 0.064074295534 0.0052267236395 0.0015190888867
          0.0052267236395 0.0072399377735 0.0038654268228 0.0015190888867 0.0038654268228 0.091012356824
          0.097884756076 0.0041542969868 0.014560852983 0.0041542969868 -0.0089042419887 0.0053990865492
          0.014560852983 0.0053990865492 0.067269261407 0.12173756095 0.0070858868256 -0.0021199114345
          0.0070858868256 -0.028065659794 0.0050372748376 -0.0021199114345 0.0050372748376 0.025036264617
          -0.027273198028 -0.0020304599787 -0.0020891652353 -0.0020304599787 0.0023044097562 -0.0013878916626
          -0.0020891652353 -0.0013878916626 0.016767586175 0.15939378986 0.01085068721 0.004075272389
          0.01085068721 -0.01376126963 0.0084380787835 0.004075272389 0.0084380787835 0.11206371533
          0.1360935644 0.01210051783 0.0047163080162 0.01210051783 -0.011797301287 0.0067832467051
          0.0047163080162 0.0067832467051 0.085004242466 0.10466358639 0.0081389561928 0.0081204124489
          0.0081389561928 -0.0014710313387 0.0071070207886 0.0081204124489 0.0071070207886 0.091349004467
          0.16961388509 0.010714616069 0.02093679364 0.010714616069 -0.015769126513 0.012104676487
          0.02093679364 0.012104676487 0.1278385334 0.061081391443 -0.0016630693595 -0.012110858712
          -0.0016630693595 -0.010738502736 -0.00046923099942 -0.012110858712 -0.00046923099942 0.027909674087
          0.14729182867 0.010442345765 0.021891629851 0.010442345765 -0.013860478549 0.006563137341
          0.021891629851 0.006563137341 0.095957665513 0.1771448335 0.0093758924729 0.019007082076
          0.0093758924729 -0.016979121619 0.0091122987634 0.019007082076 0.0091122987634 0.11556856149
          0.12050413121 -0.0012848358329 -0.012343576062 -0.0012848358329 -0.049605520494 0.0093337582199
          -0.012343576062 0.0093337582199 -0.030643878036 0.0071542456133 -0.0016957147528 0.0016327964546
          -0.0016957147528 0.004579764146 0.0018948047224 0.0016327964546 0.0018948047224 0.020405933373
          0.088885355095 0.0088728098441 -0.0056166963668 0.0088728098441 -0.020011516109 8.9195746058e-05
          -0.0056166963668 8.9195746058e-05 -0.0066439489171 0.063701135714 -0.0038430644888 -0.010294990398
          -0.0038430644888 -0.013603350059 -0.00067763909561 -0.010294990398 -0.00067763909561 0.020619174343
          0.12147097766 0.0079046112636 0.0059661577955 0.0079046112636 -0.014230476276 0.0085560487148
          0.0059661577955 0.0085560487148 0.075754940806 0.051737519637 -0.00028598023514 -0.023554521914
          -0.00028598023514 0.013324421911 0.0036087366704 -0.023554521914 0.0036087366704 0.032505880609
          0.15574094075 0.0098253674666 0.014844016297 0.0098253674666 -0.0061698113559 0.0074926464347
          0.014844016297 0.0074926464347 0.13162395176 0.068557480574 -3.0584877731e-05 -0.014980011229
          -3.0584877731e-05 -0.013626088608 0.0017276675562 -0.014980011229 0.0017276675562 0.02549076891
          0.10520123125 0.0069224210695 0.0030022841713 0.0069224210695 -0.00053831185991 0.0068987760605
          0.0030022841713 0.0068987760605 0.09758378974 0.15581291076 0.0098209871494 0.0079462592909
          0.0098209871494 -0.0083681664538 0.0088016799593 0.0079462592909 0.0088016799593 0.12223343753
          0.058968647301 0.0022933464864 -0.014584355659 0.0022933464864 -0.0095654107564 0.0008585018486
          -0.014584355659 0.0008585018486 0.028975085764 0.080025778821 -0.0019569866078 -0.0089967996222
          -0.0019569866078 -0.018957332301 0.0022482063495 -0.0089967996222 0.0022482063495 -0.001183630123
          0.064421097511 -0.0089728536579 -0.022900680889 -0.0089728536579 0.017833923469 0.0012971467522
          -0.022900680889 0.0012971467522 -0.009494522366 0.10548453122 0.0094307199376 0.0089148253715
          0.0094307199376 -0.0076939252791 0.0095862829022 0.0089148253715 0.0095862829022 0.077673548882
          -0.0094555051241 -0.0042824583625 -0.0082864593603 -0.0042824583625 -0.0030919517688 -0.0016393666909
          -0.0082864593603 -0.0016393666909 0.034197926621 0.074485485529 -0.0028895400246 -0.016556711149
          -0.0028895400246 -0.025127175567 -0.00034617947732 -0.016556711149 -0.00034617947732 -0.015477208239
          0.062960319326 0.0019878807458 -0.0095920499197 0.0019878807458 -0.0094057800306 0.00029801028802
          -0.0095920499197 0.00029801028802 0.028092002945 0.16596552052 0.0087507941578 0.0062876088629
          0.0087507941578 -0.010713630921 0.0065260856226 0.0062876088629 0.0065260856226 0.12959347864
          0.16736793653 0.0096623274616 0.023853984387 0.0096623274616 -0.0095124837413 0.0052693581232
          0.023853984387 0.0052693581232 0.12850088691 0.045554920423 0.0006064741296 -0.0097396909114
          0.0006064741296 -0.0054030197703 -0.001441131373 -0.0097396909114 -0.001441131373 0.024056398587
          -0.069891768185 -0.011127457555 -0.0025392610713 -0.011127457555 0.0081432850868 0.0024156708947
          -0.0025392610713 0.0024156708947 0.0270485015 -0.043383097964 -0.0069565325264 -0.010575698501
          -0.0069565325264 0.01276366313 0.0028239886971 -0.010575698501 0.0028239886971 0.020256427784
          0.053336819966 0.0013811945584 0.0043100507537 0.0013811945584 -0.01573709703 0.0068090682603
          0.0043100507537 0.0068090682603 -0.014769359835 0.068842519854 -0.00099070589018 -0.0042767838451
          -0.00099070589018 -0.020343432454 -0.0034418133128 -0.0042767838451 -0.0034418133128 -0.036927169449
          -0.011480597048 -0.0037537237556 -0.0015962669515 -0.0037537237556 0.0071877208508 0.0054497655516
          -0.0015962669515 0.0054497655516 0.00033744002152 0.064193497716 0.00095695623202 -0.011696155344
          0.00095695623202 -0.010328327376 3.5706901023e-05 -0.011696155344 3.5706901023e-05 0.024922892026
          0.041066889859 0.010255166932 -0.025683714174 0.010255166932 -7.3258301422e-05 0.001954468228
          -0.025683714174 0.001954468228 0.01235447712 0.081493992564 0.0005652438154 0.0026555703646
          0.0005652438154 -0.022066735051 0.0032008652636 0.0026555703646 0.0032008652636 -0.023994440295
          0.038969027761 0.0054051704671 -0.026147384441 0.0054051704671 0.00818033875 -0.0018961717249
          -0.026147384441 -0.0018961717249 0.073521289921 0.13558492326 0.0075259567427 0.0011573865943
          0.0075259567427 -0.012776169134 0.010863690729 0.0011573865943 0.010863690729 0.099046506456
          0.18800232304 0.015605327861 0.014780370703 0.015605327861 -0.015056764452 0.008262894533
          0.014780370703 0.008262894533 0.11675703656 0.022339549587 -0.0026446553131 -0.017707293718
          -0.0026446553131 -0.0032895383414 0.00011164993873 -0.017707293718 0.00011164993873 0.014707237102
          0.04644251656 -0.0023498389396 -0.014337333136 -0.0023498389396 -0.014179377381 -0.00073876348203
          -0.014337333136 -0.00073876348203 0.0069613407376 0.18338192494 0.0038265989634 0.013919159491
          0.0038265989634 -0.027446868037 0.0063660207701 0.013919159491 0.0063660207701 0.089989172063
          0.060715360955 0.00048961367158 -0.011966177758 0.00048961367158 -0.010126071938 -9.7400876289e-05
          -0.011966177758 -9.7400876289e-05 0.027220325427 0.10016399593 0.00560539623 0.0024366746813
          0.00560539623 0.0014620682302 0.0098745573743 0.0024366746813 0.0098745573743 0.10584352496
          -0.040079068573 0.0034325284402 0.0020251959345 0.0034325284402 0.0048824680415 0.0039686156155
          0.0020251959345 0.0039686156155 0.018747956327 0.20346848625 0.054844870298 0.11251083673
          0.054844870298 -0.062033746576 0.039744783064 0.11251083673 0.039744783064 0.11882304973
          0.11764829331 0.0097095315164 -0.0007553375763 0.0097095315164 -0.0030876527216 0.010005943205
          -0.0007553375763 0.010005943205 0.10512198931 -0.0052265989702 -0.0016991665343 -0.010839042564
          -0.0016991665343 0.0050730321429 -0.0017763651994 -0.010839042564 -0.0017763651994 0.023572892757
          0.10849876017 0.0064891169797 -0.00057096081883 0.0064891169797 -0.00095000445419 0.0095825842077
          -0.00057096081883 0.0095825842077 0.10573215265 0.10053635796 -0.00098893179685 -0.005493117759
          -0.00098893179685 -0.034781208942 0.019366040952 -0.005493117759 0.019366040952 -0.051594905138
          0.075137866322 5.9534183247e-05 -0.0090854507815 5.9534183247e-05 -0.019085255414 -0.00087854222309
          -0.0090854507815 -0.00087854222309 0.020447297943 0.078493690477 0.0070264608838 0.01016417686
          0.0070264608838 0.0013871478041 0.0076285850713 0.01016417686 0.0076285850713 0.089570217161
          0.10044088768 0.0035527222087 -0.0012177050945 0.0035527222087 -0.031001943565 -0.002653135424
          -0.0012177050945 -0.002653135424 -0.028703004581 0.018007671885 -0.00072434981165 -0.020571439141
          -0.00072434981165 0.017130284211 0.0036816086654 -0.020571439141 0.0036816086654 0.068838220193
          0.051850609282 0.0011049888642 -0.007987098345 0.0011049888642 -0.018988694518 0.00027969728631
          -0.007987098345 0.00027969728631 -0.020882767689 0.12406353279 0.01639312504 0.0018137041113
          0.01639312504 -0.027849062068 0.004287399275 0.0018137041113 0.004287399275 0.0011388857202
          0.1478619394 0.010366677457 0.004999194559 0.010366677457 -0.0096300376665 0.0084488620317
          0.004999194559 0.0084488620317 0.12041668224 0.12436494136 0.0097793625814 0.0011755497816
          0.0097793625814 0.00058902012345 0.0093742883552 0.0011755497816 0.0093742883552 0.12578637587
          0.050695910022 -0.00024055804631 -0.006488263109 -0.00024055804631 -0.0063443599663 0.0018721584952
          -0.006488263109 0.0018721584952 0.030788036204 0.04272192383 0.0053121185422 -0.016785963983
          0.0053121185422 0.010995082234 0.00052610337173 -0.016785963983 0.00052610337173 0.068497362635
          0.074576876085 -6.799923671e-05 -0.0080027446651 -6.799923671e-05 -0.01237518572 0.0012693778229
          -0.0080027446651 0.0012693778229 0.024173327735 0.070140999155 0.00094493860472 -0.013118265779
          0.00094493860472 -0.017976685031 -0.0086731111783 -0.013118265779 -0.0086731111783 -0.01449345606
          0.11855563712 0.011508640204 -0.007969944279 0.011508640204 -0.041752209847 0.0047789145302
          -0.007969944279 0.0047789145302 -0.028787298863 0.060619802303 0.00068228854437 -0.0043769563705
          0.00068228854437 0.025238265247 -0.013948689193 -0.0043769563705 -0.013948689193 -0.0061074421811
          0.042320537795 -0.0029565632812 -0.01177648449 -0.0029565632812 -0.0082839495176 0.0027574125366
          -0.01177648449 0.0027574125366 0.019808584405 0.054041321212 0.0030227704685 -0.025933524387
          0.0030227704685 -0.011540643761 -0.0056520955354 -0.025933524387 -0.0056520955354 0.019052028177
          0.065702837291 0.00051268239818 -0.0070503989198 0.00051268239818 -0.010878147711 -0.001096676342
          -0.0070503989198 -0.001096676342 0.026022665226 0.15635855175 -0.043565710783 0.075791386206
          -0.043565710783 -0.04716331349 -0.057414635809 0.075791386206 -0.057414635809 0.098326120532
          0.12190398044 0.00044020384834 -0.0031304194125 0.00044020384834 -0.0058314492802 0.014025072524
          -0.0031304194125 0.014025072524 0.086672718682 0.033915991992 0.0045471708373 -0.010492501285
          0.0045471708373 0.01401361699 7.9201461451e-06 -0.010492501285 7.9201461451e-06 0.0797929868
          -0.0021888674138 0.0075567417637 -0.0066278683758 0.0075567417637 0.0050408205546 -0.0061861672841
          -0.0066278683758 -0.0061861672841 0.00058704679486 0.18132811417 0.0092982586955 0.012013183404
          0.0092982586955 -0.016554506346 0.0036571911739 0.012013183404 0.0036571911739 0.12925525108
          -0.025921863057 -0.0066349871602 -0.02399251175 -0.0066349871602 -0.00067441385766 -0.0082617590431
          -0.02399251175 -0.0082617590431 0.024183856962 0.12410206066 0.0096875174448 0.0004504173867
          0.0096875174448 -0.005588536119 0.0062573523536 0.0004504173867 0.0062573523536 0.099085046769
          0.15218465483 0.014744967791 0.0071770340299 0.014744967791 -0.0039484047067 0.010358771794
          0.0071770340299 0.010358771794 0.14274355539 0.15869650736 0.0087536116076 0.013453063041
          0.0087536116076 -0.0076805282145 0.010999705924 0.013453063041 0.010999705924 0.13173840124
          0.17813873978 0.010148679105 0.01193522941 0.010148679105 -0.012785756744 0.0086987477852
          0.01193522941 0.0086987477852 0.13556246706 0.090634756576 0.011463365077 -0.003328449916
          0.011463365077 -0.032415400763 0.0028551393418 -0.003328449916 0.0028551393418 -0.02235922483
          -0.02410315674 -0.00036622365544 -0.012037643707 -0.00036622365544 0.013715272381 -0.0025756800413
          -0.012037643707 -0.0025756800413 0.02629670142 0.12401529932 0.007906874067 0.0012452478938
          0.007906874067 -0.010746169532 0.0096921087688 0.0012452478938 0.0096921087688 0.097087199437
          0.11716136343 0.011336355493 -0.002705848014 0.011336355493 -0.0011130926553 0.0078911810059
          -0.002705848014 0.0078911810059 0.1073631917 0.13940452517 0.0091888904281 0.025990947413
          0.0091888904281 -0.010559904639 0.0067930524292 0.025990947413 0.0067930524292 0.13077869541
          0.14096791557 0.010082736124 0.0028900188432 0.010082736124 -0.016636768799 0.0069870947102
          0.0028900188432 0.0069870947102 0.080753439611 0.097380964411 0.00031543813699 -0.0025889626564
          0.00031543813699 -0.034577223995 0.0032258476635 -0.0025889626564 0.0032258476635 -0.043462717443
          0.11579249027 0.008814124451 0.0012545968625 0.008814124451 -0.003064940222 0.009303541085
          0.0012545968625 0.009303541085 0.10606166349 0.093642940773 0.0086168140325 0.0082473636732
          0.0086168140325 -0.0029670548291 0.0069149503409 0.0082473636732 0.0069149503409 0.081858214291
          0.062310545357 -0.00023922165034 -0.014402769463 -0.00023922165034 -0.0087030019852 0.00077380162629
          -0.014402769463 0.00077380162629 0.023195389975 0.021533212976 0.00038165739939 -0.0080874613868
          0.00038165739939 -0.0007374855303 -0.0016392443638 -0.0080874613868 -0.0016392443638 0.034158820064
          0.027563748909 0.00027008238252 -0.017121471773 0.00027008238252 -0.00088934891707 0.00063547518414
          -0.017121471773 0.00063547518414 0.018835289617 0.064258589684 0.00037064033221 -0.014231120443
          0.00037064033221 -0.010480483852 0.0011222461542 -0.014231120443 0.0011222461542 0.022525299518
          0.082786588653 0.0044241811287 -0.013917259459 0.0044241811287 -0.020220196892 -0.005515690399
          -0.013917259459 -0.005515690399 -0.013414793151 0.14505105919 0.0052778026589 0.021239065497
          0.0052778026589 -0.015890981894 0.012115877018 0.021239065497 0.012115877018 0.12305375313
          0.036531897719 -0.00060523943678 -0.012158292986 -0.00060523943678 -0.0051711348275 -0.00588881365
          -0.012158292986 -0.00588881365 0.0046307832868 0.058027249627 0.00064223270848 -0.013828054126
          0.00064223270848 -0.0080742872787 0.00071034743524 -0.013828054126 0.00071034743524 0.028863162291
          0.077190305995 -0.0014608226395 -0.0044060038201 -0.0014608226395 -0.023619385297 -0.0018494108138
          -0.0044060038201 -0.0018494108138 0.0065219877462 0.034969090221 -0.0023066377359 -0.013192547022
          -0.0023066377359 -0.0079298988534 -0.0014683408581 -0.013192547022 -0.0014683408581 0.016703211704
          0.17437533425 0.0073052958823 0.017359121133 0.0073052958823 -0.012949649245 0.0059614320135
          0.017359121133 0.0059614320135 0.13532994919 0.071276931306 0.0015419541924 -0.0056663264817
          0.0015419541924 -0.022247848891 0.0042268236538 -0.0056663264817 0.0042268236538 -0.0020417101073
          0.0091181624273 -0.0011687346156 -0.0024817807331 -0.0011687346156 0.0022673556067 -0.0015603913831
          -0.0024817807331 -0.0015603913831 0.030955245719 0.062357773241 0.0029683230009 -0.021106020908
          0.0029683230009 -0.016432248041 -0.00066856857968 -0.021106020908 -0.00066856857968 0.00082313460048
          0.14846352212 0.0064863978882 0.010508183262 0.0064863978882 -0.011616115179 0.0081540621608
          0.010508183262 0.0081540621608 0.11725565125 0.037445635279 0.0040163517188 -0.019644678737
          0.0040163517188 -0.012154990378 0.0064384118961 -0.019644678737 0.0064384118961 0.0093746543642
          0.14652039903 0.0035125597609 0.012136890961 0.0035125597609 -0.0063522375065 0.0065377699884
          0.012136890961 0.0065377699884 0.14334840139 0.059977343655 0.0014638876785 -0.013388647945
          0.0014638876785 -0.010732233987 0.0005978994928 -0.013388647945 0.0005978994928 0.025609916205
          0.15253508348 0.0055405671849 0.0079120714363 0.0055405671849 -0.016920583742 0.0083859207081
          0.0079120714363 0.0083859207081 0.11668070676 0.17227690447 0.010963500561 0.013494961454
          0.010963500561 -0.016469950783 0.0040178366893 0.013494961454 0.0040178366893 0.13003849253
          0.14170242128 0.0070104356518 0.0039409429995 0.0070104356518 -0.012780658776 0.011326942121
          0.0039409429995 0.011326942121 0.090153903176 0.1427615671 0.0062557370419 0.017626296848
          0.0062557370419 -0.006200671608 0.004608598234 0.017626296848 0.004608598234 0.13733479968
          -0.016664015217 -0.0015626918337 -0.0080866336439 -0.0015626918337 0.0035972999066 -0.0038086621702
          -0.0080866336439 -0.0038086621702 0.026448453665 0.13938576779 0.013120383201 0.023836865279
          0.013120383201 -0.00239403673 0.0069502845852 0.023836865279 0.0069502845852 0.12811331293
          0.1354838532 0.0090749618125 -0.0021824253664 0.0090749618125 -0.011353140644 0.0081755785376
          -0.0021824253664 0.0081755785376 0.091391212813 0.075463536606 0.0032570499672 0.0069952845059
          0.0032570499672 -0.00119373127 0.0056334630974 0.0069952845059 0.0056334630974 0.054520413694
          0.073526483142 0.00056653871505 -0.010576361346 0.00056653871505 -0.014964885956 -0.00087730125624
          -0.010576361346 -0.00087730125624 0.025419925548 0.047565789211 -0.00133942312 -0.012142747989
          -0.00133942312 -0.016387830242 0.0245273517 -0.012142747989 0.0245273517 0.045981266008
          0.0043216294807 0.0023509907551 0.0031331505957 0.0023509907551 -0.0015655772745 -0.0045072617466
          0.0031331505957 -0.0045072617466 0.041200151665 0.064127498725 0.00025027360125 -0.015060299038
          0.00025027360125 -0.010581525316 0.00057807575874 -0.015060299038 0.00057807575874 0.022256641782
          0.080173485759 -0.00022920667072 -0.0073146937945 -0.00022920667072 -0.026201374451 -0.00013014376156
          -0.0073146937945 -0.00013014376156 -0.0059801731631 0.075615563594 -0.00014276482487 -0.0081531742308
          -0.00014276482487 -0.014888023071 0.0023709518949 -0.0081531742308 0.0023709518949 0.015410902146
          -0.009044488098 0.0036143067368 -0.0098271350993 0.0036143067368 0.0082792064204 -0.0042228378485
          -0.0098271350993 -0.0042228378485 0.013015867323 0.041397080176 -0.0035770386285 -0.011719055308
          -0.0035770386285 -0.009773727507 -0.00136411318 -0.011719055308 -0.00136411318 -0.0040305260683
          0.055858604579 -0.0012112750088 -0.015344858107 -0.0012112750088 -0.020557110123 0.0067107246668
          -0.015344858107 0.0067107246668 -0.017414682441 0.023956288177 0.0079555717059 0.0031487411575
          0.0079555717059 0.010580632648 0.0093997755736 0.0031487411575 0.0093997755736 0.085980698312
          0.055988800509 -0.005522648902 -0.018679050585 -0.005522648902 -0.010630388503 0.00058816924816
          -0.018679050585 0.00058816924816 0.0032622887028 0.071747925989 -0.008175562209 0.0080352543674
          -0.008175562209 -0.016655820471 0.020724485642 0.0080352543674 0.020724485642 0.073401628206
          0.095815972835 0.0054631629494 0.0064244235785 0.0054631629494 -0.034585870198 -0.0023222455638
          0.0064244235785 -0.0023222455638 -0.033866024839 0.050284422638 -0.019174640129 0.012992950948
          -0.019174640129 -0.0015957073838 -0.010444512782 0.012992950948 -0.010444512782 0.046397135445
          0.068418339727 -0.0066889351498 -0.023596971543 -0.0066889351498 -0.0014442010951 0.0090846783904
          -0.023596971543 0.0090846783904 -0.031687142938 0.049021413288 -0.0077716492854 -0.043576546256
          -0.0077716492854 0.0089714148935 -0.0031556130345 -0.043576546256 -0.0031556130345 0.015516721841
          0.055773659957 0.011636473317 0.0064418141698 0.011636473317 0.0032060782439 0.010232371929
          0.0064418141698 0.010232371929 0.078697588662 0.04981601803 -0.0032640804978 -0.0072684759584
          -0.0032640804978 -0.0073180024173 0.00010073526846 -0.0072684759584 0.00010073526846 0.03198292144
          0.044468967773 -0.0026976786136 -0.01697967909 -0.0026976786136 -0.0021990551454 0.0010267386342
          -0.01697967909 0.0010267386342 0.025089290191 0.024360934916 0.011787519651 -0.019510414679
          0.011787519651 0.0092020121665 -0.0078043471085 -0.019510414679 -0.0078043471085 0.040361646595
          0.065624328067 -0.0068265197437 -0.021096257811 -0.0068265197437 -0.014202706394 0.00075691582386
          -0.021096257811 0.00075691582386 0.0010931576044 0.065968128564 0.001435476528 -0.017356748924
          0.001435476528 -0.010403696292 -0.00053123345232 -0.017356748924 -0.00053123345232 0.025717019491
          0.11322343463 0.007894534723 0.01112516096 0.007894534723 -0.011563680542 0.0077284832226
          0.01112516096 0.0077284832226 0.071327218434 0.0050399811973 -0.0046095357254 -0.00064435975974
          -0.0046095357254 0.00045991949217 -0.0065087831547 -0.00064435975974 -0.0065087831547 -0.0018302810702
          0.053761963495 -0.0025097030695 -0.016417042152 -0.0025097030695 -0.0082595566417 -0.0004775360108
          -0.016417042152 -0.0004775360108 0.017107196344 0.10905422702 0.0060069224766 0.0082414837713
          0.0060069224766 -0.038848470482 -0.00066037931593 0.0082414837713 -0.00066037931593 -0.018681110233
          0.1796256842 0.011379375182 0.010643934897 0.011379375182 -0.015728138983 0.011534217069
          0.010643934897 0.011534217069 0.13437056537 0.056823199309 0.0075332432408 0.00024863343572
          0.0075332432408 0.018037368747 -0.0023034106926 0.00024863343572 -0.0023034106926 0.03189986594
          0.12659208618 0.0052001368955 0.004562849353 0.0052001368955 -0.011981078938 0.0081905791716
          0.004562849353 0.0081905791716 0.085468116568 0.18294137402 -0.021162209553 -0.059799031175
          -0.021162209553 0 0 -0.059799031175 0 0
          0.043829551914 -0.0027536327633 -0.0078880677575 -0.0027536327633 0.019017447421 0.0039227138374
          -0.0078880677575 0.0039227138374 0.022333915858 -0.027898431327 -0.0042042976435 0.0070205214125
          -0.0042042976435 0.015103259448 0.0027313117899 0.0070205214125 0.0027313117899 0.047827695712
          0.078980648008 0.0018034001658 -0.0027239226535 0.0018034001658 -0.024374756786 -0.0011307595369
          -0.0027239226535 -0.0011307595369 -0.010441484387 -0.0039429695702 -0.0045904098753 0.019851523607
          -0.0045904098753 0.0039605707897 0.0049688567784 0.019851523607 0.0049688567784 0.010910220941
          0.064620752149 0.0040970046066 -0.011483534919 0.0040970046066 -0.011158471228 0.0013233992376
          -0.011483534919 0.0013233992376 0.026691528549 0.06451109433 0.0023491141711 -0.0076483188381
          0.0023491141711 -0.01212540295 -0.00013723402661 -0.0076483188381 -0.00013723402661 0.025801911971
          0.096261931167 0.0070523705435 0.008144055694 0.0070523705435 -0.0069619674911 0.0074383417423
          0.008144055694 0.0074383417423 0.071988476991 0.12384865991 0.0090285102019 0.00094811881849
          0.0090285102019 -0.0055631433195 0.0076975805932 0.00094811881849 0.0076975805932 0.098119753046
          0.12785317651 0.0076502050351 0.009852832593 0.0076502050351 -0.017984444247 0.0052320537166
          0.009852832593 0.0052320537166 0.068929002213 0.060380070097 0.0073042385144 -0.0233665275
          0.0073042385144 0.010361484083 -0.018786861034 -0.0233665275 -0.018786861034 0.016532576038
          0.083524743652 0.0027727134939 -0.006345468471 0.0027727134939 -0.021928559973 0.0029105004397
          -0.006345468471 0.0029105004397 0.015072698479 0.13603278834 0.010889136347 0.022295836957
          0.010889136347 -0.001003916184 0.0057957339088 0.022295836957 0.0057957339088 0.10670525908
          0.16179014593 0.012439955972 0.017109329234 0.012439955972 -0.0070942279431 0.00935022985
          0.017109329234 0.00935022985 0.13675556921 0.096729447116 0.0034059909426 0.0084803700867
          0.0034059909426 0.0017040954184 0.0084866815083 0.0084803700867 0.0084866815083 0.094534727215
          -0.004687274781 -0.0013722801346 -0.010384206802 -0.0013722801346 0.0017604796528 0.0022577137896
          -0.010384206802 0.0022577137896 0.0040753862386 0.046627657667 0.0064115338365 -0.021664999026
          0.0064115338365 -0.025378327651 0.0055488310175 -0.021664999026 0.0055488310175 0.0042553418713
          0.093334199122 0.015392511195 -0.0047033739274 0.015392511195 -0.0088230053549 -0.012153886755
          -0.0047033739274 -0.012153886755 0.056194608375 -0.045488517969 0.0012309112379 0.0047855690755
          0.0012309112379 0.012145995727 -0.0017495989246 0.0047855690755 -0.0017495989246 0.019314802441
          0.037704958704 0.00079689812159 -0.017151732701 0.00079689812159 -0.0069384947735 -0.0031289575233
          -0.017151732701 -0.0031289575233 0.026802948933 -0.020712579959 -0.0053801904058 -0.01574871084
          -0.0053801904058 0.0057114807717 -0.00055706113842 -0.01574871084 -0.00055706113842 0.028806191923
          0.16110759385 0.010009097047 0.024157245166 0.010009097047 -0.016166447984 0.0099462250203
          0.024157245166 0.0099462250203 0.12234047062 0.15827882372 0.010725254806 0.025746467743
          0.010725254806 -0.019693926077 0.0068791804354 0.025746467743 0.0068791804354 0.07300543409
          0.10487157165 0.0086040837622 0.004180867282 0.0086040837622 -0.0019576337619 0.0078031792571
          0.004180867282 0.0078031792571 0.10057691839 0.072924924368 0.0024571280609 -0.016239085783
          0.0024571280609 -0.016932747416 -0.0016856676014 -0.016239085783 -0.0016856676014 0.0053441939487
          0.13493876212 0.013827593989 0.026038465102 0.013827593989 -0.011098981532 0.0016874130979
          0.026038465102 0.0016874130979 0.098355731422 0.075012055536 0.0062890304322 0.0039365517771
          0.0062890304322 0.0059525829162 0.0077082321945 0.0039365517771 0.0077082321945 0.074679203337
          0.056211161814 0.0015575902185 -0.0031477897628 0.0015575902185 -0.019210678335 0.0032064577728
          -0.0031477897628 0.0032064577728 -0.029667864069 0.15335167383 0.010141076562 0.0069130105539
          0.010141076562 -0.0041777780892 0.0092258323526 0.0069130105539 0.0092258323526 0.13706225438
          0.050159135539 0.0087561868385 -0.017650688356 0.0087561868385 0.0052770081403 -0.0037214464855
          -0.017650688356 -0.0037214464855 0.040263384594 0.06065801629 -0.0015303713761 -0.011256345537
          -0.0015303713761 -0.0086172428758 -0.00047007396432 -0.011256345537 -0.00047007396432 0.029709517907
          -0.017929101209 -0.0071703689457 0.012137634208 -0.0071703689457 0.015769936497 0.0046414631803
          0.012137634208 0.0046414631803 0.06874782868 0.07813389963 0.0088974735504 0.0031102668991
          0.0088974735504 0.0023907656038 0.0089164898969 0.0031102668991 0.0089164898969 0.091072869089
          0.12204429097 0.012178841148 0.00099304924851 0.012178841148 -0.00015645754289 0.0087721734981
          0.00099304924851 0.0087721734981 0.12613237244 0.025562757762 -0.0021356785243 -0.01433407824
          -0.0021356785243 -0.012129126102 0.0010723107116 -0.01433407824 0.0010723107116 -0.007532295993
          0.15433186564 0.010278949283 0.009943470316 0.010278949283 -0.0084429470892 0.0087098270381
          0.009943470316 0.0087098270381 0.12465157147 0.15450232916 0.0077801053488 0.01037253694
          0.0077801053488 -0.0087749203281 0.0099204749818 0.01037253694 0.0099204749818 0.12439308771
          0.063677787765 0.0018413921052 -0.014744304961 0.0018413921052 -0.0096153943807 -0.0007557374057
          -0.014744304961 -0.0007557374057 0.026447908484 0.027792705918 0.012190754697 -0.0022805466969
          0.012190754697 -0.013766192286 0.001098162572 -0.0022805466969 0.001098162572 -0.0010261293435
          0.12693346341 0.0071265866918 0.0036125007439 0.0071265866918 -0.010562631009 0.010734647296
          0.0036125007439 0.010734647296 0.090140689412 0.095680416505 0.0065305826462 -0.0061633927641
          0.0065305826462 -0.032213989604 0.00051280866928 -0.0061633927641 0.00051280866928 -0.023589121993
          0.1362506991 0.011519993869 -0.0018109761629 0.011519993869 -0.011889686412 0.011062056074
          -0.0018109761629 0.011062056074 0.095951652835 0.034516228985 -0.003727766922 -0.012640729988
          -0.003727766922 -0.0039041710638 0.0013490733106 -0.012640729988 0.0013490733106 0.02583432533
          0.0087717283342 0.0052867599784 -0.0059103762831 0.0052867599784 -0.0085914606672 -0.009609124866
          -0.0059103762831 -0.009609124866 0.0030986694935 0.071544823271 0.0010910936873 -0.012177363721
          0.0010910936873 -0.017371566781 0.0024364129734 -0.012177363721 0.0024364129734 0.01442366811
          0.16202536766 0.0097131381157 0.014561641425 0.0097131381157 -0.0089328464013 0.0096179500325
          0.014561641425 0.0096179500325 0.13029893391 0.064224376804 0.0011335791686 -0.013621348354
          0.0011335791686 -0.010200533638 0.00053596984392 -0.013621348354 0.00053596984392 0.023734168994
          0.028155277625 -0.00047430948025 -0.017764593714 -0.00047430948025 -0.0094438399193 -0.0063482748065
          -0.017764593714 -0.0063482748065 -0.0095198926623 0.049068903044 0.0086091796606 -0.0122670729
          0.0086091796606 -0.01507168576 -0.00089620329445 -0.0122670729 -0.00089620329445 0.0056370903719
          -0.031599243614 -0.00091819284451 -0.0042808075159 -0.00091819284451 0.011990818921 -0.0032195332662
          -0.0042808075159 -0.0032195332662 0.022481067457 0.14799077846 0.011286519175 -0.0018594745087
          0.011286519175 -0.011007875507 0.0098446965842 -0.0018594745087 0.0098446965842 0.1093450121
          0.032910086495 -0.0036882681136 -0.011801509018 -0.0036882681136 -0.0014882511306 0.001306320944
          -0.011801509018 0.001306320944 0.034026766098 0.1268803256 0.009388636452 0.0010669973094
          0.009388636452 -0.0034473314689 0.0095839606218 0.0010669973094 0.0095839606218 0.11063699808
          0.088731424386 0.0076120877331 0.0018652786647 0.0076120877331 0.0027174143464 0.0071651277578
          0.0018652786647 0.0071651277578 0.1016215767 0.1434919177 0.0082115858473 0.003155843342
          0.0082115858473 -0.0033938082293 0.0091544163959 0.003155843342 0.0091544163959 0.13592107573
          0.12794808277 0.0090670146821 -0.0015521614278 0.0090670146821 -0.0036140156367 0.0086655920802
          -0.0015521614278 0.0086655920802 0.11595875019 0.077679325584 0.0048427385137 -0.02368819709
          0.0048427385137 -0.028943181911 -0.01332108443 -0.02368819709 -0.01332108443 -0.012037954634
          0.1247251122 0.01025835873 0.0072940814667 0.01025835873 -0.011887555338 0.0054406015172
          0.0072940814667 0.0054406015172 0.07415560955 0.060501568629 0.0015786903844 -0.01419888102
          0.0015786903844 -0.010904849554 0.00076393778574 -0.01419888102 0.00076393778574 0.030182729115
          0.12010144036 0.010131952715 9.7361986931e-05 0.010131952715 0.00020948157933 0.0061169548444
          9.7361986931e-05 0.0061169548444 0.11908671399 0.054167458442 -0.0028782091513 -0.011759315116
          -0.0028782091513 -0.0069326921834 -0.00059678454272 -0.011759315116 -0.00059678454272 0.026882141743
          0.13031188239 0.0082065119163 0.0014085861969 0.0082065119163 -0.0069257794689 0.0092863977912
          0.0014085861969 0.0092863977912 0.10178837249 0.065177817227 0.012556183772 0.005308217732
          0.012556183772 0.0032537240899 0.0055561770732 0.005308217732 0.0055561770732 0.090715385635
          0.048013187245 -0.0042292437931 -0.00086438084959 -0.0042292437931 -0.013153703083 -0.0014843911281
          -0.00086438084959 -0.0014843911281 -0.019771225098 0.15992328468 0.010160307157 0.0105023466
          0.010160307157 -0.0077537983977 0.0081721299569 0.0105023466 0.0081721299569 0.12962629119
          0.10221924485 -0.0096885121329 0.00017001764168 -0.0096885121329 -0.026340031286 -0.00064657249208
          0.00017001764168 -0.00064657249208 -0.046185456554 0.1509904335 0.01381584191 0.0032009346047
          0.01381584191 -0.013615901193 0.0097434072457 0.0032009346047 0.0097434072457 0.12007143527
          0.059950530352 0.014383598937 -0.051911460715 0.014383598937 0.0032372835611 0.0090140470922
          -0.051911460715 0.0090140470922 -0.031988709127 0.10363855064 0.00555987978 0.010910299173
          0.00555987978 -0.0044107026556 0.012672338773 0.010910299173 0.012672338773 0.086502791728
          0.14446546622 0.010748207154 0.013337937909 0.010748207154 -0.0024653614927 0.005768965547
          0.013337937909 0.005768965547 0.14057967265 0.055132769745 0.0090327265078 -0.029682253487
          0.0090327265078 -0.026729088769 -0.0029329964234 -0.029682253487 -0.0029329964234 0.023391515248
          0.046802426372 0.0016391702307 -0.015241165015 0.0016391702307 -0.010323787662 -0.0050570114128
          -0.015241165015 -0.0050570114128 0.0046752532995 0.12542303534 0.0062439944069 0.00022743606661
          0.0062439944069 -0.0033324621772 0.0088769947194 0.00022743606661 0.0088769947194 0.10633739524
          0.058260231469 -0.0027228407506 -0.014289437581 -0.0027228407506 -0.0077793209053 -0.00092602749908
          -0.014289437581 -0.00092602749908 0.028382458082 0.11962156344 0.0068203053837 -0.0013720814214
          0.0068203053837 -0.0030364720497 0.009495493054 -0.0013720814214 0.009495493054 0.1064943897
          0.056659916989 0.0052960991319 -0.016287956565 0.0052960991319 -0.014671626538 0.0017405433667
          -0.016287956565 0.0017405433667 0.01993134816 0.15382839101 0.0085254838285 0.019851682201
          0.0085254838285 -0.0086048977572 0.0080506941597 0.019851682201 0.0080506941597 0.13073866817
          0.11210663814 0.006887905869 0.00049606975334 0.006887905869 0.00034064457176 0.0088439830071
          0.00049606975334 0.0088439830071 0.10562201462 0.15586380085 0.0091341742823 0.0083243658125
          0.0091341742823 -0.0090563194426 0.010004038112 0.0083243658125 0.010004038112 0.12645856728
          0.087019416726 0.0042215921436 -0.011104120315 0.0042215921436 -0.020854935718 0.0031787784671
          -0.011104120315 0.0031787784671 -0.031490980975 0.063251471228 0.00036877310013 -0.013804055122
          0.00036877310013 -0.010230043649 0.0010086567624 -0.013804055122 0.0010086567624 0.023564317823
          0.062081641822 0.014776033753 -0.025818485605 0.014776033753 -0.0071516535935 -0.018934779743
          -0.025818485605 -0.018934779743 0.065988684879 0.15421342931 0.011222216368 0.010048641743
          0.011222216368 -0.0094730245871 0.0061649971542 0.010048641743 0.0061649971542 0.1246198808
          0.17151475839 0.0060876104196 0.0037594862255 0.0060876104196 -0.0098871824649 0.0075984326567
          0.0037594862255 0.0075984326567 0.13070125718 0.03683655048 0.00014816620048 -0.024348249442
          0.00014816620048 0.014498104716 0.0030416556463 -0.024348249442 0.0030416556463 0.046448844821
          0.16589336318 0.0049047357094 0.0077258150439 0.0049047357094 -0.010117600347 0.0080657144725
          0.0077258150439 0.0080657144725 0.13520133842 0.11255817602 0.0067485373291 0.0074123479359
          0.0067485373291 -0.0059590450284 0.0048545552305 0.0074123479359 0.0048545552305 0.08658000163
          -0.0089312440406 -0.0055846291421 -0.0017471906042 -0.0055846291421 0.0058761496127 -0.003657576724
          -0.0017471906042 -0.003657576724 0.017412652433 0.12077024034 0.0063775994524 0.008181808341
          0.0063775994524 -0.0074900748581 0.0072353635399 0.008181808341 0.0072353635399 0.081410613839
          0.084846938628 0.010670764541 -0.0055997124178 0.010670764541 -0.0071383974586 0.0024338089403
          -0.0055997124178 0.0024338089403 0.081716063686 0.071650945844 -0.0008720410554 -0.0086637549457
          -0.0008720410554 -0.014255308777 0.00065772607893 -0.0086637549457 0.00065772607893 0.0182156718
          0.14317474192 0.0091843183325 0.00090083495634 0.0091843183325 -0.01379818747 0.0069892341288
          0.00090083495634 0.0069892341288 0.090415337528 0.13924353504 0.0083474911954 0.00059253244267
          0.0083474911954 -0.0055008610113 0.010104156087 0.00059253244267 0.010104156087 0.11817791617
          0.10974550962 0.012366547132 0.011696677663 0.012366547132 -0.0078470624422 0.0050728747581
          0.011696677663 0.0050728747581 0.078658704941 0.14616790925 0.0015491280067 0.013673122479
          0.0015491280067 0.00014710205805 0.0050727789707 0.013673122479 0.0050727789707 0.14241376122
          0.057396472972 0.0015647994144 -0.012612240029 0.0015647994144 0.023072884572 0.004712073148
          -0.012612240029 0.004712073148 -0.0087367408619 -0.043753130763 -0.0041527124623 0.0066502357246
          -0.0041527124623 0.016738666512 0.00892127753 0.0066502357246 0.00892127753 0.013269112475
          0.16083263426 0.010312214349 0.015763205617 0.010312214349 -0.0050522437378 0.0087129102051
          0.015763205617 0.0087129102051 0.13051847413 -0.074482349615 -0.00055177112524 -0.012632429041
          -0.00055177112524 0.022189212428 -0.0083717013867 -0.012632429041 -0.0083717013867 0.02158058332
          0.057324968022 0.0085003608571 0.0043653982876 0.0085003608571 -0.013002057528 -0.00029746360599
          0.0043653982876 -0.00029746360599 0.028298240327 0.17087068479 0.010638433561 0.020839873503
          0.010638433561 -0.014202660169 0.0047418866914 0.020839873503 0.0047418866914 0.13415341927
          0.064752379228 0.00037941823042 -0.012435484099 0.00037941823042 -0.010669725487 0.00016124948212
          -0.012435484099 0.00016124948212 0.02527235931 0.10424292896 0.0058521830689 0.01013714916
          0.0058521830689 -0.0043102897404 0.011953096446 0.01013714916 0.011953096446 0.084580492407
          0.084401103133 0.00088092581301 -0.012365989546 0.00088092581301 0.0053312175989 0.00057513061256
          -0.012365989546 0.00057513061256 0.064952927392 0.16173895486 0.013260926821 0.014750185886
          0.013260926821 -0.003628749811 0.010274971705 0.014750185886 0.010274971705 0.13329001304
          0.13970968658 0.010411376402 0.00061896317869 0.010411376402 -0.012027595352 0.0083889985928
          0.00061896317869 0.0083889985928 0.097426731082 0.062062145384 -0.00054265021759 -0.01964670387
          -0.00054265021759 -0.0081850287661 4.3711084242e-05 -0.01964670387 4.3711084242e-05 0.017213038905
          0.085007226547 0.0072999016009 -0.0089417771755 0.0072999016009 -0.033750180073 0.0099404084801
          -0.0089417771755 0.0099404084801 -0.029093118284 0.066956126545 -0.0030979396546 -0.015254552897
          -0.0030979396546 -0.018895878561 -0.0013286836885 -0.015254552897 -0.0013286836885 -0.031190170209
          0.067357498491 -0.00032357481814 -0.012501520473 -0.00032357481814 -0.012223710225 -0.00046791030478
          -0.012501520473 -0.00046791030478 0.025258070435 0.064203978994 0.0014283544032 -0.014013498505
          0.0014283544032 -0.01101433781 0.00018289439618 -0.014013498505 0.00018289439618 0.026135683351
          0.083231475153 0.0064375817921 0.0094975584177 0.0064375817921 -0.017205942737 0.0054091395485
          0.0094975584177 0.0054091395485 -0.0014598293286 -0.020853415106 -0.00033027841221 -0.00046830561975
          -0.00033027841221 0.0026522976081 0.00028102161535 -0.00046830561975 0.00028102161535 0.026908875245
          0.063807779407 0.00059147658674 -0.015301974922 0.00059147658674 -0.011931230938 0.00051723041753
          -0.015301974922 0.00051723041753 0.026604512928 0.061057249435 -0.01285716269 -0.025278862765
          -0.01285716269 0.0030903886585 -0.020258049996 -0.025278862765 -0.020258049996 0.023004254409
          0.044124496592 0.0067057749927 -0.017204030185 0.0067057749927 -0.021693600437 -0.00052371794197
          -0.017204030185 -0.00052371794197 0.00318717899 0.13369337886 0.010275344254 0.00093197175704
          0.010275344254 -0.0014616814036 0.0073074871692 0.00093197175704 0.0073074871692 0.11779090538
          0.0070293596344 -0.00098194501326 -0.0073888114338 -0.00098194501326 -0.001216489415 0.00023122040398
          -0.0073888114338 0.00023122040398 0.029775783408 0.046754287415 0.0044497636105 -0.0039348660231
          0.0044497636105 0.012557805571 -0.0024976559662 -0.0039348660231 -0.0024976559662 0.028285663595
          0.11195355155 -0.015267085431 0.0053333225514 -0.015267085431 -0.025147020775 0.0097694158142
          0.0053333225514 0.0097694158142 0.020841436141 0.012010307149 -0.0014053502321 -0.0037142013931
          -0.0014053502321 -0.0046976361026 -0.0039109578132 -0.0037142013931 -0.0039109578132 0.02305547576
          0.096042294585 0.0051176588077 0.009758298024 0.0051176588077 -0.019228439675 0.0018645503418
          0.009758298024 0.0018645503418 0.022449592399 0.065493337022 0.0019744255462 -0.0087442141856
          0.0019744255462 -0.011380822656 -0.00078432656536 -0.0087442141856 -0.00078432656536 0.028800577886
          0.025692449798 -0.0023944930655 -0.017623910614 -0.0023944930655 0.012896905436 0.012392151125
          -0.017623910614 0.012392151125 0.035017720552 0.070291914295 -0.00080408542708 -0.01281905791
          -0.00080408542708 -0.013301521182 -0.0013885031629 -0.01281905791 -0.0013885031629 0.015173307975
          0.077654108833 0.0031839938752 0.0037678885583 0.0031839938752 0.0038227422291 0.0070036010185
          0.0037678885583 0.0070036010185 0.093291004976 -0.0038193292821 0.0013960619263 0.0013011497979
          0.0013960619263 -0.0059203696463 0.0015805973916 0.0013011497979 0.0015805973916 0.011361536835
          0.056939865002 0.0087441907878 -0.048140991467 0.0087441907878 0.018567411305 0.006627451299
          -0.048140991467 0.006627451299 0.0022186203064 0.10339731543 0.0030599174898 -0.013514751192
          0.0030599174898 -0.035937580156 0.0040358223036 -0.013514751192 0.0040358223036 -0.049243170587
          0.037285167607 0.008449753372 -0.019371615756 0.008449753372 0.017453780088 0.00054859856548
          -0.019371615756 0.00054859856548 0.067528871954 0.094513986235 0.0060359981347 -0.010203223836
          0.0060359981347 -0.032823460027 0.0048738162963 -0.010203223836 0.0048738162963 -0.036102145712
          0.14207134636 0.0079090610487 0.0017622558874 0.0079090610487 -0.0087325622598 0.010703239448
          0.0017622558874 0.010703239448 0.099381863208 0.15169497059 0.010879362536 -5.5264026892e-05
          0.010879362536 -0.012365904141 0.0090767696346 -5.5264026892e-05 0.0090767696346 0.095544113393
          0.11707233354 0.0046343839651 0.0075662190881 0.0046343839651 -0.019562338166 0.0026649390367
          0.0075662190881 0.0026649390367 0.02104760845 -0.073249085593 -0.0034684552686 -0.0013761455316
          -0.0034684552686 0.020103682985 -0.006501532937 -0.0013761455316 -0.006501532937 0.020909481401
          0.074396873337 0.0021178933489 -0.0047925538958 0.0021178933489 -0.023156198996 0.0017584202331
          -0.0047925538958 0.0017584202331 -0.0052891069728 0.11159325531 0.0052300548611 0.0080214933266
          0.0052300548611 -0.010828783699 0.0088360181853 0.0080214933266 0.0088360181853 0.082406230684
          0.050716240461 0.003483521147 0.0069107581819 0.003483521147 -0.027862102558 0.000312564022
          0.0069107581819 0.000312564022 -0.0085238347641 0.1153656688 0.0074620508613 0.0026085757607
          0.0074620508613 -0.013525435187 0.0086014576372 0.0026085757607 0.0086014576372 0.074509768887
          0.033250780899 -0.0023793221492 0.01478611614 -0.0023793221492 0.0068420712585 0.0067818497986
          0.01478611614 0.0067818497986 0.070556738361 0.083277222648 0.0035202098868 -0.0053765563563
          0.0035202098868 0.026490238432 -0.0021817425317 -0.0053765563563 -0.0021817425317 -0.00029877931675
          0.066893613344 0.0015326483826 -0.01612190975 0.0015326483826 -0.022610559372 0.0022940211125
          -0.01612190975 0.0022940211125 -0.00097999481083 0.15443569419 0.010651865831 0.00063700949064
          0.010651865831 -0.015124382302 0.011133794095 0.00063700949064 0.011133794095 0.096832450926
          -0.068423374547 -0.00063718559913 0.0017957125766 -0.00063718559913 0.017403321788 0.0055660844332
          0.0017957125766 0.0055660844332 0.049311647996 0.14850362102 0.010816399973 0.0015273585684
          0.010816399973 -0.01260305745 0.0085025787238 0.0015273585684 0.0085025787238 0.10025461745
          0.064700900487 0.00083303600318 -0.014453685551 0.00083303600318 -0.010321920892 0.00071231997244
          -0.014453685551 0.00071231997244 0.026525406092 0.029310603898 -0.00052459119619 -0.027734121945
          -0.00052459119619 0.01389984103 0.0045938318367 -0.027734121945 0.0045938318367 0.044000102109
          0.057622842229 0.013771720837 0.016593601338 0.013771720837 -0.0017195670342 0.0012158408411
          0.016593601338 0.0012158408411 0.063198697682 0.072807922223 0.0022437578145 -0.008810219071
          0.0022437578145 -0.013689017692 0.0023478715139 -0.008810219071 0.0023478715139 0.020425974572
          0.11571838794 0.008114960773 -0.001510541476 0.008114960773 -0.00078512515717 0.0083232426195
          -0.001510541476 0.0083232426195 0.11326656724 0.081768200408 0.0081019672971 0.012064556799
          0.0081019672971 0.0016877134567 0.0075225291089 0.012064556799 0.0075225291089 0.080551336117
          0.10465526795 0.0088305754023 0.00093511696257 0.0088305754023 -0.037425802397 0.0032221215463
          0.00093511696257 0.0032221215463 -0.037643567254 0.10018312532 -0.0038036117434 -0.013213110137
          -0.0038036117434 -0.029954219153 0.0018521781731 -0.013213110137 0.0018521781731 -0.023292615727
          0.15684825798 0.0095569585002 0.0024460623755 0.0095569585002 -0.011846836339 0.0092752663429
          0.0024460623755 0.0092752663429 0.11473547705 0.15402930892 0.010946200054 -0.0033171111395
          0.010946200054 -0.011831506651 0.0074893544444 -0.0033171111395 0.0074893544444 0.1070512371
          0.056022846928 -0.0012792433453 -0.02423864843 -0.0012792433453 0.017087370247 -0.0032926202444
          -0.02423864843 -0.0032926202444 0.021541172019 0.047575874281 -0.00080130836988 0.0051782721182
          -0.00080130836988 0.0088391039797 0.0021713719874 0.0051782721182 0.0021713719874 0.095011983396
          0.12608002908 0.008918773086 0.0053495459129 0.008918773086 -0.011131335434 0.0098765590313
          0.0053495459129 0.0098765590313 0.077060638022 0.10464907527 0.0087559320773 0.00059328462542
          0.0087559320773 -0.0010646312413 0.0098676628932 0.00059328462542 0.0098676628932 0.10272495582
          0.062273610004 0.0022563060272 -0.01512021592 0.0022563060272 -0.0095816487819 0.00017075424413
          -0.01512021592 0.00017075424413 0.024863980208 0.05066411694 -0.00047469032085 -0.0085438010453
          -0.00047469032085 0.015818122708 0.004779056505 -0.0085438010453 0.004779056505 0.01546483907
          0.092171945585 0.006988012091 0.0070731454296 0.006988012091 -0.015193830688 0.0078434196086
          0.0070731454296 0.0078434196086 0.031915583524 0.15035301695 0.014008862695 0.026453303349
          0.014008862695 -0.0065801473563 0.0086739607015 0.026453303349 0.0086739607015 0.12936858703
          0.085503249806 0.0058059825589 0.0053077531772 0.0058059825589 -0.0069683136989 0.0083587479231
          0.0053077531772 0.0083587479231 0.11722129231 0.04121942041 0.0063889211185 -0.0066785536608
          0.0063889211185 0.0060998247438 -0.0039508011951 -0.0066785536608 -0.0039508011951 0.036278806419
          -0.045189085371 -0.010170849656 0.011238596979 -0.010170849656 -0.00038589773248 0.00072829112515
          0.011238596979 0.00072829112515 0.024034630333 0.023912513954 0.00064597353768 -0.017336479641
          0.00064597353768 0.0014438665563 -0.0014295364799 -0.017336479641 -0.0014295364799 0.02065919696
          0.023763056212 -0.0042488797507 0.013254951802 -0.0042488797507 -0.0098823418369 0.0075727287985
          0.013254951802 0.0075727287985 0.010526799428 -0.0043079541561 -0.0062107095265 -0.011915477408
          -0.0062107095265 0.0026251956554 0.0026824924182 -0.011915477408 0.0026824924182 0.013682231662
          0.11198006591 0.0099302090834 0.00093087946919 0.0099302090834 0.00016851914704 0.0071856508325
          0.00093087946919 0.0071856508325 0.10440445818 0.11194545919 0.01013485985 0.00071230414067
          0.01013485985 0.00082376014608 0.010126067529 0.00071230414067 0.010126067529 0.10447955522
          0.069643154085 0.0014969694734 -0.01041256024 0.0014969694734 -0.015188599389 0.0012868469085
          -0.01041256024 0.0012868469085 0.0042059249262 0.051864333177 0.0092397247809 -0.039609009546
          0.0092397247809 0.003326567095 0.005864882433 -0.039609009546 0.005864882433 -0.014872148761
          0.05952206383 0.00022366065552 -0.017552853684 0.00022366065552 -0.016760280705 -0.002416466948
          -0.017552853684 -0.002416466948 -0.0032610761556 0.051403904573 0.0060562741137 -0.035897610109
          0.0060562741137 0.0047145290181 -0.013143543444 -0.035897610109 -0.013143543444 0.040487731159
          0.067914567889 -0.00085965936186 -0.013498314871 -0.00085965936186 -0.011076030285 -0.00021552005438
          -0.013498314871 -0.00021552005438 0.023248967163 0.11766625615 0.010206167049 0.0043479293068
          0.010206167049 -0.0090657812596 0.007832663918 0.0043479293068 0.007832663918 0.082256962485
          0.019016884233 0.011680537962 0.013177281905 0.011680537962 -0.0037060597338 -0.0027584603012
          0.013177281905 -0.0027584603012 0.027500823359 0.11598975814 0.010553246272 0.0062260873204
          0.010553246272 -0.013480405361 0.0077827734112 0.0062260873204 0.0077827734112 0.081741626418
          -0.027397337978 -0.0021644541065 -0.0050065740833 -0.0021644541065 0.0083724186678 0.003364912924
          -0.0050065740833 0.003364912924 0.023450272264 0.040071832052 0.0040136464013 -0.012876742583
          0.0040136464013 -0.0049887627648 0.001030385117 -0.012876742583 0.001030385117 0.025037399139
          0.061630585227 -7.1485783114e-05 -0.015143743193 -7.1485783114e-05 -0.0096792304844 0.001373645979
          -0.015143743193 0.001373645979 0.028089760333 -0.027566475078 -0.0030091019402 0.010950851395
          -0.0030091019402 0.013757791982 -0.0012647983455 0.010950851395 -0.0012647983455 0.036062939231
          0.085978602339 0.0095518698959 0.012377667932 0.0095518698959 -0.0086421306587 0.0006396629852
          0.012377667932 0.0006396629852 0.062512391271 -0.0011997277567 -0.0025313086754 0.0012770475416
          -0.0025313086754 0.013089235399 0.0023173946858 0.0012770475416 0.0023173946858 0.01876393754
          0.081116667158 -0.0057237250932 -0.0055179559449 -0.0057237250932 -0.0076192384248 0.0015401035884
          -0.0055179559449 0.0015401035884 0.075566556808 0.075627582674 -0.0022642334724 -0.0028744696108
          -0.0022642334724 -0.021230355127 -0.00016099300372 -0.0028744696108 -0.00016099300372 0.0053107615357
          0.11961122649 0.0050895438361 -0.00079788715384 0.0050895438361 -0.002230321675 0.010994616753
          -0.00079788715384 0.010994616753 0.11354490337 0.11010223869 0.010335317026 0.0021360719568
          0.010335317026 -0.0057271571756 0.0088249637948 0.0021360719568 0.0088249637948 0.097562914937
          0.03640652389 -0.0032201050822 -0.011819920428 -0.0032201050822 -0.012263466404 -0.0043945062383
          -0.011819920428 -0.0043945062383 0.017155512358 0.07429693511 0.0054408847862 -0.025427892231
          0.0054408847862 0.020032047925 0.0029002278034 -0.025427892231 0.0029002278034 -0.036621905802
          0.096402653945 0.0083843571968 0.0086874388998 0.0083843571968 0.0012534607565 0.0070746450284
          0.0086874388998 0.0070746450284 0.10050945918 0.042190814404 0.0023813269425 -0.019733443508
          0.0023813269425 -0.0030736382564 -0.0022593706762 -0.019733443508 -0.0022593706762 0.015107885809
          0.12808734189 0.0031581603172 0.021659822746 0.0031581603172 0.0039078686414 0.0068415902464
          0.021659822746 0.0068415902464 0.14185370151 -0.063437506008 0.0026003084999 -0.010835306702
          0.0026003084999 0.022052126211 0.0035017872642 -0.010835306702 0.0035017872642 0.026747461797
          0.068641673694 0.0019909275156 -0.020396780047 0.0019909275156 0.020140795036 0.0078785527746
          -0.020396780047 0.0078785527746 -0.0044899739667 0.10084641951 -0.00011420080475 0.015862794027
          -0.00011420080475 0.0023601383897 0.0096896993511 0.015862794027 0.0096896993511 0.13646811627
          0.073642950464 0.00018617362113 -0.0080265782525 0.00018617362113 -0.032801845658 0.00018357748821
          -0.0080265782525 0.00018357748821 -0.02440846234 0.064270327583 0.018484604369 -0.022431504318
          0.018484604369 0.0012422639988 0.0045804611897 -0.022431504318 0.0045804611897 0.014948569085
          0.059705176081 0.0015176444088 -0.011439549903 0.0015176444088 -0.011997749362 0.0020392929271
          -0.011439549903 0.0020392929271 0.0253198777 0.047700376475 0.0030854444059 -0.011553760162
          0.0030854444059 -0.007369635068 -0.00094542037284 -0.011553760162 -0.00094542037284 0.027682079102
          0.0034909409182 -0.0022648624596 -0.0090715666441 -0.0022648624596 -0.0028580787816 0.001743777618
          -0.0090715666441 0.001743777618 0.022384494413 0.046209285718 0.00034310896909 -0.018152286702
          0.00034310896909 -0.0014245752883 -0.00034444705968 -0.018152286702 -0.00034444705968 0.018821065216
          0.066733848918 0.00078523597098 -0.0075206979696 0.00078523597098 -0.010869869391 -0.001179246664
          -0.0075206979696 -0.001179246664 0.026209853523 0.051846689138 -0.003072885643 -0.037107400308
          -0.003072885643 0.011360442994 -0.0043639180528 -0.037107400308 -0.0043639180528 0.003933035834
          -0.022046477506 -0.0095628578163 -0.018495629534 -0.0095628578163 0.017995359315 0.0029959129782
          -0.018495629534 0.0029959129782 0.021431263242 0.054665497927 0.0025307102571 -0.01447509226
          0.0025307102571 -0.009444580877 0.0027760764635 -0.01447509226 0.0027760764635 0.023163514722
          0.062169483632 0.0037501150057 -0.011205937347 0.0037501150057 -0.018594527549 -0.002423444717
          -0.011205937347 -0.002423444717 -0.0026454528922 0.12848996924 0.0088721076478 0.0021741689804
          0.0088721076478 -0.011207657748 0.0081684898676 0.0021741689804 0.0081684898676 0.081000094698
          0.076660221992 0.0010402518584 -0.0072878780304 0.0010402518584 -0.022256007458 -0.00062510131362
          -0.0072878780304 -0.00062510131362 -0.030380079456 0.042214371831 0.0011583726584 -0.032618282342
          0.0011583726584 0.0089747185316 0.004010223146 -0.032618282342 0.004010223146 0.042996500859
          0.089304950637 0.0066213455017 -0.0035410470857 0.0066213455017 -0.024192896335 -0.002085800507
          -0.0035410470857 -0.002085800507 -0.0026458736303 -0.023428757381 0.010468807293 -0.0026940905231
          0.010468807293 0.019630832038 0.0010793918451 -0.0026940905231 0.0010793918451 0.022259680542
          0.045471148874 -0.0013259202907 -0.013046334279 -0.0013259202907 -0.014326164381 0.00062380241317
          -0.013046334279 0.00062380241317 0.01067581236 0.10164843144 0.0014887025877 0.019381227138
          0.0014887025877 -0.0018001819638 0.0078194010261 0.019381227138 0.0078194010261 0.099331972697
          0.087911140676 0.0052324080787 -0.0070093541583 0.0052324080787 -0.025929366505 -0.0011438379165
          -0.0070093541583 -0.0011438379165 -0.0065630116315 0.086197227666 0.00097535908751 -0.0064116209179
          0.00097535908751 -0.019869379444 0.0010276724096 -0.0064116209179 0.0010276724096 0.0094844364493
          0.15810137457 0.0086342325819 0.0080691498438 0.0086342325819 -0.00934883491 0.0058083316813
          0.0080691498438 0.0058083316813 0.1228826164 -0.02078165452 0.0013421026252 -0.0087193764099
          0.0013421026252 0.0072821958049 0.0073887323305 -0.0087193764099 0.0073887323305 0.013921585865
          0.15999256385 0.012158540737 0.017150303007 0.012158540737 -0.008379675011 0.0066092821771
          0.017150303007 0.0066092821771 0.1319106589 0.11181526969 0.0064953719998 0.013956704817
          0.0064953719998 -0.011569569496 0.0078977167491 0.013956704817 0.0078977167491 0.11833359572
          0.14557525216 0.0048946843883 0.0044855455048 0.0048946843883 -0.0056459182671 0.0075564156452
          0.0044855455048 0.0075564156452 0.13673400485 0.084450008755 0.0028575915555 -0.0070916787665
          0.0028575915555 -0.019331445777 0.0037003942168 -0.0070916787665 0.0037003942168 0.010162042941
          0.083938619918 0.0017115931595 -0.0078968469264 0.0017115931595 -0.022089853092 -0.0006712848812
          -0.0078968469264 -0.0006712848812 0.0047132211096 0.045343441344 0.0060840250354 -0.039128986759
          0.0060840250354 0.019353398817 0.014689546928 -0.039128986759 0.014689546928 -0.010701676741
          0.14567111457 0.0059456501522 0.0014043678433 0.0059456501522 -0.014143158118 0.0099606042955
          0.0014043678433 0.0099606042955 0.098589794004 0.1725902447 0.0081088143374 0.016708809802
          0.0081088143374 -0.020425977472 0.0012802492875 0.016708809802 0.0012802492875 0.11235755252
          -0.014564394254 0.0027216448298 0.0020417827168 0.0027216448298 0.0049816602437 -0.0047267886581
          0.0020417827168 -0.0047267886581 0.013311605848 0.037258330198 0.0022622757546 0.0085750352846
          0.0022622757546 -0.016207285301 0.0036204410953 0.0085750352846 0.0036204410953 -0.0023284929908
          0.056083033756 0.00551172625 -0.040784682918 0.00551172625 0.0040877389029 0.01651861358
          -0.040784682918 0.01651861358 0.019035040211 0.018910013002 -0.0017023511126 -0.0073574782946
          -0.0017023511126 -0.0046532183338 -0.0006008975805 -0.0073574782946 -0.0006008975805 0.012151279434
          0.060552895339 0.014396307356 -0.014902349907 0.014396307356 0.020079933964 0.017601349404
          -0.014902349907 0.017601349404 -6.5410623797e-05 0.12885391211 0.01149888141 0.00063206474852
          0.01149888141 -0.0018389050435 0.0097332193693 0.00063206474852 0.0097332193693 0.1083000088
          -0.046266548465 -0.00099411423809 0.0043653316672 -0.00099411423809 0.023451799566 0.0047554361989
          0.0043653316672 0.0047554361989 0.044273955547 0.037206601597 -0.0059271354127 -0.02661603552
          -0.0059271354127 0.012947103888 0.0072725811309 -0.02661603552 0.0072725811309 0.041607577267
          0.12945033176 0.01095381702 0.0037006587213 0.01095381702 -0.0055771949572 0.0067056401287
          0.0037006587213 0.0067056401287 0.10681945865 0.071060076012 -9.1123956219e-05 -0.016632326036
          -9.1123956219e-05 -0.014255696376 0.00086941251239 -0.016632326036 0.00086941251239 0.020367541878
          0.072252916447 -0.0034875910574 -0.01643651749 -0.0034875910574 -0.024550829858 0.0059482147173
          -0.01643651749 0.0059482147173 -0.0084398327362 0.075473602618 0.0014723834528 -0.01151824894
          0.0014723834528 -0.017974620072 -0.00055602932404 -0.01151824894 -0.00055602932404 0.003492277985
          0.076004655546 -0.00010840095828 0.00083763550478 -0.00010840095828 -0.029203039552 0.0040081445051
          0.00083763550478 0.0040081445051 -0.028451198153 0.11878445684 0.0093578597782 0.006240227414
          0.0093578597782 -0.010497599226 0.0088825581765 0.006240227414 0.0088825581765 0.08248266675
          0.020327516614 0.0034918379718 -0.011665767216 0.0034918379718 -0.0046507911474 -0.00042716990231
          -0.011665767216 -0.00042716990231 0.02028573721 0.016948881365 0.000976435769 -0.008577203838
          0.000976435769 0.0029623421579 -0.0012987263708 -0.008577203838 -0.0012987263708 0.018522365879
          -0.03493041661 0.0015059490187 -0.003908701799 0.0015059490187 0.017149334292 -0.0071744229601
          -0.003908701799 -0.0071744229601 0.041278086495 0.086333531049 0.011068071342 0.0073475045302
          0.011068071342 -0.035839507087 0.0018604723802 0.0073475045302 0.0018604723802 0.0029493153884
          0.0592573811 0.0010742157371 -0.010150078731 0.0010742157371 -0.010996517449 -0.0014099896209
          -0.010150078731 -0.0014099896209 0.019210192512 0.060735478908 8.3124440933e-05 -0.01367189245
          8.3124440933e-05 -0.0089726554804 0.00086011965955 -0.01367189245 0.00086011965955 0.027946712424
          0.042536661956 0.00040880879385 -0.0082815635477 0.00040880879385 0.015075489533 0.00077126947193
          -0.0082815635477 0.00077126947193 0.026675666574 0.046006822737 0.0013610074808 -0.028320853712
          0.0013610074808 0.0074209778769 0.0020222284184 -0.028320853712 0.0020222284184 0.044722914896
          0.11207792818 0.0089588982163 0.0094646433783 0.0089588982163 -0.0045174495112 0.0072316228061
          0.0094646433783 0.0072316228061 0.081497996702 0.052499737673 0.0069367820294 -0.032928742409
          0.0069367820294 0.0076888597714 0.00090053685851 -0.032928742409 0.00090053685851 0.059790821518
          0.077173303435 -0.00024988909031 -0.0083890032609 -0.00024988909031 -0.017123248228 0.0025335734181
          -0.0083890032609 0.0025335734181 -0.0012975206022 0.15606794031 0.0033164142981 0.029794906113
          0.0033164142981 -0.0079735820342 0.009318279367 0.029794906113 0.009318279367 0.12803469824
          0.17914303331 0.025589286376 0.074017468835 0.025589286376 -0.080673114719 0.004751294596
          0.074017468835 0.004751294596 0.065575811773 0.038695882368 0.00054500796912 -0.011270970542
          0.00054500796912 -0.0015717186099 -0.010986196401 -0.011270970542 -0.010986196401 -0.00177067157
          0.15471298686 0.0031112754812 -0.004773835799 0.0031112754812 -0.011165275459 0.016511687772
          -0.004773835799 0.016511687772 0.10716655548 0.0632475876 0.0043457336903 0.0057976054051
          0.0043457336903 -0.011726561873 0.011325906372 0.0057976054051 0.011325906372 -0.003204014262
          0.050220059403 -0.012422308979 -0.03072774145 -0.012422308979 0.0034425297333 -0.021318339402
          -0.03072774145 -0.021318339402 0.024690210013 -0.082262070578 -0.0054756202214 0.0023239560678
          -0.0054756202214 0.021269744883 -0.0023648593411 0.0023239560678 -0.0023648593411 0.025784002581
          0.1124342491 0.0046720702405 0.0077614983361 0.0046720702405 -0.0069412035603 0.011092678889
          0.0077614983361 0.011092678889 0.0945740707 0.14265056659 0.013260231807 0.0071473370733
          0.013260231807 -0.0024908493214 0.0088698608594 0.0071473370733 0.0088698608594 0.13354880103
          0.016911987876 -0.0023310851415 0.0069728508273 -0.0023310851415 0.000669648295 -0.0034121388042
          0.0069728508273 -0.0034121388042 -0.0085353552959 0.076504651835 0.0027605976936 0.016480604098
          0.0027605976936 -0.005501080486 0.0061276971044 0.016480604098 0.0061276971044 0.049140611833
          0.12267329717 0.0042697574074 -0.0041165585247 0.0042697574074 -0.020684643212 0.0056980936369
          -0.0041165585247 0.0056980936369 0.079823529096 0.090176970912 0.010217889442 0.011594001731
          0.010217889442 -0.0031385855142 0.0043453921583 0.011594001731 0.0043453921583 0.076442337243
          0.03436000819 -0.018503477301 -0.012595206119 -0.018503477301 0.016619281889 0.0097189431067
          -0.012595206119 0.0097189431067 0.081633299581 0.12865463225 0.0091773018696 0.0028903776796
          0.0091773018696 -0.0063604104275 0.0073428355938 0.0028903776796 0.0073428355938 0.11226088884
          0.063069261661 0.00024943107577 -0.013523011361 0.00024943107577 -0.010319327942 0.00024367968219
          -0.013523011361 0.00024367968219 0.026449163013 0.073595399002 0.0032560567485 -0.023458812626
          0.0032560567485 0.0096917622824 0.013127386076 -0.023458812626 0.013127386076 -0.0049747097161
          0.060399830815 0.012783053793 0.0066674695714 0.012783053793 0.0048357363289 0.0074410735704
          0.0066674695714 0.0074410735704 0.093022229512 -0.020940075099 -0.0052757240333 -0.029009937091
          -0.0052757240333 -2.168404345e-19 8.6736173799e-19 -0.029009937091 8.6736173799e-19 6.9388939039e-18
          0.11788456349 0.0063471064951 0.0025668606017 0.0063471064951 -0.0023307521621 0.010051355888
          0.0025668606017 0.010051355888 0.097260967264 0.063262863776 -0.00037899804872 -0.0083575898466
          -0.00037899804872 -0.0085117792684 9.9033350127e-05 -0.0083575898466 9.9033350127e-05 0.029377170491
          0.13586333282 0.0096692436248 0.007211222586 0.0096692436248 -0.021828075073 0.0044011456637
          0.007211222586 0.0044011456637 0.054878089863 0.02310330876 5.4447998267e-05 -0.011210987858
          5.4447998267e-05 0.00082715833667 0.0027500842071 -0.011210987858 0.0027500842071 0.035668768733
          0.11792604899 0.012158104192 0.0079225855909 0.012158104192 -0.02856620189 0.01240658768
          0.0079225855909 0.01240658768 0.019752482571 0.089296349045 -0.00016309418501 -0.014446664835
          -0.00016309418501 -0.040179106734 -0.00095393380424 -0.014446664835 -0.00095393380424 -0.023055386255
          0.099192453211 0.00034872626847 0.0022205433634 0.00034872626847 -0.024909574229 0.00423424309
          0.0022205433634 0.00423424309 0.022605415903 0.13337886285 0.011506926041 0.0012463654278
          0.011506926041 -0.0061840989422 0.0071469417072 0.0012463654278 0.0071469417072 0.10744860957
          0.087487945128 0.0013136012916 -0.0096964296975 0.0013136012916 -0.023993056005 -0.0044213213571
          -0.0096964296975 -0.0044213213571 -0.016146088562 0.1712897749 0.0067320101469 0.015123377623
          0.0067320101469 -0.016710243362 0.0043139146631 0.015123377623 0.0043139146631 0.12832988974
          0.12764374901 0.010691589223 -0.0024432658716 0.010691589223 -0.0076965483256 0.0097974842906
          -0.0024432658716 0.0097974842906 0.10008234533 0.12421434009 0.00023428384254 0.00085814548898
          0.00023428384254 -0.024962695382 0.0031078575596 0.00085814548898 0.0031078575596 -0.0012337370195
          0.097302316035 0.0013426474998 -0.0032456288733 0.0013426474998 -0.024245211898 -0.0052220785461
          -0.0032456288733 -0.0052220785461 -0.036741020222 0.045449394926 -0.0017520690376 -0.014586411006
          -0.0017520690376 -0.021136938814 -0.0056030867064 -0.014586411006 -0.0056030867064 -0.0058841020454
          -0.016191354678 -0.0046450234514 -0.0025608331896 -0.0046450234514 -0.00045438058436 -0.002968666016
          -0.0025608331896 -0.002968666016 0.02363857432 0.083622202916 0.012137013508 -0.0023158827439
          0.012137013508 -0.006416712723 0.0009619148668 -0.0023158827439 0.0009619148668 0.074230080393
          0.050510553247 0.00025823031378 -0.011616021038 0.00025823031378 -0.011659002994 -0.0025215286906
          -0.011616021038 -0.0025215286906 0.0095937787124 0.15507161507 0.010918044661 0.0075183708415
          0.010918044661 -0.0077223772983 0.0086477777463 0.0075183708415 0.0086477777463 0.12779164014
          0.13766258448 0.01007806727 -0.0033300111985 0.01007806727 -0.011463239451 0.0092236774222
          -0.0033300111985 0.0092236774222 0.098290208666 0.15017608731 0.0080260518951 -0.0023431336622
          0.0080260518951 -0.01202018307 0.010065851689 -0.0023431336622 0.010065851689 0.1059681099
          0.054865116649 0.0033663479312 0.0060898779514 0.0033663479312 -0.009178484252 -0.00093370754603
          0.0060898779514 -0.00093370754603 0.02626969839 0.05661353184 -0.0012662736145 -0.021526589706
          -0.0012662736145 -0.0088102892925 -0.0013921168729 -0.021526589706 -0.0013921168729 -0.0018622949866
          0.042191610409 0.0023939616869 -0.019813780278 0.0023939616869 -0.0070173661168 0.00017916435827
          -0.019813780278 0.00017916435827 0.019888015284 0.053929566355 -0.0011018528786 -0.014571000784
          -0.0011018528786 -0.0064931616528 -0.00010946141039 -0.014571000784 -0.00010946141039 0.028074053258
          0.12645190713 0.0053919805257 0.0051692982162 0.0053919805257 -0.010802695079 0.009538090235
          0.0051692982162 0.009538090235 0.086134969619 0.13577238642 0.0076476001654 -0.001036260286
          0.0076476001654 -0.0050390374412 0.0094411204653 -0.001036260286 0.0094411204653 0.11266188709
          0.16498131738 0.0046238761949 0.0016067021948 0.0046238761949 -0.031628803144 -0.012000860508
          0.0016067021948 -0.012000860508 0.074703311525 0.064398501649 -0.068767391305 -0.040250329194
          -0.068767391305 -0.052551389775 -0.076727590979 -0.040250329194 -0.076727590979 0.054604968036
          0.021963167021 0.0053478573188 -0.0096523450865 0.0053478573188 0.010499364808 0.004142779232
          -0.0096523450865 0.004142779232 0.096705223003 -0.02247123526 0.0044786658816 -0.013133064057
          0.0044786658816 0.0024067013174 9.8227456393e-06 -0.013133064057 9.8227456393e-06 0.0090833037309
          0.11442628806 0.011193677792 0.0050196385368 0.011193677792 -0.0077711422421 0.0090579510633
          0.0050196385368 0.0090579510633 0.089662623431 0.064906673744 0.0011179938884 -0.014717028011
          0.0011179938884 -0.01654717803 0.0031764388711 -0.014717028011 0.0031764388711 0.01690008506
          -0.031404099981 -0.0038634014488 -0.0055872811278 -0.0038634014488 0.014155123598 -0.0017223746419
          -0.0055872811278 -0.0017223746419 0.018471494721 -0.07156167728 0.0036251521759 0.00044556398836
          0.0036251521759 0.023126505851 -0.0036143452157 0.00044556398836 -0.0036143452157 0.024220132754
          -0.0007366435211 -0.0086628578052 0.0095471348061 -0.0086628578052 -0.0021310798852 -0.0052096303606
          0.0095471348061 -0.0052096303606 0.018170550613 -0.027071845614 0.0025179340909 -0.013300533178
          0.0025179340909 0.0093129691066 0.0020999008651 -0.013300533178 0.0020999008651 0.016346507561
          0.054014833464 -0.0017596654508 -0.012849833928 -0.0017596654508 -0.009664025622 0.0005260902574
          -0.012849833928 0.0005260902574 -0.031649245091 0.025125850502 -0.0022977339318 -0.010413554562
          -0.0022977339318 -0.0095459365681 0.0023471584077 -0.010413554562 0.0023471584077 -0.0072425650219
          0.064578123441 0.0017776014461 -0.013007411521 0.0017776014461 -0.012691816156 0.00057802943986
          -0.013007411521 0.00057802943986 0.026681786795 0.11628629839 0.0049995861349 0.0049933599383
          0.0049995861349 -0.0091235977049 0.0090386931049 0.0049933599383 0.0090386931049 0.089662476052
          0.07829043971 0.0029403438115 0.0026223328593 0.0029403438115 -0.019672523679 0.00099575293182
          0.0026223328593 0.00099575293182 0.012424880569 0.070241384823 0.002042385141 -0.0066678240931
          0.002042385141 -0.011277148005 0.0001737410004 -0.0066678240931 0.0001737410004 0.02531249762
          0.086109574685 -0.00030033987203 -0.0060293071921 -0.00030033987203 -0.033402223451 0.0071943297339
          -0.0060293071921 0.0071943297339 -0.036634407948 0.070490758724 -0.0098206121982 -0.001384217314
          -0.0098206121982 -0.028155766301 -0.004812469183 -0.001384217314 -0.004812469183 -0.030468086769
          -0.019756050182 -0.00076004058917 0.010361322232 -0.00076004058917 0.024425111021 0.0060554553325
          0.010361322232 0.0060554553325 0.033166589763 0.058357303588 0.00072537433124 -0.01578955056
          0.00072537433124 -0.0098630279963 0.0024417052039 -0.01578955056 0.0024417052039 0.024735577258
          0.086833728174 -0.0018387716683 -0.0053003410885 -0.0018387716683 -0.00015844430685 0.010745512422
          -0.0053003410885 0.010745512422 0.088238523355 0.062033274534 -0.00026253979294 -0.012937525952
          -0.00026253979294 -0.009159409422 -0.00020084449369 -0.012937525952 -0.00020084449369 0.027249362417
          -0.025842262988 -0.0056239875226 -0.010007366614 -0.0056239875226 0.018209193677 -0.0019794317272
          -0.010007366614 -0.0019794317272 0.013921837137 0.075527061803 -0.004733017388 -0.039819840165
          -0.004733017388 -0.026685267706 0.0046029563402 -0.039819840165 0.0046029563402 0.0045408728936
          0.10416710262 0.0052164564463 0.0026801625223 0.0052164564463 -0.0012797876339 0.010208566811
          0.0026801625223 0.010208566811 0.10574795053 0.06321416729 0.0018625004076 -0.012402773094
          0.0018625004076 -0.010318698389 -0.00071879858915 -0.012402773094 -0.00071879858915 0.026687688615
          0.070606723722 0.0016103720855 -0.014140469921 0.0016103720855 -0.013002706981 -1.4672490223e-05
          -0.014140469921 -1.4672490223e-05 0.026717268961 0.13429087406 0.015104999637 0.022935957937
          0.015104999637 -0.0037697498491 0.002830986782 0.022935957937 0.002830986782 0.10673941854
          0.10587370913 0.0027750219584 0.001286148883 0.0027750219584 -0.037180628311 0.010791219419
          0.001286148883 0.010791219419 -0.054214766614 0.035945771219 -0.00070801715674 -0.008069612494
          -0.00070801715674 -0.00089751673445 0.0014383461556 -0.008069612494 0.0014383461556 0.024794434425
          0.10188446271 0.0023633950368 0.0056541349172 0.0023633950368 -0.023731904128 0.0082071366804
          0.0056541349172 0.0082071366804 0.021019547578 0.16241890886 0.011528023528 0.013509069587
          0.011528023528 -0.010128393737 0.0062241757266 0.013509069587 0.0062241757266 0.13431562457
          0.0024455807738 0.0037004726738 0.0066972589365 0.0037004726738 -0.0014457581351 -0.0095366806036
          0.0066972589365 -0.0095366806036 0.011991421038 0.044203134393 0.0029136330217 -0.008528344312
          0.0029136330217 -0.004901037946 0.00046555972491 -0.008528344312 0.00046555972491 0.030974335568
          0.12681003884 0.0096871778219 0.0008591057821 0.0096871778219 -0.0029298989817 0.0085245872057
          0.0008591057821 0.0085245872057 0.11213518907 0.14147608265 0.0031022629404 0.017916449426
          0.0031022629404 -0.0020041807901 0.0048252068536 0.017916449426 0.0048252068536 0.14367314157
          0.03258892277 -0.0015218285815 -0.0050926529093 -0.0015218285815 -0.0073621652939 -0.0018375021512
          -0.0050926529093 -0.0018375021512 0.026155072242 0.045491897254 -0.003507002321 -0.013861196874
          -0.003507002321 -0.002127447942 -0.0013207665436 -0.013861196874 -0.0013207665436 0.034571003641
          0.16418820048 0.0097847798427 0.011441740184 0.0097847798427 -0.010276403135 0.009054521617
          0.011441740184 0.009054521617 0.1284297399 0.086339921205 0.0040151939377 -0.0072021614293
          0.0040151939377 -0.020037566202 -0.00033413242316 -0.0072021614293 -0.00033413242316 0.0028402156308
          0.11298954078 0.0072411039126 0.0050932105494 0.0072411039126 -0.00077760483668 0.0089577036168
          0.0050932105494 0.0089577036168 0.098222650992 0.047412676188 0.010558937525 -0.017928130057
          0.010558937525 -0.026905184679 -0.0037651249496 -0.017928130057 -0.0037651249496 0.023205333189
          0.043012480614 0.0037153804987 -0.013155391758 0.0037153804987 -0.0073565986167 0.010652511108
          -0.013155391758 0.010652511108 -0.016796575453 0.056140238876 -0.0067538457186 -0.018150055448
          -0.0067538457186 -0.024886390884 -0.0057511125766 -0.018150055448 -0.0057511125766 -0.0097277949697
          0.068363444398 0.0023933230284 -0.014081063408 0.0023933230284 -0.0178560252 0.0016901298207
          -0.014081063408 0.0016901298207 0.011489560631 0.0055354106684 0.0041433940599 -0.013387871405
          0.0041433940599 -0.0052561191745 0.0056484201801 -0.013387871405 0.0056484201801 -0.004891543397
          0.14995114536 0.0105680046 0.010829716209 0.0105680046 -0.0051133022581 0.0095152513136
          0.010829716209 0.0095152513136 0.13002970369 -0.04073641863 -0.0051836825551 0.01112066725
          -0.0051836825551 0.0086072789852 -0.0030903402004 0.01112066725 -0.0030903402004 0.02230442982
          0.060734295296 -0.0085382988817 -0.034787370721 -0.0085382988817 0.0041409655266 0.011129029666
          -0.034787370721 0.011129029666 0.027478368348 -0.075758950059 -0.0080597611898 -0.010036096858
          -0.0080597611898 0.020954415701 -0.00065268969978 -0.010036096858 -0.00065268969978 0.028851278066
          0.063297749231 -0.00047115113008 -0.011729709458 -0.00047115113008 -0.0085107710199 -0.0014857393588
          -0.011729709458 -0.0014857393588 0.026468598855 0.010918756922 0.00095637184923 0.0082085543656
          0.00095637184923 -0.0040276923548 0.0034706950485 0.0082085543656 0.0034706950485 0.017970636723
          0.13290715566 0.0091374243005 0.0024311217566 0.0091374243005 -0.011616135137 0.0072164208119
          0.0024311217566 0.0072164208119 0.090014964647 0.084527804471 0.011555980713 0.0051996591518
          0.011555980713 0.0045379561749 0.006906528717 0.0051996591518 0.006906528717 0.093969984912
          0.12497192893 0.0096678235262 0.00019932479864 0.0096678235262 -0.0038505522333 0.010621323088
          0.00019932479864 0.010621323088 0.10474139483 0.0636041485 -0.0032519285207 -0.022136334603
          -0.0032519285207 -0.020533065704 0.0095704858191 -0.022136334603 0.0095704858191 -0.0092092998294
          0.074548762579 -0.0024519051949 -0.006709364501 -0.0024519051949 -0.019747080607 -0.00065017387384
          -0.006709364501 -0.00065017387384 0.0060257709231 0.062800151345 0.0058911215678 -0.040552399222
          0.0058911215678 -0.0032344548289 0.035580989249 -0.040552399222 0.035580989249 -0.025757492412
          0.1642848227 0.012236192082 0.012755341837 0.012236192082 -0.0090758094707 0.008196671731
          0.012755341837 0.008196671731 0.14245104226 0.02691695889 0.0089946515432 -0.021652658736
          0.0089946515432 -0.0056804062351 0.0017703859151 -0.021652658736 0.0017703859151 0.024370792902
          0.06719393555 0.029871974687 -0.0025276192681 0.029871974687 -0.0004742975873 0.010711265238
          -0.0025276192681 0.010711265238 0.07780548687 0.040387115952 0.0013820343847 -0.0132922122
          0.0013820343847 -0.0098306010125 0.0010677476307 -0.0132922122 0.0010677476307 0.016441789473
          0.11675733355 0.0030293155868 0.0077172792576 0.0030293155868 -0.021144890251 0.0093439526469
          0.0077172792576 0.0093439526469 0.053218199145 0.11106804788 0.0091127666124 0.0047084766777
          0.0091127666124 -0.0071403382496 0.005244558001 0.0047084766777 0.005244558001 0.07876618174
          0.10278726204 0.0029559767327 0.0093274228829 0.0029559767327 0.0052465596876 0.0063343877061
          0.0093274228829 0.0063343877061 0.13372604372 0.08222118892 0.002366225113 -0.0026498359407
          0.002366225113 0.011750092998 0.0044973321352 -0.0026498359407 0.0044973321352 0.12679396602
          0.11846277055 0.0035262698759 0.0089309851182 0.0035262698759 0.0024744400977 0.0030230993038
          0.0089309851182 0.0030230993038 0.12268285906 0.063182132128 0.00040162656044 -0.014155624183
          0.00040162656044 -0.010517429544 0.00010319662985 -0.014155624183 0.00010319662985 0.024871488113
          0.084367582377 0.011478698391 0.01334266313 0.011478698391 0.0011338113673 0.0025312288611
          0.01334266313 0.0025312288611 0.071255361219 0.062174576649 0.0010973714216 -0.014494829915
          0.0010973714216 -0.0083133492767 -0.0002631048275 -0.014494829915 -0.0002631048275 0.026372574059
          -0.071788055249 0.0011106641782 -0.0019685703773 0.0011106641782 0.024688573379 0.0075212836447
          -0.0019685703773 0.0075212836447 0.033406310897 0.034888909712 -0.003178514654 -0.0088961873897
          -0.003178514654 -0.0043561190453 0.0023484504697 -0.0088961873897 0.0023484504697 0.027635564492
          0.025656154618 -0.0010940619111 -0.01077817812 -0.0010940619111 -0.018773294149 -0.00054933195101
          -0.01077817812 -0.00054933195101 -0.0075156459297 0.024363655991 -0.0014922704614 -0.007757079023
          -0.0014922704614 -0.01094676772 0.004052005005 -0.007757079023 0.004052005005 -0.012882306101
          0.12612896629 -0.0051339295151 -0.032987757043 -0.0051339295151 -0.046566358126 0.0048717517526
          -0.032987757043 0.0048717517526 -0.03176414606 0.15778402741 0.0050922193089 0.02043672774
          0.0050922193089 -0.0090446827106 0.0053411047827 0.02043672774 0.0053411047827 0.13725109133
          0.067250930162 0.00053267929828 -0.012557939016 0.00053267929828 -0.022015189242 -0.00223467607
          -0.012557939016 -0.00223467607 0.007942978473 0.17391398063 0.01328749061 0.00963226671
          0.01328749061 -0.0089203865781 0.010051693131 0.00963226671 0.010051693131 0.14146622916
          0.03040635793 -7.2371665562e-05 -0.015210736619 -7.2371665562e-05 -0.0080667723243 -0.0029941430387
          -0.015210736619 -0.0029941430387 0.0043126494459 0.030405494256 -0.0055497020921 -0.011764411547
          -0.0055497020921 -0.0032902215772 0.0043526788345 -0.011764411547 0.0043526788345 -0.0068204652819
          -0.0089929992696 0.0047767883344 -0.0010281777625 0.0047767883344 0.010712207117 -0.0092426100913
          -0.0010281777625 -0.0092426100913 0.00017438299349 0.057218744613 0.0082472556003 -0.0095384707601
          0.0082472556003 0.021994462396 -0.0028479846042 -0.0095384707601 -0.0028479846042 0.00020335787837
          0.061146618906 -0.0015557805834 0.0019266138446 -0.0015557805834 -0.029029284149 0.0078883547203
          0.0019266138446 0.0078883547203 -0.017132408648 -0.068168504948 0.0019964935223 -0.015250295912
          0.0019964935223 0.018802527028 -0.011693666589 -0.015250295912 -0.011693666589 0.021503650335
          0.067273886292 0.006995736676 -0.018943633672 0.006995736676 -0.020636794757 -0.00301976808
          -0.018943633672 -0.00301976808 -0.0004907473989 0.15914261615 0.0071826418906 0.016697709183
          0.0071826418906 -0.0056320355614 0.0059556852658 0.016697709183 0.0059556852658 0.1391039439
          0.13445882693 0.0092775782368 -0.00010234449404 0.0092775782368 -0.00091865110792 0.0087922935633
          -0.00010234449404 0.0087922935633 0.12774390148 0.060797333806 -0.0021656583949 -0.006400494691
          -0.0021656583949 -0.0089095134151 0.0020144888395 -0.006400494691 0.0020144888395 0.031724110423
          0.15910554332 0.0082761236569 0.01566638435 0.0082761236569 -0.0089349374222 0.0090556546397
          0.01566638435 0.0090556546397 0.13372439327 0.061184554931 0.0077324806459 0.016277781737
          0.0077324806459 -0.0010477430424 0.0091146792108 0.016277781737 0.0091146792108 0.058449064171
          0.16115739461 0.0052774009469 0.013208847049 0.0052774009469 -0.010564154485 0.010971122338
          0.013208847049 0.010971122338 0.13672354421 -0.0054481703507 0.0097402584677 0.0080915730917
          0.0097402584677 0.013616925004 -0.00025054898432 0.0080915730917 -0.00025054898432 0.056331702292
          0.10235358269 0.00035551021195 -0.010897689137 0.00035551021195 -0.034734774003 0.0020745772714
          -0.010897689137 0.0020745772714 -0.022215605326 0.1307147215 0.0069611111526 0.0063376848656
          0.0069611111526 -0.020762135604 0.0034027499404 0.0063376848656 0.0034027499404 0.034227970475
          0.051878998509 -0.00068775671393 -0.01105548895 -0.00068775671393 -0.0048884242232 0.00064623906876
          -0.01105548895 0.00064623906876 0.025860453809 0.097583404798 0.0010190840203 -0.0090263653259
          0.0010190840203 -0.033940290364 -0.0042430158059 -0.0090263653259 -0.0042430158059 -0.0127889378
          -0.007629205013 -0.0037833658326 0.003390184562 -0.0037833658326 0.00015142754474 0.0029394589363
          0.003390184562 0.0029394589363 0.021186858213 0.079816522001 0.0019045465075 -0.0035780594107
          0.0019045465075 -0.024781431741 -0.0031616930434 -0.0035780594107 -0.0031616930434 -0.0064361443473
          0.0060109794381 -0.0030875806044 0.0069276386824 -0.0030875806044 0.0074355394193 -0.0012636878109
          0.0069276386824 -0.0012636878109 0.039272587108 0.17214996854 0.006285616146 0.019446927546
          0.006285616146 -0.017363561077 0.0097530436237 0.019446927546 0.0097530436237 0.11561878436
          0.05199065152 0.010159211477 -0.034369744092 0.010159211477 -0.0065019206538 3.2543532926e-05
          -0.034369744092 3.2543532926e-05 0.071789221825 0.060700896505 0.0015247489278 0.0072945088155
          0.0015247489278 -0.017189860091 0.0055491309038 0.0072945088155 0.0055491309038 -0.0065341966692
          0.025402885118 0.0011998280996 0.015499954253 0.0011998280996 0.012515403401 0.0022268570987
          0.015499954253 0.0022268570987 0.035766754893 0.070026131258 0.0021479663671 -0.01169657843
          0.0021479663671 -0.014195286379 0.00069145741537 -0.01169657843 0.00069145741537 0.017472365935
          0.1145536297 0.011244146321 0.0032833791909 0.011244146321 -0.0021399872736 0.0080452817167
          0.0032833791909 0.0080452817167 0.090042573123 0.16029957708 0.01030567577 0.016929581584
          0.01030567577 -0.008810420464 0.0077830731094 0.016929581584 0.0077830731094 0.12970906603
          0.14058504312 0.012182040167 0.0023299817213 0.012182040167 -0.012892713335 0.0076714704462
          0.0023299817213 0.0076714704462 0.083488347331 0.03830860767 0.0080496496703 -0.0074846828412
          0.0080496496703 0.011523335232 -0.0031386905804 -0.0074846828412 -0.0031386905804 0.036075022942
          0.10472131518 0.0059699389898 -0.00042311884956 0.0059699389898 -0.037030276325 -0.0056533582207
          -0.00042311884956 -0.0056533582207 -0.040289089397 0.066701224441 0.0019092213361 -0.0079631406556
          0.0019092213361 -0.010590916871 5.9461003774e-05 -0.0079631406556 5.9461003774e-05 0.029437863351
          0.075155519479 0.010042825213 0.004234105749 0.010042825213 0.0065439598101 0.0085189015323
          0.004234105749 0.0085189015323 0.090649068918 0.13283132238 0.0092078683779 0.003281798035
          0.0092078683779 -0.0096074017927 0.0066667804149 0.003281798035 0.0066667804149 0.10895882663
          -0.031143249451 0.0012997581375 -0.0038111963094 0.0012997581375 0.0067657081595 0.010598016209
          -0.0038111963094 0.010598016209 0.012463953821 -0.029857077839 -0.00040245923039 0.0014164862937
          -0.00040245923039 0.0090161912441 0.0034576324116 0.0014164862937 0.0034576324116 0.012898702297
          -0.030164816113 -0.00487592547 -0.014201838613 -0.00487592547 0.014841438034 0.0025032811832
          -0.014201838613 0.0025032811832 0.022224054049 0.058948347896 0.0028896149855 -0.0075457654052
          0.0028896149855 -0.0089860053732 0.00036493941059 -0.0075457654052 0.00036493941059 0.029528565321
          -0.020940075099 -0.0052757240333 -0.029009937091 -0.0052757240333 0 0
          -0.029009937091 0 0 0.090568646992 0.0032974163513 -0.0089581610999
          0.0032974163513 -0.022199559112 -0.0011506259993 -0.0089581610999 -0.0011506259993 -0.0037666620394
          -0.0030923114111 -0.00042843598989 -0.012572820089 -0.00042843598989 0.0015179898827 8.067725065e-05
          -0.012572820089 8.067725065e-05 0.011429414326 -0.005395781437 0.002644937905 -0.0042580506957
          0.002644937905 0.00059483838635 0.0018633788828 -0.0042580506957 0.0018633788828 0.034011253377
          0.10194973399 0.027216928291 0.037671644975 0.027216928291 -0.020240579156 0.00097062385242
          0.037671644975 0.00097062385242 -0.010004654483 0.12116993481 0.013978463366 0.012685901453
          0.013978463366 -0.020440727552 0.0047912540164 0.012685901453 0.0047912540164 0.054654704422
          0.095075321091 0.0050262354861 -0.0022232430977 0.0050262354861 -0.031385211302 -0.001542185818
          -0.0022232430977 -0.001542185818 -0.023025354725 0.072595729583 -0.0055671389826 -0.00034681667879
          -0.0055671389826 -0.00093835416681 0.011665904584 -0.00034681667879 0.011665904584 0.087237813783
          0.048823765066 0.0038508211337 -0.0067999783071 0.0038508211337 -0.0078032302366 0.00045639293809
          -0.0067999783071 0.00045639293809 0.031578990986 -0.033171590488 -0.0081959221924 -0.02853283176
          -0.0081959221924 0 0 -0.02853283176 0 0
          0.15288763817 0.012953991678 0.0074044751459 0.012953991678 -0.013457896805 0.0062307714587
          0.0074044751459 0.0062307714587 0.10964882866 0.1120642257 0.0084943783836 0.0037212137249
          0.0084943783836 -0.0054688708361 0.0081539315387 0.0037212137249 0.0081539315387 0.098389998143
          0.12364397382 0.006437114296 0.0077660216474 0.006437114296 -0.027468535068 0.0062387666579
          0.0077660216474 0.0062387666579 0.034234108027 0.068082063501 0.0037890023985 -0.010144149351
          0.0037890023985 -0.012979309269 -0.0011393802984 -0.010144149351 -0.0011393802984 0.0043457681316
          0.17873136119 0.0085582286909 0.0058599143293 0.0085582286909 -0.025905100782 0.0026251777586
          0.0058599143293 0.0026251777586 0.097406663148 0.027774631908 0.0050442438779 -0.020730401121
          0.0050442438779 0.015289729044 -0.002894660011 -0.020730401121 -0.002894660011 0.039933665311
          0.048165651055 0.014231746532 -0.018589870051 0.014231746532 -0.0041860218914 0.011940959866
          -0.018589870051 0.011940959866 0.042140589767 0.053969865311 0.00062893633897 -0.0088918512352
          0.00062893633897 -0.010137533828 -0.00042647043213 -0.0088918512352 -0.00042647043213 0.013384568013
          0.082937915709 0.0086057045852 -0.0012676951253 0.0086057045852 -0.036850938596 0.0080433556232
          -0.0012676951253 0.0080433556232 -0.028610413284 0.053770735945 0.0068020775543 0.016823299154
          0.0068020775543 -0.0071821579218 -0.0043592609972 0.016823299154 -0.0043592609972 0.030740267074
          0.053225199489 0.00035554800759 -0.011737327972 0.00035554800759 -0.010128823423 -0.0026074676484
          -0.011737327972 -0.0026074676484 0.014349501086 0.15991938225 0.0083717279141 0.016882850982
          0.0083717279141 -0.0043748324404 0.0045526025404 0.016882850982 0.0045526025404 0.13409667458
          -0.032166744789 0.0046168180297 -0.0015274413577 0.0046168180297 0.0090455338155 0.0016028935411
          -0.0015274413577 0.0016028935411 0.020870075796 -0.022286865106 -0.0040176142126 0.00069593004099
          -0.0040176142126 0.0039495581778 0.0011910351731 0.00069593004099 0.0011910351731 0.021184955396
          0.06075410922 0.0016845035884 -0.016461477586 0.0016845035884 -0.010743050163 -9.7008143627e-05
          -0.016461477586 -9.7008143627e-05 0.019075894754 0.012738891317 -0.0028403167228 -0.013912466165
          -0.0028403167228 0.003440046534 -0.0049381328886 -0.013912466165 -0.0049381328886 0.020349102643
          0.10233189043 0.0095702705744 0.0078991362408 0.0095702705744 -0.0018366034127 0.0068889912602
          0.0078991362408 0.0068889912602 0.091572073337 0.16094075385 0.014501177193 0.02629105948
          0.014501177193 -0.025415821142 0.014056561355 0.02629105948 0.014056561355 0.10410906485
          0.034340805664 0.00067448973353 -0.023332434127 0.00067448973353 0.013791456226 0.010005915155
          -0.023332434127 0.010005915155 0.038117666042 0.0980164251 0.0028051952303 -0.0058010544703
          0.0028051952303 -0.028900018524 0.001630019479 -0.0058010544703 0.001630019479 -0.012492919514
          0.066107012548 0.00045642753005 -0.013402294398 0.00045642753005 -0.012136885189 5.9410513569e-05
          -0.013402294398 5.9410513569e-05 0.020430453178 0.058242724654 -0.0021975373605 -0.0011865234827
          -0.0021975373605 -0.020241030843 0.0025269783885 -0.0011865234827 0.0025269783885 -0.010200726818
          0.054900257033 0.00029342270974 -0.017072080171 0.00029342270974 -0.021051152083 -0.0058730876049
          -0.017072080171 -0.0058730876049 -0.015568405547 0.064304806984 0.0046975314422 0.0059354357376
          0.0046975314422 0.0063973983698 0.006004691464 0.0059354357376 0.006004691464 0.093256274126
          0.10395225687 0.007478450962 0.00034188305229 0.007478450962 -0.023741467504 0.0072359299369
          0.00034188305229 0.0072359299369 0.02196061908 0.098082474737 0.0093113196245 0.00016528803129
          0.0093113196245 0.0015434788811 0.0091877356874 0.00016528803129 0.0091877356874 0.10552548857
          0.050760216916 0.0012293711065 -0.020175571639 0.0012293711065 -0.0064222071074 -0.013188850231
          -0.020175571639 -0.013188850231 -0.019880304592 0.046375037607 -0.0095282865896 -0.019098661086
          -0.0095282865896 -0.031019640025 -0.0077960163749 -0.019098661086 -0.0077960163749 -0.015924221092
          -0.083527697328 -0.002599117397 -0.0007506111552 -0.002599117397 0.020509171918 -0.0058736645557
          -0.0007506111552 -0.0058736645557 0.028421314947 0.1111192067 0.007797453024 0.0072452596189
          0.007797453024 -0.0073875934524 0.011175218488 0.0072452596189 0.011175218488 0.081335660249
          0.11481702322 0.0099710106712 -0.00072810931581 0.0099710106712 -0.00095431720029 0.010226002771
          -0.00072810931581 0.010226002771 0.11248131459 0.11573067052 0.0050119901887 0.0050849644197
          0.0050119901887 -0.0075550192136 0.011601767989 0.0050849644197 0.011601767989 0.095797381049
          0.043160670243 0.0093325261854 0.0086900024015 0.0093325261854 -0.00055368783888 0.0040645247918
          0.0086900024015 0.0040645247918 0.043535708055 0.12647838369 0.0065466517359 0.0050195854192
          0.0065466517359 -0.010077530501 0.0093548894773 0.0050195854192 0.0093548894773 0.094013927204
          0.16241642792 0.0096482091673 0.013245499337 0.0096482091673 -0.007537513566 0.0064482179287
          0.013245499337 0.0064482179287 0.12821082312 0.039529347622 -0.0029877641773 -0.012236652937
          -0.0029877641773 -0.010556829408 -0.00097415612225 -0.012236652937 -0.00097415612225 0.010929031872
          0.05593145377 0.0053101458232 0.011586296082 0.0053101458232 0.0038010721175 0.0091852537757
          0.011586296082 0.0091852537757 0.076775332698 0.045963162312 0.0016236132122 -0.0078413992694
          0.0016236132122 -0.0072329946682 0.00092169326234 -0.0078413992694 0.00092169326234 0.021270106566
          0.047266745326 0.008793901785 -0.004386958628 0.008793901785 -0.008681142669 -0.00087544293189
          -0.004386958628 -0.00087544293189 0.0047394925223 0.16124898913 0.0072671891847 0.019769544447
          0.0072671891847 -0.0054365817464 0.0072497646755 0.019769544447 0.0072497646755 0.13857865321
          0.051661698105 -0.001579785516 -0.010832436565 -0.001579785516 -0.0080787361812 0.00035664994968
          -0.010832436565 0.00035664994968 0.028712194628 0.043479147863 -0.012031391256 -0.04076568258
          -0.012031391256 0.004784684104 0.0049076644137 -0.04076568258 0.0049076644137 0.031576534807
          -0.014628997067 -0.0010060148812 -0.0053573845629 -0.0010060148812 0.0051524015098 0.00070470477707
          -0.0053573845629 0.00070470477707 0.0072225151026 0.11809039497 0.0070996935582 0.0026601686263
          0.0070996935582 -0.0038885768655 0.0093526368958 0.0026601686263 0.0093526368958 0.097052343344
          0.027643603302 -0.0001006223426 -0.0066489389836 -0.0001006223426 -0.0020551622353 -0.0028854950926
          -0.0066489389836 -0.0028854950926 0.018491712195 0.062566218605 0.0010849422478 -0.0083727505893
          0.0010849422478 -0.009681774321 0.00042032437242 -0.0083727505893 0.00042032437242 0.02829990723
          0.15020369521 0.0064996220552 0.0063374417311 0.0064996220552 -0.0050906932405 0.0080923628216
          0.0063374417311 0.0080923628216 0.12876979094 0.035201644899 -0.001654174518 -0.0097009616526
          -0.001654174518 -0.011194219972 -0.00033307979428 -0.0097009616526 -0.00033307979428 0.014753594876
          0.16398471087 0.010471506507 0.024622025557 0.010471506507 -0.019342065664 0.0044327994463
          0.024622025557 0.0044327994463 0.12144789105 0.18347843488 0.017261748373 0.011766133583
          0.017261748373 -0.016756839016 0.0004750078992 0.011766133583 0.0004750078992 0.12915825721
          0.18687759276 0.006886091829 0.011666458901 0.006886091829 -0.017630082074 0.0013611722572
          0.011666458901 0.0013611722572 0.11238044781 0.045610379371 0.0017007609874 -0.033089543967
          0.0017007609874 -0.013036469058 0.0080548284946 -0.033089543967 0.0080548284946 -0.0075379710315
          0.049440082427 -0.0035345689753 -0.0085133664761 -0.0035345689753 -0.0081241472317 4.8650300365e-05
          -0.0085133664761 4.8650300365e-05 0.032959177221 0.070603695875 0.0015606389027 0.007517375589
          0.0015606389027 -0.019104422681 -0.0012179281365 0.007517375589 -0.0012179281365 -0.035770628899
          0.20981990807 0.003237406877 -0.0060855980932 0.003237406877 -0.051567823916 -0.012985945129
          -0.0060855980932 -0.012985945129 0.024143789612 0.14830462557 0.0077896656487 0.025077237512
          0.0077896656487 -0.019988045255 0.010222846299 0.025077237512 0.010222846299 0.094958342777
          -0.028028716334 -0.0018259626754 -0.013691413574 -0.0018259626754 0.0071405820012 -0.001148969444
          -0.013691413574 -0.001148969444 0.016501122561 0.23919816529 0.025347798497 0.042195857366
          0.025347798497 -0.058581131056 -0.0039896991502 0.042195857366 -0.0039896991502 0.057504791106
          0.13954115552 0.011613549366 0.026566870842 0.011613549366 -0.021699127469 0.0063476815359
          0.026566870842 0.0063476815359 0.11616842019 0.1402739903 0.015633579622 0.02215627052
          0.015633579622 -0.01193833406 0.0012029330237 0.02215627052 0.0012029330237 0.11318903459
          0.13728405416 0.010459486982 0.0020281007186 0.010459486982 -0.010821784403 0.0061438977614
          0.0020281007186 0.0061438977614 0.086738764896 0.067108850943 0.0010697769006 -0.014604885033
          0.0010697769006 -0.013086243375 -9.041474137e-05 -0.014604885033 -9.041474137e-05 0.027921712759
          0.055450737212 -0.002247079733 -0.012353806536 -0.002247079733 -0.028706945525 -0.0016004184798
          -0.012353806536 -0.0016004184798 -0.011948454885 0.153704846 0.010150158513 0.0003000283925
          0.010150158513 -0.01133077997 0.0080301774344 0.0003000283925 0.0080301774344 0.11914575337
          0.13903150802 0.0069566304379 0.0053793498755 0.0069566304379 -0.020535081598 0.0014520336905
          0.0053793498755 0.0014520336905 0.052007624668 0.012034860564 0.0014011618631 -0.0092640107089
          0.0014011618631 0.0021549560004 -0.0011141962231 -0.0092640107089 -0.0011141962231 0.017633291939
          0.069064948288 -0.00081246368972 -0.021593318389 -0.00081246368972 0.017236161903 -0.0072840713787
          -0.021593318389 -0.0072840713787 0.020076582862 0.0020559699456 -0.027086524518 -0.0099329134419
          -0.027086524518 0.002134614301 -0.0060350453012 -0.0099329134419 -0.0060350453012 -0.00017146727642
          0.14498375854 0.014204270877 0.0030208214538 0.014204270877 -0.0037669660146 0.0075266884498
          0.0030208214538 0.0075266884498 0.13918367111 -0.053657768649 -0.0047635347017 -0.0089642022526
          -0.0047635347017 0.010640323219 -0.00067706178664 -0.0089642022526 -0.00067706178664 0.033285677961
          -0.068390995129 -0.0046533016065 -0.012348611082 -0.0046533016065 0.011430906674 0.0013228151398
          -0.012348611082 0.0013228151398 0.028741837345 0.16587189366 -0.0023928709825 0.0091282771503
          -0.0023928709825 -0.01852266094 0.0015757787387 0.0091282771503 0.0015757787387 0.091559824387
          0.11213755057 0.010536008212 0.0012269738096 0.010536008212 -0.0011207045863 0.0095960143772
          0.0012269738096 0.0095960143772 0.10447097881 0.051851210845 -0.0012857082375 -0.010851516091
          -0.0012857082375 -0.0076228193088 0.00040336486384 -0.010851516091 0.00040336486384 0.014809220452
          0.077226645224 0.0051895743352 0.008728660928 0.0051895743352 0.011271983299 0.011780840321
          0.008728660928 0.011780840321 0.12962757568 0.088810610576 0.010471571582 0.012493256288
          0.010471571582 -0.012403798962 0.0065920931686 0.012493256288 0.0065920931686 0.046628181692
          0.09333827618 0.0075414431924 0.0044389494611 0.0075414431924 0.0030123602073 0.01141947447
          0.0044389494611 0.01141947447 0.082141680353 0.1696327773 0.0089709155851 0.01067648418
          0.0089709155851 -0.013136922989 0.0045673079316 0.01067648418 0.0045673079316 0.13442271351
          0.088895509616 0.018116743716 0.017526639735 0.018116743716 -0.01204162877 -0.0030013917093
          0.017526639735 -0.0030013917093 0.071255607536 0.076624495933 0.0011081400985 -0.0095116786143
          0.0011081400985 -0.020278581933 -0.00031062189133 -0.0095116786143 -0.00031062189133 0.0031031895905
          0.047119109717 -0.0014329259812 -0.015356544837 -0.0014329259812 -0.011383513491 -0.0019034441286
          -0.015356544837 -0.0019034441286 0.019565027611 0.046309561359 -0.00044835018134 -0.014509492288
          -0.00044835018134 -0.010414535185 -0.0013261909217 -0.014509492288 -0.0013261909217 0.019871422362
          -0.044218465671 0.0016335439251 -0.0026601735026 0.0016335439251 0.018536024723 0.0024364500802
          -0.0026601735026 0.0024364500802 0.021019871342 0.17068971767 0.02669531738 0.026181741844
          0.02669531738 -0.046941738067 0.014335796351 0.026181741844 0.014335796351 0.03946170473
          0.1644016225 0.013512611129 0.048587179206 0.013512611129 -0.02254339536 0.013690599219
          0.048587179206 0.013690599219 0.034737226027 0.17420295669 0.010500987284 0.030985230229
          0.010500987284 -0.054354715299 -0.0067012370839 0.030985230229 -0.0067012370839 0.046014419102
          0.069482781738 -0.0013497483487 0.01674073682 -0.0013497483487 -0.006139407337 0.0001114716365
          0.01674073682 0.0001114716365 0.0053599552821 0.031922343695 0.005513579638 0.017598428581
          0.005513579638 -0.0020618965329 0.0069340796718 0.017598428581 0.0069340796718 0.014476614115
          0.17030141744 0.0071424063397 0.0030194139094 0.0071424063397 -0.01217645257 0.0075918764623
          0.0030194139094 0.0075918764623 0.114597041 0.10065405734 0.0055774178476 0.010614497179
          0.0055774178476 -0.0045435463724 0.0029569845094 0.010614497179 0.0029569845094 0.07679144898
          0.14109867464 -0.0014056510783 0.020355564295 -0.0014056510783 -0.0058243834585 0.0083295869946
          0.020355564295 0.0083295869946 0.14104059096 0.16671615278 0.0084765262972 0.025518705302
          0.0084765262972 -0.0074728178313 0.0028859566857 0.025518705302 0.0028859566857 0.13122787839
          0.038158847121 -0.0015468003784 0.015941113026 -0.0015468003784 -0.0013147406357 0.0067308261808
          0.015941113026 0.0067308261808 0.049620718095 0.049382520042 0.0030542791346 0.0091457746576
          0.0030542791346 -0.002064696609 0.0091848286326 0.0091457746576 0.0091848286326 0.043320251836
          0.060436150753 0.0077197782407 0.0086859059785 0.0077197782407 0.013950299099 0.012510337354
          0.0086859059785 0.012510337354 0.097683165428 -0.00071509594815 0.0042355839015 -0.0087752912277
          0.0042355839015 -0.0076440817476 -0.004459451068 -0.0087752912277 -0.004459451068 0.0024919505083
          0.060600336969 0.006699238191 0.022379916853 0.006699238191 -0.0012718899157 0.010387312098
          0.022379916853 0.010387312098 0.034426194154 0.052419382592 0.0009458505689 0.0097477914498
          0.0009458505689 -0.0039140978776 0.0055039459094 0.0097477914498 0.0055039459094 0.033529878452
          0.1115738878 0.0069986874946 0.0049806363756 0.0069986874946 -0.0060413880117 0.0082443676074
          0.0049806363756 0.0082443676074 0.083708538173 0.040803631631 -0.0040201717134 -0.0066992939181
          -0.0040201717134 -0.0082812162904 0.0023084115904 -0.0066992939181 0.0023084115904 0.024286876315
          0.030607332437 0.0014785365508 -0.0043814636806 0.0014785365508 0.00045322699089 0.0015359526176
          -0.0043814636806 0.0015359526176 0.02311738137 0.10261594797 0.0048091351086 -0.00032849673651
          0.0048091351086 -0.011766883242 0.00019014979416 -0.00032849673651 0.00019014979416 0.048977118189
          0.058829986203 0.001154257392 -0.01350078542 0.001154257392 -0.01021190022 0.00067691078518
          -0.01350078542 0.00067691078518 0.029978413907 -0.074811539121 0.0052088733052 -0.0084814022324
          0.0052088733052 0.023262142809 0.0018561713799 -0.0084814022324 0.0018561713799 0.019758107065
          -0.079077482176 0.001590605034 -0.013736155023 0.001590605034 0.028976105851 -0.00026446571024
          -0.013736155023 -0.00026446571024 0.013906824394 0.11281240281 0.010764106125 0.006770681882
          0.010764106125 -0.021477853674 0.0020458903704 0.006770681882 0.0020458903704 0.051578959862
          0.074490666362 -0.0027203129919 -0.016693991823 -0.0027203129919 -0.021910823449 -0.0049516989956
          -0.016693991823 -0.0049516989956 -0.011845946699 0.052506326379 -0.0016995127487 -0.0077302092496
          -0.0016995127487 -0.0074813828518 -0.00046163833478 -0.0077302092496 -0.00046163833478 0.030001240082
          0.065080631554 0.009347253792 0.018003170808 0.009347253792 -0.0096433035411 0.0079700152829
          0.018003170808 0.0079700152829 0.031671524514 0.074532604349 0.0076028437275 -0.0049116222699
          0.0076028437275 -0.0084980582827 0.028046463885 -0.0049116222699 0.028046463885 0.0002098233047
          0.063220959077 4.4782725461e-05 -0.01367861441 4.4782725461e-05 -0.01158212996 -0.00013050638408
          -0.01367861441 -0.00013050638408 0.025972957585 0.13175607175 0.010123742816 0.0012430761726
          0.010123742816 -0.0092048717303 0.0069172146829 0.0012430761726 0.0069172146829 0.091776951805
          0.12453715782 0.0089020253947 2.1017397456e-05 0.0089020253947 -0.0080639669542 0.0089794363092
          2.1017397456e-05 0.0089794363092 0.09539041713 -0.025413374829 0.0038060656582 0.01765082761
          0.0038060656582 0.017851601475 0.0077959344303 0.01765082761 0.0077959344303 0.022539074112
          0.066452562814 0.0082262324233 -0.017591502342 0.0082262324233 0.0066501435169 -0.004726009222
          -0.017591502342 -0.004726009222 0.068629051762 0.067185642068 -8.2410015878e-05 -0.013247626639
          -8.2410015878e-05 -0.011002901742 0.0017434953468 -0.013247626639 0.0017434953468 0.026557905667
          0.11330919216 0.010026211048 0.016002445271 0.010026211048 0.0076262441842 0.0091462159128
          0.016002445271 0.0091462159128 0.14376977329 0.13938599677 0.0086048927956 0.020437341842
          0.0086048927956 -0.011951977805 0.0063012999943 0.020437341842 0.0063012999943 0.10775572987
          0.080647789479 -0.00058290372298 -0.0078096108912 -0.00058290372298 -0.019158898316 0.0018388925243
          -0.0078096108912 0.0018388925243 0.014837661177 0.1479398855 0.02272071695 0.0078372912676
          0.02272071695 -0.023297140571 0.010997374031 0.0078372912676 0.010997374031 0.10756013285
          0.069189608803 0.0069054200127 -0.01296400584 0.0069054200127 -0.013995444004 -0.0038871126222
          -0.01296400584 -0.0038871126222 -0.023226800159 0.074527768388 -0.0019355154741 -0.010189082334
          -0.0019355154741 -0.0206485232 0.00036999689915 -0.010189082334 0.00036999689915 0.0059918604731
          0.017328934576 0.0030769842855 -0.0080420271938 0.0030769842855 0.0024727201193 -0.00018521268365
          -0.0080420271938 -0.00018521268365 0.016762862888 0.16372974121 0.011215989642 0.0080647651844
          0.011215989642 -0.0067706063815 0.0063515025546 0.0080647651844 0.0063515025546 0.13859349932
          0.064420719446 4.6836326966e-05 -0.0093117191653 4.6836326966e-05 -0.01668953972 0.00089598230903
          -0.0093117191653 0.00089598230903 0.0060277786124 -0.013532841105 0.00032263029844 -0.0084127572964
          0.00032263029844 0.0054535628306 0.0045253231876 -0.0084127572964 0.0045253231876 0.023732163452
          0.062828485446 0.00027694751669 -0.014159579384 0.00027694751669 -0.010113544108 -2.3420114519e-05
          -0.014159579384 -2.3420114519e-05 0.02707003724 -0.059098039887 0.0013833460902 -0.0080027304116
          0.0013833460902 0.015307178288 8.7851610694e-05 -0.0080027304116 8.7851610694e-05 0.027628044836
          0.14901944504 0.0097173070946 0.01103496615 0.0097173070946 -0.0034033789919 0.010783860333
          0.01103496615 0.010783860333 0.13477500861 0.050300297822 -0.00084988534307 -0.0080766100247
          -0.00084988534307 -0.021946037516 -0.0014082512082 -0.0080766100247 -0.0014082512082 0.004347752016
          0.077177790278 -0.00045250316997 -0.01343237644 -0.00045250316997 0.024008757152 0.0031519564528
          -0.01343237644 0.0031519564528 -0.014551685523 -0.0054114285521 0.0016003283014 0.01613719334
          0.0016003283014 0.021726757545 -2.8787095257e-06 0.01613719334 -2.8787095257e-06 0.058533043228
          0.1696372493 0.0083095114917 0.019082300857 0.0083095114917 -0.011201791191 0.0039981198705
          0.019082300857 0.0039981198705 0.12779082421 0.085675559339 0.003001794296 0.015079019857
          0.003001794296 -6.0485295749e-05 0.0074958538179 0.015079019857 0.0074958538179 0.078347850952
          0.16264500152 0.0090779216867 0.026382209092 0.0090779216867 -0.0076227157873 0.0084902342113
          0.026382209092 0.0084902342113 0.12782082556 0.030570646954 -0.0024479091237 -0.014835730924
          -0.0024479091237 -0.02167084243 0.0030494115109 -0.014835730924 0.0030494115109 0.0053184957845
          0.091551143152 0.0023297473648 0.015786307697 0.0023297473648 -0.0052123943159 0.011281410402
          0.015786307697 0.011281410402 0.075573914759 0.005208104398 -0.0040500574794 -0.0039246330241
          -0.0040500574794 0.0036341028591 -0.0027281241539 -0.0039246330241 -0.0027281241539 0.017428262017
          0.096699464866 0.012536656891 0.0070523562297 0.012536656891 0.0086189356374 0.0093382197559
          0.0070523562297 0.0093382197559 0.13629625273 0.074679007518 0.0020729370968 -0.013120932989
          0.0020729370968 -0.017219841542 -0.0023946264841 -0.013120932989 -0.0023946264841 -0.00037050626276
          0.064345513358 -4.0044546659e-05 -0.0087300953152 -4.0044546659e-05 -0.017461924037 -0.00033589302756
          -0.0087300953152 -0.00033589302756 0.00485769777 0.082290285449 0.0021481593623 0.011055495672
          0.0021481593623 0.0022649360865 0.010100241846 0.011055495672 0.010100241846 0.092269349668
          0.069177765472 0.0013644533977 -0.011137273838 0.0013644533977 -0.013457641465 0.00019237904355
          -0.011137273838 0.00019237904355 0.020422263012 0.026591804155 0.0039886138703 -0.0065766712547
          0.0039886138703 -0.0066046025068 -0.012457775046 -0.0065766712547 -0.012457775046 -0.00021139626226
          0.052765669265 0.0019272041193 -0.017738573359 0.0019272041193 -0.0067977475558 0.0025915479521
          -0.017738573359 0.0025915479521 0.016277056339 -0.011542447056 -0.0021044605528 0.0071724762004
          -0.0021044605528 0.011630727189 0.0020860832307 0.0071724762004 0.0020860832307 0.032854652695
          0.082893143873 0.0026784216627 -0.0057588061587 0.0026784216627 -0.020876221304 0.0022950684591
          -0.0057588061587 0.0022950684591 0.0034657122165 0.021796327192 0.00052112909198 -0.012321062602
          0.00052112909198 -0.0053762302776 0.003922661512 -0.012321062602 0.003922661512 0.0022652548008
          -0.031255221985 -0.0050004665728 0.0054025217742 -0.0050004665728 0.014641311769 -0.0020174851617
          0.0054025217742 -0.0020174851617 0.064790740792 0.058612133382 0.0073631097276 -0.038655044749
          0.0073631097276 0.00056030578929 0.0088282790114 -0.038655044749 0.0088282790114 0.026825210813
          0.15364943856 0.0085956162798 0.0066593628661 0.0085956162798 -0.01106033104 0.0079100598115
          0.0066593628661 0.0079100598115 0.11562478799 0.026556327281 -0.0049620943162 -0.0068213999178
          -0.0049620943162 0.0014902677534 0.0010898025719 -0.0068213999178 0.0010898025719 0.01366370908
          0.111170643 0.0044842590375 0.010996154992 0.0044842590375 -0.011614906537 0.0059878730431
          0.010996154992 0.0059878730431 0.068056963005 0.12130179746 0.00097427755617 0.0090192857008
          0.00097427755617 -0.017048630005 0.0041456028592 0.0090192857008 0.0041456028592 0.020199046526
          0.092845286586 0.007967462599 0.0028476390054 0.007967462599 0.00071946860222 0.0070775879597
          0.0028476390054 0.0070775879597 0.089626483897 0.061826883199 -0.00041660544614 -0.0052734891223
          -0.00041660544614 -0.02611358044 0.00080250665699 -0.0052734891223 0.00080250665699 -0.019158581368
          0.081101999179 0.010158571977 0.0052691874615 0.010158571977 0.0030944066495 0.0058315235352
          0.0052691874615 0.0058315235352 0.090647858949 0.10471015567 0.010787520029 0.0052786844204
          0.010787520029 -0.0047375485609 0.0079893442504 0.0052786844204 0.0079893442504 0.092767752189
          0.06618942276 6.8810828431e-05 -0.0082983207724 6.8810828431e-05 -0.010930287483 -0.00057237690507
          -0.0082983207724 -0.00057237690507 0.0283980927 0.061194284136 0.0020353431009 -0.0086012349783
          0.0020353431009 -0.0097159980499 -0.0002711979728 -0.0086012349783 -0.0002711979728 0.028229079825
          0.0645858126 0.00094745559359 -0.016067986982 0.00094745559359 -0.014196133377 0.0019142439685
          -0.016067986982 0.0019142439685 0.022054162505 -0.020927102839 0.004117976974 0.00061393200691
          0.004117976974 -0.0081838888247 0.0012646427576 0.00061393200691 0.0012646427576 0.0095726691764
          0.059499942303 0.00019198305931 -0.015616217202 0.00019198305931 -0.010216531956 -8.357742754e-05
          -0.015616217202 -8.357742754e-05 0.026508006689 -0.061446859694 -0.0061527674627 0.0037663292258
          -0.0061527674627 0.013041784902 -0.002837857427 0.0037663292258 -0.002837857427 0.022483061408
          0.055243689404 -0.0005628971433 -0.019850000802 -0.0005628971433 -0.010750400697 0.00014334224929
          -0.019850000802 0.00014334224929 0.022093976801 0.070439132483 0.00082113785993 -0.011170330592
          0.00082113785993 -0.012865742956 0.00029173555353 -0.011170330592 0.00029173555353 0.022680186779
          0.091875335542 0.0012822196982 0.01604657775 0.0012822196982 0.0060051617709 0.0079693273143
          0.01604657775 0.0079693273143 0.11665780746 0.15833379485 0.009013575963 0.016629200769
          0.009013575963 -0.0073131169837 0.0081227896188 0.016629200769 0.0081227896188 0.13560333998
          0.060251045913 -0.025407823784 -0.01703419741 -0.025407823784 0.001403650897 -0.016664237615
          -0.01703419741 -0.016664237615 0.064657622706 0.038805030337 0.0026958186011 -0.0090188658765
          0.0026958186011 -0.002675466492 -0.00098595792132 -0.0090188658765 -0.00098595792132 0.03170585057
          0.14533345268 0.010922130366 0.0036971295717 0.010922130366 -0.0083134076833 0.0097727320745
          0.0036971295717 0.0097727320745 0.12049486184 0.15612484179 0.011176065478 0.0066007190413
          0.011176065478 -0.0051869297491 0.0062507570802 0.0066007190413 0.0062507570802 0.13124174889
          0.072344641559 -0.0039209824422 -0.008406512241 -0.0039209824422 -0.022685450935 -0.0026980539645
          -0.008406512241 -0.0026980539645 -0.0062665321776 0.055223223389 -0.0015895553476 -0.011911507811
          -0.0015895553476 -0.013593882605 -0.0020749584849 -0.011911507811 -0.0020749584849 -0.0014806774757
          0.12052419754 0.0046231706107 0.01132513215 0.0046231706107 -0.0087246544372 0.0037535018755
          0.01132513215 0.0037535018755 0.12317013686 0.16184018422 0.0088638301973 0.022176548535
          0.0088638301973 -0.010774730636 0.0063740356677 0.022176548535 0.0063740356677 0.13045493985
          0.068265851652 0.0026474763735 -0.014550711906 0.0026474763735 -0.013057268134 0.0029348934915
          -0.014550711906 0.0029348934915 0.0092295432835 0.030756169058 0.013037986031 0.008493635928
          0.013037986031 0.0044575397143 0.0015362280174 0.008493635928 0.0015362280174 0.014286461169
          0.12356885806 0.010621455202 0.0068174901819 0.010621455202 -0.013926300586 0.0095613235808
          0.0068174901819 0.0095613235808 0.066852420541 0.070164146864 0.0011483269812 -0.011445528871
          0.0011483269812 -0.022299739642 -0.0011164849875 -0.011445528871 -0.0011164849875 0.0049500820174
          0.15452472153 0.0084777408142 0.0024739727523 0.0084777408142 -0.01108456016 0.0099503149597
          0.0024739727523 0.0099503149597 0.1192107793 0.082614614675 0.010172135073 -0.025487369692
          0.010172135073 0.016838732595 0.006568997331 -0.025487369692 0.006568997331 -0.030693648049
          0.042224215979 -0.034387544331 -0.024634888762 -0.034387544331 -0.11552109211 0.042948580476
          -0.024634888762 0.042948580476 0.035616229479 0.030953017564 -0.006131380133 -0.0087169646244
          -0.006131380133 -0.01512790783 0.0021704493378 -0.0087169646244 0.0021704493378 0.0042264995075
          0.054917812989 0.0028425218649 -0.014740055211 0.0028425218649 -0.022307729608 -0.0047491217182
          -0.014740055211 -0.0047491217182 -0.0084841930534 0.053955638012 -0.0043670748743 -0.01906594017
          -0.0043670748743 -0.019600649368 -0.0094245388069 -0.01906594017 -0.0094245388069 -0.0046100374252
          0.063739889565 0.012166025419 0.0058283313855 0.012166025419 0.0063165439172 0.0084871339108
          0.0058283313855 0.0084871339108 0.092983532622 0.052310859091 0.015405629866 0.008332049382
          0.015405629866 0.013373948374 0.0059215860159 0.008332049382 0.0059215860159 0.092781940315
          0.10090301187 0.0091179423618 0.0038453207516 0.0091179423618 0.0014572632941 0.0076742791331
          0.0038453207516 0.0076742791331 0.097637539385 0.17243014055 0.0081780838495 0.0057674137497
          0.0081780838495 -0.014416532033 0.0096950181226 0.0057674137497 0.0096950181226 0.11549360891
          -0.053919081927 -0.0033732956211 -0.0063464119471 -0.0033732956211 0.014693603392 -0.00062363569626
          -0.0063464119471 -0.00062363569626 0.019792794332 0.048226930965 -0.0025024515948 -0.0083352688105
          -0.0025024515948 -0.0039915677865 0.0014951790852 -0.0083352688105 0.0014951790852 0.030842075879
          0.14501339031 0.0097203962984 0.008111582293 0.0097203962984 -0.0097243440241 0.0095637762658
          0.008111582293 0.0095637762658 0.12020959051 0.075740512064 0.00081196621442 -0.0079863095016
          0.00081196621442 -0.012902339673 0.00060714520246 -0.0079863095016 0.00060714520246 0.021307763256
          -0.02254341246 0.0012138054423 -0.013838130712 0.0012138054423 0.0028543879003 0.0044765835705
          -0.013838130712 0.0044765835705 0.0067835229936 0.14311433064 0.0054808791694 0.0001588807827
          0.0054808791694 -0.0033125256135 0.0095598890843 0.0001588807827 0.0095598890843 0.13350958959
          0.052374751307 0.016388027748 -0.042178549685 0.016388027748 0.041093249778 -0.0075125874828
          -0.042178549685 -0.0075125874828 -0.0091887481474 0.07675531903 0.001003754143 0.014168111687
          0.001003754143 -0.0097580957004 0.0086513226644 0.014168111687 0.0086513226644 0.059173825037
          0.048299301002 0.0083130039147 0.01143827308 0.0083130039147 0.0057953518228 0.0071612148382
          0.01143827308 0.0071612148382 0.094021243186 0.090772665299 0.0011984712956 0.012224873336
          0.0011984712956 -0.0084760492311 0.0067847706432 0.012224873336 0.0067847706432 0.050398359104
          0.041793948244 0.00011564913374 -0.0066970703633 0.00011564913374 0.016353791911 0.0030701303276
          -0.0066970703633 0.0030701303276 0.022131443971 0.051807586081 0.0017631939953 -0.011640264034
          0.0017631939953 -0.0083562025022 0.0019038480596 -0.011640264034 0.0019038480596 0.013891025881
          0.055996715334 0.0012333796249 -0.015579387105 0.0012333796249 -0.020824025244 -0.0023517479369
          -0.015579387105 -0.0023517479369 -0.019509974137 0.08485271275 0.016287592601 0.0055279016002
          0.016287592601 -0.023518084218 -0.01199954629 0.0055279016002 -0.01199954629 -0.03755461823
          0.096849796714 0.012410014814 -0.0095854809829 0.012410014814 -0.024052758723 -0.0028451102815
          -0.0095854809829 -0.0028451102815 -0.02871141741 0.035111120101 0.0011923943557 -0.0096517754747
          0.0011923943557 0.00035228492456 -0.0017193513002 -0.0096517754747 -0.0017193513002 0.021243446251
          0.017984251941 0.0040078206596 -0.00096813343376 0.0040078206596 0.01727305019 0.0047170348676
          -0.00096813343376 0.0047170348676 0.074967078844 0.063837817483 0.001837666819 -0.014466006827
          0.001837666819 -0.012539921577 0.0011179553753 -0.014466006827 0.0011179553753 0.023337158727
          0.16129174993 0.010236238657 0.014967748081 0.010236238657 -0.0086293679877 0.0082770755448
          0.014967748081 0.0082770755448 0.13290998422 0.16120034381 0.010000181099 0.015183122973
          0.010000181099 -0.0087893491305 0.0085907281492 0.015183122973 0.0085907281492 0.13253335435
          0.15483412247 0.010018724261 0.008129100601 0.010018724261 -0.0082537941921 0.0099003529056
          0.008129100601 0.0099003529056 0.13055604608 0.06401219061 0.0012116082543 0.019384319577
          0.0012116082543 -0.0025956627778 0.006249175884 0.019384319577 0.006249175884 0.046934803198
          0.080621750946 0.010447221569 0.0036364702827 0.010447221569 0.0051495804062 0.0072872756345
          0.0036364702827 0.0072872756345 0.098759752328 0.16750161678 0.007558910108 0.0077911352665
          0.007558910108 -0.0080024450048 0.0076888391864 0.0077911352665 0.0076888391864 0.13765548798
          0.096722986831 0.010434366081 0.0010222884213 0.010434366081 0.0025080480948 0.0078318319172
          0.0010222884213 0.0078318319172 0.10520711792 0.098460169284 0.0086514498729 0.00055281434694
          0.0086514498729 0.0039948440189 0.0078222734024 0.00055281434694 0.0078222734024 0.10463012932
          0.13674985345 0.0079694754309 -6.8891618088e-05 0.0079694754309 -0.0097422629338 0.0090950665264
          -6.8891618088e-05 0.0090950665264 0.10262293629 0.16043586853 0.012334532755 0.012358387955
          0.012334532755 -0.0049119926978 0.0082123582022 0.012358387955 0.0082123582022 0.13420544838
          0.063896584779 0.001920608407 -0.010074118424 0.001920608407 -0.010520019531 0.00011890134034
          -0.010074118424 0.00011890134034 0.029765887209 -0.0042476162433 -0.011240685218 -0.0017669349686
          -0.011240685218 0.010230790066 0.0045298488955 -0.0017669349686 0.0045298488955 0.010585518379
          -0.034486128378 0.0020377176948 -0.0079275335907 0.0020377176948 0.015821277897 -0.00010717709607
          -0.0079275335907 -0.00010717709607 0.020358826498 0.060320679464 -0.0032642221288 -0.041204100723
          -0.0032642221288 0.012546796728 0.0037501218695 -0.041204100723 0.0037501218695 0.010303482631
          0.061217778391 -0.00077198988712 -0.0074964226599 -0.00077198988712 -0.0070615212228 -0.0005968770408
          -0.0074964226599 -0.0005968770408 0.030531520003 0.065650321981 0.0010752559942 -0.044132403134
          0.0010752559942 0.015913652109 -0.00026905124381 -0.044132403134 -0.00026905124381 -0.0041492692445
          0.11526426762 0.0060815515522 0.01161410194 0.0060815515522 -0.012011878956 0.0088442098236
          0.01161410194 0.0088442098236 0.068431623072 0.085604531994 -0.0012713772602 -0.0082222440575
          -0.0012713772602 -0.018381744933 0.00059470771748 -0.0082222440575 0.00059470771748 0.0034702376801
          0.070435300739 -0.0064195061525 -0.016903820107 -0.0064195061525 -0.026815907099 -0.014166813504
          -0.016903820107 -0.014166813504 -0.026149931515 -0.046938834152 0.059006593839 -0.014035895367
          0.059006593839 -0.024179092477 -0.014736994799 -0.014035895367 -0.014736994799 0.015242412451
          0.021891261181 0.0070208730362 -0.011534529975 0.0070208730362 -0.008386007412 -0.009900555106
          -0.011534529975 -0.009900555106 -0.0030880542067 0.057003182094 0.0032053549384 -0.0095834476906
          0.0032053549384 -0.009082019603 0.00091811205733 -0.0095834476906 0.00091811205733 0.030203867541
          0.048080999952 0.0018844247313 -0.0022981361105 0.0018844247313 0.016646602257 -0.002321260194
          -0.0022981361105 -0.002321260194 0.01749614174 0.064561401092 0.0015430600054 0.0054942637358
          0.0015430600054 0.014216351365 0.0046757960254 0.0054942637358 0.0046757960254 0.12676709835
          0.051663600729 0.0014869351407 -0.020623405767 0.0014869351407 -0.0066621981443 0.0025870455243
          -0.020623405767 0.0025870455243 0.012957066554 0.1631300841 0.011357415751 0.026292970988
          0.011357415751 -0.011409920863 0.0099958356008 0.026292970988 0.0099958356008 0.12419403315
          0.16873294829 0.0070034959892 0.018275665041 0.0070034959892 -0.014495081648 0.0039961206596
          0.018275665041 0.0039961206596 0.11254360217 -0.030185274074 0.00014514741153 -0.0066103565883
          0.00014514741153 0.013520259423 -0.0021892549723 -0.0066103565883 -0.0021892549723 0.016620981307
          -0.057702360871 -0.0020465372124 0.00033660738974 -0.0020465372124 0.026021101209 -0.00085890255683
          0.00033660738974 -0.00085890255683 0.053177994914 0.14120238346 0.011099876991 0.0033118798387
          0.011099876991 -0.017659414017 0.011860069829 0.0033118798387 0.011860069829 0.079808849633
          0.15982423907 0.0076796322148 0.02298049668 0.0076796322148 -0.0041383057738 0.01042699375
          0.02298049668 0.01042699375 0.13384053715 0.16450536633 0.010899673897 0.021507881832
          0.010899673897 -0.0088897907363 0.0078048744769 0.021507881832 0.0078048744769 0.13566150103
          0.059464128184 -0.0013070936 -0.0039683217705 -0.0013070936 -0.021507699944 0.0086862174223
          -0.0039683217705 0.0086862174223 -0.013475580957 0.15861107436 0.013140939953 0.020844852261
          0.013140939953 -0.0068511074585 0.0055969363719 0.020844852261 0.0055969363719 0.13773230112
          0.027834144578 0.00025474112215 -0.0041931329301 0.00025474112215 -0.012020840538 0.0077613162367
          -0.0041931329301 0.0077613162367 -0.0080375589738 0.11761909287 0.0070007506969 0.0077626756727
          0.0070007506969 -0.0075570851272 0.0088298017434 0.0077626756727 0.0088298017434 0.080280474483
          0.044646559524 -0.00068931057897 0.0030328699493 -0.00068931057897 -0.020044481724 0.0056135308158
          0.0030328699493 0.0056135308158 -0.011590231314 0.1499047181 0.010478898794 -0.0027271931064
          0.010478898794 -0.011156353212 0.009481906046 -0.0027271931064 0.009481906046 0.10865239001
          0.0028734224787 0.0051795109871 -0.012287386559 0.0051795109871 0.003802582133 0.0004886346013
          -0.012287386559 0.0004886346013 0.0081102431489 0.043224584217 -0.0019125975941 -0.015957989777
          -0.0019125975941 -0.0073728907276 -8.3777685297e-05 -0.015957989777 -8.3777685297e-05 -0.0058712168538
          0.024725880099 0.0044560310466 -0.0093489913876 0.0044560310466 -0.0076816459746 0.0010038472947
          -0.0093489913876 0.0010038472947 -0.0023013405019 0.035464789159 0.00056766128179 -0.011438699163
          0.00056766128179 -0.0071005655592 0.0023599609664 -0.011438699163 0.0023599609664 0.0056912396383
          0.15821903486 0.0096857755388 0.00047210261074 0.0096857755388 -0.010664276612 0.010220746457
          0.00047210261074 0.010220746457 0.11515283865 0.098905173243 -0.0027891250283 -0.024847960664
          -0.0027891250283 -0.024569796815 0.022677900781 -0.024847960664 0.022677900781 -0.013562738719
          0.069160338883 0.002087904779 -0.0065955330655 0.002087904779 -0.011996309757 -0.00045324025004
          -0.0065955330655 -0.00045324025004 0.026029485717 0.072229378412 -0.00096820718189 -0.0063611133968
          -0.00096820718189 -0.012612709566 0.00048249066371 -0.0063611133968 0.00048249066371 0.02446754666
          0.15333772444 0.007265464839 0.0049557595628 0.007265464839 -0.012168844011 0.012034070684
          0.0049557595628 0.012034070684 0.11534357693 0.0048647634539 0.0047440791719 -0.012259585216
          0.0047440791719 -0.00032420653997 0.0011828323996 -0.012259585216 0.0011828323996 0.0098304768202
          0.048967058874 0.0086721200524 0.0022043356755 0.0086721200524 0.0057391129894 0.0065064908691
          0.0022043356755 0.0065064908691 0.090387880737 0.12960556551 0.014010936534 -0.00064422541205
          0.014010936534 -0.0013913785968 0.007039429974 -0.00064422541205 0.007039429974 0.12220536576
          0.1115098849 0.0065102600531 0.0004676095298 0.0065102600531 0.00066088429752 0.0085214536989
          0.0004676095298 0.0085214536989 0.10578647845 0.067654265659 0.031990554619 -0.036732590202
          0.031990554619 0.015125522516 -0.017323330051 -0.036732590202 -0.017323330051 0.018357369753
          0.048598956126 -0.0030501821175 -0.0055088324196 -0.0030501821175 -0.012688472098 0.002274618916
          -0.0055088324196 0.002274618916 0.00048312138148 0.037528229211 -0.00038549905867 -0.016451932687
          -0.00038549905867 -0.012895847547 0.0077753087587 -0.016451932687 0.0077753087587 0.0086017618769
          0.094713139481 0.00081621659803 -0.0069267179932 0.00081621659803 -0.02684984325 0.0019504433044
          -0.0069267179932 0.0019504433044 -0.00054454206245 0.048097872595 0.055544898537 -0.016031523335
          0.055544898537 -0.0087037219461 0.013676659915 -0.016031523335 0.013676659915 0.0038391290278
          0.14333162858 0.012287880993 0.012695701753 0.012287880993 -0.0063056353963 0.0081468181526
          0.012695701753 0.0081468181526 0.14260511557 0.095163414433 -0.0033665617998 -0.0090656393174
          -0.0033665617998 -0.039856572484 0.014494953815 -0.0090656393174 0.014494953815 -0.032515583962
          0.047323350331 0.016678152996 -0.012781390352 0.016678152996 -0.037051222118 -0.025511085559
          -0.012781390352 -0.025511085559 -0.0057705809223 0.068997087652 0.0074929178466 -0.0010670978143
          0.0074929178466 0.010232334403 0.0096445887912 -0.0010670978143 0.0096445887912 0.094539362031
          0.18693755792 0.013448030322 0.013799358122 0.013448030322 -0.017271923905 0.007400565166
          0.013799358122 0.007400565166 0.12248907082 0.19074287995 0.016121756274 0.010548344268
          0.016121756274 -0.020846640229 0.0085635761334 0.010548344268 0.0085635761334 0.12308737762
          0.17821846918 0.010649548088 0.011850757718 0.010649548088 -0.0096700528336 0.0082759584996
          0.011850757718 0.0082759584996 0.13527430136 0.0025657399608 -0.0056279724109 -0.0022556607568
          -0.0056279724109 0.0025880639644 0.009265884486 -0.0022556607568 0.009265884486 0.020825358441
          0.065561275528 0.00026098539752 -0.043467229799 0.00026098539752 0.016924306095 -0.0039939312334
          -0.043467229799 -0.0039939312334 0.0022559688503 -0.077938353825 0.0021240350165 -0.0095275456571
          0.0021240350165 0.02832734462 -0.0016188256348 -0.0095275456571 -0.0016188256348 0.028452057106
          0.094174988458 0.0011920628902 -0.0086883682167 0.0011920628902 -0.031390513177 0.0036223375031
          -0.0086883682167 0.0036223375031 -0.024777700971 0.083185022931 -0.0020113224718 -0.0050470783461
          -0.0020113224718 -0.023178658678 0.0022109101114 -0.0050470783461 0.0022109101114 0.0028812652307
          0.081395666481 0.0029012037744 -0.00635621442 0.0029012037744 -0.019743275777 0.00021966004293
          -0.00635621442 0.00021966004293 0.0037669762981 0.03652936023 -0.0015495596363 0.0053080843874
          -0.0015495596363 -0.0048045987457 0.00089887282942 0.0053080843874 0.00089887282942 -0.010387438309
          0.13854324009 0.010044448698 0.025740689799 0.010044448698 -0.0079342796273 0.0062527133072
          0.025740689799 0.0062527133072 0.13068483212 0.061088688396 -0.00029911540627 -0.0051843559515
          -0.00029911540627 -0.025770390297 0.00085580738874 -0.0051843559515 0.00085580738874 -0.019156758405
          0.082684022175 -0.0012023125536 -0.0061636235327 -0.0012023125536 -0.021569132173 -8.357116202e-05
          -0.0061636235327 -8.357116202e-05 0.0061507046702 0.086373835239 0.0043020179828 -0.0074284291298
          0.0043020179828 -0.024538183251 -0.00058277965175 -0.0074284291298 -0.00058277965175 0.0039495951258
          -0.042025786251 -0.015125549805 0.010691279701 -0.015125549805 0.0067389324912 0.0022359778335
          0.010691279701 0.0022359778335 0.023463906116 -0.020412094968 -0.004133202768 -0.0030944089319
          -0.004133202768 0.0051831151477 0.0029148416963 -0.0030944089319 0.0029148416963 0.023050556771
          0.11108851266 0.0096677836837 -0.0010203513497 0.0096677836837 0.0010301991985 0.011022295125
          -0.0010203513497 0.011022295125 0.11804079219 0.14978726296 -0.010470701575 0.037982801654
          -0.010470701575 -0.02030665788 -0.008715849853 0.037982801654 -0.008715849853 0.048687073353
          -0.023674734265 0.0020597465084 -0.0034279587897 0.0020597465084 0.004121370372 0.004243998486
          -0.0034279587897 0.004243998486 0.0062328550774 0.062048880966 0.00090590764674 -0.014676351688
          0.00090590764674 -0.010651522347 0.00074943958074 -0.014676351688 0.00074943958074 0.027707318645
          0.094939338528 -0.01410046941 -0.0072160845828 -0.01410046941 -0.018938040887 -0.018001753073
          -0.0072160845828 -0.018001753073 0.065029545348 0.024831003179 -0.0003266580237 -0.003246451132
          -0.0003266580237 -0.0025579348464 -0.00090908756483 -0.003246451132 -0.00090908756483 0.031061179383
          0.14910247357 0.0098727299135 0.0094456516666 0.0098727299135 -0.0080715235166 0.010436235145
          0.0094456516666 0.010436235145 0.12706897714 0.11187731954 0.007057415226 0.014252707578
          0.007057415226 -0.010900441733 0.0079669468834 0.014252707578 0.0079669468834 0.066520628096
          0.16665686779 0.0096694877419 0.009446129584 0.0096694877419 -0.0077631181315 0.0089318161209
          0.009446129584 0.0089318161209 0.13596120192 0.12277460763 0.0071701727092 0.017658016484
          0.0071701727092 -0.012975843618 0.012450216349 0.017658016484 0.012450216349 0.057242630616
          0.016320527132 -0.0013893116896 -0.010551505871 -0.0013893116896 -0.0082666023974 -0.00031055866586
          -0.010551505871 -0.00031055866586 0.0013169814063 0.055093865627 -0.0092539301971 -0.011363572192
          -0.0092539301971 -0.0065021711486 -0.0077804813757 -0.011363572192 -0.0077804813757 -0.010919818029
          0.045137550779 0.0046849197306 -0.011253595053 0.0046849197306 -0.0057418309564 1.8175596686e-05
          -0.011253595053 1.8175596686e-05 0.019887619831 -0.074443883386 0.0025951483255 0.010974480192
          0.0025951483255 0.024923686939 0.0026549036168 0.010974480192 0.0026549036168 0.024956898545
          0.040832777344 0.0026295499901 -0.0058750153206 0.0026295499901 -0.0049148143432 0.00084554682849
          -0.0058750153206 0.00084554682849 0.031289229197 0.021494865125 -0.047830794387 -0.010326492706
          -0.047830794387 -0.019800184248 -0.0043093857867 -0.010326492706 -0.0043093857867 -0.002527285182
          0.25245579713 -0.034044666983 0.027028523891 -0.034044666983 -0.065234334618 -0.020833560261
          0.027028523891 -0.020833560261 0.018205914193 0.041407270953 -0.005897671722 0.00071842163241
          -0.005897671722 -0.018058138614 0.0017772145953 0.00071842163241 0.0017772145953 -0.0013307800936
          0.044653509967 0.012671544956 0.0024396595104 0.012671544956 0.012402310316 0.003912170834
          0.0024396595104 0.003912170834 0.09019813091 0.067652026506 0.0024019713351 -0.012816651482
          0.0024019713351 -0.012147796839 -0.001011856613 -0.012816651482 -0.001011856613 0.024770965773
          0.036215198569 0.017307754973 0.024083766408 0.017307754973 -0.0036006053536 -0.0053660504944
          0.024083766408 -0.0053660504944 -0.0053300026222 0.090607003164 -0.015933337914 0.0085266875508
          -0.015933337914 0.006774859178 0.0043826064769 0.0085266875508 0.0043826064769 0.12856854428
          0.079187802482 0.0079009457143 0.0048713158267 0.0079009457143 0.0052096876804 0.0083260602974
          0.0048713158267 0.0083260602974 0.098252071878 0.16402322892 0.013966367492 0.013520602196
          0.013966367492 -0.0059550975971 0.0094811820913 0.013520602196 0.0094811820913 0.14297744704
          0.047391300876 -0.0026855158491 -0.0183502391 -0.0026855158491 -0.012253329061 -0.0047437279981
          -0.0183502391 -0.0047437279981 -0.015517634511 0.02939680698 0.011765533011 -0.055935621021
          0.011765533011 0.0030182752493 0.0092752810739 -0.055935621021 0.0092752810739 0.036436221253
          0.057249321424 -0.0054636455267 0.00050215026414 -0.0054636455267 -0.033207240993 0.0080280710852
          0.00050215026414 0.0080280710852 0.086317416046 -0.1107171719 0.0093922895546 -0.095678680366
          0.0093922895546 0.0036460956836 0.0030406562223 -0.095678680366 0.0030406562223 0.01011789144
          0.078750752871 0.0074354651611 0.017015465372 0.0074354651611 -0.022754154075 -0.0075866685093
          0.017015465372 -0.0075866685093 0.015164623847 0.074144127942 0.0051983709044 0.0016363344287
          0.0051983709044 -0.020021489378 -0.0041365941902 0.0016363344287 -0.0041365941902 -0.00098991892017
          0.10792824096 0.010829445777 -0.0019205632051 0.010829445777 0.0010462916307 0.0087719390151
          -0.0019205632051 0.0087719390151 0.11230890613 -0.0099216957509 -0.0057008967137 -0.0029816714715
          -0.0057008967137 0.0013831065383 -0.0027338490388 -0.0029816714715 -0.0027338490388 0.026588929229
          0.074075321897 0.015837133461 0.005600046846 0.015837133461 0.0056899490407 0.000991867974
          0.005600046846 0.000991867974 0.12557632114 0.069660545738 -7.9357886939e-05 -0.020571602287
          -7.9357886939e-05 0.025347934848 -0.011810033392 -0.020571602287 -0.011810033392 -0.0031329039772
          0.081731351648 -0.0011098356281 0.0021149200208 -0.0011098356281 -0.024706226584 0.0056690925285
          0.0021149200208 0.0056690925285 -0.027457038705 0.15806420335 0.0071541296306 0.022864767506
          0.0071541296306 -0.0068398228256 0.0080302511569 0.022864767506 0.0080302511569 0.13711959566
          0.075277346557 0.00080544352614 0.0065098989641 0.00080544352614 0.0049686323439 0.0010528167691
          0.0065098989641 0.0010528167691 0.11379915489 0.0034943609614 -0.0073844427932 -0.011177431014
          -0.0073844427932 0.0076954798382 0.00067760460985 -0.011177431014 0.00067760460985 0.015758487441
          0.033544654963 0.0089722850327 -0.0064921059594 0.0089722850327 0.0052752843488 -0.0037962263774
          -0.0064921059594 -0.0037962263774 0.037323162321 0.16111501849 0.01031888194 0.016322074361
          0.01031888194 -0.0088272665709 0.007771940359 0.016322074361 0.007771940359 0.13016156326
          0.081106528655 -0.0017362059111 -0.011002507077 -0.0017362059111 -0.024249334975 -0.0055276627459
          -0.011002507077 -0.0055276627459 -0.008638043014 0.065276522971 0.0014536940095 -0.0085785433815
          0.0014536940095 -0.010727110983 -0.0001809124223 -0.0085785433815 -0.0001809124223 0.0293731814
          0.0037070019757 0.0008258364113 -0.0075303793515 0.0008258364113 0.0068450183146 0.0027183760122
          -0.0075303793515 0.0027183760122 0.017720940746 0.00061977436684 -0.0033611862123 -0.010370913925
          -0.0033611862123 0.0028911079483 -0.0015887489066 -0.010370913925 -0.0015887489066 0.017097775956
          0.069086880635 0.0011893395749 -0.010275502115 0.0011893395749 -0.012099583774 0.00014231611219
          -0.010275502115 0.00014231611219 0.020418275608 0.06080115119 0.0017975092818 -0.0016175518619
          0.0017975092818 0.029530957607 -0.0058523494108 -0.0016175518619 -0.0058523494108 0.005192066645
          -0.01004129618 -0.0054698721991 0.00061782757967 -0.0054698721991 0.014702223547 0.0051279480949
          0.00061782757967 0.0051279480949 0.04637738389 0.046105897627 0.020163198237 0.012596584212
          0.020163198237 0.0095461507767 -0.0043473305892 0.012596584212 -0.0043473305892 0.036678587615
          -0.0046351218909 0.011454731486 0.007178668013 0.011454731486 0.009411252081 -0.0078669941058
          0.007178668013 -0.0078669941058 0.041032878686 0.16315572827 0.011565844313 0.0010495519537
          0.011565844313 -0.014589866057 0.0076883508329 0.0010495519537 0.0076883508329 0.11495190404
          0.15404793016 0.0079331615924 -0.0010299957277 0.0079331615924 -0.012035512034 0.010347512774
          -0.0010299957277 0.010347512774 0.10082769185 0.056811905159 4.0612281082e-05 -0.014539901434
          4.0612281082e-05 -0.01064997087 0.00076374184285 -0.014539901434 0.00076374184285 0.023869908164
          0.18180074518 0.006746561798 0.013851428272 0.006746561798 -0.022471100902 0.0016780717057
          0.013851428272 0.0016780717057 0.092220559766 0.15556915184 0.0092544612978 0.00062312112915
          0.0092544612978 -0.014159878926 0.008018976394 0.00062312112915 0.008018976394 0.098293269838
          0.15514088153 0.010257152703 9.6319934997e-05 0.010257152703 -0.015425746922 0.010369816174
          9.6319934997e-05 0.010369816174 0.098799684616 0.050699175917 -0.0063581861241 -0.017827557728
          -0.0063581861241 0.0054256712457 -0.0014829954362 -0.017827557728 -0.0014829954362 0.040303922314
          0.16480635367 0.0089478218886 -7.3936616062e-05 0.0089478218886 -0.015584231428 0.0089623864104
          -7.3936616062e-05 0.0089623864104 0.11549577808 -0.029008510947 -0.0054717183789 -0.010364423029
          -0.0054717183789 0.0023441937502 -0.0024478295951 -0.010364423029 -0.0024478295951 0.025693584108
          0.031828187057 0.012009203855 -0.0048481302205 0.012009203855 0.0011067877509 0.0013576302688
          -0.0048481302205 0.0013576302688 0.024186824203 0.11613402738 0.0089140508299 0.0096534981087
          0.0089140508299 -0.0076750049031 0.0095176235856 0.0096534981087 0.0095176235856 0.077549510007
          0.11041628341 0.010885303321 0.0004570455151 0.010885303321 0.001752770515 0.0084517684875
          0.0004570455151 0.0084517684875 0.10470099656 0.059096061965 0.00036824266537 0.0052586476058
          0.00036824266537 0.0087209857345 0.0038743095483 0.0052586476058 0.0038743095483 0.082885746956
          0.17466121056 0.0094813701469 0.016154041952 0.0094813701469 -0.017918847491 0.01008783333
          0.016154041952 0.01008783333 0.12823069614 0.021412696786 0.00056900724814 -0.019614820543
          0.00056900724814 3.6562945499e-05 -0.003652529445 -0.019614820543 -0.003652529445 0.0056484416823
          0.067573843738 0.0017967335287 -0.015475265545 0.0017967335287 0.020990967813 0.012083775219
          -0.015475265545 0.012083775219 -0.014798249033 0.04751341045 0.0017096695809 -0.012762421392
          0.0017096695809 -0.011897864893 0.0040677148313 -0.012762421392 0.0040677148313 0.011756945997
          -0.0036999179782 -0.0015554144452 -0.0053007930118 -0.0015554144452 0.005195909578 -0.00036426671671
          -0.0053007930118 -0.00036426671671 0.021353116755 0.065447858014 0.00062200470542 -0.015575959142
          0.00062200470542 -0.011283198955 0.00038321869077 -0.015575959142 0.00038321869077 0.026312252303
          0.084315084313 0.011899429852 0.015112884072 0.011899429852 -0.011019597409 0.001899794385
          0.015112884072 0.001899794385 0.025377588591 0.16229424884 0.036729522668 0.067291141447
          0.036729522668 -0.0082391199714 0.058675422669 0.067291141447 0.058675422669 0.093566674767
          0.098398826125 0.0046307207305 0.0062930417973 0.0046307207305 -0.0012595674997 0.0074725259551
          0.0062930417973 0.0074725259551 0.10162301352 0.097783767278 0.0042858957937 0.010629978262
          0.0042858957937 -0.00053071849503 0.0095106677686 0.010629978262 0.0095106677686 0.086120891838
          0.1178052448 0.006426557252 0.0076606261094 0.006426557252 -0.0060031812006 0.008328101103
          0.0076606261094 0.008328101103 0.077267479817 0.10851092161 0.00024469985487 0.0038083806586
          0.00024469985487 -0.023236805524 -0.0011326686444 0.0038083806586 -0.0011326686444 -0.0014782147026
          0.10432287556 0.0091626421088 0.0081318176276 0.0091626421088 -0.03128658254 -0.0054271143987
          0.0081318176276 -0.0054271143987 -0.0037361246652 0.13212395295 0.0088801545109 -0.0011557689439
          0.0088801545109 -0.010081626046 0.011058309897 -0.0011557689439 0.011058309897 0.10352854389
          0.090045447867 0.0066597962648 0.012885428101 0.0066597962648 -0.019966292904 0.0035027158674
          0.012885428101 0.0035027158674 0.026229728265 0.13635477714 0.011019938617 0.0003533097747
          0.011019938617 -0.010254243222 0.009110692312 0.0003533097747 0.009110692312 0.098210500684
          0.10880554639 0.00033308021619 0.0030330160809 0.00033308021619 -0.028032331436 -0.0003238444439
          0.0030330160809 -0.0003238444439 0.00033739939702 0.054450322274 0.0069507346098 -0.025972576081
          0.0069507346098 -0.013876078918 0.016128904762 -0.025972576081 0.016128904762 0.050544779667
          0.044663988776 0.012251976811 0.002284345591 0.012251976811 0.010101722008 0.0092050194917
          0.002284345591 0.0092050194917 0.092455267945 0.037324916683 0.00014466413185 -0.014180796048
          0.00014466413185 -0.0073626612105 -0.0011200296834 -0.014180796048 -0.0011200296834 0.017310723172
          0.067090430614 0.0047257660972 -0.0058193335345 0.0047257660972 -0.022327511085 -0.0036935765305
          -0.0058193335345 -0.0036935765305 -0.007252984708 0.07771357916 -0.0011834150288 0.0043283525057
          -0.0011834150288 -0.025930710755 0.0044653505574 0.0043283525057 0.0044653505574 -0.028426666337
          0.10922651795 0.010012512236 0.00024408613277 0.010012512236 0.0021243305084 0.0092164690625
          0.00024408613277 0.0092164690625 0.11444539066 0.064280646619 0.0017304662413 -0.018659483248
          0.0017304662413 -0.013271890079 0.0042732188253 -0.018659483248 0.0042732188253 0.014318081045
          0.082290372369 0.01600485309 0.0016588646569 0.01600485309 -0.037593071995 0.0051555398763
          0.0016588646569 0.0051555398763 -0.020999334919 0.10283360356 0.0073601304606 0.012949846641
          0.0073601304606 -0.0096967539662 0.0059881932088 0.012949846641 0.0059881932088 0.052358916119
          0.059363877943 -0.00074178313803 -0.013845034229 -0.00074178313803 -0.011681035056 0.0018387931974
          -0.013845034229 0.0018387931974 0.023225587754 0.022833693395 -0.0013281678795 -0.0076090929136
          -0.0013281678795 -3.2656460873e-05 -0.0020770780835 -0.0076090929136 -0.0020770780835 0.025460019405
          0.10013307089 0.01322882661 -0.0028011778512 0.01322882661 -0.029138341301 -0.0014913551212
          -0.0028011778512 -0.0014913551212 -0.026213509526 -0.0034959523802 0.0032651072988 -0.003093237022
          0.0032651072988 0.007696640544 0.00032868014263 -0.003093237022 0.00032868014263 0.030459951959
          0.071300440874 0.00055179441818 -0.0097120748432 0.00055179441818 -0.01288700596 0.00012925163607
          -0.0097120748432 0.00012925163607 0.025279281371 0.084912394004 0.00066534645252 -0.0063569105387
          0.00066534645252 -0.020471844964 0.0044182041548 -0.0063569105387 0.0044182041548 0.008014051022
          0.066770723249 0.0039218331228 -0.0078990533143 0.0039218331228 -0.024229256698 0.0028865691423
          -0.0078990533143 0.0028865691423 -0.018700752953 0.046429813746 -0.00076098119338 -0.015103977024
          -0.00076098119338 -0.0071145789592 0.00084919709375 -0.015103977024 0.00084919709375 0.017944574009
          0.046426930687 -0.00021248153583 -0.014345522944 -0.00021248153583 -0.010485521247 -0.00051617616041
          -0.014345522944 -0.00051617616041 0.020721636553 0.076118321325 0.0012532406771 -0.010810691995
          0.0012532406771 -0.019696131462 0.0018449694904 -0.010810691995 0.0018449694904 0.0048650391201
          0.075675245957 0.0024846166555 -0.0097594904974 0.0024846166555 -0.020184063207 -0.0022383934031
          -0.0097594904974 -0.0022383934031 0.0025841140878 -0.0015682581802 -0.0032029413073 -0.002328052371
          -0.0032029413073 0.011389157166 0.0068480918788 -0.002328052371 0.0068480918788 0.044643179539
          0.076901151578 0.002253064633 0.0037558267679 0.002253064633 0.0030944709139 0.0051378685111
          0.0037558267679 0.0051378685111 0.10345412081 0.090162797601 -0.0030785483547 0.007488378507
          -0.0030785483547 -0.026264426797 -0.010815315174 0.007488378507 -0.010815315174 -0.038390055153
          0.073976391004 0.0030105500312 -0.00048767005234 0.0030105500312 -0.019304429187 0.012430392574
          -0.00048767005234 0.012430392574 -0.023021278508 0.068819173017 0.00010865870244 -0.012687196543
          0.00010865870244 -0.010548840216 0.00038798305437 -0.012687196543 0.00038798305437 0.018051151341
          0.10381364598 0.0060256173541 0.0083906612448 0.0060256173541 -0.010340307405 0.0061832009048
          0.0083906612448 0.0061832009048 0.078779052443 0.064553889154 0.010184595783 0.010186939465
          0.010184595783 0.00076220253161 0.0046123890507 0.010186939465 0.0046123890507 0.054330476812
          0.034278395956 0.0018682285963 0.0051703527056 0.0018682285963 -0.012440829802 0.0042485596697
          0.0051703527056 0.0042485596697 0.013083045379 0.19006800965 0.010166276867 0.010445213259
          0.010166276867 -0.024050115068 0.013607091024 0.010445213259 0.013607091024 0.094061086759
          0.10582493448 0.0061442923819 0.010143988477 0.0061442923819 -0.0082246543599 0.0071827413484
          0.010143988477 0.0071827413484 0.079736718541 0.058793813114 3.0518766927e-05 -0.015220366828
          3.0518766927e-05 -0.010743411328 0.0011576991736 -0.015220366828 0.0011576991736 0.026780386519
          0.056151989958 0.0012383209101 0.013254948913 0.0012383209101 0.0031911463831 0.006095776042
          0.013254948913 0.006095776042 0.069288602387 0.05030443397 -0.0011652772734 0.00762146994
          -0.0011652772734 0.00371507322 0.0016400568958 0.00762146994 0.0016400568958 0.066890708333
          -0.00017626847904 0.0033550941135 -0.018147467793 0.0033550941135 -0.0072229960086 -0.0017328367404
          -0.018147467793 -0.0017328367404 0.0098000615548 0.13280622843 0.005259214853 0.0023026462392
          0.005259214853 -0.0036598511373 0.00996042895 0.0023026462392 0.00996042895 0.11800338851
          0.14944891088 0.008599535255 0.0028995640557 0.008599535255 -0.0082939199532 0.0091222998309
          0.0028995640557 0.0091222998309 0.11960703564 -0.013685494873 -0.0032139380823 0.0060863202876
          -0.0032139380823 0.011781850963 0.009095522679 0.0060863202876 0.009095522679 0.064099647983
          0.016435079376 -0.0053875661683 0.0034487504892 -0.0053875661683 0.011631303351 0.0076924965561
          0.0034487504892 0.0076924965561 0.047245419414 0.014985715286 -0.0039075750821 0.0049851744462
          -0.0039075750821 0.014026211855 0.0064026528832 0.0049851744462 0.0064026528832 0.084567916437
          0.048875261976 0.00065605479352 0.0054398832817 0.00065605479352 0.0056095840931 0.0069456693766
          0.0054398832817 0.0069456693766 0.065073454805 0.12557676186 0.018577548608 0.022247977913
          0.018577548608 0.0024871268389 0.0085416021985 0.022247977913 0.0085416021985 0.14033893622
          0.13061967993 0.0079284599023 0.0057069646075 0.0079284599023 -0.027825017626 0.0068373355614
          0.0057069646075 0.0068373355614 0.033244041598 0.13338394183 0.011000267786 0.0017975861312
          0.011000267786 -0.027697184493 0.00095464239384 0.0017975861312 0.00095464239384 0.038052655162
          0.13142952395 0.012063158162 0.012016151059 0.012063158162 -0.024841032877 0.0093602042162
          0.012016151059 0.0093602042162 0.041395835978 0.10067797567 0.011261521724 0.002385971177
          0.011261521724 0.00053445935349 0.0096599970361 0.002385971177 0.0096599970361 0.10684708521
          0.072027440152 0.00069499621867 -0.0094392703036 0.00069499621867 -0.014856142747 -0.00041015852183
          -0.0094392703036 -0.00041015852183 0.02721919945 0.076156032837 -0.0037528517312 -0.0062422305301
          -0.0037528517312 -0.02759157387 0.014176250786 -0.0062422305301 0.014176250786 -0.0078315687345
          0.020661369784 0.0061591650387 -0.0013292950791 0.0061591650387 0.018387443815 0.0036094731125
          -0.0013292950791 0.0036094731125 0.070327685672 0.071261372999 0.0021550219869 0.015700910676
          0.0021550219869 -0.0012915579016 0.010416635655 0.015700910676 0.010416635655 0.069178774962
          0.18599491958 0.0088050756197 0.013638953017 0.0088050756197 -0.029698907578 0.0056947088239
          0.013638953017 0.0056947088239 0.088038732258 0.060807965246 0.0099094532461 -0.037017577167
          0.0099094532461 0.0077618032915 0.017247907909 -0.037017577167 0.017247907909 0.00363939041
          0.11199048876 0.0034484803662 0.006788518155 0.0034484803662 -0.0017119172097 0.0087696774755
          0.006788518155 0.0087696774755 0.0879592705 0.020953816975 -0.00057594335144 0.0020546999086
          -0.00057594335144 0.01724393305 0.0041413820076 0.0020546999086 0.0041413820076 0.075837537192
          0.059225869226 0.0042945257363 -0.0062157616522 0.0042945257363 0.026396489738 0.0035298184565
          -0.0062157616522 0.0035298184565 -0.0029089434935 0.041362412167 -0.0014480840998 -0.0084010706563
          -0.0014480840998 -0.0027163183209 0.00045892492513 -0.0084010706563 0.00045892492513 0.030059672376
          0.038720932353 0.0028712089923 -0.013873436649 0.0028712089923 -0.014428078 -0.002896765741
          -0.013873436649 -0.002896765741 -0.0039526505722 0.13994210976 0.011477837058 0.0062563560326
          0.011477837058 -0.031156505882 0.0036803440563 0.0062563560326 0.0036803440563 0.048668972526
          0.16558151909 0.016714332198 0.017851056952 0.016714332198 -0.013327883648 0.0055785345299
          0.017851056952 0.0055785345299 0.13596575612 -0.0061907103901 0.0013426355419 -0.0015045127024
          0.0013426355419 -0.00051968339823 0.00099256553072 -0.0015045127024 0.00099256553072 0.0053014351577
          0.049893722672 0.0036261327735 0.0092149917835 0.0036261327735 0.00098928497544 0.003741679635
          0.0092149917835 0.003741679635 0.063856792356 0.076329119515 0.0067802197092 0.013428587808
          0.0067802197092 -0.0018830741036 0.0051848214329 0.013428587808 0.0051848214329 0.068125587715
          0.051062604893 0.002650511066 -0.016291251549 0.002650511066 -0.016332413136 -0.0055375688041
          -0.016291251549 -0.0055375688041 -0.0030449707127 0.11006753581 0.0083868792418 0.0082477410294
          0.0083868792418 -0.015273449045 0.0091522724754 0.0082477410294 0.0091522724754 0.045562783222
          0.11065432623 0.0088288496295 0.003461766436 0.0088288496295 -0.0020889366975 0.0057757371589
          0.003461766436 0.0057757371589 0.10006294417 0.036124492191 0.0019571662973 -0.012747777554
          0.0019571662973 -0.0014584493503 0.0020023715492 -0.012747777554 0.0020023715492 0.015719554416
          0.064529622614 0.00079599339635 -0.0094633489266 0.00079599339635 -0.015087234974 -0.00031515282175
          -0.0094633489266 -0.00031515282175 -0.00011746691409 0.057167231847 -0.0017515652775 -0.019950027969
          -0.0017515652775 -0.014765376625 0.00045111196639 -0.019950027969 0.00045111196639 0.00099658831803
          0.081879429748 -0.00023727007456 0.015536585273 -0.00023727007456 -0.0074409391586 0.0020811079592
          0.015536585273 0.0020811079592 0.036599075515 0.04911771909 -0.0033623405591 -0.0036109023771
          -0.0033623405591 0.023319328334 -0.00050521195581 -0.0036109023771 -0.00050521195581 0.015328545801
          0.061981853725 0.0011683252193 -0.015014222594 0.0011683252193 -0.010719543098 0.00085041314444
          -0.015014222594 0.00085041314444 0.026414207251 0.053057011319 -0.0092516285875 -0.043407126088
          -0.0092516285875 -0.0017563451744 0.0034183732301 -0.043407126088 0.0034183732301 -0.0089060899379
          0.12505936311 -0.0023938887887 0.012396704824 -0.0023938887887 -0.0084866289843 0.013088926707
          0.012396704824 0.013088926707 0.099540119228 0.063815881729 0.0070969593403 -0.017856869729
          0.0070969593403 0.0097510256156 -0.018782952732 -0.017856869729 -0.018782952732 0.025186299059
          0.067404457492 0.0014232386137 -0.0070139989079 0.0014232386137 -0.026929828148 0.003066804773
          -0.0070139989079 0.003066804773 0.015039604841 0.063813033887 0.012665800119 0.018110384118
          0.012665800119 -0.0030368941031 -0.0027273079341 0.018110384118 -0.0027273079341 0.051287037847
          0.083733433784 0.012805137886 0.0083160706783 0.012805137886 -0.0052362745789 0.00066109779559
          0.0083160706783 0.00066109779559 0.050671574656 0.053200399373 -0.017908767873 -0.052711090993
          -0.017908767873 -0.018312150592 -0.0030756274798 -0.052711090993 -0.0030756274798 -0.0039790582261
          0.068057784643 0.0012397848516 -0.012238434862 0.0012397848516 -0.012120950687 0.00070191540584
          -0.012238434862 0.00070191540584 0.024933317568 -0.030880085754 0.0058586878452 0.0037614780953
          0.0058586878452 0.015415391058 -0.0025103334604 0.0037614780953 -0.0025103334604 0.039882667987
          0.014049505394 -0.0014990167241 -0.0042752618368 -0.0014990167241 0.00095284088264 -0.00069572133479
          -0.0042752618368 -0.00069572133479 0.021852977576 0.061658336961 0.0036224665915 -0.0070005582578
          0.0036224665915 0.026973166718 -0.0038897458387 -0.0070005582578 -0.0038897458387 0.0056683895105
          0.061048890065 0.0030246253064 -0.01271136249 0.0030246253064 -0.0086417497919 0.001606267417
          -0.01271136249 0.001606267417 0.025786522987 0.071465873528 0.0035282639924 0.010325083536
          0.0035282639924 -0.019202288108 -0.0042242360456 0.010325083536 -0.0042242360456 0.020888653466
          0.036085703308 -0.0022909498145 -0.017863944873 -0.0022909498145 0.014362757818 0.0009022845974
          -0.017863944873 0.0009022845974 0.031082754536 0.042769511859 0.0021125864158 -0.015794244929
          0.0021125864158 0.016351221429 5.8176091603e-05 -0.015794244929 5.8176091603e-05 0.026383782748
          0.063059606118 0.0054853696515 -0.011358864513 0.0054853696515 -0.01462345423 3.5660935135e-05
          -0.011358864513 3.5660935135e-05 0.020472390931 0.15885862494 0.0079277931127 0.021749502157
          0.0079277931127 -0.0078005109681 0.010405874235 0.021749502157 0.010405874235 0.13829783842
          0.014638568604 -0.00055452079978 0.00011326238518 -0.00055452079978 0.010704883905 0.00064633400121
          0.00011326238518 0.00064633400121 0.071475223985 0.15515820567 0.013031458571 0.026017511447
          0.013031458571 -0.0093031278453 0.0041415773004 0.026017511447 0.0041415773004 0.12850768564
          0.15899745874 0.0078497404441 0.018165928873 0.0078497404441 -0.0056877737513 0.0069547922524
          0.018165928873 0.0069547922524 0.14269027596 0.078051535838 -0.0011513947519 -0.0099921579354
          -0.0011513947519 -0.018588335398 -0.00050593250498 -0.0099921579354 -0.00050593250498 0.020726650027
          0.068806210223 -2.3186171384e-05 -0.016176412253 -2.3186171384e-05 -0.013712706361 0.0024691642167
          -0.016176412253 0.0024691642167 0.024291622666 0.057477606538 0.010634489709 0.018890995421
          0.010634489709 0.0075138146426 0.0055720113876 0.018890995421 0.0055720113876 0.034281003733
          0.063586416326 0.0017707453485 -0.013653254576 0.0017707453485 -0.012514835238 0.00057501764888
          -0.013653254576 0.00057501764888 0.026261197475 0.13517704349 0.010237136235 0.0016255333191
          0.010237136235 -0.0028626413739 0.0094937784092 0.0016255333191 0.0094937784092 0.12272822426
          0.072721246945 0.0026944210068 -0.019519803749 0.0026944210068 0.020102996154 0.0033494231908
          -0.019519803749 0.0033494231908 -0.008633322976 0.043588946029 -0.007620792316 -0.040028015413
          -0.007620792316 0.047930706398 0.0055529711036 -0.040028015413 0.0055529711036 0.030263363094
          0.065060589407 0.0048659793687 0.0075816677738 0.0048659793687 -0.0048127340057 -0.0070884802152
          0.0075816677738 -0.0070884802152 0.013205411602 0.078263802629 0.00028392747224 -0.0054041548681
          0.00028392747224 -0.019420327184 0.0013759184178 -0.0054041548681 0.0013759184178 0.015563067063
          0.08649133817 0.00044241915364 -0.0065944896668 0.00044241915364 -0.020129078359 -0.0011174919321
          -0.0065944896668 -0.0011174919321 0.0071609119902 0.016583334651 0.0036931246135 -0.010074877473
          0.0036931246135 0.0035202227766 0.001493527108 -0.010074877473 0.001493527108 0.023483160115
          0.1287408457 0.004013650455 0.0089349487812 0.004013650455 -0.025919071961 0.0046146667131
          0.0089349487812 0.0046146667131 0.048538215964 0.13325649089 0.0069585007432 0.0030659227241
          0.0069585007432 -0.0091165704115 0.0093277790967 0.0030659227241 0.0093277790967 0.098536451986
          0.086416162179 0.0032122021815 0.014940241017 0.0032122021815 -0.014728257293 0.0057444603673
          0.014940241017 0.0057444603673 0.035854197985 0.12634437322 0.0094718083549 0.0013858209151
          0.0094718083549 -0.0056134942831 0.0073098889122 0.0013858209151 0.0073098889122 0.09019137861
          0.065073211007 0.0019484026133 -0.0145473737 0.0019484026133 -0.011003191388 0.00050312520063
          -0.0145473737 0.00050312520063 0.025692746074 0.12591716119 0.0097001566942 0.0040437046253
          0.0097001566942 -0.0056443892469 0.0071777317171 0.0040437046253 0.0071777317171 0.091868021438
          0.035111792379 0.0036611418787 -0.0040730511116 0.0036611418787 -0.0055846558116 -0.00056496904016
          -0.0040730511116 -0.00056496904016 0.024661804444 0.14207913046 0.010389688068 0.0065103633192
          0.010389688068 -0.0029503334361 0.0097292060901 0.0065103633192 0.0097292060901 0.13334516736
          0.062659652792 0.00069632579508 -0.012201227043 0.00069632579508 -0.012052822866 -0.00031441780634
          -0.012201227043 -0.00031441780634 0.021671318907 0.07722661186 0.015399776959 0.0038433701155
          0.015399776959 0.011983868795 -0.015663495411 0.0038433701155 -0.015663495411 -0.011927087468
          0.069652238088 0.0022777361167 -0.01172818063 0.0022777361167 -0.013554968696 -0.00021625800805
          -0.01172818063 -0.00021625800805 0.01870113919 0.072132195896 -0.0018489454309 0.0022607007913
          -0.0018489454309 -0.02058974173 0.011619612935 0.0022607007913 0.011619612935 0.082909856592
          0.085808885813 0.011080204338 0.015771860156 0.011080204338 -0.0013197156672 0.0078799391169
          0.015771860156 0.0078799391169 0.068005602857 0.052743171798 0.0022371459955 -0.022253430759
          0.0022371459955 -0.011407608829 -0.0051850073625 -0.022253430759 -0.0051850073625 0.00057719758966
          0.02051661889 -0.001122579414 -0.014477691037 -0.001122579414 -0.0010368125 -0.0025842507658
          -0.014477691037 -0.0025842507658 0.01346298371 0.11079764098 0.0079186621056 0.00034258202687
          0.0079186621056 0.0022426544716 0.0098192501508 0.00034258202687 0.0098192501508 0.1040790495
          0.11167214474 0.0087886534231 -0.00031004365144 0.0087886534231 -0.001002970309 0.0095664055595
          -0.00031004365144 0.0095664055595 0.10452786775 0.1157157553 0.0077110228409 -0.0011852629852
          0.0077110228409 0.0017544949655 0.008945329398 -0.0011852629852 0.008945329398 0.11072809882
          0.082696279512 0.002931285829 -0.0091442961105 0.002931285829 -0.015583354211 -0.0024088452921
          -0.0091442961105 -0.0024088452921 -0.01690768337 0.083385745764 -0.00065319162857 -0.0055626109392
          -0.00065319162857 -0.02615090887 -0.001474786808 -0.0055626109392 -0.001474786808 -0.011395725505
          0.093496695303 0.0037286409361 -0.0067933579297 0.0037286409361 -0.027826538286 0.0003737526652
          -0.0067933579297 0.0003737526652 -0.012833086332 0.056705626105 -0.0031380557667 -0.039667022438
          -0.0031380557667 0.017465672399 0.00467586765 -0.039667022438 0.00467586765 0.028794597813
          0.10489424233 0.0088224195904 -0.00053529506783 0.0088224195904 0.0022735716104 0.0088639231416
          -0.00053529506783 0.0088639231416 0.11096370962 0.10555424495 0.0090188588114 -0.00016321127979
          0.0090188588114 0.0018010367786 0.0091403921807 -0.00016321127979 0.0091403921807 0.11112175388
          0.064931830866 -0.00043514920864 -0.0042968292266 -0.00043514920864 -0.0146143255 0.0046794961604
          -0.0042968292266 0.0046794961604 -0.0018150784292 0.18129820743 0.010536772155 0.012669238335
          0.010536772155 -0.018578054597 0.0056960259295 0.012669238335 0.0056960259295 0.12949009294
          0.18683181108 0.0023243842146 0.014916398069 0.0023243842146 -0.015328923861 0.0085484243577
          0.014916398069 0.0085484243577 0.12611977645 0.031034012791 -0.0013205310391 -0.0064056077712
          -0.0013205310391 -0.017766174868 -0.0012992155174 -0.0064056077712 -0.0012992155174 0.0045742494008
          0.022654179892 -0.00087659863395 -0.014759169527 -0.00087659863395 -0.015644718262 0.0075563851227
          -0.014759169527 0.0075563851227 -0.0087313226033 0.16413013186 0.0075564419107 0.0095745562978
          0.0075564419107 -0.0099191374351 0.010073624812 0.0095745562978 0.010073624812 0.13885538854
          0.16603901912 0.0057713559163 0.0087521453844 0.0057713559163 -0.0083543589031 0.010863020801
          0.0087521453844 0.010863020801 0.13920575906 -0.0058929171154 -0.00047884673381 -0.0013429400946
          -0.00047884673381 0.0092148105967 0.0028060088757 -0.0013429400946 0.0028060088757 0.026840606763
          0.0154498556 -4.6498774097e-05 -0.0095970061582 -4.6498774097e-05 0.0025523755408 -0.00013837184854
          -0.0095970061582 -0.00013837184854 0.020687897264 0.024768321716 -0.00014394039505 -0.0054840326481
          -0.00014394039505 -0.0026342314771 -3.8043812531e-05 -0.0054840326481 -3.8043812531e-05 0.021178156921
          0.018022348227 0.0028616380763 -0.0063999684372 0.0028616380763 -0.0012667787389 -0.0041972544189
          -0.0063999684372 -0.0041972544189 0.017907527543 0.10800219279 0.0067304593111 -0.0098725086466
          0.0067304593111 -0.043810264223 -0.0095869363393 -0.0098725086466 -0.0095869363393 -0.034723340121
          0.13861556945 0.010688323447 0.0029204078066 0.010688323447 -0.003438393128 0.0093278740596
          0.0029204078066 0.0093278740596 0.12263269481 0.063772822201 0.0069170591875 -0.013270367502
          0.0069170591875 -0.0077340692574 0.00023478253277 -0.013270367502 0.00023478253277 0.088431776864
          0.19712585295 -0.011307394662 0.029406543546 -0.011307394662 -0.04344840667 0.0064415000686
          0.029406543546 0.0064415000686 0.043997432906 -0.049547464707 -0.0058680032158 0.02070386115
          -0.0058680032158 0.025474765488 0.00092112371775 0.02070386115 0.00092112371775 0.049174946705
          0.023594427415 -0.00098651615082 -0.0047277972577 -0.00098651615082 0.0038746058793 -0.0011159103419
          -0.0047277972577 -0.0011159103419 0.029336820892 0.14319369791 0.0048173317938 0.023040688888
          0.0048173317938 -0.0018264980745 0.0064268651487 0.023040688888 0.0064268651487 0.12938571016
          0.10837049687 0.0036612360038 0.019865021018 0.0036612360038 0.011716488117 0.0051549516656
          0.019865021018 0.0051549516656 0.14403896668 0.11197225611 0.0098517960833 0.0009977410331
          0.0098517960833 -0.00057408990009 0.0076279297101 0.0009977410331 0.0076279297101 0.10500598695
          0.034988029175 -0.015522798107 -0.0237634459 -0.015522798107 -0.017585701798 -0.0071175230224
          -0.0237634459 -0.0071175230224 0.00046415234928 0.058226579684 0.0011613236727 -0.011601055428
          0.0011613236727 -0.010901356718 0.00016060658838 -0.011601055428 0.00016060658838 0.015832107763
          0.037644977522 -0.0036333378618 -0.019298154096 -0.0036333378618 -0.0072987134692 -0.0023033376667
          -0.019298154096 -0.0023033376667 0.013748195648 0.10640703493 0.0056508633984 0.0011966194975
          0.0056508633984 -0.0049563264542 0.0061750091235 0.0011966194975 0.0061750091235 0.097115399782
          0.1128889657 0.0084588452641 0.004921592047 0.0084588452641 -0.0039077639759 0.0075677572762
          0.004921592047 0.0075677572762 0.098965289495 0.13857597368 0.0059316697578 0.0059321368998
          0.0059316697578 -0.0078749233714 0.013325733261 0.0059321368998 0.013325733261 0.11495720066
          0.14959241837 0.0060311887995 0.0020622464467 0.0060311887995 -0.0097390652297 0.011642379493
          0.0020622464467 0.011642379493 0.12058158921 0.16896371464 0.0090937256152 0.018646704087
          0.0090937256152 -0.011384456845 0.0077516975117 0.018646704087 0.0077516975117 0.13607854139
          0.1459506131 0.0080265903726 0.0017316433543 0.0080265903726 -0.007298172186 0.012292267409
          0.0017316433543 0.012292267409 0.11595898532 0.065336780984 0.00071881778327 -0.015062109727
          0.00071881778327 -0.011147753609 -0.00052926953857 -0.015062109727 -0.00052926953857 0.024917183442
          0.025290192488 0.01106021628 -0.0020024208145 0.01106021628 -0.010078693959 -0.0055458331415
          -0.0020024208145 -0.0055458331415 0.01111024589 0.064650779966 -0.008358422267 -0.038119273677
          -0.008358422267 0 0 -0.038119273677 0 0
          0.1320164924 0.0065391194578 0.013120270015 0.0065391194578 0.0013761345288 0.0082796985722
          0.013120270015 0.0082796985722 0.1439282388 0.072503431339 0.0021421486906 -0.0051380747582
          0.0021421486906 -0.018379531217 -0.00084914657205 -0.0051380747582 -0.00084914657205 0.016796387938
          0.046825093094 0.00044309111889 -0.016252132862 0.00044309111889 -0.0071869553674 0.0013036374818
          -0.016252132862 0.0013036374818 0.024373701636 0.040260559237 0.014096253012 -0.0196336493
          0.014096253012 -0.0016037329385 -0.0025428802954 -0.0196336493 -0.0025428802954 0.01421458123
          0.16744165156 0.010178478412 0.0031221894942 0.010178478412 -0.012160107293 0.0096594550076
          0.0031221894942 0.0096594550076 0.11443924929 0.078348109545 -0.00028359410456 -0.0066027377813
          -0.00028359410456 -0.017798087423 0.00049316449526 -0.0066027377813 0.00049316449526 0.022354878602
          0.037966679846 -3.857800868e-05 -0.020070951815 -3.857800868e-05 -0.009363069547 -0.0001301453518
          -0.020070951815 -0.0001301453518 0.0067631679793 0.048385085917 -0.00019077784494 -0.023975478678
          -0.00019077784494 0.013322127063 0.0036243574237 -0.023975478678 0.0036243574237 0.032485912707
          0.055678771771 -0.00038174947756 -0.0072644023618 -0.00038174947756 -0.0054942051591 -0.00053564820278
          -0.0072644023618 -0.00053564820278 0.031303559359 0.090385456596 0.0012827717532 0.013491765555
          0.0012827717532 -0.0049081348093 0.010177155443 0.013491765555 0.010177155443 0.050005278859
          0.098562362397 0.0085464197761 -0.002661615553 0.0085464197761 -0.0088710874628 -0.00091804231938
          -0.002661615553 -0.00091804231938 0.078275408446 0.0097026237113 0.00436430742 0.0042481749176
          0.00436430742 0.015620367121 0.0086832024339 0.0042481749176 0.0086832024339 0.076668950983
          0.15164512717 0.010084317849 0.008427731832 0.010084317849 -0.0080629177528 0.0061858333654
          0.008427731832 0.0061858333654 0.12459029557 0.17157325514 0.0088798353951 0.016948564962
          0.0088798353951 -0.012983680707 0.0093465164872 0.016948564962 0.0093465164872 0.13391459674
          0.17501604899 0.0081698346202 0.017700167966 0.0081698346202 -0.024817801854 0.012107636411
          0.017700167966 0.012107636411 0.11993997595 0.050420193526 0.0011783031558 -0.038761932107
          0.0011783031558 0.0020757586704 -0.0021474840833 -0.038761932107 -0.0021474840833 0.050352891989
          0.051438084397 0.0021605746028 -0.014245122141 0.0021605746028 0.0063995515659 -0.0022491727994
          -0.014245122141 -0.0022491727994 0.072353845782 0.050504694685 -0.00041916675221 -0.041013051654
          -0.00041916675221 0.010817894171 0.0036886035902 -0.041013051654 0.0036886035902 0.04748228356
          0.013115567782 0.0099331182053 -0.01541804278 0.0099331182053 0.018696156903 0.00075057965675
          -0.01541804278 0.00075057965675 0.076571078779 0.1066221246 0.00022057383721 -0.00098496464002
          0.00022057383721 -0.033810021761 0.001690502692 -0.00098496464002 0.001690502692 -0.024034866244
          0.049512561563 0.00042878730707 -0.012230137367 0.00042878730707 0.010819805067 0.0041046625971
          -0.012230137367 0.0041046625971 0.07369567966 0.056580322925 0.0034651892833 -0.01451901295
          0.0034651892833 0.015730232724 -0.012563466934 -0.01451901295 -0.012563466934 0.0074712242038
          0.015340133256 0.0072641512784 -0.01322024527 0.0072641512784 0.012447777209 0.0043801665314
          -0.01322024527 0.0043801665314 0.074587291374 0.020362278052 -0.0020557341572 -0.0050806278489
          -0.0020557341572 -0.0085407063054 -0.0037265391836 -0.0050806278489 -0.0037265391836 -0.0077360136423
          0.057848763473 0.0040981391103 -0.028961044194 0.0040981391103 0.014986128307 0.0066505056221
          -0.028961044194 0.0066505056221 0.0050043078737 0.060277794565 0.011328732541 0.0064179280959
          0.011328732541 0.0067546815073 0.0093821306006 0.0064179280959 0.0093821306006 0.093766802137
          -0.0034228543163 -0.0015207745651 -0.00049848744751 -0.0015207745651 -0.0017783582012 0.015329472792
          -0.00049848744751 0.015329472792 0.0042394372504 0.13959413382 0.0076669951149 0.02605232621
          0.0076669951149 -0.0033408638708 0.0089518365015 0.02605232621 0.0089518365015 0.12939154112
          0.001578148063 0.0030052047872 -0.025648430576 0.0030052047872 -0.0011715335403 -0.0052368374056
          -0.025648430576 -0.0052368374056 0.014910842076 0.0068386501564 -0.0037771847544 -0.0096819866857
          -0.0037771847544 4.5469446818e-05 -0.0091226830024 -0.0096819866857 -0.0091226830024 0.013625137271
          0.08382876482 -0.00105914653 -0.0084868829204 -0.00105914653 -0.027391678327 -0.0011230787919
          -0.0084868829204 -0.0011230787919 -0.010626640483 0.051409729702 0.0015468750321 -0.011369470421
          0.0015468750321 -0.0056143119723 -0.00028925260867 -0.011369470421 -0.00028925260867 0.028373542704
          0.079355016687 0.007430203887 0.0041980113713 0.007430203887 0.0010251007003 0.0071357785684
          0.0041980113713 0.0071357785684 0.099235015798 0.0995964631 0.0090542367918 0.0040375484227
          0.0090542367918 0.00086390037517 0.0076728153408 0.0040375484227 0.0076728153408 0.098198892161
          0.046395890672 0.0027060617219 -0.018416138304 0.0027060617219 -0.0050189396618 -0.0017752182459
          -0.018416138304 -0.0017752182459 0.019736267528 0.088720922211 0.0080517375614 0.0051646205356
          0.0080517375614 0.00096893433749 0.0062767204836 0.0051646205356 0.0062767204836 0.090585303741
          0.06687121543 0.00085317878869 -0.011550891674 0.00085317878869 -0.022604240846 -0.0021517093668
          -0.011550891674 -0.0021517093668 -0.0017501977067 0.069749005211 0.0012090535975 -0.007050438145
          0.0012090535975 -0.012314274354 0.00022670016665 -0.007050438145 0.00022670016665 0.026329906352
          0.098357344521 0.01058616921 0.0046586440045 0.01058616921 5.5052335308e-05 0.0083757736173
          0.0046586440045 0.0083757736173 0.098085994329 0.092932569262 0.0053424312108 0.010704906927
          0.0053424312108 -0.022339340628 0.01228300374 0.010704906927 0.01228300374 0.0049438637537
          -0.013409364128 0.0019150154591 -0.001354506249 0.0019150154591 0.0015447790615 0.0024180544647
          -0.001354506249 0.0024180544647 0.0061466942964 -0.015764575984 -0.0017794990649 -0.0030846978829
          -0.0017794990649 0.00065044317358 -0.0033920824906 -0.0030846978829 -0.0033920824906 0.0068314712969
          0.051973182164 0.0056203297016 -0.027721846967 0.0056203297016 -0.0064741448877 0.00012340101415
          -0.027721846967 0.00012340101415 0.013410874644 0.077200298415 0.0095196897987 0.0040025332223
          0.0095196897987 0.0052900693248 0.0087141532435 0.0040025332223 0.0087141532435 0.090266554201
          0.11292669209 0.0077106989041 0.00083750087729 0.0077106989041 -0.00064846886581 0.0079999657497
          0.00083750087729 0.0079999657497 0.10498826883 0.068184187099 0.0088508267991 -0.016576165315
          0.0088508267991 0.0041692858392 0.0035505854811 -0.016576165315 0.0035505854811 0.0093746849096
          0.11235177086 0.0067180890532 0.00041845020874 0.0067180890532 -0.0024953091162 0.0093022413474
          0.00041845020874 0.0093022413474 0.10591244279 0.16150474523 0.011150824912 0.0050752965485
          0.011150824912 -0.01219735194 0.010430469906 0.0050752965485 0.010430469906 0.12355074062
          0.10101034347 0.0060527788211 0.0017867764636 0.0060527788211 0.00010977939622 0.00930012915
          0.0017867764636 0.00930012915 0.10630901845 0.06563105943 0.00012019138765 -0.011036781524
          0.00012019138765 -0.014004135304 0.0025344409076 -0.011036781524 0.0025344409076 0.0071962046178
          0.085045821193 -0.001017362857 -0.0029684581451 -0.001017362857 -0.021980626038 -0.001966273554
          -0.0029684581451 -0.001966273554 0.0059845715353 0.086374614826 0.0042843076037 0.0098350772054
          0.0042843076037 0.0022368992012 0.0088106022688 0.0098350772054 0.0088106022688 0.09747270986
          0.022029344039 0.00096594548782 -0.017852165997 0.00096594548782 -0.0075995932755 0.0045772377688
          -0.017852165997 0.0045772377688 0.014918328814 0.02368424294 0.0008462956416 -0.01628928032
          0.0008462956416 -0.0086510062269 0.001751605491 -0.01628928032 0.001751605491 0.011123606358
          0.014242056575 -0.0048471694216 -0.0023067746072 -0.0048471694216 -0.0075584280772 0.0059030693509
          -0.0023067746072 0.0059030693509 0.0080035644401 0.076539356591 0.0066019910208 -0.011358362641
          0.0066019910208 0.0085419278829 0.011811271207 -0.011358362641 0.011811271207 -0.0053317870193
          0.048172439084 0.0033893544463 -0.014588097529 0.0033893544463 -0.017335093877 0.00043734420784
          -0.014588097529 0.00043734420784 0.0033870344127 0.095564265177 0.0085254378866 0.0050517129067
          0.0085254378866 0.0045405698047 0.0090418395683 0.0050517129067 0.0090418395683 0.097528822861
          0.083798585369 0.011301603934 -0.0046178749599 0.011301603934 -0.0068975970601 0.0019390582219
          -0.0046178749599 0.0019390582219 0.082072103337 0.17059053934 0.011856773668 0.0061507229762
          0.011856773668 -0.014216891796 0.012772117805 0.0061507229762 0.012772117805 0.11736892293
          0.037924910577 0.0026272856135 0.0076300629362 0.0026272856135 0.019105162436 0.001635305361
          0.0076300629362 0.001635305361 0.070869981672 0.061805632638 0.0015760896233 -0.01471989376
          0.0015760896233 -0.01324105164 -0.00024817861782 -0.01471989376 -0.00024817861782 0.020228886238
          0.07020830791 -0.006864329238 0.0028533595622 -0.006864329238 -0.0026010386474 0.027383816445
          0.0028533595622 0.027383816445 -0.012570557021 0.0819805738 0.0073705239741 -0.031235751309
          0.0073705239741 0.004651921546 -0.022267596864 -0.031235751309 -0.022267596864 -0.021481422678
          -0.059571659599 -0.0064352971062 -0.01544555784 -0.0064352971062 0.020764397505 -0.0024526575848
          -0.01544555784 -0.0024526575848 0.026182709035 0.07098582165 0.0013170081478 -0.012676110775
          0.0013170081478 -0.0139097005 0.001401360374 -0.012676110775 0.001401360374 0.016372112108
          0.14500165933 -0.00036459393115 0.041610283453 -0.00036459393115 -0.0035813609251 0.022041756249
          0.041610283453 0.022041756249 0.07256716762 0.068576400833 -0.00075412619484 -0.018396716579
          -0.00075412619484 -0.014713502638 -0.0019732428196 -0.018396716579 -0.0019732428196 0.01783217677
          0.1500349474 0.010710649996 0.0071328267856 0.010710649996 -0.0077099598834 0.0092601693044
          0.0071328267856 0.0092601693044 0.13747778528 0.09240929925 0.0028520740386 0.014649357643
          0.0028520740386 0.013190072475 0.0038332396785 0.014649357643 0.0038332396785 0.13078174904
          0.076692847053 0.0032775921994 -0.0074053826114 0.0032775921994 0.0065693050756 0.0070328156931
          -0.0074053826114 0.0070328156931 0.094030972992 0.053428368751 0.0021403485465 -0.0066587517583
          0.0021403485465 -0.012984734364 -0.0094600724362 -0.0066587517583 -0.0094600724362 -0.0051815746603
          0.051184849896 0.0062070077947 -0.010632367315 0.0062070077947 -0.018751775981 -0.0043930913186
          -0.010632367315 -0.0043930913186 -0.0093763298053 0.07309419846 0.0011290588677 -0.010056305758
          0.0011290588677 0.0060709009559 0.0043366803262 -0.010056305758 0.0043366803262 0.093658759173
          0.094579624343 0.0024590083458 0.013319408259 0.0024590083458 0.0056143173501 0.0025046237963
          0.013319408259 0.0025046237963 0.099139708591 0.089654448386 0.0058088249276 0.012358003435
          0.0058088249276 0.010093108706 0.0063935557605 0.012358003435 0.0063935557605 0.12900936527
          0.046916220009 -0.0058325311941 -0.017601950567 -0.0058325311941 -0.025412419717 -0.0031510741099
          -0.017601950567 -0.0031510741099 -0.019301189559 0.064192892503 0.0020096811502 -0.014898847023
          0.0020096811502 -0.010233317053 0.0018816542518 -0.014898847023 0.0018816542518 0.020007067417
          0.066270411604 -0.00080765317235 -0.010501533782 -0.00080765317235 -0.016762680616 0.0011963855842
          -0.010501533782 0.0011963855842 0.0054857200642 0.064737410991 0.001313664943 -0.014371350492
          0.001313664943 -0.010088455224 -0.0021584657447 -0.014371350492 -0.0021584657447 0.0036111711393
          0.039041967797 0.012230075541 -0.0048208964612 0.012230075541 0.0023548410541 0.0046755525228
          -0.0048208964612 0.0046755525228 0.0081210018449 0.069241504724 -0.00059479452945 -0.0098553461842
          -0.00059479452945 -0.01878149519 0.0040154145517 -0.0098553461842 0.0040154145517 0.010325736927
          0.089526168986 0.0047694990597 -0.0037593870978 0.0047694990597 -0.019333037515 0.00012527227362
          -0.0037593870978 0.00012527227362 0.007645721736 0.14507992283 0.010123953392 0.00052402039006
          0.010123953392 -0.0098606256775 0.0095074234425 0.00052402039006 0.0095074234425 0.10849146949
          0.10019711383 0.0015798638075 -0.0098471383008 0.0015798638075 -0.020612641622 0.011141426133
          -0.0098471383008 0.011141426133 0.047921727133 0.053821363272 0.0030303644449 -0.014116846807
          0.0030303644449 -0.0079482173444 2.7597955906e-06 -0.014116846807 2.7597955906e-06 0.010758904508
          0.16315909236 0.0094151685748 0.014437139825 0.0094151685748 -0.0094676307299 0.011445382471
          0.014437139825 0.011445382471 0.13510558839 0.057562413399 0.0072593137226 0.0078725244465
          0.0072593137226 0.0093021572571 0.0094294678579 0.0078725244465 0.0094294678579 0.081167774285
          0.094657147879 -0.0011450397086 0.0042750394855 -0.0011450397086 -0.015985785277 0.026204963814
          0.0042750394855 0.026204963814 0.054792611317 0.091764421812 -0.0037678705126 -0.0034120963582
          -0.0037678705126 -0.017276586641 0.013750884837 -0.0034120963582 0.013750884837 0.062025623104
          0.16721246278 0.014081214145 0.0037461538957 0.014081214145 -0.018560216953 0.0039185968106
          0.0037461538957 0.0039185968106 0.039137128481 0.042020860352 -0.001473445229 -0.005653018404
          -0.001473445229 -0.0036099157793 0.0016426108525 -0.005653018404 0.0016426108525 0.031398366087
          0.070980078734 0.00099395418953 -0.013479191494 0.00099395418953 -0.012177174728 0.00056660185617
          -0.013479191494 0.00056660185617 0.018957786734 0.067853500053 0.0014660872891 -0.011604998683
          0.0014660872891 -0.012192411716 0.00098602129343 -0.011604998683 0.00098602129343 0.026636157868
          -0.017575451822 -0.0052179506998 0.00056066670756 -0.0052179506998 0.0010586140266 -0.0039526494849
          0.00056066670756 -0.0039526494849 0.019558843607 -0.024551531788 -0.0045783690385 0.003246347133
          -0.0045783690385 0.0062152481059 0.0031470975174 0.003246347133 0.0031470975174 0.028872079109
          0.063347763036 4.015409591e-05 -0.013191377406 4.015409591e-05 -0.012641911702 0.00053244790285
          -0.013191377406 0.00053244790285 0.027407941976 0.041646181149 0.00051248168505 -0.0061707083861
          0.00051248168505 -0.0033173500559 -3.9202516687e-05 -0.0061707083861 -3.9202516687e-05 0.032493585033
          0.03274312059 0.0035228464209 -0.029625903209 0.0035228464209 -0.010203829035 0.0048229750468
          -0.029625903209 0.0048229750468 0.00054976240262 0.031621292309 -0.013246337866 -0.030708010975
          -0.013246337866 0 0 -0.030708010975 0 0
          0.030748677481 -0.0045980652052 -0.01268247256 -0.0045980652052 -0.0011288206216 0.001773188685
          -0.01268247256 0.001773188685 -0.0043669127634 0.034922858301 -0.0061147761616 -0.010097783893
          -0.0061147761616 -0.0071740511774 -0.00039244753967 -0.010097783893 -0.00039244753967 -0.0029944934937
          0.029368923202 -0.0090527883179 -0.032215665479 -0.0090527883179 -0.0077090753294 0.0021548462613
          -0.032215665479 0.0021548462613 0.0033026344977 0.043992468928 -0.0022433780591 0.016091688644
          -0.0022433780591 -0.019364036366 -0.00015578058177 0.016091688644 -0.00015578058177 0.003557938347
          0.025589824559 -0.00062114964344 -0.01220619529 -0.00062114964344 -0.020935805522 -0.0023064452345
          -0.01220619529 -0.0023064452345 -0.00050710992518 0.089591907651 0.00045397704364 -0.0037369923458
          0.00045397704364 -0.026430756117 -0.0015928434042 -0.0037369923458 -0.0015928434042 0.0059077423863
          0.13239827622 0.00320732942 0.02714437789 0.00320732942 -0.0095096656235 0.0076334752834
          0.02714437789 0.0076334752834 0.10938662979 0.14634062903 0.0029580968875 0.022634465984
          0.0029580968875 -0.005106658382 0.010521717882 0.022634465984 0.010521717882 0.12634683718
          0.12507198989 -0.00079205222914 0.024960552015 -0.00079205222914 -0.0054534878677 0.011648344377
          0.024960552015 0.011648344377 0.12772519063 0.037416680725 -0.0035481651108 -0.0085983530592
          -0.0035481651108 0.00099709543226 -0.00016610536305 -0.0085983530592 -0.00016610536305 0.029023628836
          0.032285405383 -0.0051507029303 -0.0084970376866 -0.0051507029303 0.00052209371649 -0.00045974134827
          -0.0084970376866 -0.00045974134827 0.033173549778 0.16590787408 0.010641180748 0.011791964949
          0.010641180748 -0.0042225631663 0.010970350784 0.011791964949 0.010970350784 0.13478473922
          0.10503607896 0.0068046733147 0.0023203240425 0.0068046733147 -0.00054538925682 0.0076149437654
          0.0023203240425 0.0076149437654 0.098529087741 0.15859739976 0.01072469539 0.027706730378
          0.01072469539 -0.0094342339627 0.011237169349 0.027706730378 0.011237169349 0.118085934
          0.092697707036 -0.0012567470989 0.0030572917094 -0.0012567470989 -0.012020741423 0.019619084308
          0.0030572917094 0.019619084308 0.064728276608 0.18444055773 0.015588765909 0.015756112729
          0.015588765909 -0.020057571561 0.0009635339438 0.015756112729 0.0009635339438 0.062963547721
          0.062893210559 0.00020622060004 -0.014770332564 0.00020622060004 -0.0099755145958 -0.00014260604993
          -0.014770332564 -0.00014260604993 0.026253226235 0.050482421036 -0.00067891912149 -0.040963203922
          -0.00067891912149 0.0079915319349 0.0034963939986 -0.040963203922 0.0034963939986 0.050320622587
          0.16372692556 0.0092860219972 0.013561119297 0.0092860219972 -0.009323769437 0.0095277417247
          0.013561119297 0.0095277417247 0.13262790385 0.075254007121 0.0024639768997 0.0026747499074
          0.0024639768997 -0.020385641225 -0.0019884340043 0.0026747499074 -0.0019884340043 0.027915133115
          0.16175337258 0.012267973835 0.0072146219586 0.012267973835 -0.0055062472191 0.0094712605713
          0.0072146219586 0.0094712605713 0.14212746202 0.17192567047 0.011525138481 0.0083584011006
          0.011525138481 -0.0070719257993 0.010548125596 0.0083584011006 0.010548125596 0.14142485471
          0.044676159379 0.0020829026699 -0.014089389484 0.0020829026699 -0.0048738652239 -0.00060751838916
          -0.014089389484 -0.00060751838916 0.020057920819 0.023934235117 -0.00090659453728 -0.0075761654324
          -0.00090659453728 -0.0032151929255 -0.0017624035369 -0.0075761654324 -0.0017624035369 0.025433719766
          0.020688222104 0.00087848948931 -0.0041928573859 0.00087848948931 0.0015315353554 0.00018426586672
          -0.0041928573859 0.00018426586672 0.024437718724 0.087140466443 0.00098997703044 -0.0065027080011
          0.00098997703044 -0.024455425364 -0.0025474807403 -0.0065027080011 -0.0025474807403 0.003787701571
          0.035372099233 -0.0010507197677 -0.0099855727265 -0.0010507197677 -0.0087622350692 -0.00079788229608
          -0.0099855727265 -0.00079788229608 0.0019388942004 0.03523806148 -0.002160091269 -0.019972462422
          -0.002160091269 -0.0089533811515 -0.0012789066679 -0.019972462422 -0.0012789066679 0.0089399256244
          0.022224101784 0.00057127653071 -0.021944105034 0.00057127653071 -0.010624960663 -0.0017635451082
          -0.021944105034 -0.0017635451082 0.013996594518 0.13133319195 0.0063603065321 0.0091279113007
          0.0063603065321 -0.030005129098 -0.011442273495 0.0091279113007 -0.011442273495 0.076454873543
          0.046683481447 -0.001166830711 -0.015265261619 -0.001166830711 -0.0093578075364 4.2873216341e-05
          -0.015265261619 4.2873216341e-05 0.021377645218 -0.060794411337 0.022303894321 -0.020678787175
          0.022303894321 -0.0069822737514 -0.020703242243 -0.020678787175 -0.020703242243 0.025662268875
          0.052779379887 0.0008164597225 -0.012750181173 0.0008164597225 -0.011855718409 -0.0055257834263
          -0.012750181173 -0.0055257834263 0.015823549997 0.074497620151 0.0011480121558 -0.008658551891
          0.0011480121558 -0.015162309835 -0.0016340123099 -0.008658551891 -0.0016340123099 0.022555532717
          0.046710443292 0.010402438719 0.0070652234851 0.010402438719 0.0075231461475 0.0060154894615
          0.0070652234851 0.0060154894615 0.055318751731 0.05105240441 0.0007900881287 -0.0073978899906
          0.0007900881287 -0.007760059276 -0.00086125503641 -0.0073978899906 -0.00086125503641 0.030868519579
          0.047114609344 -0.0013023263977 -0.0087935072676 -0.0013023263977 -0.0047764823695 0.0017540662796
          -0.0087935072676 0.0017540662796 0.021915710246 0.14670066143 0.011020801037 0.0029943463363
          0.011020801037 -0.0080904890776 0.007859474243 0.0029943463363 0.007859474243 0.12139304817
          0.14528573958 0.011315922785 0.00099691247192 0.011315922785 -0.0067113417091 0.0068159881661
          0.00099691247192 0.0068159881661 0.12005305896 0.04995882243 0.010255105949 0.0071036186724
          0.010255105949 0.011356936325 0.0060462308577 0.0071036186724 0.0060462308577 0.076865517934
          0.060605875 0.0013483726792 -0.0077736334416 0.0013483726792 -0.010456123301 0.00036041104768
          -0.0077736334416 0.00036041104768 0.028873477323 0.052548864606 -0.0023397124239 -0.0090168308357
          -0.0023397124239 -0.0059326788232 0.00084850096031 -0.0090168308357 0.00084850096031 0.032024506145
          0.091293909127 0.0021307583312 -0.0038377049242 0.0021307583312 -0.040354461759 -0.0081012018513
          -0.0038377049242 -0.0081012018513 -0.0332635534 0.060833387899 -0.0021663997545 -0.013603981932
          -0.0021663997545 -0.010913402598 0.0003171718936 -0.013603981932 0.0003171718936 0.028196643632
          0.00072899369972 -0.00097248259521 -0.012471720507 -0.00097248259521 0.004280182961 0.0048592154813
          -0.012471720507 0.0048592154813 0.021499538256 0.081326572375 0.004475191234 -7.6190201657e-06
          0.004475191234 -0.0346057091 0.0028025660264 -7.6190201657e-06 0.0028025660264 -0.029053245227
          0.064298908487 -0.0020162181771 -0.0069369789907 -0.0020162181771 -0.0086925297992 0.00048905545499
          -0.0069369789907 0.00048905545499 0.027388675453 0.063870482195 -0.0031044896949 -0.0067367243419
          -0.0031044896949 -0.010789023444 0.00069471846212 -0.0067367243419 0.00069471846212 0.027432548183
          0.0725222363 -0.002847108616 -0.0079030015892 -0.002847108616 -0.014295495873 -0.0023687842002
          -0.0079030015892 -0.0023687842002 0.020763728986 0.12647864702 0.011083020243 -0.00057316440906
          0.011083020243 -0.005310466605 0.0081653559953 -0.00057316440906 0.0081653559953 0.10406389907
          0.073342428848 -0.0020019595756 -0.0067975297483 -0.0020019595756 -0.013547901755 -0.0013568734651
          -0.0067975297483 -0.0013568734651 0.022122455677 0.062316717417 -0.0025325343037 -0.0066743983929
          -0.0025325343037 -0.008275317859 0.0033780089994 -0.0066743983929 0.0033780089994 0.030118386112
          0.062453096479 -0.0010393805694 -0.0076161614741 -0.0010393805694 -0.008578632777 0.0015712728225
          -0.0076161614741 0.0015712728225 0.032278386299 0.066316083712 0.0072344027835 0.0043518013541
          0.0072344027835 0.0077566640183 0.005630581542 0.0043518013541 0.005630581542 0.12850119208
          0.046882558902 -0.0015723164676 -0.017706863972 -0.0015723164676 -0.01001697366 -0.0074205728735
          -0.017706863972 -0.0074205728735 -0.0035049964248 -0.020984421078 0.00072617309063 -0.0079826571889
          0.00072617309063 0.0042608054333 0.005727206062 -0.0079826571889 0.005727206062 0.011472285917
          0.17641244055 0.0095509222355 0.019681027518 0.0095509222355 -0.016913652226 0.0060052183076
          0.019681027518 0.0060052183076 0.12411012092 0.18234397415 0.0092831843842 0.011327952688
          0.0092831843842 -0.017076720799 0.0073287880042 0.011327952688 0.0073287880042 0.13075830381
          0.059087494762 0.00085223671533 -0.0073830129048 0.00085223671533 -0.012177747106 -0.0025398622783
          -0.0073830129048 -0.0025398622783 -0.0058809884518 0.11792819672 0.013417325727 0.016531082236
          0.013417325727 -0.0079534875341 0.0057123879943 0.016531082236 0.0057123879943 0.08708513653
          0.031859843596 0.0075372193189 0.0096589242972 0.0075372193189 0.010446695227 -0.0017092025682
          0.0096589242972 -0.0017092025682 0.055832077965 0.12387069037 0.013508890408 0.0066026568263
          0.013508890408 -0.010370713144 0.0097261196973 0.0066026568263 0.0097261196973 0.096494841743
          0.093261830611 0.0085654605579 0.0071019089803 0.0085654605579 -0.005727922275 -0.0097729623559
          0.0071019089803 -0.0097729623559 0.085039402477 0.072823262647 0.0032787989479 -0.011853450145
          0.0032787989479 -0.012062411538 -0.0018466807986 -0.011853450145 -0.0018466807986 0.01960909768
          0.11328518852 0.011200763952 -0.00086899603847 0.011200763952 0.0040159611425 0.0087492655413
          -0.00086899603847 0.0087492655413 0.12026272495 0.1377502359 0.0098446288045 -0.0022306106928
          0.0098446288045 -0.011049674857 0.008070968215 -0.0022306106928 0.008070968215 0.09693822212
          0.049493770994 -0.0025572289017 -0.030734983197 -0.0025572289017 0.011862192581 -0.0093741611588
          -0.030734983197 -0.0093741611588 0.0079166441065 0.13807017357 0.0081772660463 0.028903264584
          0.0081772660463 -0.016380345629 0.011509780833 0.028903264584 0.011509780833 0.020473673184
          0.10515222522 0.0061917852744 0.0084748303133 0.0061917852744 -0.0031501988586 0.0084954973598
          0.0084748303133 0.0084954973598 0.090876027898 0.067323930635 0.00094254872458 -0.0093167666984
          0.00094254872458 -0.012850006888 0.00026971566849 -0.0093167666984 0.00026971566849 0.028718880582
          0.11782791864 0.012238106852 0.015148699685 0.012238106852 -0.01803725898 -0.0010185111379
          0.015148699685 -0.0010185111379 0.063570092247 0.14520415448 0.012392699374 -0.0048760481107
          0.012392699374 -0.020113105997 0.0028092959625 -0.0048760481107 0.0028092959625 0.070739067355
          0.14440623765 0.0069750599482 0.0077912024446 0.0069750599482 -0.020539997756 0.007211079449
          0.0077912024446 0.007211079449 0.052807441868 0.15454297438 0.0033906647037 -0.0035870663323
          0.0033906647037 -0.019845036446 0.0094039794211 -0.0035870663323 0.0094039794211 0.059726425309
          0.11643460923 0.017146465648 0.0085085665842 0.017146465648 -0.024759887034 0.005202111705
          0.0085085665842 0.005202111705 0.056421210064 0.11346068489 0.010007864692 0.01340941197
          0.010007864692 -0.019812868717 0.0052244232421 0.01340941197 0.0052244232421 0.054588173953
          0.11573725917 0.011378840635 0.0093112080429 0.011378840635 -0.020027559748 0.0053618353658
          0.0093112080429 0.0053618353658 0.05544054394 0.059581212962 0.005801936005 -0.0052531861522
          0.005801936005 0.024868884505 -0.0062087224119 -0.0052531861522 -0.0062087224119 0.0054894853358
          0.058583439359 0.00051404478512 -0.012731572501 0.00051404478512 -0.011815203227 -0.00030450868398
          -0.012731572501 -0.00030450868398 0.019690794549 0.11119160841 0.011086777032 0.0092444504985
          0.011086777032 -0.016486783973 0.00051008957829 0.0092444504985 0.00051008957829 0.062040929671
          0.11489746938 0.010734370115 0.0060683830687 0.010734370115 -0.010937367042 0.008919848908
          0.0060683830687 0.008919848908 0.082486711236 0.1629847449 0.0099578173768 0.020409128438
          0.0099578173768 -0.0090541507828 0.00673908138 0.020409128438 0.00673908138 0.13522175775
          0.1635950353 0.011511792748 0.01956935548 0.011511792748 -0.0088348676122 0.010053870893
          0.01956935548 0.010053870893 0.13344973277 0.065414796576 -0.0041409390414 0.0076451613862
          -0.0041409390414 -0.033857212053 0.0030549405797 0.0076451613862 0.0030549405797 0.049082964024
          0.16203863201 0.011930857581 0.019024104384 0.011930857581 -0.0055047447166 0.010300815819
          0.019024104384 0.010300815819 0.13688837829 0.16424797951 0.0097733239832 0.018624905094
          0.0097733239832 -0.010881159865 0.0088973813779 0.018624905094 0.0088973813779 0.13653077778
          0.040767587842 0.0026744935389 -0.0091047950549 0.0026744935389 -0.0045992393422 0.0025456307229
          -0.0091047950549 0.0025456307229 0.033171276304 0.15043933352 0.0086555742009 0.0067596618243
          0.0086555742009 -0.0077411089948 0.0088105804804 0.0067596618243 0.0088105804804 0.12713217828
          0.034618950776 -0.00029312689973 -0.0091734832908 -0.00029312689973 -0.016826907363 0.00093482864398
          -0.0091734832908 0.00093482864398 -0.0083322063896 0.028923609763 0.0030888686973 -0.019747789764
          0.0030888686973 -0.011869860131 0.0055032396838 -0.019747789764 0.0055032396838 0.0033744211196
          0.066664091461 -0.0034798908626 -0.015325647524 -0.0034798908626 -0.011021358716 -0.00058723655263
          -0.015325647524 -0.00058723655263 0.020310017359 0.11285962431 0.0048839958003 0.026823698329
          0.0048839958003 -0.021240039902 0.021760912935 0.026823698329 0.021760912935 0.07675621255
          0.068398997494 0.003334177581 0.0016966466574 0.003334177581 0.0084154128185 0.013630605581
          0.0016966466574 0.013630605581 0.082866279355 0.13300392499 0.011760475813 0.006667989628
          0.011760475813 -0.013969653174 0.0074918604432 0.006667989628 0.0074918604432 0.068607168747
          0.12957025597 0.0068708041782 0.0067441345148 0.0068708041782 -0.02760766361 -0.0029946661929
          0.0067441345148 -0.0029946661929 0.026924825444 0.15007984237 0.010807712795 -0.0028271738663
          0.010807712795 -0.013524459258 0.0078945061359 -0.0028271738663 0.0078945061359 0.10805326553
          0.0059808916595 -0.0029743598061 -0.014513583388 -0.0029743598061 0.0037096125714 -0.0022058271871
          -0.014513583388 -0.0022058271871 0.038456453931 0.12931107311 0.010849112217 0.0026674309017
          0.010849112217 -0.014895388432 0.0073313567381 0.0026674309017 0.0073313567381 0.078823356383
          0.12444358161 0.0094652897943 0.0086981857312 0.0094652897943 -0.012953345585 0.0083057110469
          0.0086981857312 0.0083057110469 0.068170199601 0.0078108643921 -0.006852488997 -0.013585655189
          -0.006852488997 0.0010933064251 0.0018418242806 -0.013585655189 0.0018418242806 0.035588716068
          -0.012949547576 -0.0052132703865 -0.0084706501136 -0.0052132703865 -0.002223731662 0.0011382123193
          -0.0084706501136 0.0011382123193 0.0065986199235 0.016889634632 -0.00068967234527 -0.0012040203244
          -0.00068967234527 -0.009062702245 -0.0054853589883 -0.0012040203244 -0.0054853589883 0.00043726771934
          0.082645093244 0.012722016543 0.01105169447 0.012722016543 0.0097283256109 0.028351224095
          0.01105169447 0.028351224095 0.073988764724 -0.00019117554454 0.00043018259793 0.0045332817637
          0.00043018259793 0.0080817448217 0.0076041179783 0.0045332817637 0.0076041179783 0.071197333833
          0.059747361695 -6.5622266073e-05 -0.008916792616 -6.5622266073e-05 -0.012529398477 0.00080716215621
          -0.008916792616 0.00080716215621 0.016279182441 0.067039960754 -0.0011024083242 -0.012271932435
          -0.0011024083242 -0.013400525506 -0.0019116903593 -0.012271932435 -0.0019116903593 0.0077951085745
          0.16425858791 0.011831311185 0.010648905246 0.011831311185 -0.0082310002925 0.0069181967117
          0.010648905246 0.0069181967117 0.13428814311 0.16401806511 0.012156864112 0.0094828781446
          0.012156864112 -0.0084426998897 0.0094425909309 0.0094828781446 0.0094425909309 0.13254551662
          0.070229066185 0.0017352484877 -0.013488752126 0.0017352484877 -0.013335623681 -0.00084700363118
          -0.013488752126 -0.00084700363118 0.020648219559 0.070188977174 0.00014141119862 -0.0086531535791
          0.00014141119862 -0.014031602012 0.00013971502757 -0.0086531535791 0.00013971502757 0.021087442165
          0.062264760582 0.00013091023115 -0.0064640505412 0.00013091023115 -0.0082843714614 -0.0001630921357
          -0.0064640505412 -0.0001630921357 0.026804246566 0.074598429922 -0.00016754061032 -0.0051117027834
          -0.00016754061032 -0.014036651 0.00097592485224 -0.0051117027834 0.00097592485224 0.024495667114
          0.10088021055 0.011991829891 -0.025568383578 0.011991829891 -0.010016971767 -0.012122772805
          -0.025568383578 -0.012122772805 0.014738735227 0.052893204284 0.0085064033934 -0.014322410203
          0.0085064033934 0.0063737783627 -0.0057960882839 -0.014322410203 -0.0057960882839 0.03299170854
          0.1008268161 0.010999880873 0.010209564745 0.010999880873 -0.0056003313312 0.0062567344971
          0.010209564745 0.0062567344971 0.077985315188 0.13788193571 0.010722347614 -0.0011358206195
          0.010722347614 -0.012334504758 0.0088368636859 -0.0011358206195 0.0088368636859 0.097020938222
          0.04452175712 0.002366166318 -0.0075272413648 0.002366166318 0.01670665608 -0.0033184261526
          -0.0075272413648 -0.0033184261526 0.033020058665 0.1296808905 0.010306944015 0.0019520699915
          0.010306944015 -0.010820746059 0.0078186638586 0.0019520699915 0.0078186638586 0.092849009392
          0.062577509132 0.0013353597742 -0.0054460538962 0.0013353597742 0.031906923811 0.0040121190181
          -0.0054460538962 0.0040121190181 -0.009915688182 0.059576809227 0.00010361513619 -0.011943882171
          0.00010361513619 -0.0092961343822 0.00093783959248 -0.011943882171 0.00093783959248 0.02420893529
          0.14068166603 0.0078112397857 0.026686347627 0.0078112397857 -0.01146699735 0.0022955026803
          0.026686347627 0.0022955026803 0.11071888338 0.14303733535 0.0080522823022 0.019418358549
          0.0080522823022 -0.011553070746 0.0029090860141 0.019418358549 0.0029090860141 0.11650728154
          0.14273696527 0.01013729334 0.018085490556 0.01013729334 -0.00045611969898 0.0077001589687
          0.018085490556 0.0077001589687 0.11137106184 0.053492433854 0.0030646383129 -0.019609728113
          0.0030646383129 -0.00705879068 -0.00082012314095 -0.019609728113 -0.00082012314095 0.016600358829
          0.13066765462 0.015254550351 0.0087690645046 0.015254550351 -0.010108153426 -0.0038998585306
          0.0087690645046 -0.0038998585306 0.10587449301 0.13348090097 0.0026983258849 0.027075426058
          0.0026983258849 -0.0088010502627 -0.00099258802169 0.027075426058 -0.00099258802169 0.094195551903
          0.13162799443 0.013096823969 0.01682196411 0.013096823969 -0.022267996598 0.0021040299346
          0.01682196411 0.0021040299346 0.097153768005 0.077678540932 -0.0002519744698 -0.0077387472239
          -0.0002519744698 -0.015668610447 -0.00030605958501 -0.0077387472239 -0.00030605958501 0.017598457106
          0.050649977091 -0.00091423284505 0.00052479452643 -0.00091423284505 -0.019245358059 0.00051429440456
          0.00052479452643 0.00051429440456 -0.0098257013155 -0.011058812649 0.0011149645479 -0.0031323167221
          0.0011149645479 0.0044722866119 0.002620575514 -0.0031323167221 0.002620575514 0.0084273975932
          0.13297724881 0.012555620083 0.0017119698937 0.012555620083 -0.0054583042722 0.0084016547722
          0.0017119698937 0.0084016547722 0.11082400477 0.1335943413 0.003765020493 0.0027271718118
          0.003765020493 -0.0047183619268 0.010415251865 0.0027271718118 0.010415251865 0.1103136522
          0.086233077329 0.001223789016 -0.0022032247721 0.001223789016 -0.028762469688 -0.00030445570666
          -0.0022032247721 -0.00030445570666 -0.0031612290274 -0.027487238809 -0.0018906602491 0.013066917694
          -0.0018906602491 0.023562449273 -0.014584538741 0.013066917694 -0.014584538741 0.068179299599
          0.12774821147 0.0096558005098 -0.0019746000635 0.0096558005098 -0.0052045626108 0.0092891220629
          -0.0019746000635 0.0092891220629 0.11284177543 0.14018757035 0.0084968493044 0.0091131909259
          0.0084968493044 -0.0045253263611 0.0079898018268 0.0091131909259 0.0079898018268 0.11329814797
          0.15038617492 0.013646057911 0.0010234729916 0.013646057911 -0.011538212476 0.0078285201556
          0.0010234729916 0.0078285201556 0.11811392339 0.12803243927 0.024729173742 0.019034341732
          0.024729173742 -0.0042221093291 0.013436006294 0.019034341732 0.013436006294 0.13124631475
          0.11107770045 0.016077695916 0.013094791167 0.016077695916 -0.00061964199296 0.0034617902927
          0.013094791167 0.0034617902927 0.13517920058 -0.025328874029 0.0050557698617 0.012172040391
          0.0050557698617 0.0043647321017 0.0046607549384 0.012172040391 0.0046607549384 0.0085295985058
          -0.046439178608 -0.009225884126 0.0072152138077 -0.009225884126 0.0024839807653 0.0035235416944
          0.0072152138077 0.0035235416944 0.023833250178 0.066776071364 0.0092745377186 -0.0071404477929
          0.0092745377186 0.021208241048 -0.010705602008 -0.0071404477929 -0.010705602008 0.0019765961591
          0.14130440821 0.0045270280617 0.012796265686 0.0045270280617 0.0017731784492 0.0048874612705
          0.012796265686 0.0048874612705 0.14240688078 0.1414696568 0.0030078451236 0.017994267713
          0.0030078451236 -0.002897961074 0.005954480635 0.017994267713 0.005954480635 0.14273115323
          0.14243213355 0.0040491015201 0.023873118666 0.0040491015201 0.0012907971917 0.0093210452
          0.023873118666 0.0093210452 0.12956023799 0.083336086311 0.011724188934 -0.018110370683
          0.011724188934 0.018052235024 0.011694869458 -0.018110370683 0.011694869458 -0.0095753371554
          0.1210746327 0.00076716540599 0.0080785331961 0.00076716540599 0.00079948064864 0.0070881494316
          0.0080785331961 0.0070881494316 0.12077912302 0.079559644516 0.00034976539476 -0.0080009247811
          0.00034976539476 -0.015627484381 -0.0015499006923 -0.0080009247811 -0.0015499006923 0.019632039109
          0.081894629986 -0.0010917312029 -0.032838788248 -0.0010917312029 0.016091755817 -0.0039178838029
          -0.032838788248 -0.0039178838029 -0.041277517628 0.11014823635 0.014841707579 0.0089245104377
          0.014841707579 0.008501973624 0.0074600098242 0.0089245104377 0.0074600098242 0.1271122454
          0.0045752399326 -0.0033065408011 0.0093503394155 -0.0033065408011 0.017608135725 0.0039781150307
          0.0093503394155 0.0039781150307 0.06308135417 -0.027018839103 -0.0026168954345 -0.02828125528
          -0.0026168954345 0.0039250390203 -8.5919120944e-05 -0.02828125528 -8.5919120944e-05 -7.6697506764e-05
          0.021723957972 0.0022391065473 -0.0072002879165 0.0022391065473 -0.00016441091613 0.00056794863366
          -0.0072002879165 0.00056794863366 0.034584732028 0.11926362286 0.0093077466074 0.0020559629429
          0.0093077466074 -0.0034333173287 0.010008927589 0.0020559629429 0.010008927589 0.10308904904
          0.061929484519 0.0019084980194 -0.012571878104 0.0019084980194 -0.010148066819 0.0012424924477
          -0.012571878104 0.0012424924477 0.025796647567 0.051591949921 0.0068341935463 -0.01012574117
          0.0068341935463 -0.005591236602 -0.00015611560453 -0.01012574117 -0.00015611560453 0.025287183273
          0.13224504117 0.014734859381 -0.0027223731554 0.014734859381 -0.015276640237 0.003749292869
          -0.0027223731554 0.003749292869 0.094054761541 0.057518138386 0.0024404429606 -0.0099523932913
          0.0024404429606 -0.0095280108073 0.0022569278465 -0.0099523932913 0.0022569278465 0.028695239112
          0.10130377214 0.0077329990696 0.01293385378 0.0077329990696 -0.0080475090628 0.0048739219111
          0.01293385378 0.0048739219111 0.072301188962 0.10395768449 0.011023997501 0.014667861305
          0.011023997501 -0.0056018277889 0.0087772546343 0.014667861305 0.0087772546343 0.071554880512
          0.050812252509 0.0030952280676 -0.0077848492124 0.0030952280676 -0.0067392680157 -0.00026164022065
          -0.0077848492124 -0.00026164022065 0.029860199756 0.037481967527 0.0050926422283 -0.015929760597
          0.0050926422283 -0.013906966444 0.0053864867203 -0.015929760597 0.0053864867203 -0.0052754850795
          0.046377088601 -0.0012517985921 -0.010937263523 -0.0012517985921 -0.0069920537455 -0.00014904548566
          -0.010937263523 -0.00014904548566 0.026063533597 0.048509770892 0.0058888893207 0.0047973421087
          0.0058888893207 -0.0072668280517 -0.0050059768813 0.0047973421087 -0.0050059768813 0.031361265993
          0.036390687383 -0.0092243101174 -0.020009136716 -0.0092243101174 -0.0042129903732 0.0048965042626
          -0.020009136716 0.0048965042626 0.014860632989 0.024677488918 -0.0031825457646 -0.0045714925287
          -0.0031825457646 -0.0016778895178 0.00065647296108 -0.0045714925287 0.00065647296108 0.031344300856
          0.096343378001 0.015282001216 -0.027393454341 0.015282001216 0.015235539868 0.0065197101987
          -0.027393454341 0.0065197101987 -0.029481687703 0.11057431025 0.008963797409 0.00052420844746
          0.008963797409 -0.0026237094011 0.0088949912462 0.00052420844746 0.0088949912462 0.10415547216
          0.13621146879 0.011264376953 0.0034289847661 0.011264376953 -0.003209993426 0.0081472319117
          0.0034289847661 0.0081472319117 0.12757321541 0.12980107859 0.01210262059 -0.00012731813226
          0.01210262059 -0.0097961526638 0.007767742441 -0.00012731813226 0.007767742441 0.10313491135
          0.076771775551 0.0020060614982 -0.0088256004152 0.0020060614982 -0.018687255539 0.0042054670561
          -0.0088256004152 0.0042054670561 0.015381438305 0.15909231923 0.0085896555807 0.021265854048
          0.0085896555807 -0.0051687782294 0.006612756236 0.021265854048 0.006612756236 0.13761345619
          0.0042441253433 9.9361345987e-05 0.01493840139 9.9361345987e-05 0.023163382566 0.011787211005
          0.01493840139 0.011787211005 0.073793956753 0.0213136077 -0.00098176905006 -0.0037851639138
          -0.00098176905006 -0.00022153774954 0.0007391393821 -0.0037851639138 0.0007391393821 0.021173781045
          0.066649187152 0.0021168196756 -0.0072660853009 0.0021168196756 -0.011558940356 0.00060464266554
          -0.0072660853009 0.00060464266554 0.028370039586 0.091249382371 0.043859926001 -0.018999980018
          0.043859926001 -0.024446033457 -0.022820992339 -0.018999980018 -0.022820992339 -0.018699664147
          0.052573477545 0.00010665948854 0.0081048839042 0.00010665948854 -0.014393590328 0.0029262717161
          0.0081048839042 0.0029262717161 0.042220422723 0.11690991799 0.01164891757 0.001526700538
          0.01164891757 -0.0020398796303 0.0084181313957 0.001526700538 0.0084181313957 0.097414842023
          0.079219412829 -0.00077110677349 0.0038188448843 -0.00077110677349 -0.024702861458 0.0042262388116
          0.0038188448843 0.0042262388116 0.0024934568327 0.033024477702 -0.0053471872192 0.013190550175
          -0.0053471872192 -0.00016853640303 0.0059722400727 0.013190550175 0.0059722400727 0.026898294204
          0.041677853518 -0.003574798555 0.011190133282 -0.003574798555 -0.009779486402 0.0097817614501
          0.011190133282 0.0097817614501 0.025575883428 0.034747121288 -0.002777216149 0.017134566944
          -0.002777216149 -0.007177366341 0.013244323056 0.017134566944 0.013244323056 0.026860182543
          0.12492719728 0.0099239139453 0.010619321408 0.0099239139453 -0.014630297814 0.0051360019587
          0.010619321408 0.0051360019587 0.031300665099 0.061954214522 0.0015977552465 -0.015137172845
          0.0015977552465 -0.005830555369 0.018245797368 -0.015137172845 0.018245797368 0.034097809821
          0.11312520273 0.0046017050758 0.0097976716916 0.0046017050758 -0.011165502481 0.0045982790288
          0.0097976716916 0.0045982790288 0.035419078845 -0.00071292490527 -0.0050420720443 -0.0053809963703
          -0.0050420720443 0.0023470123495 -0.0083535872229 -0.0053809963703 -0.0083535872229 0.0086091971738
          0.15465083645 0.008974126841 0.0021027028347 0.008974126841 -0.013268201363 0.009769833283
          0.0021027028347 0.009769833283 0.11485425526 0.033090469156 2.8808174265e-05 0.00030444141758
          2.8808174265e-05 -0.020264783075 0.0022869391207 0.00030444141758 0.0022869391207 -0.0023198661295
          -0.01064036678 0.0011556327616 6.861894624e-05 0.0011556327616 0.020591138487 0.0027662436974
          6.861894624e-05 0.0027662436974 0.071012236786 0.022848414784 -0.0090857396243 0.004683723216
          -0.0090857396243 0.018697297437 0.0109433121 0.004683723216 0.0109433121 0.053355039999
          0.15071586941 0.0090209027062 0.00081080398348 0.0090209027062 -0.014093866138 0.01003600009
          0.00081080398348 0.01003600009 0.1014626207 0.019026275593 0.0018302833777 0.011967795924
          0.0018302833777 0.0069427254576 0.0055035568827 0.011967795924 0.0055035568827 0.051626778116
          -0.010257029244 0.00055573341139 -0.0042924862404 0.00055573341139 0.021247105539 0.013036819037
          -0.0042924862404 0.013036819037 0.078649117759 0.039460167276 0.00013504436666 0.010871913936
          0.00013504436666 0.0078495538466 0.006914934479 0.010871913936 0.006914934479 0.070452135999
          0.047351960043 -0.00015473536004 -0.0021543640747 -0.00015473536004 0.020820836232 -0.00045833323229
          -0.0021543640747 -0.00045833323229 0.016305656507 0.045249593761 -0.0028240827246 -0.0034297123442
          -0.0028240827246 0.018397549734 0.00086530181056 -0.0034297123442 0.00086530181056 0.024498126859
          0.1458150727 0.0044214079547 0.021992249067 0.0044214079547 -0.015155276421 0.0095206366995
          0.021992249067 0.0095206366995 0.11012368469 0.045102136754 0.0062206435208 -0.015948065045
          0.0062206435208 0.02007751515 0.0011361963738 -0.015948065045 0.0011361963738 0.022137015755
          0.047927403896 0.0020363177191 -0.0026577075874 0.0020363177191 0.017434587441 -0.0017351126376
          -0.0026577075874 -0.0017351126376 0.01671103894 0.058478942374 -0.0023849865445 -0.013546835799
          -0.0023849865445 -0.013164982559 -0.002046425261 -0.013546835799 -0.002046425261 0.013740164064
          0.059498269974 0.0011236233817 -0.0096982771526 0.0011236233817 -0.011123694041 -0.0004611656477
          -0.0096982771526 -0.0004611656477 0.014719267895 0.058045828146 -0.0029275565776 -0.014679061234
          -0.0029275565776 -0.0094649822898 0.00158997417 -0.014679061234 0.00158997417 0.019480023273
          0.063866663604 -0.0058288086446 -0.009513062641 -0.0058288086446 -0.011340933249 -0.0032118665698
          -0.009513062641 -0.0032118665698 0.024630494534 0.019154275309 -0.00057122900972 -0.01508518863
          -0.00057122900972 0.00060206466577 -0.0030542159356 -0.01508518863 -0.0030542159356 0.0046668010991
          0.078435440692 0.00072648390157 -0.0048272974036 0.00072648390157 -0.020122085151 -0.0003488596844
          -0.0048272974036 -0.0003488596844 0.0046255538179 0.07828214408 -0.002567010112 -0.0071107027126
          -0.002567010112 -0.026996878542 -0.0020507417295 -0.0071107027126 -0.0020507417295 0.0057172439943
          0.09142056818 -0.00082928382092 -0.0055871212062 -0.00082928382092 -0.028511569479 0.0020138687819
          -0.0055871212062 0.0020138687819 -0.0026605514814 0.035199220492 -0.0027827810153 -0.0038457026935
          -0.0027827810153 0.015236144743 0.002871855008 -0.0038457026935 0.002871855008 0.12390659968
          0.061155909233 -0.0028150250626 0.0016166486618 -0.0028150250626 -0.015902151407 -0.00308987764
          0.0016166486618 -0.00308987764 -0.0080179551803 0.062765740087 0.015619596843 -0.014962265745
          0.015619596843 -0.01626502128 0.0032799311942 -0.014962265745 0.0032799311942 -0.019176371264
          0.16306394111 0.0089459536718 0.003127986629 0.0089459536718 -0.012071034754 0.012070099467
          0.003127986629 0.012070099467 0.1150441686 0.17183734141 0.0080197241982 0.0060157573253
          0.0080197241982 -0.013510558105 0.012626229007 0.0060157573253 0.012626229007 0.12404470334
          0.16450778819 0.010543323909 0.0083740171543 0.010543323909 -0.010733913213 0.0098828537237
          0.0083740171543 0.0098828537237 0.12384159807 0.024765493899 -0.0029648075209 -0.0086384449939
          -0.0029648075209 -0.00901896928 -0.0058707825727 -0.0086384449939 -0.0058707825727 -0.0065485985073
          0.0081707079982 -0.00061373954674 -0.0044247950368 -0.00061373954674 -0.0012003003336 0.00056092601277
          -0.0044247950368 0.00056092601277 -0.0015581764617 0.16444389839 0.0098120032572 0.010146558885
          0.0098120032572 -0.012189072142 0.012104356799 0.010146558885 0.012104356799 0.12186771117
          -0.026193218039 0.002260245127 0.0022362561578 0.002260245127 0.011172699937 0.003723383093
          0.0022362561578 0.003723383093 0.023960848451 0.15207303276 0.011561978075 0.0024958997362
          0.011561978075 -0.012594319302 0.0093295668562 0.0024958997362 0.0093295668562 0.11479491403
          0.15579406299 0.0098644511561 0.002057563417 0.0098644511561 -0.010085573144 0.0069685538557
          0.002057563417 0.0069685538557 0.11170457932 0.10504909875 0.0026459035475 -0.0021867330406
          0.0026459035475 -0.015374195498 0.0055981177753 -0.0021867330406 0.0055981177753 0.021054073957
          0.077393965627 0.0092518113727 0.0054096947181 0.0092518113727 0.0055868341179 0.0059155150886
          0.0054096947181 0.0059155150886 0.09064344234 0.070458991815 0.002402110245 -0.0074860474159
          0.002402110245 -0.011920315734 -0.0006624989335 -0.0074860474159 -0.0006624989335 0.025223077973
          0.15161370112 0.011197233143 0.022274520448 0.011197233143 -0.0039372750611 0.0082915246576
          0.022274520448 0.0082915246576 0.13896848622 0.089921380759 0.0026619031982 0.0087534219885
          0.0026619031982 -0.013338498391 0.0012282622262 0.0087534219885 0.0012282622262 0.041613574368
          0.027022198788 0.0049982553847 -0.054798459662 0.0049982553847 0.017746771075 -0.034521644487
          -0.054798459662 -0.034521644487 0.03543957738 0.090678130216 0.0059693586451 0.021466583541
          0.0059693586451 -0.012942443219 0.0027641248113 0.021466583541 0.0027641248113 0.04756902296
          0.064003733829 -0.042338283458 -0.039948343192 -0.042338283458 0.0082427263586 -0.049299843277
          -0.039948343192 -0.049299843277 -0.024698559899 0.034038627743 -0.032174812412 -0.064043745067
          -0.032174812412 0.025735576886 -0.060029210555 -0.064043745067 -0.060029210555 -0.029768109792
          0.026736093676 -0.025384922339 -0.071607555469 -0.025384922339 0.0085673616123 -0.012411135969
          -0.071607555469 -0.012411135969 0.011323019013 0.04180751982 -0.030626283171 -0.065846522211
          -0.030626283171 0.008206619064 -0.042235860013 -0.065846522211 -0.042235860013 -0.047823097609
          0.16294023709 0.0090921919334 0.020202582076 0.0090921919334 -0.0091665815159 0.0090603552196
          0.020202582076 0.0090603552196 0.1365859408 0.16187490882 0.0090682801783 0.022011406175
          0.0090682801783 -0.008627214922 0.0097963994609 0.022011406175 0.0097963994609 0.13441052832
          0.16353499679 0.0067434199695 0.01941559639 0.0067434199695 -0.01183033463 0.0088052000608
          0.01941559639 0.0088052000608 0.13515558171 0.15588979089 0.011045339242 0.022157865788
          0.011045339242 -0.0084464383231 0.0071562855871 0.022157865788 0.0071562855871 0.12859903212
          0.15350152117 0.014019098784 0.024814074217 0.014019098784 -0.011222436418 0.0044524271353
          0.024814074217 0.0044524271353 0.12603784284 0.12827059865 0.0093793456596 0.0051351712746
          0.0093793456596 -0.011621886322 0.0070132513637 0.0051351712746 0.0070132513637 0.083730213194
          0.12706048173 0.0087886639723 0.0025105309118 0.0087886639723 -0.010760041447 0.0094660462475
          0.0025105309118 0.0094660462475 0.090159520906 -0.0070949291248 -0.0030076562025 -0.0086477690613
          -0.0030076562025 0.001494338322 0.0034654125953 -0.0086477690613 0.0034654125953 0.00802714106
          0.16130428342 0.0089244762025 0.0151701782 0.0089244762025 -0.0074569398287 0.0089026139246
          0.0151701782 0.0089026139246 0.13268422024 0.16099063362 0.0098187027287 0.015996476287
          0.0098187027287 -0.0099993577826 0.0065637320142 0.015996476287 0.0065637320142 0.13054797389
          0.10383877331 0.0072056727266 0.011052935432 0.0072056727266 -0.0081201230651 0.0087107672104
          0.011052935432 0.0087107672104 0.073730864469 0.10183463854 0.0093731450778 0.0052362858428
          0.0093731450778 -0.0068682230162 0.0087610763336 0.0052362858428 0.0087610763336 0.068820092316
          0.095844037648 0.0090680778855 0.010068995 0.0090680778855 -0.0031091739745 0.0060554949734
          0.010068995 0.0060554949734 0.067229656491 0.13778489864 0.0090304156837 0.0065647134919
          0.0090304156837 -0.015059125539 0.0085018468231 0.0065647134919 0.0085018468231 0.050246996716
          0.15469644411 0.010957354167 0.0086422389974 0.010957354167 -0.008737517164 0.0086831582749
          0.0086422389974 0.0086831582749 0.12561275171 0.10332255946 0.010883295197 0.0017708053985
          0.010883295197 -0.0047439428361 0.0082391035809 0.0017708053985 0.0082391035809 0.084169336775
          0.16126310355 0.011528420798 0.014724362568 0.011528420798 -0.010018487453 0.0071423446565
          0.014724362568 0.0071423446565 0.13367831172 0.16198625838 0.0080238085646 0.013938559368
          0.0080238085646 -0.0079584738265 0.010790939128 0.013938559368 0.010790939128 0.13453048326
          0.1189407855 0.0091066275983 0.0005520366724 0.0091066275983 -0.0031171713863 0.0074270077221
          0.0005520366724 0.0074270077221 0.1022131953 0.062511531554 -0.0061742531467 -0.0071133920773
          -0.0061742531467 -0.0051213919988 -0.00056398104291 -0.0071133920773 -0.00056398104291 0.031692682961
          0.064968475204 0.0019359483217 -0.014766796504 0.0019359483217 -0.011003955325 0.00048037645085
          -0.014766796504 0.00048037645085 0.02524864016 0.093446634135 0.0057305733709 0.013298899765
          0.0057305733709 -0.0040129686516 0.0087196848529 0.013298899765 0.0087196848529 0.079475881688
          0.078936852509 0.0010048247753 0.010176239605 0.0010048247753 -0.0054008286532 0.0072953094879
          0.010176239605 0.0072953094879 0.079900627776 -0.031358880783 -0.00328451805 -0.0038554454457
          -0.00328451805 0.013576415381 0.00050089017417 -0.0038554454457 0.00050089017417 0.0038525331765
          0.12429123186 0.010076058534 -0.0011494585582 0.010076058534 -0.0031621318171 0.010622085605
          -0.0011494585582 0.010622085605 0.10917181295 0.028256380589 0.0027880556122 -0.008765477356
          0.0027880556122 0.0079836476599 0.0069174772965 -0.008765477356 0.0069174772965 0.046965932733
          0.1329098471 0.0091361528926 0.0025815389309 0.0091361528926 -0.012826801596 0.010384367646
          0.0025815389309 0.010384367646 0.089760084365 0.0085467128689 -0.0011134788223 -0.01002946586
          -0.0011134788223 -0.0011661004735 -0.0069934373662 -0.01002946586 -0.0069934373662 0.0078883179216
          0.068952803617 0.00084236611847 -0.012811856199 0.00084236611847 -0.016830807885 -0.00057741953007
          -0.012811856199 -0.00057741953007 0.021142034498 0.059470873353 0.0010001099334 0.0089742646649
          0.0010001099334 0.0076920706102 0.0092732858963 0.0089742646649 0.0092732858963 0.091562182498
          0.04383293125 0.0025381688574 -0.012227753461 0.0025381688574 -0.0053681954657 0.0014531611315
          -0.012227753461 0.0014531611315 0.0079885504041 0.0085058090993 -0.0053543575834 -0.005782526256
          -0.0053543575834 -0.0015512897364 -0.0057940272038 -0.005782526256 -0.0057940272038 0.0038300878883
          0.028624712845 0.0061565264377 -0.024361105444 0.0061565264377 0.0082280418559 0.00084239673742
          -0.024361105444 0.00084239673742 0.053429478676 -0.028320884125 -0.0019093372311 -0.0066839507839
          -0.0019093372311 0.015493315668 0.0049203478443 -0.0066839507839 0.0049203478443 0.012831574841
          -0.043386044802 -5.8868183037e-05 -0.0041493903206 -5.8868183037e-05 0.016705521032 0.0021828115582
          -0.0041493903206 0.0021828115582 0.016494435595 -0.043140442054 -0.0013012334592 -0.0094132505043
          -0.0013012334592 0.00963322746 -0.010928000424 -0.0094132505043 -0.010928000424 0.011087640758
          0.12356698397 0.0074289354015 0.0042104094958 0.0074289354015 -0.012971236706 0.016861293064
          0.0042104094958 0.016861293064 0.060751116628 0.12066023675 0.0071391327377 0.0066543204335
          0.0071391327377 -0.012103709924 0.018556743121 0.0066543204335 0.018556743121 0.061047587239
          -0.028057191096 -0.0040299105303 -0.01590722547 -0.0040299105303 0.013666756171 -0.0073788829842
          -0.01590722547 -0.0073788829842 0.0081186523939 -0.0056575267097 -0.0018689000554 0.00054751095784
          -0.0018689000554 0.013415999034 -0.0026914771031 0.00054751095784 -0.0026914771031 -0.00071867338049
          0.17170923712 0.005840734454 0.017582119323 0.005840734454 -0.020669521929 0.0081080676762
          0.017582119323 0.0081080676762 0.11523998859 0.072323430921 -0.0042514721501 -0.0083911894957
          -0.0042514721501 -0.02593394485 -0.0037458144821 -0.0083911894957 -0.0037458144821 -0.0054069384219
          0.070043499299 -0.0031905285457 -0.014750780478 -0.0031905285457 -0.022496018276 -0.0035726958274
          -0.014750780478 -0.0035726958274 -0.003953652452 0.071070631776 -0.00016969632074 -0.0077951893462
          -0.00016969632074 -0.014780542949 0.00040936393331 -0.0077951893462 0.00040936393331 0.018900162933
          0.069944648932 -0.0018114269161 -0.01722717951 -0.0018114269161 -0.015433595407 0.0042401786524
          -0.01722717951 0.0042401786524 -0.020654227174 0.06959783812 0.0019521663193 -0.017670443219
          0.0019521663193 -0.01941056957 0.0040790451866 -0.017670443219 0.0040790451866 0.006258272294
          0.13495838641 0.0092666557673 0.0051930042891 0.0092666557673 -0.018051195011 0.011542992827
          0.0051930042891 0.011542992827 0.074904397157 0.15203055781 0.013969254643 -0.0032940069064
          0.013969254643 -0.013748400348 0.0059513780786 -0.0032940069064 0.0059513780786 0.10790173168
          0.062486069347 0.0020450152966 -0.0071920317247 0.0020450152966 -0.009781444518 0.00015903721696
          -0.0071920317247 0.00015903721696 0.029339076695 0.059584665037 0.001418820971 -0.00672394107
          0.001418820971 -0.0079629570545 0.00044668799165 -0.00672394107 0.00044668799165 0.028938161685
          0.074256271744 0.00035269841892 -0.017796086161 0.00035269841892 -0.026202088713 0.0017064218203
          -0.017796086161 0.0017064218203 -0.027251215698 0.10214192607 0.00052243230566 0.0083409600211
          0.00052243230566 -0.025868104827 0.003279070845 0.0083409600211 0.003279070845 0.023297206311
          -0.071426188188 0.0010291681301 0.011656187565 0.0010291681301 0.02145312286 -0.0017711220602
          0.011656187565 -0.0017711220602 0.017770877983 0.061282168746 0.0023230513973 -0.0075615104795
          0.0023230513973 -0.0079963151884 -0.0001476641773 -0.0075615104795 -0.0001476641773 0.029308787557
          -0.08407965778 -0.0017012627637 0.0095202950884 -0.0017012627637 0.028310305553 0.00196179504
          0.0095202950884 0.00196179504 0.019772304855 0.097123473948 -0.0011866737 -0.0076461011234
          -0.0011866737 -0.023146081231 0.0013367608745 -0.0076461011234 0.0013367608745 -0.026718695068
          0.091808478605 -0.00062262356838 0.0068926523442 -0.00062262356838 -0.030864848532 0.0010431274563
          0.0068926523442 0.0010431274563 -0.017288134979 0.020779156849 -0.00078651481523 -0.0048886668614
          -0.00078651481523 0.0009747385002 -0.00036352123385 -0.0048886668614 -0.00036352123385 0.018962905251
          0.1763988398 0.0092135204361 0.020275026019 0.0092135204361 -0.015437144082 0.0058459128332
          0.020275026019 0.0058459128332 0.12069944861 0.16343050667 0.0098280288045 0.024002635698
          0.0098280288045 -0.015313462486 0.0051784078874 0.024002635698 0.0051784078874 0.12120491066
          0.19395999492 0.0093952664127 0.015778366107 0.0093952664127 -0.025978290951 0.0017143751303
          0.015778366107 0.0017143751303 0.098898767311 0.19252066726 0.0026427143625 0.015689933709
          0.0026427143625 -0.03441742303 0.011406651791 0.015689933709 0.011406651791 0.1032889287
          0.19007841848 0.009756976503 0.014088542414 0.009756976503 -0.022434831145 0.0057810512059
          0.014088542414 0.0057810512059 0.10243518116 0.16243408249 0.011037936601 0.0087576247712
          0.011037936601 -0.010154149997 0.0073445024136 0.0087576247712 0.0073445024136 0.13373982163
          0.16263359106 0.0084194889184 0.0057475005239 0.0084194889184 -0.011865599667 0.0088007175244
          0.0057475005239 0.0088007175244 0.12395102223 0.1707185485 0.0093542571225 0.0051320613072
          0.0093542571225 -0.011980109834 0.009025108417 0.0051320613072 0.009025108417 0.12360544769
          0.11921519836 0.0056102680028 -0.00021661089011 0.0056102680028 -0.0029716052988 0.011071209027
          -0.00021661089011 0.011071209027 0.10415708984 0.12540011236 0.0064676755736 -2.7836280344e-05
          0.0064676755736 -0.004147197319 0.010576139599 -2.7836280344e-05 0.010576139599 0.10395296367
          0.022544559583 4.1392061304e-05 -0.010355050328 4.1392061304e-05 -0.0041641221658 -0.0030313943372
          -0.010355050328 -0.0030313943372 0.011789631468 0.11516148555 0.0068187450491 0.0010031167778
          0.0068187450491 0.00068276543475 0.0066852256174 0.0010031167778 0.0066852256174 0.1212708151
          0.12672548721 0.0093147604873 0.00045211543079 0.0093147604873 0.00016334340513 0.007930162523
          0.00045211543079 0.007930162523 0.11953919325 0.12698757886 0.0072369701032 0.0030706095193
          0.0072369701032 -0.0033629209725 0.010480666934 0.0030706095193 0.010480666934 0.11853182836
          0.075642324866 0.0019284512942 -0.0077187686778 0.0019284512942 -0.013863863442 -0.00016166467722
          -0.0077187686778 -0.00016166467722 0.020170220678 0.024409270535 0.00048503315475 -0.020148359173
          0.00048503315475 -0.0078716040339 0.0019939463894 -0.020148359173 0.0019939463894 0.032386376725
          0.14396569825 0.022847561846 0.018296262378 0.022847561846 -0.032689282056 0.0035632819743
          0.018296262378 0.0035632819743 0.097325168838 0.1406887888 0.011342150722 0.024955536787
          0.011342150722 -0.043700646066 0.0079976275468 0.024955536787 0.0079976275468 0.09600880677
          0.086150346664 0.0037878783164 0.0081261349845 0.0037878783164 0.0017461751311 0.00761800821
          0.0081261349845 0.00761800821 0.095482833392 0.16579987288 0.013922139978 0.023551087793
          0.013922139978 -0.047908059418 -0.0079260928945 0.023551087793 -0.0079260928945 0.040415855892
          0.094600132908 0.0030057760439 -0.015901563465 0.0030057760439 -0.020301962794 0.014010864096
          -0.015901563465 0.014010864096 0.03930098258 -0.022200742899 -0.00084853185136 -0.012648219771
          -0.00084853185136 0.0023316254288 -0.00051362439868 -0.012648219771 -0.00051362439868 -0.0060564434702
          0.073050168506 0.0037702734231 0.0042285536514 0.0037702734231 -0.031710992554 -0.0023494987612
          0.0042285536514 -0.0023494987612 -0.031580995428 0.10813295425 0.0057542000193 0.0048434850875
          0.0057542000193 -0.011292031964 0.0039678755613 0.0048434850875 0.0039678755613 0.053060025882
          0.10260725454 0.0023221583189 0.0024691290366 0.0023221583189 -0.015428874726 0.0027682794879
          0.0024691290366 0.0027682794879 0.047814114013 0.07083466195 0.0099585436812 0.013356576236
          0.0099585436812 -0.0049698623836 0.0039775964643 0.013356576236 0.0039775964643 0.060198277411
          0.082385191755 0.006804326657 0.010608607112 0.006804326657 -0.0083005893901 0.0065567308171
          0.010608607112 0.0065567308171 0.060054296778 0.12911577312 0.0062274240882 0.002347664875
          0.0062274240882 -0.038474781077 -0.0021288556671 0.002347664875 -0.0021288556671 -0.0029849227576
          0.053364724552 0.0013984527584 -0.044806518552 0.0013984527584 0.0087898776276 -0.0019525244782
          -0.044806518552 -0.0019525244782 0.045176756084 0.05322459011 0.0027679703428 -0.045459143617
          0.0027679703428 0.014480737545 0.0097175626295 -0.045459143617 0.0097175626295 0.043605591389
          0.052933114859 0.0051732600598 -0.043660271235 0.0051732600598 -0.0044419190021 -0.0066718431678
          -0.043660271235 -0.0066718431678 0.035080805397 0.038691939495 -0.0024261240636 -0.023647003429
          -0.0024261240636 -0.00661131936 -0.007146828699 -0.023647003429 -0.007146828699 0.007983611527
          0.050763068849 0.0019082193256 -0.027052852805 0.0019082193256 -0.0086445756227 0.0089773533159
          -0.027052852805 0.0089773533159 0.030820611137 0.050486241589 -0.0099471010486 -0.016994502343
          -0.0099471010486 -0.0048911992412 -0.011689757895 -0.016994502343 -0.011689757895 0.063785408361
          0.05805598962 0.0068216242836 -0.080260193206 0.0068216242836 0.0014492983338 0.001038058467
          -0.080260193206 0.001038058467 0.010128876908 0.051345840987 -0.0013245166942 -0.028576894033
          -0.0013245166942 0.0079954230242 0.0044148273281 -0.028576894033 0.0044148273281 0.023771566658
          0.053115298472 -0.00037518143849 -0.041463203834 -0.00037518143849 0.0079929810255 0.0043401060473
          -0.041463203834 0.0043401060473 0.026227318072 0.18937411861 0.012899267537 0.016506040366
          0.012899267537 -0.023022007172 0.0090185395012 0.016506040366 0.0090185395012 0.11762716245
          0.056330102267 0.010340201843 -0.0085082714779 0.010340201843 -0.0074676172132 0.019766599022
          -0.0085082714779 0.019766599022 0.001011677532 0.061973696296 0.00054314730726 -0.01449601699
          0.00054314730726 -0.0091091405134 0.00029239725702 -0.01449601699 0.00029239725702 0.0267983573
          0.062791992257 0.0002377192116 -0.014273960194 0.0002377192116 -0.0099745837722 -0.00044098630193
          -0.014273960194 -0.00044098630193 0.025748639594 0.03322992361 0.0073066071377 0.00073752205853
          0.0073066071377 0.0093798916925 -0.00033674569668 0.00073752205853 -0.00033674569668 0.098374636389
          0.004691105582 -0.014302884453 0.003690863337 -0.014302884453 0.018281617302 0.011069442166
          0.003690863337 0.011069442166 0.071317812586 0.063707965569 0.0043490052695 0.017178006204
          0.0043490052695 -0.012401409125 0.0034550117335 0.017178006204 0.0034550117335 -0.0012324032039
          0.050543813256 0.013800164764 0.0087204159509 0.013800164764 -0.010200690467 0.0028664851971
          0.0087204159509 0.0028664851971 0.027590349923 0.047214209977 0.0031765157576 -0.013468666793
          0.0031765157576 0.0073001728185 0.0045346296297 -0.013468666793 0.0045346296297 0.084616824559
          0.047439451327 0.003808759642 -0.012196169511 0.003808759642 0.0057648794995 0.012685295975
          -0.012196169511 0.012685295975 0.085471732424 0.0462503639 0.0044926992662 -0.010511374696
          0.0044926992662 0.0077948795082 0.0090535101943 -0.010511374696 0.0090535101943 0.086010278106
          0.055955355225 0.02772864042 -0.03671833059 0.02772864042 0.0077428987296 -0.023123281735
          -0.03671833059 -0.023123281735 0.063457657799 0.034380902236 -0.0097870830034 -0.027331994838
          -0.0097870830034 0.012262577156 0.014829029437 -0.027331994838 0.014829029437 0.066081338504
          0.018167360798 0.00056802536026 -0.020127172404 0.00056802536026 0.01694178145 0.0079175226581
          -0.020127172404 0.0079175226581 0.0688959279 0.015424542207 5.4020778545e-05 -0.0092073873169
          5.4020778545e-05 0.011163329878 0.0051013054991 -0.0092073873169 0.0051013054991 0.048777274987
          0.097521616213 0.012279693411 0.0041192442869 0.012279693411 -0.0022824594604 0.0096114415535
          0.0041192442869 0.0096114415535 0.089195667066 0.10132438661 0.011261227225 0.01230049161
          0.011261227225 -0.0024544392221 0.01064422119 0.01230049161 0.01064422119 0.083427240499
          0.10891679152 0.010839638153 0.0089519538834 0.010839638153 -0.0056131731327 0.007511271522
          0.0089519538834 0.007511271522 0.081442567213 0.041743922247 0.00039027876368 -0.0088646707515
          0.00039027876368 -0.0013327808213 -0.0021081617518 -0.0088646707515 -0.0021081617518 0.029562669876
          0.016111753984 -0.0012505565318 -0.0056265986364 -0.0012505565318 -0.0011305919465 -0.00079180234034
          -0.0056265986364 -0.00079180234034 0.033157326754 0.032322117769 -0.001620778987 -0.012066204577
          -0.001620778987 -0.0021393304323 -0.0016390769472 -0.012066204577 -0.0016390769472 0.02068685508
          0.00250435606 -0.0059754469779 -0.010350201696 -0.0059754469779 0.001956341241 0.0015929670884
          -0.010350201696 0.0015929670884 0.033520613253 0.022647841211 0.002782245863 -0.010917321968
          0.002782245863 -0.0010899998383 -0.0019434033753 -0.010917321968 -0.0019434033753 0.036076707257
          0.023733974855 0.0020858490976 -0.0074120436233 0.0020858490976 -0.0024345231038 0.00059383055604
          -0.0074120436233 0.00059383055604 0.034606998994 0.10730264644 0.0074556430924 0.0099797472031
          0.0074556430924 -0.0083111294025 0.0080810985237 0.0099797472031 0.0080810985237 0.068856069178
          0.076776524647 0.0018237590764 -0.012258300385 0.0018237590764 -0.01751457096 0.0013708366085
          -0.012258300385 0.0013708366085 -0.01061855203 0.092937115367 0.0016957872862 -0.0064346626072
          0.0016957872862 -0.029577021081 0.0004521322135 -0.0064346626072 0.0004521322135 -0.0084675794194
          0.1138683353 0.0089959154678 0.013783603391 0.0089959154678 -0.01408350727 0.0096405682958
          0.013783603391 0.0096405682958 0.072128058312 0.12596412509 0.0076129396207 0.008134813985
          0.0076129396207 -0.020816572818 0.0082095430593 0.008134813985 0.0082095430593 0.045402473314
          0.13590495056 0.010321004425 0.0066501747583 0.010321004425 -0.017030648642 0.002907651222
          0.0066501747583 0.002907651222 0.052609714582 0.10596487098 0.0057906205111 0.010979158585
          0.0057906205111 -0.0103833949 0.0093298994868 0.010979158585 0.0093298994868 0.06854434453
          0.099296681314 0.012334238037 0.0090764949668 0.012334238037 -0.0049866321271 0.0062816077499
          0.0090764949668 0.0062816077499 0.081668666817 0.055913999943 0.0061202832452 -0.015509368514
          0.0061202832452 0.0051810705236 -0.0094131385414 -0.015509368514 -0.0094131385414 0.02671735966
          -0.025329322954 -0.0039246649045 -0.0025350145243 -0.0039246649045 0.0019617254923 0.00066078735851
          -0.0025350145243 0.00066078735851 0.024411644784 0.10958757937 -0.00037001438061 -0.0067142816943
          -0.00037001438061 -0.033874702017 0.0042600059671 -0.0067142816943 0.0042600059671 -0.024159061005
          0.074051387353 0.030593027928 0.0016938052688 0.030593027928 0.01337228571 -0.012049072227
          0.0016938052688 -0.012049072227 -0.040184554588 0.070973047472 0.0015155825946 -0.0074529858737
          0.0015155825946 -0.012173181987 0.00035641092928 -0.0074529858737 0.00035641092928 0.022465816215
          0.059394384929 0.003089848246 -0.0061627364016 0.003089848246 -0.022576726974 -0.0014179356161
          -0.0061627364016 -0.0014179356161 -0.029265942144 0.061794456881 -0.002354112536 -0.01228728404
          -0.002354112536 -0.031369743168 -0.0061188309075 -0.01228728404 -0.0061188309075 -0.025992909437
          -0.031134112469 0.00015947253023 -0.0053866561122 0.00015947253023 0.013865902608 0.0016944772353
          -0.0053866561122 0.0016944772353 0.026740491038 0.058565570459 7.7536380182e-05 -0.0044422058643
          7.7536380182e-05 0.015294865127 0.0059818444828 -0.0044422058643 0.0059818444828 0.089155260728
          0.072606028889 0.0014674470317 -0.00566897103 0.0014674470317 -0.012610930688 0.00088843644337
          -0.00566897103 0.00088843644337 0.02363660556 0.12577949543 0.011968056755 0.0034463342451
          0.011968056755 0.0012570179922 0.011852800946 0.0034463342451 0.011852800946 0.13032712262
          0.13485295445 0.010149984672 0.0015670101483 0.010149984672 0.0007462394847 0.011331521841
          0.0015670101483 0.011331521841 0.12979516372 0.07943016564 0.0038113261988 -0.0043765668757
          0.0038113261988 -0.024559804403 -0.00056468826973 -0.0043765668757 -0.00056468826973 0.0055984352406
          0.0964942147 -0.0015346856147 -1.1075209455e-05 -0.0015346856147 -0.036681801684 0.0016975649934
          -1.1075209455e-05 0.0016975649934 -0.029323584429 0.10725727529 0.0080748756509 0.0096233935562
          0.0080748756509 -0.018517511385 0.015095198084 0.0096233935562 0.015095198084 0.061578332067
          -0.028237262449 0.021775097863 -0.064448081309 0.021775097863 -0.0084109801207 -0.027020323278
          -0.064448081309 -0.027020323278 0.050140025312 0.069098598954 0.0019713641607 -0.0068742330682
          0.0019713641607 -0.017432782486 0.00053378020157 -0.0068742330682 0.00053378020157 -0.027532752747
          0.075326862584 0.0055299312383 0.0071813546096 0.0055299312383 -0.0044524009977 0.0048283470239
          0.0071813546096 0.0048283470239 0.052854627563 0.098707697858 0.0046464738383 0.0063317747347
          0.0046464738383 -0.0024120709526 0.010266110358 0.0063317747347 0.010266110358 0.094870709582
          0.14738275494 0.012685413341 0.015649821539 0.012685413341 -0.017843877025 0.011582603144
          0.015649821539 0.011582603144 0.067433693247 0.082035330593 0.0037119511504 -0.0078559825393
          0.0037119511504 -0.017293523354 -0.0010659276588 -0.0078559825393 -0.0010659276588 0.016688294928
          0.08097646029 0.0040654641831 -0.0080194310543 0.0040654641831 -0.016726953722 -0.0006378262123
          -0.0080194310543 -0.0006378262123 0.016866874531 0.071741897427 0.0016056209786 -0.012281904502
          0.0016056209786 -0.017326316204 -0.0016673806747 -0.012281904502 -0.0016673806747 0.015099955196
          0.059270812994 -0.00033843069671 -0.0073515916646 -0.00033843069671 -0.018846541327 0.00142831013
          -0.0073515916646 0.00142831013 -0.020104405186 0.052352786708 -0.00079136398661 -0.0095233137838
          -0.00079136398661 -0.016611774779 0.0035761003544 -0.0095233137838 0.0035761003544 -0.018470337255
          0.079415823348 0.0044752820585 -0.029289843968 0.0044752820585 -0.029302020374 -0.014882105661
          -0.029289843968 -0.014882105661 -0.011243877288 0.12304731281 -0.01271056741 -0.028187152758
          -0.01271056741 -0.050409047522 -0.00065789283216 -0.028187152758 -0.00065789283216 -0.018924099263
          0.078975632936 0.00439320544 0.0036439214655 0.00439320544 0.0009507061619 0.0088388671211
          0.0036439214655 0.0088388671211 0.096387850698 0.077867551765 0.0051097121992 0.0053804081058
          0.0051097121992 0.0067424435502 0.0066031629819 0.0053804081058 0.0066031629819 0.093864575423
          0.077244535587 0.0053112559963 0.0036790765945 0.0053112559963 0.0079810182801 0.0089918321542
          0.0036790765945 0.0089918321542 0.091810538385 0.019686487393 -0.0037192437936 -0.0079390569715
          -0.0037192437936 -0.0058559957771 -0.00181648046 -0.0079390569715 -0.00181648046 -0.0041844446464
          0.040026142842 -0.00027780076294 0.0099179694301 -0.00027780076294 0.005875267595 0.0057416680363
          0.0099179694301 0.0057416680363 0.07052464993 0.016285424651 -0.0028063518467 0.0064881585381
          -0.0028063518467 0.0061062763689 0.0027717129053 0.0064881585381 0.0027717129053 0.08358902075
          0.1136837386 0.0062251864152 0.0078481294935 0.0062251864152 -0.0050143104493 0.00776665185
          0.0078481294935 0.00776665185 0.092182585634 0.11498505546 0.014942950969 0.0021509860397
          0.014942950969 -0.0016117258441 0.0039636459375 0.0021509860397 0.0039636459375 0.095654675235
          0.11848190084 0.0042762686817 0.00044459576263 0.0042762686817 -0.0021897898098 0.011187934867
          0.00044459576263 0.011187934867 0.09636424406 0.11497900001 0.0090936354154 0.0048652691883
          0.0090936354154 -0.0055224139879 0.0072528056667 0.0048652691883 0.0072528056667 0.092182004858
          0.11243423153 0.008768895357 0.0093460409929 0.008768895357 -0.0055195739271 0.008199990355
          0.0093460409929 0.008199990355 0.087474747163 0.11787878643 0.011215289839 0.0055290866959
          0.011215289839 -0.0046164872947 0.0065454459142 0.0055290866959 0.0065454459142 0.090131982914
          0.10734217976 0.01026260983 0.0089171031879 0.01026260983 -0.0046866090082 0.0066670545698
          0.0089171031879 0.0066670545698 0.091173105607 0.10271048866 0.0084405451247 0.0087968489947
          0.0084405451247 -0.0019536288498 0.0083123466884 0.0087968489947 0.0083123466884 0.092277386339
          0.099691227811 0.0086175057522 0.0031282940561 0.0086175057522 -0.0018609886351 0.0077041239226
          0.0031282940561 0.0077041239226 0.090220917235 0.035167876863 0.000872363864 -0.011340068646
          0.000872363864 -0.0044592352647 0.00080441296882 -0.011340068646 0.00080441296882 0.021245622779
          -0.0065229485814 -0.0022448645487 -0.011234994559 -0.0022448645487 0.0069069197605 0.0048361435451
          -0.011234994559 0.0048361435451 0.016997076235 0.020414035552 0.0036050595881 -0.0091889791472
          0.0036050595881 -0.0060570290598 0.00019987476371 -0.0091889791472 0.00019987476371 0.02809495375
          -0.012081904799 0.0032049717856 -0.011027826628 0.0032049717856 0.0034682951977 -0.0013592087544
          -0.011027826628 -0.0013592087544 0.02838371804 0.0034790244374 0.0018683387912 -0.0085467293478
          0.0018683387912 0.0022778361823 0.0018132679358 -0.0085467293478 0.0018132679358 0.019997805435
          0.017240059471 0.00089384129139 -0.0069825394914 0.00089384129139 -0.0036526556934 -0.00082987783715
          -0.0069825394914 -0.00082987783715 0.019106693203 0.021667070995 0.0023606039838 -0.020798007874
          0.0023606039838 -0.003329687687 -0.0025540682396 -0.020798007874 -0.0025540682396 0.012279295202
          0.052582903384 4.7348863059e-05 -0.015822448804 4.7348863059e-05 -0.0095964528331 0.00038319256175
          -0.015822448804 0.00038319256175 0.026673242811 0.015257742293 0.0037941699747 -0.0071979263585
          0.0037941699747 0.00057928760931 0.007005284032 -0.0071979263585 0.007005284032 0.0078768161801
          -0.010976927701 0.0034995309809 -0.0052936466247 0.0034995309809 0.0021348794298 0.0024831037968
          -0.0052936466247 0.0024831037968 0.020981255801 0.091689960005 0.002401035778 0.0022416649059
          0.002401035778 -0.0014900607113 0.0069431992261 0.0022416649059 0.0069431992261 0.078516356821
          0.031818863903 -0.0041139678877 -0.0090572692849 -0.0041139678877 0.0031815817504 0.00084983492023
          -0.0090572692849 0.00084983492023 0.032501655356 0.025554029996 -0.0073645912042 -0.0082122077962
          -0.0073645912042 -0.00099084598335 0.0011262700834 -0.0082122077962 0.0011262700834 0.033944204115
          0.035639111869 -0.0050314107639 -0.0096648284951 -0.0050314107639 -0.0013359025013 -0.00075835444847
          -0.0096648284951 -0.00075835444847 0.031948854217 0.16350810497 0.0080952539919 0.001568716772
          0.0080952539919 -0.015704154882 0.011947349235 0.001568716772 0.011947349235 0.1067558176
          0.16272794751 0.010407215809 0.00073132695379 0.010407215809 -0.011821283352 0.01201467817
          0.00073132695379 0.01201467817 0.10639998195 -0.024219349654 -0.0037136016378 0.029593851425
          -0.0037136016378 0.003206980499 0.0070923605529 0.029593851425 0.0070923605529 0.022562189963
          0.054911920268 0.0099984318686 0.010858268586 0.0099984318686 -3.6392400548e-05 0.0049204118845
          0.010858268586 0.0049204118845 0.026792643742 0.042256046741 0.013510899121 0.016219726969
          0.013510899121 0.00091996427028 -0.0015769791268 0.016219726969 -0.0015769791268 0.037515373187
          0.023843208481 0.0044341207965 0.011407041313 0.0044341207965 0.0070149040845 0.002060127709
          0.011407041313 0.002060127709 0.039674369555 -0.0053675704756 0.010628173708 0.0053345515162
          0.010628173708 0.01126596324 -0.0037118985613 0.0053345515162 -0.0037118985613 0.0503414555
          0.10699610766 0.012203132199 0.010648096305 0.012203132199 -0.014079263457 0.0012920868116
          0.010648096305 0.0012920868116 0.062064989817 -0.089957035329 -0.0017820026959 0.021870041296
          -0.0017820026959 0.036937352332 0.0031657602503 0.021870041296 0.0031657602503 0.014124717859
          0.1090811181 0.0080241250525 0.013269695749 0.0080241250525 -0.0085426820123 0.00043994623898
          0.013269695749 0.00043994623898 0.050008460797 0.084647732851 0.012582434078 0.011010001953
          0.012582434078 -0.0058925007873 0.0024077727416 0.011010001953 0.0024077727416 0.050482478818
          0.084909043861 0.0067985766903 0.016173166891 0.0067985766903 -0.01544275873 0.0088683023649
          0.016173166891 0.0088683023649 0.046527524223 0.077360662507 0.0037024679879 -0.018197559811
          0.0037024679879 -0.026688927762 -0.011237989807 -0.018197559811 -0.011237989807 -0.0093581853791
          0.079199785221 0.0020948887947 -0.0052675008148 0.0020948887947 -0.027305547531 -0.0089416391603
          -0.0052675008148 -0.0089416391603 -0.0099154150181 0.10423373663 0.010284052896 0.0025065197782
          0.010284052896 -0.017087080202 0.0086887210745 0.0025065197782 0.0086887210745 0.053894867479
          0.11166814273 0.010499210061 0.0084469215997 0.010499210061 -0.019292297843 0.0051408230533
          0.0084469215997 0.0051408230533 0.052384481436 0.11353404358 0.012331907122 0.013694871987
          0.012331907122 -0.018047696843 0.0075681165113 0.013694871987 0.0075681165113 0.053754492327
          0.064089146695 0.00361830043 -0.011576074251 0.00361830043 -0.013058107039 0.0006317926259
          -0.011576074251 0.0006317926259 0.025041525257 0.065169799689 -0.0013086403655 -0.012984350988
          -0.0013086403655 -0.012122837706 0.0005835032086 -0.012984350988 0.0005835032086 0.02493288127
          0.064519934192 -1.0788218103e-05 -0.013813413852 -1.0788218103e-05 -0.012253935762 0.00026287739083
          -0.013813413852 0.00026287739083 0.025462452959 0.086039603635 -0.0023680457548 0.0087164119315
          -0.0023680457548 -0.033027933776 0.0017628822756 0.0087164119315 0.0017628822756 -0.012094206032
          0.053900658115 0.0023766723362 -0.015094792747 0.0023766723362 -0.0052460996754 -0.0002168732067
          -0.015094792747 -0.0002168732067 0.023890240174 0.0097708011569 -0.0024214415918 -0.012127863618
          -0.0024214415918 -2.9883615209e-05 0.00097401384687 -0.012127863618 0.00097401384687 0.0016220346953
          0.013871150975 -0.0050047953066 -0.010181634579 -0.0050047953066 -0.00056905090095 -0.0021604872937
          -0.010181634579 -0.0021604872937 0.00086512050606 0.01505556069 -0.0055701384864 -0.0109268432
          -0.0055701384864 -0.0085041085903 -0.0042563269387 -0.0109268432 -0.0042563269387 0.00060149576686
          0.0047102478939 0.0009017824524 -0.024622954248 0.0009017824524 -0.0093580032903 -0.0035710646769
          -0.024622954248 -0.0035710646769 0.0019191492606 0.064842704231 -0.00010143025606 -0.012976537729
          -0.00010143025606 -0.012137905682 -0.00073647741216 -0.012976537729 -0.00073647741216 0.027179441462
          0.062169265468 0.0011587823427 -0.012256523644 0.0011587823427 -0.010845057076 -0.00085026466485
          -0.012256523644 -0.00085026466485 0.027012503002 0.045849974605 0.0036286759761 -0.018887114232
          0.0036286759761 -0.014821829641 -0.0089387746329 -0.018887114232 -0.0089387746329 -0.010306569924
          0.074084484895 0.00077055029169 -0.019657849817 0.00077055029169 -0.017954188995 -0.0033050465234
          -0.019657849817 -0.0033050465234 -0.019306208734 0.042302282164 -0.0015211224623 -0.008677664593
          -0.0015211224623 -0.018065805214 -0.0016563051093 -0.008677664593 -0.0016563051093 -0.0094036260518
          0.042887500973 0.00050781940088 -0.015462951554 0.00050781940088 -0.016878103345 -0.005659280383
          -0.015462951554 -0.005659280383 0.0040868423106 -0.068634446363 -0.013104656431 -0.040831442554
          -0.013104656431 0.027092906291 -0.014733320135 -0.040831442554 -0.014733320135 0.032908263995
          -0.070890098866 -0.0028445393688 -0.035676033338 -0.0028445393688 0.0043144402862 -0.011523203662
          -0.035676033338 -0.011523203662 0.050875606469 0.038616375026 -0.0028640059524 -0.0077916179145
          -0.0028640059524 -0.0044100269063 0.0013780573208 -0.0077916179145 0.0013780573208 0.032399168585
          0.035660120418 -0.0012455229015 -0.028318447435 -0.0012455229015 0.00037801603779 -0.012016550942
          -0.028318447435 -0.012016550942 0.014656518851 0.041765815863 -0.0099051556309 -0.022786960528
          -0.0099051556309 -0.026523997548 -0.0064352081909 -0.022786960528 -0.0064352081909 0.015067100659
          0.024789581216 0.00080363654833 -0.03027443554 0.00080363654833 0.0088156970763 -0.0010892992952
          -0.03027443554 -0.0010892992952 0.026938658239 0.042366929636 -0.00063375981147 -0.011590117903
          -0.00063375981147 -0.0086283050948 -8.0648982319e-05 -0.011590117903 -8.0648982319e-05 0.0058298513582
          0.043819741764 0.00024216409086 -0.0074919712025 0.00024216409086 -0.0081263220497 0.0026304514907
          -0.0074919712025 0.0026304514907 0.015180515417 0.051824504629 -0.0085380653276 -0.011704910987
          -0.0085380653276 -0.013411956399 -0.00084952260158 -0.011704910987 -0.00084952260158 0.015186008363
          0.072229240743 0.00097033644901 -0.0076696838673 0.00097033644901 -0.013041620462 0.00060579214064
          -0.0076696838673 0.00060579214064 0.023433117538 0.09263786555 -0.0058259553003 0.0017841643272
          -0.0058259553003 -0.024481510852 0.0052835757447 0.0017841643272 0.0052835757447 -0.036246186928
          0.057743959939 0.0025983989257 0.0062372324159 0.0025983989257 0.0066886780249 0.0057751218023
          0.0062372324159 0.0057751218023 0.097195026849 0.029215193565 -0.003506427087 -0.013310490359
          -0.003506427087 -0.003265922621 -0.0055176292761 -0.013310490359 -0.0055176292761 0.010196559688
          0.073299393033 0.00046181041378 -0.0072556343798 0.00046181041378 -0.01330362197 -9.9275480404e-05
          -0.0072556343798 -9.9275480404e-05 0.024324535612 -0.0040882459555 -0.0019187570835 -0.0037463745651
          -0.0019187570835 0.0055518166584 -0.00091500297273 -0.0037463745651 -0.00091500297273 0.020908793624
          -0.0099433643517 -0.0094977903281 -0.0056891615687 -0.0094977903281 -0.001085068115 0.0013616781201
          -0.0056891615687 0.0013616781201 0.027498226856 0.019550056718 -0.0025868809253 -0.013417307869
          -0.0025868809253 -0.0026716847851 -0.001358654507 -0.013417307869 -0.001358654507 0.012548247281
          0.11232112385 0.010650865985 5.1790842828e-06 0.010650865985 -0.0013400793719 0.0089484678249
          5.1790842828e-06 0.0089484678249 0.10579578185 0.11244066982 0.010539001792 0.00047733430165
          0.010539001792 -0.0012356533851 0.0085269596583 0.00047733430165 0.0085269596583 0.10601129681
          0.054956299152 -0.0028218603509 -0.010141234455 -0.0028218603509 -0.01412446122 0.0025213151452
          -0.010141234455 0.0025213151452 -0.021692083939 0.16402409671 0.0092656577105 0.014759671425
          0.0092656577105 -0.0088217845835 0.00721382568 0.014759671425 0.00721382568 0.13478472823
          0.020145333426 -0.0064806414431 -0.010949603674 -0.0064806414431 -0.0090205877551 -0.0020228561736
          -0.010949603674 -0.0020228561736 0.012552788431 0.06255207377 -0.00049202574611 -0.017698622269
          -0.00049202574611 -0.014086557631 0.0026392838224 -0.017698622269 0.0026392838224 0.020222582073
          -0.013423503914 -0.007633230268 -0.001980613174 -0.007633230268 0.0067184337369 0.0015294688189
          -0.001980613174 0.0015294688189 0.020080246854 0.16296667311 0.0084658085389 0.016172258999
          0.0084658085389 -0.0078217840595 0.0076660307948 0.016172258999 0.0076660307948 0.13283115133
          0.11662067314 0.011936173266 0.0029461719803 0.011936173266 0.0029003935755 0.0075026893254
          0.0029461719803 0.0075026893254 0.12121523767 0.17159048571 0.0087406347684 0.017236977051
          0.0087406347684 -0.011987046632 0.0076532522737 0.017236977051 0.0076532522737 0.1355729376
          0.11780204247 0.0097137846223 0.0016553282791 0.0097137846223 0.0028885553695 0.0099581199275
          0.0016553282791 0.0099581199275 0.12262552529 0.16164990368 0.010166127705 0.017512157268
          0.010166127705 -0.0090364717365 0.0076238056793 0.017512157268 0.0076238056793 0.13266401547
          0.11798709116 0.011114217705 0.0012247232388 0.011114217705 -0.0013908382407 0.009835351301
          0.0012247232388 0.009835351301 0.1107842503 0.13379878003 0.0092573505003 0.0012033106669
          0.0092573505003 -0.002609380401 0.0094909162241 0.0012033106669 0.0094909162241 0.1099408779
          0.12532282275 0.011651668859 -0.0064743586712 0.011651668859 -0.0023187894891 0.01088183188
          -0.0064743586712 0.01088183188 0.10361212465 0.037881427443 -0.0082082541839 -0.014178010107
          -0.0082082541839 0.0020270266775 0.012965117649 -0.014178010107 0.012965117649 -0.00069088988991
          0.068084081744 0.0015751948034 -0.013337081801 0.0015751948034 -0.010862896632 -0.00090186332972
          -0.013337081801 -0.00090186332972 0.0095985510039 0.048704288762 -0.001571846371 -0.016789716783
          -0.001571846371 -0.024873377079 -0.0039777108367 -0.016789716783 -0.0039777108367 -0.017380422811
          0.054244526203 0.0019886735153 0.0078777714816 0.0019886735153 -0.02396062119 -3.1068949333e-05
          0.0078777714816 -3.1068949333e-05 -0.010613472587 0.036616201975 0.00034017332633 -0.012514210773
          0.00034017332633 -0.01071536451 -0.0028983630295 -0.012514210773 -0.0028983630295 0.009899781998
          0.0030449506026 -0.012490904529 -0.011675945701 -0.012490904529 -0.0098603710208 -0.00027762902157
          -0.011675945701 -0.00027762902157 0.01079767506 0.031063132574 0.0024213673314 -0.013660559126
          0.0024213673314 -0.01453928146 0.0097576894531 -0.013660559126 0.0097576894531 0.0075346667136
          0.10206291611 0.010877247895 0.011066327886 0.010877247895 -0.0071302564584 0.0089044724158
          0.011066327886 0.0089044724158 0.07373647566 -0.073331544923 0.00035748730667 -0.016119936384
          0.00035748730667 0.020654866177 0.0057702740652 -0.016119936384 0.0057702740652 0.021363425486
          -0.042831560104 0.00073271352626 -0.018147357729 0.00073271352626 0.0089755568797 0.00077348656491
          -0.018147357729 0.00077348656491 0.032594313368 0.075234300533 -0.011364963909 -0.029464225992
          -0.011364963909 0.01785559751 -0.0019492788824 -0.029464225992 -0.0019492788824 -0.018311854435
          0.075222156514 -0.0095016511133 -0.031623546304 -0.0095016511133 0.0021087716916 -0.016757498765
          -0.031623546304 -0.016757498765 0.041201749123 0.031638776279 -0.027017972191 -0.11306026743
          -0.027017972191 -0.0019146785008 -0.062661524424 -0.11306026743 -0.062661524424 -0.05342583798
          0.041895398099 -0.016390555959 -0.092406535197 -0.016390555959 -0.070100866518 -0.035092678595
          -0.092406535197 -0.035092678595 -0.012315911158 0.11825747779 0.00424074372 -0.019891805327
          0.00424074372 0.0092772930268 -0.032659186983 -0.019891805327 -0.032659186983 -0.10114256051
          0.079815537603 -0.00028822788965 0.0088974936186 -0.00028822788965 0.017503319136 -0.0030294514796
          0.0088974936186 -0.0030294514796 -0.044111325977 0.071181054535 0.0061206932404 0.0059269507164
          0.0061206932404 0.014812270807 -0.013001164536 0.0059269507164 -0.013001164536 0.026634637222
          0.13502302781 0.009309740204 0.025531517566 0.009309740204 -0.01388478586 -0.048774699035
          0.025531517566 -0.048774699035 -0.014155344199 0.044520559984 -0.0092951148882 -0.043507696346
          -0.0092951148882 0.0049102767019 -0.007165781361 -0.043507696346 -0.007165781361 0.035440230611
          0.060607482037 -0.010572992402 -0.018318084142 -0.010572992402 0.018945776943 -0.0015978324332
          -0.018318084142 -0.0015978324332 -0.026000752702 0.079108169185 0.0049638875125 0.0053570466588
          0.0049638875125 -0.0040136245237 0.0039977479875 0.0053570466588 0.0039977479875 0.036374197811
          0.060805670882 -0.0037012362579 -0.0073786831082 -0.0037012362579 -0.038384172175 -0.0057942759421
          -0.0073786831082 -0.0057942759421 -0.022409713402 -0.034321384755 -0.0081544206091 -0.00023036139023
          -0.0081544206091 0.020913069794 -0.004339632084 -0.00023036139023 -0.004339632084 0.017065100877
          0.064554988852 -0.002864388845 0.0053331479263 -0.002864388845 -0.032139566953 0.0042934240083
          0.0053331479263 0.0042934240083 -0.03108842483 0.11857816026 0.0032092814135 0.0060582672905
          0.0032092814135 0.0020421330781 0.0033109465542 0.0060582672905 0.0033109465542 0.12825937777
          0.1082052809 0.0024279086714 0.014340510722 0.0024279086714 0.0019948393796 0.0044444632129
          0.014340510722 0.0044444632129 0.14410218364 0.10855049733 0.0068693495312 0.018145101968
          0.0068693495312 0.00025443206534 0.005261242208 0.018145101968 0.005261242208 0.1466881548
          0.12993038399 0.0021500412953 0.015669013728 0.0021500412953 0.0012813900938 0.0055487722976
          0.015669013728 0.0055487722976 0.14242985214 0.11000832199 0.0098131893099 0.0067364778622
          0.0098131893099 -0.0088063567183 0.0062669979611 0.0067364778622 0.0062669979611 0.070136523928
          0.084775524464 -0.00019604225872 -0.0051854878698 -0.00019604225872 -0.020422075904 0.0028179591709
          -0.0051854878698 0.0028179591709 0.0099020755172 0.14427381037 0.0031818216057 0.018490599575
          0.0031818216057 -0.029182206762 0.013124264299 0.018490599575 0.013124264299 0.084998992787
          0.14648977993 0.01014920711 0.01329391613 0.01014920711 -0.01189043377 0.0021799461953
          0.01329391613 0.0021799461953 0.090878903727 0.10323842107 -0.0016751522298 -0.0070482675429
          -0.0016751522298 -0.038637156564 -0.0097927918001 -0.0070482675429 -0.0097927918001 -0.038726267379
          -0.011875901406 -0.0085376694906 0.0011591979243 -0.0085376694906 -0.012921677764 0.0043259237858
          0.0011591979243 0.0043259237858 0.028308836076 0.089471569013 0.011675875574 -0.0068541778127
          0.011675875574 0.031553268289 -0.017593581425 -0.0068541778127 -0.017593581425 -0.05011000217
          0.16004405603 -0.014175438667 0.011268045385 -0.014175438667 -0.032164704153 0.014874414533
          0.011268045385 0.014874414533 0.10683900272 0.055573230495 0.0067158279362 -0.024673992303
          0.0067158279362 -0.010819943215 -0.0031921491142 -0.024673992303 -0.0031921491142 0.032188633856
          0.059697334785 -0.010284632242 -0.0086307370355 -0.010284632242 -0.0080877514351 -0.0025685846943
          -0.0086307370355 -0.0025685846943 0.028431114758 0.05646354932 -0.0007761345034 -0.013423742951
          -0.0007761345034 -0.0091004500775 0.0017266645297 -0.013423742951 0.0017266645297 0.026784614796
          0.027851483849 -0.0024159225053 0.0069184829479 -0.0024159225053 0.0072082899257 0.0003639768642
          0.0069184829479 0.0003639768642 0.02858216527 0.024858265934 0.0039741372282 0.0045597775742
          0.0039741372282 0.0070991862902 0.0059890927654 0.0045597775742 0.0059890927654 0.026749158067
          0.069827447068 -0.0008880744994 0.012097520391 -0.0008880744994 -0.0027128781381 0.012334734422
          0.012097520391 0.012334734422 0.052101751329 0.076515763769 -0.0054581552387 -0.0092435944491
          -0.0054581552387 -0.032469892397 0.0072601244202 -0.0092435944491 0.0072601244202 -0.017280298752
          0.075163421373 -0.00029952786501 -0.0093570186718 -0.00029952786501 -0.012502803857 0.0018484191635
          -0.0093570186718 0.0018484191635 0.020348287179 0.1262420095 0.0099101851596 -0.0022350538143
          0.0099101851596 -0.0065607242429 0.0069358452853 -0.0022350538143 0.0069358452853 0.10315423309
          0.092834814534 -0.0048484744501 -0.0078502359216 -0.0048484744501 -0.035560110637 0.0070843067071
          -0.0078502359216 0.0070843067071 -0.020366425172 0.073226063962 -0.0057475797428 -0.013299719498
          -0.0057475797428 -0.029819616318 0.004138629432 -0.013299719498 0.004138629432 -0.019424911965
          0.066463932587 4.1869759848e-05 -0.014949253492 4.1869759848e-05 -0.010563069758 0.00057594696605
          -0.014949253492 0.00057594696605 0.021809050908 0.049030727053 -0.007269407211 0.013853975298
          -0.007269407211 0.0025473161321 0.0062293320014 0.013853975298 0.0062293320014 0.039111962876
          0.043626909875 0.0011289195892 0.017769679486 0.0011289195892 -0.0035940916895 0.0077853725691
          0.017769679486 0.0077853725691 0.044724265351 0.030913736671 0.0029356048123 0.0045922759776
          0.0029356048123 -0.003449121323 0.0067518835323 0.0045922759776 0.0067518835323 0.052089461085
          0.11653733463 0.012813631374 0.0026164932371 0.012813631374 -0.0044724042218 0.0073700738152
          0.0026164932371 0.0073700738152 0.09883107813 0.058278306634 -0.0046365795575 -0.014824018428
          -0.0046365795575 -0.029921900886 0.012183580741 -0.014824018428 0.012183580741 -0.0060518851433
          0.12616888349 0.0019853958525 -0.0021071745514 0.0019853958525 -0.033395321333 0.004475769069
          -0.0021071745514 0.004475769069 0.0016455762026 0.11445698892 0.0088780532872 0.0072226089283
          0.0088780532872 -0.003023238714 0.006153274771 0.0072226089283 0.006153274771 0.091315720242
          0.069841876671 0.0040223513139 0.015433468836 0.0040223513139 -0.013512820409 0.0041783747009
          0.015433468836 0.0041783747009 0.021796155482 0.079237033353 0.0037192518646 0.00082215157493
          0.0037192518646 0.0032902843311 0.0015964749315 0.00082215157493 0.0015964749315 0.091574735083
          -0.0013875049802 0.011874834862 -0.0029983159251 0.011874834862 0.0055297451649 0.0023760455491
          -0.0029983159251 0.0023760455491 0.012807860903 0.10623481506 0.0084989680029 0.0072983899892
          0.0084989680029 0.0023001240377 0.0051779979197 0.0072983899892 0.0051779979197 0.098203455712
          0.11666606304 0.01532507314 0.017145998294 0.01532507314 -0.00082612339795 0.0021095073354
          0.017145998294 0.0021095073354 0.095582699461 0.031419587748 0.00088270320206 -0.0055771915117
          0.00088270320206 -0.0061173063365 0.0037851470364 -0.0055771915117 0.0037851470364 0.021774224155
          0.063344581391 -0.00088945201553 0.0040350352545 -0.00088945201553 -0.020998696874 -0.0010409867975
          0.0040350352545 -0.0010409867975 -0.02861384985 0.082898350593 0.0064462497689 -0.0087752118834
          0.0064462497689 0.0074455811838 0.0040382783522 -0.0087752118834 0.0040382783522 0.079668282238
          0.086775544947 0.0012846146741 -0.011842149606 0.0012846146741 0.003549436192 0.0097286972665
          -0.011842149606 0.0097286972665 0.081854320418 0.034136604646 0.005062046148 0.0039299926763
          0.005062046148 -0.0030380806487 -0.00050497032762 0.0039299926763 -0.00050497032762 0.00095535033105
          0.032900821368 0.0028297647822 0.010199778363 0.0028297647822 0.0012988880671 -0.0088848212811
          0.010199778363 -0.0088848212811 0.015541522564 0.089416070842 0.010452362134 0.0064714994002
          0.010452362134 0.00095169543678 0.0070814623821 0.0064714994002 0.0070814623821 0.091081604512
          0.024958689876 0.0070868208302 0.0072859836067 0.0070868208302 -0.0016589544209 0.0044046696482
          0.0072859836067 0.0044046696482 0.030340066805 0.049292718044 0.0030082941522 0.012383695395
          0.0030082941522 -0.0047069207563 -0.00021437382731 0.012383695395 -0.00021437382731 0.027609965774
          0.056054082372 0.001658126015 0.0023129753245 0.001658126015 -0.0053249728723 -0.0029893764812
          0.0023129753245 -0.0029893764812 0.016805144694 0.030207019157 0.00020063257255 0.0076339287045
          0.00020063257255 0.0067933532821 0.0043813274717 0.0076339287045 0.0043813274717 0.048600826747
          0.048247950022 0.00050526893009 0.015152399356 0.00050526893009 -0.0037178967606 0.0057204174172
          0.015152399356 0.0057204174172 0.031844984619 0.041298018861 -0.00068166503004 -0.0079354361927
          -0.00068166503004 -0.00018165324805 0.00032019242432 -0.0079354361927 0.00032019242432 0.029197265406
          0.034112650655 -0.00039734587741 -0.006420769305 -0.00039734587741 4.9871694623e-05 0.0012469367392
          -0.006420769305 0.0012469367392 0.032887999059 0.047414496868 0.002636781259 0.01491900798
          0.002636781259 0.0012814584521 -0.0020388470966 0.01491900798 -0.0020388470966 0.038461096414
          0.053486953193 -0.00016560620867 -0.041804519532 -0.00016560620867 -0.025134137506 0.0031315092716
          -0.041804519532 0.0031315092716 0.0057813710017 0.13047485902 0.0081054351044 0.0028120964524
          0.0081054351044 -0.0078447467037 0.0080289281846 0.0028120964524 0.0080289281846 0.10156330401
          0.068014735965 -0.012643135268 -0.028266707537 -0.012643135268 -0.035095405436 0.011061908953
          -0.028266707537 0.011061908953 -0.00010146525959 0.052024672739 0.00058056981182 -0.023361472104
          0.00058056981182 -0.024647395839 0.0076374390958 -0.023361472104 0.0076374390958 -0.0035640121319
          0.079236040406 -0.0075808196461 -0.0068971039599 -0.0075808196461 -0.03081661915 0.0055480787874
          -0.0068971039599 0.0055480787874 -0.019869209011 0.064042956678 0.00032033982729 -0.011927063797
          0.00032033982729 -0.010447326445 0.00054814562386 -0.011927063797 0.00054814562386 0.025430249308
          0.065965906878 0.00095162707823 -0.01436535681 0.00095162707823 -0.012221211278 0.0016666247799
          -0.01436535681 0.0016666247799 0.024266107154 0.065934229046 0.0010422027253 -0.015189471565
          0.0010422027253 -0.012395538974 0.0026263159834 -0.015189471565 0.0026263159834 0.025869996168
          0.17669272717 0.0049829806879 0.016098531302 0.0049829806879 -0.017923791374 0.00088737650654
          0.016098531302 0.00088737650654 0.11189261095 0.11170153451 0.010306849325 -0.0025127056897
          0.010306849325 -0.0019613939212 0.0089017980335 -0.0025127056897 0.0089017980335 0.099759642293
          0.1595065244 0.011272479846 0.025474769256 0.011272479846 -0.019156286395 -0.0031032966039
          0.025474769256 -0.0031032966039 0.1070698285 0.069555529923 0.0016287409426 -0.012712000784
          0.0016287409426 -0.014007515561 0.0007939883484 -0.012712000784 0.0007939883484 0.024262272896
          0.0639301594 0.0034566008855 -0.016675735333 0.0034566008855 -0.014493063917 0.0021269262307
          -0.016675735333 0.0021269262307 0.021488036739 0.069626552605 0.00093136190221 -0.013311415773
          0.00093136190221 -0.013750372693 0.00038405974443 -0.013311415773 0.00038405974443 0.02330720705
          0.12091841503 0.013938639875 0.01340438336 0.013938639875 -0.006413281898 -0.0011000575149
          0.01340438336 -0.0011000575149 0.10489124922 0.078633581542 0.004199378743 -0.00074214914914
          0.004199378743 0.0050362182518 -8.8095619391e-05 -0.00074214914914 -8.8095619391e-05 0.091551788733
          0.11448831969 0.012790847914 0.0084054055484 0.012790847914 0.00043904611464 0.0017568168605
          0.0084054055484 0.0017568168605 0.12325666526 0.069363020617 -0.0055181488426 0.021205135238
          -0.0055181488426 -0.0065224576379 0.01159978971 0.021205135238 0.01159978971 0.075993277335
          0.089180765885 0.0096973110119 0.0051569969467 0.0096973110119 0.00039676387894 0.0059140581537
          0.0051569969467 0.0059140581537 0.088720461229 0.044741682533 0.0016555228804 -0.020083993147
          0.0016555228804 -0.038491251908 -0.014393159901 -0.020083993147 -0.014393159901 0.080991190487
          0.13238697439 0.012336153353 0.0033246456196 0.012336153353 -0.012408387764 0.0079411230096
          0.0033246456196 0.0079411230096 0.079642663201 0.13351617117 0.00451632362 0.0039323639206
          0.00451632362 -0.014609337901 0.0082872248492 0.0039323639206 0.0082872248492 0.079601617709
          0.01434283835 9.5617189795e-05 -0.00054808344943 9.5617189795e-05 -0.015489559553 -0.004291170767
          -0.00054808344943 -0.004291170767 -0.0011742921104 0.0083461762418 0.0016745452953 0.0015220012018
          0.0016745452953 -0.0075112646769 0.00027741152834 0.0015220012018 0.00027741152834 -0.00076837213638
          0.029599877526 -0.0076282899066 -0.0093110486068 -0.0076282899066 -0.0017970145327 -0.00085633303112
          -0.0093110486068 -0.00085633303112 0.021230814079 0.032604814761 -0.0011412841678 -0.0044110007942
          -0.0011412841678 -0.0061690032701 -0.0017675646466 -0.0044110007942 -0.0017675646466 0.022037575431
          0.018030398582 -0.010002098564 -0.0046128287196 -0.010002098564 -0.0042208007562 0.0077129874935
          -0.0046128287196 0.0077129874935 -0.00804728595 0.065418264196 0.0014270465162 -0.0082469220663
          0.0014270465162 -0.010230796368 -0.00065113379612 -0.0082469220663 -0.00065113379612 0.027879286628
          0.065602873103 0.0048402412061 -0.011292369241 0.0048402412061 -0.020364716577 -0.0078851602052
          -0.011292369241 -0.0078851602052 -0.016597419665 0.077506749158 0.010273766235 -0.0040012840707
          0.010273766235 -0.0044296965812 0.0031139006661 -0.0040012840707 0.0031139006661 0.076546667935
          0.0620793447 -0.00027907633089 -0.01247225072 -0.00027907633089 -0.0016964045911 0.0037170398126
          -0.01247225072 0.0037170398126 0.063900030111 0.048574463149 -0.00081785023151 -0.013684691587
          -0.00081785023151 -0.0071589129577 0.00067967724561 -0.013684691587 0.00067967724561 0.024327642269
          0.047160717609 0.00071834122977 -0.029326091445 0.00071834122977 -0.023694462582 0.0043720362979
          -0.029326091445 0.0043720362979 0.0014484788895 0.15818244409 0.0099171336527 -0.0018573707078
          0.0099171336527 -0.0099272348261 0.0072508951715 -0.0018573707078 0.0072508951715 0.10924408985
          0.026362239437 0.0022057261204 -0.011280660368 0.0022057261204 -0.0098775060108 0.012361121685
          -0.011280660368 0.012361121685 0.0042500271293 0.046861457414 -0.0006598117252 -0.010396629151
          -0.0006598117252 -0.0095013879743 0.011832313126 -0.010396629151 0.011832313126 -0.0024284488962
          0.022493320022 -0.00014977416587 -0.0061596454727 -0.00014977416587 0.00021104261379 -0.00089900030998
          -0.0061596454727 -0.00089900030998 0.032380914741 0.051520004067 0.0037918653051 -0.018079539815
          0.0037918653051 0.00055092793537 -0.0025994701004 -0.018079539815 -0.0025994701004 -0.021521536428
          0.015748356722 -0.0019469244791 -0.019482047857 -0.0019469244791 0 0
          -0.019482047857 0 0 0.015748356722 -0.0019469244791 -0.019482047857
          -0.0019469244791 0 0 -0.019482047857 0 0
          0.015773647591 -0.0018537083259 -0.019296317642 -0.0018537083259 -0.00077009105204 -0.0019681044449
          -0.019296317642 -0.0019681044449 -0.0049544794572 0.016142560325 -0.0022331545428 -0.021364106899
          -0.0022331545428 -0.0017419142103 -0.0018666456748 -0.021364106899 -0.0018666456748 0.0036240525511
          0.097605078757 0.0034384892501 0.010807804081 0.0034384892501 -0.0031578295669 0.00488272097
          0.010807804081 0.00488272097 0.0832646615 0.011361077938 -0.0018784275071 -0.0052339400588
          -0.0018784275071 -0.010035485957 -0.0039800423208 -0.0052339400588 -0.0039800423208 0.026266863722
          0.021119171797 -0.0014225515235 -0.027638478646 -0.0014225515235 -0.010054132129 -0.0034031518797
          -0.027638478646 -0.0034031518797 0.011714365894 0.048936178933 -0.00156840044 -0.017413944372
          -0.00156840044 -0.010386171454 -0.0002122288745 -0.017413944372 -0.0002122288745 -0.016158649608
          0.099010455595 0.013296928202 0.007537777647 0.013296928202 -0.00065063131166 0.0059700692368
          0.007537777647 0.0059700692368 0.10203234338 0.024660526176 0.0031364950029 -0.010810264307
          0.0031364950029 -0.025219190279 0.0038120212611 -0.010810264307 0.0038120212611 0.0083921255037
          0.077808721389 0.00070391777294 -0.0056668469045 0.00070391777294 -0.016441141356 -0.00037785907196
          -0.0056668469045 -0.00037785907196 0.0071738698477 0.084423612353 -0.00083180504944 -0.0055218314071
          -0.00083180504944 -0.022128921665 0.00075580100028 -0.0055218314071 0.00075580100028 0.0064552762452
          0.071645743677 0.0013857374957 -0.012480324985 0.0013857374957 -0.016329572784 -0.0013250251441
          -0.012480324985 -0.0013250251441 0.015113139052 0.059374852388 0.0013183194901 -0.013491976095
          0.0013183194901 -0.010453210443 -6.9820462726e-05 -0.013491976095 -6.9820462726e-05 0.028046817887
          0.085721370802 0.0065104963893 -0.0096084164151 0.0065104963893 -0.020509281061 0.0047942089839
          -0.0096084164151 0.0047942089839 0.0013290446768 -0.061460440435 -0.00071499167978 -0.0027758908295
          -0.00071499167978 0.018254956976 0.00010164520152 -0.0027758908295 0.00010164520152 0.025567342531
          -0.017456180535 -0.00081529740705 -0.0042024040398 -0.00081529740705 0.0081407264484 3.9487013474e-05
          -0.0042024040398 3.9487013474e-05 0.0070642640397 0.12701757501 0.009803952356 -0.00048133825015
          0.009803952356 -0.0034104797144 0.0095631845637 -0.00048133825015 0.0095631845637 0.11638285946
          0.043702149029 -0.00035728451841 -0.039973321665 -0.00035728451841 0.010454993854 -0.0033960795476
          -0.039973321665 -0.0033960795476 0.05707353534 0.045228331873 -0.0025847902354 -0.036835485935
          -0.0025847902354 0.0089390502685 0.00013636169579 -0.036835485935 0.00013636169579 0.049720216591
          0.14173959111 0.0080908684408 0.0060912341225 0.0080908684408 -0.0051563343915 0.0094951431594
          0.0060912341225 0.0094951431594 0.11931852426 0.04524342717 -0.0024921244513 -0.018768836214
          -0.0024921244513 -0.0093816346532 -0.003753240672 -0.018768836214 -0.003753240672 0.021338615055
          0.17278764792 0.0061813007585 0.0070441589697 0.0061813007585 -0.025565635791 0.0044402232789
          0.0070441589697 0.0044402232789 0.099987411011 0.18247583946 0.0083438584641 0.018820495013
          0.0083438584641 -0.025869111687 0.0008090898824 0.018820495013 0.0008090898824 0.06446041861
          0.13370017002 0.010225683067 0.0011145653102 0.010225683067 -0.011036155623 0.0071611993073
          0.0011145653102 0.0071611993073 0.10134679006 0.0047794564926 0.0069302792524 -0.00050473443449
          0.0069302792524 0.010462533458 0.0039679252096 -0.00050473443449 0.0039679252096 0.039372764395
          -0.013407973758 0.0011726803147 -0.00051336473588 0.0011726803147 0.0082522999035 0.0014269528715
          -0.00051336473588 0.0014269528715 -0.00033129908568 0.0077666858574 0.042769924257 -0.061439917899
          0.042769924257 -0.012869714664 0.010094336916 -0.061439917899 0.010094336916 -0.024474808011
          0.14078987927 0.010533175892 0.0094793373886 0.010533175892 -0.0028505936276 0.0097607968903
          0.0094793373886 0.0097607968903 0.12764069342 0.16330144746 0.0067205669491 0.0098436789338
          0.0067205669491 -0.0069322761203 0.0079024384358 0.0098436789338 0.0079024384358 0.13645885616
          0.15985634049 0.0098986636883 0.013437925985 0.0098986636883 -0.0077872559003 0.0079882603541
          0.013437925985 0.0079882603541 0.1382801771 0.060791865982 -0.0020759775806 -0.012489729707
          -0.0020759775806 -0.018965178367 0.0016116477679 -0.012489729707 0.0016116477679 -0.010417488424
          0.069568281165 0.0024669911822 -0.0093866008773 0.0024669911822 -0.027065031374 -0.0010628220616
          -0.0093866008773 -0.0010628220616 -0.011073628773 0.094125754981 0.0052824443154 -0.0042790208761
          0.0052824443154 -0.028454882495 -0.0068690924152 -0.0042790208761 -0.0068690924152 -0.033866746241
          0.067191225111 -0.045688081171 -0.020814012561 -0.045688081171 0.0038904891598 -0.11995274254
          -0.020814012561 -0.11995274254 -0.0388209213 -0.0064895700972 -0.001900386764 -0.011871113525
          -0.001900386764 -0.00076624600549 0.0021745791733 -0.011871113525 0.0021745791733 0.048750561281
          0.011365655328 0.0077963481901 -0.0039005420621 0.0077963481901 -0.0017594077971 -0.013208436779
          -0.0039005420621 -0.013208436779 0.001457659715 0.045346512746 -0.0021689499969 -0.011081407679
          -0.0021689499969 -0.023252816306 -0.0028984653769 -0.011081407679 -0.0028984653769 -0.007185699701
          0.06091664362 -0.0013248868251 -0.0065823272175 -0.0013248868251 -0.0075762623314 -4.0583857917e-05
          -0.0065823272175 -4.0583857917e-05 0.031870857716 0.049815514541 -0.0034997924955 -0.0077509732159
          -0.0034997924955 -0.0064249884203 0.0013758871465 -0.0077509732159 0.0013758871465 0.033464249642
          0.070473918535 0.0030443831251 -0.010752214233 0.0030443831251 -0.01824423047 0.0017085223334
          -0.010752214233 0.0017085223334 0.010966996484 0.051009152397 -0.0021552554605 -0.010060367184
          -0.0021552554605 -0.0024890938691 0.0003350604429 -0.010060367184 0.0003350604429 0.030941879757
          0.046376901101 -0.0028933173122 -0.0086255069895 -0.0028933173122 -0.0025418271523 0.00010426577424
          -0.0086255069895 0.00010426577424 0.033751361915 0.15117929747 0.0046359167708 0.0064002856897
          0.0046359167708 -0.012223259253 0.011003844617 0.0064002856897 0.011003844617 0.12362314604
          0.035834432896 -0.0074845358183 -0.012219975057 -0.0074845358183 -0.023012351059 -0.0045503953241
          -0.012219975057 -0.0045503953241 -0.0022682327462 0.097716641393 -0.00011908727344 -0.0075402904651
          -0.00011908727344 -0.029813256993 0.0025496717311 -0.0075402904651 0.0025496717311 -0.011253516534
          0.091911305441 0.0019336621955 -0.0084599203657 0.0019336621955 -0.025524784832 -0.0015189525578
          -0.0084599203657 -0.0015189525578 -0.0075491210289 0.091623715304 6.6182921153e-05 -0.0067911141847
          6.6182921153e-05 -0.024684367259 -0.0021117945114 -0.0067911141847 -0.0021117945114 -0.0071587601844
          0.060993175636 -0.0014369490944 -0.0069533569417 -0.0014369490944 -0.023052491621 0.0039261370311
          -0.0069533569417 0.0039261370311 -0.023194489291 0.095806418209 -0.0013035198959 -0.010728473597
          -0.0013035198959 -0.025502391368 -0.0018604972571 -0.010728473597 -0.0018604972571 -0.015401028041
          0.12580562406 0.0093038220523 0.023152568127 0.0093038220523 -0.012668757585 0.0071598446231
          0.023152568127 0.0071598446231 0.11396852845 0.018185433238 0.034494205221 0.018595849836
          0.034494205221 0.005964542095 6.5953234871e-05 0.018595849836 6.5953234871e-05 0.071573512972
          0.039158808465 -0.00057793879796 -0.01261229739 -0.00057793879796 -0.0066313980724 0.0022343649558
          -0.01261229739 0.0022343649558 -0.0043232948347 0.14446871082 0.011013303176 0.013213686955
          0.011013303176 -0.0017290776328 0.011372865608 0.013213686955 0.011372865608 0.13347335128
          0.14652243519 0.0094305866171 0.015982622027 0.0094305866171 -0.0078431227773 0.011454076143
          0.015982622027 0.011454076143 0.13645271024 0.14313335622 0.010489346982 0.01778185605
          0.010489346982 -0.0025841510264 0.0076628295312 0.01778185605 0.0076628295312 0.13736298053
          0.1447634269 0.010876976069 0.011392297067 0.010876976069 0.0022725135853 0.0081090202759
          0.011392297067 0.0081090202759 0.14358988907 0.044541888805 -0.0028166328913 -0.042114093088
          -0.0028166328913 -0.03228947729 -0.024867708632 -0.042114093088 -0.024867708632 0.01716703384
          0.040680567326 0.0038001522615 -0.0090779685468 0.0038001522615 -0.028660249806 -0.0012854927593
          -0.0090779685468 -0.0012854927593 0.0008755309297 0.11799355248 0.0089520402255 0.0096819042163
          0.0089520402255 -0.0013291653472 0.0051785925036 0.0096819042163 0.0051785925036 0.13910382694
          -0.0020538359988 0.022307348205 0.010815629344 0.022307348205 0.0070734186333 0.0054731805624
          0.010815629344 0.0054731805624 0.0082807717896 0.062505015745 0.0013885569161 -0.023292525861
          0.0013885569161 0.012571451314 -0.0081463582942 -0.023292525861 -0.0081463582942 0.010000224397
          0.045621141241 0.0055739734619 -0.018749460797 0.0055739734619 0.014453392839 -0.0062438920229
          -0.018749460797 -0.0062438920229 0.018879699193 0.043360666375 0.0012885552083 -0.019995123031
          0.0012885552083 0.011712233428 0.0021799085918 -0.019995123031 0.0021799085918 0.039802037496
          0.12945357471 0.011043226203 0.0040062541957 0.011043226203 -0.0041536861469 0.0095618467052
          0.0040062541957 0.0095618467052 0.10583809489 0.04358745007 0.0080999425342 -0.02183735446
          0.0080999425342 0.0094459890332 -0.0064476490936 -0.02183735446 -0.0064476490936 0.038854258015
          0.007056659643 -0.0008708841283 -0.0016071663076 -0.0008708841283 0.0080794059581 0.0021266679309
          -0.0016071663076 0.0021266679309 0.010128060204 -0.0035130033956 0.0020885494876 -0.018180108558
          0.0020885494876 0.011323404804 -0.0043741384047 -0.018180108558 -0.0043741384047 0.014619938621
          0.072743784828 -0.0093080335856 -0.010856504351 -0.0093080335856 0.019084341328 0.0054559258976
          -0.010856504351 0.0054559258976 -0.012599422813 0.00076458363509 -0.0067656293437 -0.011326067701
          -0.0067656293437 0.0010509490975 -0.00014378817931 -0.011326067701 -0.00014378817931 0.013741823545
          0.023749563396 0.0030384067968 -0.012486282165 0.0030384067968 -0.00079564955065 0.002353917216
          -0.012486282165 0.002353917216 0.013690346871 0.0035891568174 -0.0031026964477 -0.018991613245
          -0.0031026964477 -0.0025648048981 -0.0012579409507 -0.018991613245 -0.0012579409507 0.0072982934199
          0.034324268639 0.0029663065214 -0.0092613234989 0.0029663065214 -0.0061711814132 0.0066393206795
          -0.0092613234989 0.0066393206795 0.011222679772 0.057535965801 0.0024380617608 -0.012136113275
          0.0024380617608 0.019854799214 0.0087935427765 -0.012136113275 0.0087935427765 -0.007251113044
          0.058313469021 0.0077028660711 -0.016123395189 0.0077028660711 0.023868160465 0.006477742343
          -0.016123395189 0.006477742343 -0.0060619001365 0.061618745734 0.0018921109094 -0.0068248560782
          0.0018921109094 0.025196427696 0.0043865340199 -0.0068248560782 0.0043865340199 -0.002770545828
          0.056281358612 -0.0025886850523 -0.0036644973921 -0.0025886850523 0.02345268933 0.0062055386798
          -0.0036644973921 0.0062055386798 -0.0042970369601 0.058408100055 0.00033125009901 -0.0082557597096
          0.00033125009901 0.02474423586 -0.0016031497425 -0.0082557597096 -0.0016031497425 0.0047811056528
          0.059493127063 0.00023211597376 -0.0086491732285 0.00023211597376 0.024632282578 -0.00068947526142
          -0.0086491732285 -0.00068947526142 -0.0014427091036 0.060890147916 0.0028236365268 -0.0064613588185
          0.0028236365268 0.029433505726 0.0034196643038 -0.0064613588185 0.0034196643038 0.0015649947717
          0.075452680991 0.0021380071083 0.00021828300977 0.0021380071083 -0.032386944728 -0.00042413939579
          0.00021828300977 -0.00042413939579 -0.015559664907 0.03380231841 -0.0025970968404 -0.011611461194
          -0.0025970968404 -0.0074967170121 0.0009308459721 -0.011611461194 0.0009308459721 0.017521465186
          0.051361763974 0.0030087237776 -0.013752175322 0.0030087237776 -0.0089330257533 -0.002177192984
          -0.013752175322 -0.002177192984 0.015960107281 0.05133445523 -0.0013145982934 -0.015102561778
          -0.0013145982934 -0.0076102248136 -0.00055759099744 -0.015102561778 -0.00055759099744 0.01665523949
          0.061807153877 0.0016038834425 -0.014703697915 0.0016038834425 -0.013193897536 -0.00041791246108
          -0.014703697915 -0.00041791246108 0.019930633771 0.072492828464 0.0020731216939 -0.017468968116
          0.0020731216939 -0.013601089406 -0.00010484975029 -0.017468968116 -0.00010484975029 0.020204944019
          0.065530194269 -0.00087898881918 -0.017687479545 -0.00087898881918 -0.013843997142 -0.0024404971601
          -0.017687479545 -0.0024404971601 0.025185409344 0.065613493139 -0.0010075085034 -0.017833803879
          -0.0010075085034 -0.013725125263 -0.0019244667301 -0.017833803879 -0.0019244667301 0.024381513803
          0.058449306001 -0.0014806103445 -0.017295634846 -0.0014806103445 -0.011432180944 -0.0030890376346
          -0.017295634846 -0.0030890376346 0.024960772099 0.062034578887 0.00066679725005 -0.015355655342
          0.00066679725005 -0.010643055984 5.9065157387e-05 -0.015355655342 5.9065157387e-05 0.018074416969
          0.092375994207 0.0021242844614 0.013987632416 0.0021242844614 -0.0036075263617 0.010132505566
          0.013987632416 0.010132505566 0.069282321519 0.13103858249 0.006474246817 0.007958459972
          0.006474246817 -0.03220066627 -0.0045361230085 0.007958459972 -0.0045361230085 0.0097016524119
          0.043221918422 -0.0029877768953 -0.016352050985 -0.0029877768953 -0.0058491132172 -0.0001246667491
          -0.016352050985 -0.0001246667491 0.027869069729 0.057202517301 -0.0067922107068 -0.013813942253
          -0.0067922107068 -0.009224533538 0.00049322402427 -0.013813942253 0.00049322402427 0.027941624343
          0.1777273213 0.012199265865 0.0087785446038 0.012199265865 -0.018400905259 0.0073330190368
          0.0087785446038 0.0073330190368 0.1002149288 0.1762521188 0.013461205413 0.0080578604808
          0.013461205413 -0.018953819315 0.0075442022476 0.0080578604808 0.0075442022476 0.10017481959
          0.10017962803 0.0060878636212 0.010721813934 0.0060878636212 -0.0049006943815 0.0088927978351
          0.010721813934 0.0088927978351 0.080356373812 0.10605211431 0.0075049529205 0.013113922293
          0.0075049529205 -0.0048603858699 0.0070095574315 0.013113922293 0.0070095574315 0.061261237944
          0.096486082462 0.005507627669 0.01153739747 0.005507627669 -0.0048643436753 0.0049486217291
          0.01153739747 0.0049486217291 0.068261723396 0.051854024723 -0.0021220757688 -0.012458701187
          -0.0021220757688 -0.0081915262876 -0.0014275019842 -0.012458701187 -0.0014275019842 0.026552211384
          0.13743131166 0.010902730521 0.0029603784726 0.010902730521 -0.0041030569544 0.0080678988951
          0.0029603784726 0.0080678988951 0.12121344919 0.13471167814 0.0083421661512 0.0040362741118
          0.0083421661512 -0.0081547925925 0.0071408328798 0.0040362741118 0.0071408328798 0.095229534759
          0.17046323971 0.009527407681 0.018743215904 0.009527407681 -0.010806219249 0.0078812006995
          0.018743215904 0.0078812006995 0.1345062367 0.10247262247 0.0058922732244 0.0097040327356
          0.0058922732244 -0.0056266269961 0.0093942673709 0.0097040327356 0.0093942673709 0.07950025776
          0.16487635963 0.0068426651577 0.0050339649915 0.0068426651577 -0.0096648172442 0.0073200992277
          0.0050339649915 0.0073200992277 0.11405434717 0.065427916855 0.001639231595 -0.016245049071
          0.001639231595 -0.014040881169 2.9896082737e-06 -0.016245049071 2.9896082737e-06 0.020880483797
          0.15613494828 0.0094419930174 0.0066593090169 0.0094419930174 -0.0095945697019 0.0069182672032
          0.0066593090169 0.0069182672032 0.12514525079 0.05009833651 0.00039232510095 -0.0088390811351
          0.00039232510095 0.010786233707 0.0046030915062 -0.0088390811351 0.0046030915062 0.079281080934
          0.017215877943 0.0038126650166 -0.02136999569 0.0038126650166 0.010893603412 0.0044428787987
          -0.02136999569 0.0044428787987 0.07913122896 0.01281343899 0.0079048551886 -0.017068715224
          0.0079048551886 0.014397205272 -0.0016956115951 -0.017068715224 -0.0016956115951 0.075555682362
          0.036729411614 0.00061293077094 -0.023526441165 0.00061293077094 0.016592250294 -0.00075091857337
          -0.023526441165 -0.00075091857337 0.040157770343 0.12565035526 0.010891684857 4.0642993843e-05
          0.010891684857 -0.0037769269907 0.0084775696909 4.0642993843e-05 0.0084775696909 0.10394446636
          0.13442974068 0.0094290973741 0.0010096639729 0.0094290973741 -0.0073674539852 0.0083529646891
          0.0010096639729 0.0083529646891 0.10570950004 0.056428918928 0.0031622905202 -0.018648975618
          0.0031622905202 0.0026838973298 0.002948055517 -0.018648975618 0.002948055517 0.066798117633
          0.047560871258 0.0031550716869 -0.01429914744 0.0031550716869 0.009173637325 0.0047816826581
          -0.01429914744 0.0047816826581 0.065180580097 0.046551329539 0.0035949587571 -0.016260954392
          0.0035949587571 0.0091668291977 0.0071246964187 -0.016260954392 0.0071246964187 0.073348610696
          0.14200490504 0.0047357977424 0.0085277491684 0.0047357977424 -0.0039375431643 0.0085099250395
          0.0085277491684 0.0085099250395 0.14231089241 0.15793721095 0.0073187293399 0.010772799192
          0.0073187293399 -0.0036434334939 0.0090702516327 0.010772799192 0.0090702516327 0.14231787681
          0.16843767066 0.019668518184 0.012209570694 0.019668518184 -0.0015066077834 0.014571842373
          0.012209570694 0.014571842373 0.1413415885 0.15973727055 0.0053444913465 0.011633373826
          0.0053444913465 -0.0084421084458 0.0084353705125 0.011633373826 0.0084353705125 0.14292015285
          0.072886140231 0.0027247822771 -0.0081670252167 0.0027247822771 -0.02142359624 0.0027631051049
          -0.0081670252167 0.0027631051049 -0.0012587379889 0.16299580795 0.0080901255288 0.010518536828
          0.0080901255288 -0.0073961033601 0.0091981923731 0.010518536828 0.0091981923731 0.14101556354
          0.15864243933 0.009936643512 0.016806100406 0.009936643512 -0.0075868831391 0.0079975843262
          0.016806100406 0.0079975843262 0.13556366143 0.16222677173 0.0084184251719 0.020721294277
          0.0084184251719 -0.0083432224795 0.0080450729222 0.020721294277 0.0080450729222 0.13776086707
          0.16066776847 0.0055827103045 0.010772010807 0.0055827103045 -0.0039778463337 0.0081367452784
          0.010772010807 0.0081367452784 0.14171127651 0.15843295343 0.0098701148861 0.025380081253
          0.0098701148861 -0.0070267700836 0.0075826377126 0.025380081253 0.0075826377126 0.13972859974
          0.0250748077 0.040810995031 -0.080645986417 0.040810995031 0.038786861154 0.014433395863
          -0.080645986417 0.014433395863 -0.094493466328 0.065432866304 0.0044512685906 -0.015699805195
          0.0044512685906 -0.016281936514 0.0021947423899 -0.015699805195 0.0021947423899 0.0040363348536
          0.049390990826 -0.0003064162908 -0.018645238058 -0.0003064162908 -0.012203427511 0.0062647747269
          -0.018645238058 0.0062647747269 0.0079474570588 0.049702407647 0.00045608398197 -0.014258090551
          0.00045608398197 -0.011833494345 0.0071671742258 -0.014258090551 0.0071671742258 0.0050810983214
          0.039078794365 -0.0013031244866 -0.012949394999 -0.0013031244866 -0.0099939973142 0.0019212695074
          -0.012949394999 0.0019212695074 0.018924023448 0.06967151751 0.0034273799848 -0.015727270941
          0.0034273799848 -0.022220297299 0.0010681814948 -0.015727270941 0.0010681814948 0.0040090622182
          0.065999654931 -0.0013890837037 -0.011621159078 -0.0013890837037 -0.014704801784 -0.00032608707261
          -0.011621159078 -0.00032608707261 0.0027406958093 0.053712600832 7.5522358568e-05 -0.0178880308
          7.5522358568e-05 -0.013370263788 -0.0019296575782 -0.0178880308 -0.0019296575782 0.0032055667339
          0.021406991725 0.0017048206437 -0.0070787187236 0.0017048206437 0.0048294441254 0.00059917198421
          -0.0070787187236 0.00059917198421 0.034543223847 0.033762149863 -0.0020173807064 -0.012033191816
          -0.0020173807064 -0.01260361178 0.0018355148285 -0.012033191816 0.0018355148285 0.021331135266
          0.051903994952 0.00031916337014 -0.01052341659 0.00031916337014 -0.013217154422 -8.2385843e-05
          -0.01052341659 -8.2385843e-05 0.016577447252 0.053986248669 -0.00033630108442 -0.015918987543
          -0.00033630108442 -0.013059966599 0.0025035983253 -0.015918987543 0.0025035983253 0.014529567966
          0.054500126359 -0.00030090513382 -0.014695640573 -0.00030090513382 -0.013210579208 0.0036309095719
          -0.014695640573 0.0036309095719 0.010333481186 0.059497409079 0.0066534211221 0.0096263274188
          0.0066534211221 -0.01097934827 0.010670992505 0.0096263274188 0.010670992505 -0.017376392812
          0.045335463006 0.016777475846 0.0077294899106 0.016777475846 -0.015365216338 0.0066359808876
          0.0077294899106 0.0066359808876 -0.007438568168 0.14863129103 0.012144859222 -0.0020750543769
          0.012144859222 -0.0099783101556 0.0068488143964 -0.0020750543769 0.0068488143964 0.10926201697
          0.02934678834 0.020870330543 -0.010648916357 0.020870330543 -0.003891424719 0.0049159429604
          -0.010648916357 0.0049159429604 -0.017604741855 0.032209722453 0.014079320864 -0.020257966032
          0.014079320864 -0.01487440518 -0.0010628356862 -0.020257966032 -0.0010628356862 -0.015909688166
          0.052159548917 0.012107760779 -0.014484796739 0.012107760779 -0.019888929482 0.0023316607908
          -0.014484796739 0.0023316607908 -0.017256953627 0.086115942557 -0.0057423265368 -0.042600820821
          -0.0057423265368 -0.01218018041 0.012867752558 -0.042600820821 0.012867752558 -0.0047315621828
          0.054324841995 -0.0061110121276 -0.011582109822 -0.0061110121276 -0.025662714897 -0.0052267987438
          -0.011582109822 -0.0052267987438 -0.015153806754 0.04725069139 0.0012770237643 -0.020968199216
          0.0012770237643 -0.016502870599 -0.011138809001 -0.020968199216 -0.011138809001 -0.012974078576
          0.047690179726 0.011191839388 -0.022060098288 0.011191839388 -0.019923032788 0.00093615750725
          -0.022060098288 0.00093615750725 -0.016194789452 0.027906264446 0.00010252334105 -0.023256383755
          0.00010252334105 -0.010642511177 -0.00098037023218 -0.023256383755 -0.00098037023218 -0.0072690917397
          0.065535896554 0.00026212039113 -0.014434994249 0.00026212039113 -0.011935180066 0.00097756214191
          -0.014434994249 0.00097756214191 0.02117415963 0.095160472969 0.036072183308 0.0013250168105
          0.036072183308 -0.020703955354 0.0027292673631 0.0013250168105 0.0027292673631 -0.016633037496
          0.12866556982 0.0081833648168 0.0016899775374 0.0081833648168 -0.017713916757 0.0089695334668
          0.0016899775374 0.0089695334668 0.074312929077 0.1332856714 0.010711815615 0.0031769709874
          0.010711815615 -0.016455648027 0.010136543718 0.0031769709874 0.010136543718 0.073797227236
          0.13310990884 0.0077854156914 0.0037475463993 0.0077854156914 -0.019213441886 0.010408736517
          0.0037475463993 0.010408736517 0.073797457615 0.13568197145 0.005154576094 0.0020060633894
          0.005154576094 -0.017476723469 0.011002983683 0.0020060633894 0.011002983683 0.073499961069
          0.12701852122 0.002636727719 0.0040127426571 0.002636727719 -0.016441577855 0.011913285992
          0.0040127426571 0.011913285992 0.073095718212 0.12764916051 0.0078729749415 0.0027532274556
          0.0078729749415 -0.017099675416 0.008318260716 0.0027532274556 0.008318260716 0.074544084325
          0.12862846701 0.01009285921 0.0021908464405 0.01009285921 -0.012116329712 0.0064913411345
          0.0021908464405 0.0064913411345 0.068603790602 0.065018635251 0.0025025460828 -0.015289920331
          0.0025025460828 -0.01354212936 0.0038889819595 -0.015289920331 0.0038889819595 0.015524920292
          0.062369415006 0.0024758589468 -0.0071095060714 0.0024758589468 -0.01125723995 -0.00041427599691
          -0.0071095060714 -0.00041427599691 0.029905199469 0.063250107115 0.0037496365422 -0.0072391652836
          0.0037496365422 -0.0096375934872 -0.00088365684414 -0.0072391652836 -0.00088365684414 0.029567522434
          0.096777178674 0.0067343134881 0.0071438762509 0.0067343134881 0.0018087434766 0.0080774183561
          0.0071438762509 0.0080774183561 0.079008255668 0.15612321436 0.0047398989833 0.012274802622
          0.0047398989833 -0.0026748937243 0.0068555038957 0.012274802622 0.0068555038957 0.14885489273
          0.15865512441 0.0032653710016 0.012000356158 0.0032653710016 -0.0019948756903 0.0078681963726
          0.012000356158 0.0078681963726 0.14481461309 0.15016865359 0.0043429722513 0.019749028789
          0.0043429722513 -0.002674044498 0.0070991533809 0.019749028789 0.0070991533809 0.14184643814
          0.15877115023 0.0034831600616 0.01174651932 0.0034831600616 -0.0029807853538 0.0077455636757
          0.01174651932 0.0077455636757 0.14528017933 0.058925000425 7.1929920668e-05 -0.011325367346
          7.1929920668e-05 -0.012496810637 0.00042559352074 -0.011325367346 0.00042559352074 0.020293058435
          0.16447491642 0.0093898511742 0.016686817936 0.0093898511742 -0.0087945413259 0.0080089500935
          0.016686817936 0.0080089500935 0.13300620305 0.13048449704 0.012112841584 0.0042853601614
          0.012112841584 -0.0060499939122 0.0064541830585 0.0042853601614 0.0064541830585 0.11905818309
          0.13370436852 0.010836434322 0.0016391600217 0.010836434322 -0.0058144791854 0.0088892137087
          0.0016391600217 0.0088892137087 0.11413019785 0.016194521754 -0.0045876749552 -0.0055834857615
          -0.0045876749552 -0.001487388388 -0.0054604587352 -0.0055834857615 -0.0054604587352 0.0053533178274
          -0.006375278473 -0.0039528680198 0.0049646456251 -0.0039528680198 -0.00018111635485 0.003636459164
          0.0049646456251 0.003636459164 0.020834974901 -0.0069459654782 -0.017061916735 0.007071146049
          -0.017061916735 -0.004899609347 0.0043911639648 0.007071146049 0.0043911639648 0.020714265428
          0.14029492166 0.010340555679 0.0075057628142 0.010340555679 -0.0070961176362 0.0089631444482
          0.0075057628142 0.0089631444482 0.11971886437 0.13631054952 0.012817803379 0.0045768971926
          0.012817803379 -0.0058480349281 0.0073844489324 0.0045768971926 0.0073844489324 0.12171104824
          0.14694531591 0.010297015525 0.0037536724915 0.010297015525 -0.0063482318465 0.0067328771949
          0.0037536724915 0.0067328771949 0.12112167858 0.14697829044 0.010320683513 0.0035721661533
          0.010320683513 -0.0071049171009 0.0087470540229 0.0035721661533 0.0087470540229 0.11617679953
          -0.0021261053358 -0.00089284840061 0.0009289209328 -0.00089284840061 -0.0051724298733 -0.0015540876085
          0.0009289209328 -0.0015540876085 0.0048783155143 0.015655101246 0.0017886478866 0.0058696960746
          0.0017886478866 0.011397859176 0.0081269255306 0.0058696960746 0.0081269255306 0.077106712261
          0.06546085982 0.00042562629462 -0.015598842024 0.00042562629462 -0.0094246063383 -0.00012059335789
          -0.015598842024 -0.00012059335789 0.025701021017 0.055073148075 -0.00066124147732 -0.015517410643
          -0.00066124147732 -0.0091863883225 -0.00068715023108 -0.015517410643 -0.00068715023108 0.026640077763
          0.11262662674 0.0011365347523 -0.0079677828436 0.0011365347523 -0.012876048467 0.014999776994
          -0.0079677828436 0.014999776994 0.021893939965 0.032108395352 0.00129489164 -0.011314581478
          0.00129489164 -0.012770560009 0.01011556659 -0.011314581478 0.01011556659 0.002582142433
          0.01355553216 -0.0032185868918 -0.0049464289678 -0.0032185868918 -0.0032930058544 -0.0013148571002
          -0.0049464289678 -0.0013148571002 0.022635735349 0.059037119784 0.00028616023081 0.0049078219935
          0.00028616023081 0.014424170732 0.0063412149829 0.0049078219935 0.0063412149829 0.082299087053
          0.056698574861 0.004563004169 0.0077853224983 0.004563004169 0.007314606433 0.0024661800037
          0.0077853224983 0.0024661800037 0.08146169053 0.057492955523 0.0042136235036 0.0067545008715
          0.0042136235036 0.0064849228578 0.0052166595416 0.0067545008715 0.0052166595416 0.07743325625
          0.054162491414 -0.0063795013789 0.018413904412 -0.0063795013789 0.0021284336141 0.01018510884
          0.018413904412 0.01018510884 0.071774815229 0.051746827421 0.0038418919391 0.018212750897
          0.0038418919391 0.0016527907608 0.0032290918306 0.018212750897 0.0032290918306 0.073183032199
          0.077232605634 0.0039449475913 0.010512938176 0.0039449475913 0.0016274220924 0.0033965404968
          0.010512938176 0.0033965404968 0.073979936036 0.073288515554 0.0034374600043 0.014687312851
          0.0034374600043 0.0028120613223 0.0070333672778 0.014687312851 0.0070333672778 0.077248766923
          0.07363515394 0.0024886044992 0.013406333839 0.0024886044992 0.0050114138307 0.010223194366
          0.013406333839 0.010223194366 0.081730655158 0.060851819611 0.0017389203728 0.010480160306
          0.0017389203728 0.0053662659065 0.0079232318623 0.010480160306 0.0079232318623 0.092419158981
          0.061508104596 0.0038254449071 0.0075902108225 0.0038254449071 0.0092556149679 0.0043032295442
          0.0075902108225 0.0043032295442 0.093848059904 0.074453903628 -9.4077917668e-05 0.008881859966
          -9.4077917668e-05 0.0027412679305 0.0084745515961 0.008881859966 0.0084745515961 0.092567671954
          0.075872399427 0.0029111410731 0.017153901746 0.0029111410731 0.0027693873146 0.0061388617802
          0.017153901746 0.0061388617802 0.078577736731 0.076486752619 0.0038348202839 0.018163665461
          0.0038348202839 0.0015225337406 0.0092765386599 0.018163665461 0.0092765386599 0.07924227291
          0.077583620275 0.0030828487895 0.0093320373942 0.0030828487895 0.0015905633498 0.0094595501362
          0.0093320373942 0.0094595501362 0.073309441816 0.052112295409 -0.0011016386169 -0.012651553449
          -0.0011016386169 -0.0077015988487 -0.00045222058361 -0.012651553449 -0.00045222058361 0.026399751819
          -0.002446239148 -0.002567536106 0.0017290648678 -0.002567536106 0.0037851370031 0.0040059421951
          0.0017290648678 0.0040059421951 0.0037757489296 0.071466286228 0.00019302477891 0.0047757411686
          0.00019302477891 0.0077102805249 0.0094824929066 0.0047757411686 0.0094824929066 0.096217273441
          0.032833419209 0.0034919486975 0.0155345228 0.0034919486975 0.0091239848632 0.007309020336
          0.0155345228 0.007309020336 0.049592137486 0.018578948263 -0.0022918482196 0.0073683191525
          -0.0022918482196 0.0095160600516 0.002825906992 0.0073683191525 0.002825906992 0.045413330154
          0.034826400877 -0.00054823422814 0.011448865214 -0.00054823422814 0.0059774824298 0.0034114278404
          0.011448865214 0.0034114278404 0.046432310465 0.026506411756 0.0056778814735 0.010694179847
          0.0056778814735 0.0053131214708 0.00052875382705 0.010694179847 0.00052875382705 0.044203852901
          0.06221103233 -0.00078213473805 0.020515054978 -0.00078213473805 -0.0036912157187 0.002667260345
          0.020515054978 0.002667260345 0.0346822369 0.057099671766 0.012570292787 -0.033387775952
          0.012570292787 -0.017923343279 0.042644678423 -0.033387775952 0.042644678423 0.066928946069
          0.16906143329 0.011037198518 0.01705997253 0.011037198518 -0.01788138474 0.012317466897
          0.01705997253 0.012317466897 0.11452253169 0.043196595379 -0.0019381536713 -0.013115405237
          -0.0019381536713 -0.0070735158558 0.00032874089659 -0.013115405237 0.00032874089659 0.030420101681
          0.13367654475 0.01129011288 0.00036670013604 0.01129011288 -0.0054455043207 0.0093467934663
          0.00036670013604 0.0093467934663 0.11243792653 0.022132262143 -0.00015758597161 -0.0032496125259
          -0.00015758597161 -0.008388316203 -0.00017004177052 -0.0032496125259 -0.00017004177052 -0.012331439516
          0.018938631928 0.00051373169964 -0.0062248561464 0.00051373169964 -0.0045513626631 0.0073294666266
          -0.0062248561464 0.0073294666266 -0.0032247993726 -0.023574404188 -0.01036410837 -0.0011545175658
          -0.01036410837 0.0077743956746 -0.00013398936612 -0.0011545175658 -0.00013398936612 0.028627400011
          0.17157871979 0.0084020842296 0.019796900365 0.0084020842296 -0.024140825302 0.0099397507787
          0.019796900365 0.0099397507787 0.11747193084 0.085787821604 0.0039756221579 -0.0043403585731
          0.0039756221579 -0.016313602153 0.024238713268 -0.0043403585731 0.024238713268 -0.0012226822947
          0.071622116565 0.010119597386 0.0065682644099 0.010119597386 -0.010918680326 0.00065553385114
          0.0065682644099 0.00065553385114 0.025628891745 0.1058203767 0.0065662069689 -0.0030674332525
          0.0065662069689 -0.015930545155 0.015082824795 -0.0030674332525 0.015082824795 0.03084678879
          0.062821208899 0.00035905253313 -0.014238405839 0.00035905253313 -0.01036767354 0.0005737659355
          -0.014238405839 0.0005737659355 0.026343158164 0.062378485101 -0.0015742049423 -0.012535300661
          -0.0015742049423 -0.0090338268059 -0.00063865502085 -0.012535300661 -0.00063865502085 0.027288213914
          0.070551017785 0.0011047072389 -0.01179062892 0.0011047072389 -0.012448525963 -0.00079323634844
          -0.01179062892 -0.00079323634844 0.026174819966 0.069305218926 0.00010522535364 -0.011315834848
          0.00010522535364 -0.011155502814 0.00026517185979 -0.011315834848 0.00026517185979 0.026212969124
          0.18931991095 -0.01323000972 0.12206641688 -0.01323000972 -0.055615911291 0.00050105184841
          0.12206641688 0.00050105184841 0.15683379637 -0.023432129427 0.0033937570951 -0.0032290033602
          0.0033937570951 0.011104522978 0.0025428048525 -0.0032290033602 0.0025428048525 0.024168519944
          -0.018167786807 0.001970248729 -0.00076933532152 0.001970248729 0.011177870655 0.003608774827
          -0.00076933532152 0.003608774827 0.015700129845 -0.019931106304 -0.0041126809936 0.017923005474
          -0.0041126809936 0.0087390050099 -0.0041655718056 0.017923005474 -0.0041655718056 0.053509550808
          0.074758308497 2.3719116518e-05 -0.013780579011 2.3719116518e-05 -0.018041414349 0.0018740701797
          -0.013780579011 0.0018740701797 0.014053331377 0.16406063751 0.0059630497786 0.0087192759513
          0.0059630497786 -0.0050105702609 0.0053005242156 0.0087192759513 0.0053005242156 0.135669347
          0.050566732466 0.010844812256 0.0087209126083 0.010844812256 -0.0036358888612 0.0062201958471
          0.0087209126083 0.0062201958471 0.038467035635 0.067926371862 0.01114958732 0.0089578560217
          0.01114958732 -0.0087125457932 0.0035202260369 0.0089578560217 0.0035202260369 0.052659984369
          0.1496991653 0.008278509943 0.00923343256 0.008278509943 -0.0048643778461 0.0097992263923
          0.00923343256 0.0097992263923 0.12576678186 0.14178901638 0.0083989244587 0.0013067254489
          0.0083989244587 -0.0045599929407 0.0091448818021 0.0013067254489 0.0091448818021 0.11978496818
          0.14662510665 0.0030497864674 0.0041849599822 0.0030497864674 -0.0058207795081 0.010000426706
          0.0041849599822 0.010000426706 0.11922493034 0.13462740855 0.0078883815119 0.0037379707909
          0.0078883815119 -0.0047793222438 0.011326058259 0.0037379707909 0.011326058259 0.11964661053
          0.13056097111 0.0074577920179 0.0045560655682 0.0074577920179 -0.0047497468864 0.010800216494
          0.0045560655682 0.010800216494 0.12447229264 0.13268096229 0.012486120759 -0.00095731539882
          0.012486120759 -0.0023618545863 0.01120680584 -0.00095731539882 0.01120680584 0.11975065379
          0.13690839772 0.0085111723574 0.002910548835 0.0085111723574 -0.0043981479735 0.00830326784
          0.002910548835 0.00830326784 0.12319639492 0.13153678413 0.0073277814494 -0.0034098874715
          0.0073277814494 -0.0046559142502 0.0068359211331 -0.0034098874715 0.0068359211331 0.11766894251
          0.13248808812 0.0097999284035 0.0021388792938 0.0097999284035 -0.0037569582765 0.010388042926
          0.0021388792938 0.010388042926 0.12865961144 0.13206292357 0.0088629638961 -0.00011110830639
          0.0088629638961 -0.0024767224779 0.011727333584 -0.00011110830639 0.011727333584 0.12860924569
          0.033309375544 0.013856453358 -0.014218541452 0.013856453358 -0.0035356442862 0.00051658902793
          -0.014218541452 0.00051658902793 0.020836959206 0.024598044199 0.001022257603 -0.015965769643
          0.001022257603 -0.0010848620149 -0.0034554147959 -0.015965769643 -0.0034554147959 0.020578001488
          0.076963265756 0.0047382197536 -0.00020890816232 0.0047382197536 -0.023927804341 0.001273386838
          -0.00020890816232 0.001273386838 0.0020631579666 0.073477929628 0.0054834831033 0.0187579219
          0.0054834831033 -0.02046624845 0.0020849046978 0.0187579219 0.0020849046978 -0.046873097612
          0.078722187813 0.00041426038909 -0.016187340736 0.00041426038909 -0.021086491493 -0.0048704416838
          -0.016187340736 -0.0048704416838 -0.043247756904 0.1354882118 0.010497262921 0.014717819704
          0.010497262921 -0.0013571747672 0.01009986668 0.014717819704 0.01009986668 0.13782365032
          0.13376630183 0.0076586943728 0.0027106998702 0.0076586943728 -0.0083194531339 0.0094566776818
          0.0027106998702 0.0094566776818 0.10434067073 0.089528860137 0.0034389700699 -0.0061167522467
          0.0034389700699 -0.026708472654 -0.0035946976391 -0.0061167522467 -0.0035946976391 -0.025586943406
          0.06166302532 -0.0012011120589 -0.006891915291 -0.0012011120589 -0.010079278665 -0.0013814027709
          -0.006891915291 -0.0013814027709 0.031340372636 -0.016651568653 -0.036067525198 -0.045923885778
          -0.036067525198 -0.024693263609 -0.03999629884 -0.045923885778 -0.03999629884 0.088031784046
          0.05444786067 0.004584997093 -0.017067411776 0.004584997093 -0.012260259202 0.015880823335
          -0.017067411776 0.015880823335 0.029532248915 0.076998272739 0.0030509349358 0.0014960383189
          0.0030509349358 -0.0033896423906 0.0078904980181 0.0014960383189 0.0078904980181 0.027550804089
          0.17799513318 0.012204230029 0.011316333194 0.012204230029 -0.016015172642 0.011252086806
          0.011316333194 0.011252086806 0.13411913156 0.053241808616 0.0021176570454 0.0099445664507
          0.0021176570454 -0.010942558865 0.0036601471663 0.0099445664507 0.0036601471663 -0.011305877158
          0.055883513298 0.012474264801 -0.03018198498 0.012474264801 0.0080609213392 0.002287548732
          -0.03018198498 0.002287548732 0.03272220632 0.042639964834 0.0016759697207 -0.023146170794
          0.0016759697207 -0.011485112266 0.00020140573627 -0.023146170794 0.00020140573627 0.00081224976749
          0.05708503821 0.0061915786973 -0.047994140559 0.0061915786973 0.0047892633802 0.010198366206
          -0.047994140559 0.010198366206 0.0017217726952 0.058753679983 -0.0010250096527 -0.010504326534
          -0.0010250096527 -0.0093307006315 0.011517907395 -0.010504326534 0.011517907395 -0.015735581523
          0.057889903801 0.008882234414 -0.010496164319 0.008882234414 -0.015562340065 -0.00096627786918
          -0.010496164319 -0.00096627786918 -0.014306196823 0.047733881053 0.0029654288931 -0.012035562141
          0.0029654288931 -0.0085584416592 0.0034819560146 -0.012035562141 0.0034819560146 0.03010178339
          0.05937231062 0.00074793882044 -0.011174712368 0.00074793882044 -0.013921584816 -0.00018631102511
          -0.011174712368 -0.00018631102511 0.019521672204 0.061636140119 0.0019113084594 -0.016456906669
          0.0019113084594 -0.012140942252 0.0026282972493 -0.016456906669 0.0026282972493 0.026729170415
          0.03298222107 -0.0033244837044 -0.0046743892167 -0.0033244837044 -0.012366248083 0.0058521610793
          -0.0046743892167 0.0058521610793 -0.013953812983 0.15366722153 0.008905246809 0.004816481976
          0.008905246809 -0.010202254969 0.0083631334014 0.004816481976 0.0083631334014 0.1081972507
          0.075464531941 -0.00096392389023 -0.0078239543269 -0.00096392389023 -0.013140874144 -0.00042138917692
          -0.0078239543269 -0.00042138917692 0.020299090051 0.078699785744 0.0073832997836 0.0096116807782
          0.0073832997836 0.0044382370463 0.0051883692756 0.0096116807782 0.0051883692756 0.091500582772
          0.053665212962 0.002431155515 -0.013622934531 0.002431155515 -0.0098973424831 0.00075491483483
          -0.013622934531 0.00075491483483 0.02348895484 0.074220544374 0.00078136764878 -0.0086093801727
          0.00078136764878 -0.015547055882 0.0015853305524 -0.0086093801727 0.0015853305524 0.023562397586
          0.070276626687 -0.0012508010414 -0.011639827125 -0.0012508010414 -0.013794869343 0.0023801957567
          -0.011639827125 0.0023801957567 0.023217347046 0.070477308725 -0.0011309838911 -0.012069018357
          -0.0011309838911 -0.01375642431 0.0017361887856 -0.012069018357 0.0017361887856 0.019591614748
          0.070147461043 -0.00045561321816 -0.012108251268 -0.00045561321816 -0.011923154691 0.0011257730762
          -0.012108251268 0.0011257730762 0.019735304699 0.065282322704 0.0057796837185 -0.025415154691
          0.0057796837185 0.018046521519 -0.0054054028961 -0.025415154691 -0.0054054028961 -0.0084802122501
          0.027644631678 0.0026950256017 -0.011667142305 0.0026950256017 0.012766607064 0.0079788895827
          -0.011667142305 0.0079788895827 0.08611869681 -0.030597503768 0.013932735141 0.0074108537309
          0.013932735141 0.0097136560587 -0.00016352603633 0.0074108537309 -0.00016352603633 0.043066393995
          0.068914501289 0.00070954434791 -0.013069693333 0.00070954434791 -0.016641339961 -0.0012024614159
          -0.013069693333 -0.0012024614159 0.019517738997 0.068474570796 0.00018063791235 -0.013294272165
          0.00018063791235 -0.012440532383 -0.00039198062163 -0.013294272165 -0.00039198062163 0.019644466016
          0.06540464284 0.00082500658803 -0.013922946726 0.00082500658803 -0.012220521329 -0.0003857303662
          -0.013922946726 -0.0003857303662 0.019560203318 0.068168892977 0.0011147002258 -0.01315448591
          0.0011147002258 -0.013599650448 -0.00089201287991 -0.01315448591 -0.00089201287991 0.019529523634
          0.17156723494 0.0065514742442 0.020970851623 0.0065514742442 -0.013662342158 0.0056822816373
          0.020970851623 0.0056822816373 0.12678544835 0.070381803362 0.00032869985049 -0.014924103805
          0.00032869985049 -0.015855773267 0.0042102317503 -0.014924103805 0.0042102317503 0.014275399336
          0.077987727977 -0.0016706946179 -0.008780475397 -0.0016706946179 -0.015494816809 0.0030665311047
          -0.008780475397 0.0030665311047 0.01788867456 0.075522668816 0.00061348788477 -0.0061871672903
          0.00061348788477 -0.017610219899 0.00067954226915 -0.0061871672903 0.00067954226915 0.015379233228
          -0.036591730528 -0.021837973975 -0.065104593075 -0.021837973975 -0.03380396243 -0.029567508693
          -0.065104593075 -0.029567508693 0.079756871668 0.10754025181 -0.0036104977525 0.021437395495
          -0.0036104977525 -0.036813317469 0.015445075104 0.021437395495 0.015445075104 0.083013002581
          0.061880321382 0.02624416465 -0.031994835131 0.02624416465 -0.010741836256 -0.0077694646568
          -0.031994835131 -0.0077694646568 0.014576197764 0.082279675902 0.00090807901168 -0.0083441481952
          0.00090807901168 -0.018330506981 -0.00045237862365 -0.0083441481952 -0.00045237862365 0.014598476148
          0.08065927165 0.0030051828292 -0.0073220703147 0.0030051828292 -0.019637651719 0.0014959810219
          -0.0073220703147 0.0014959810219 0.021559338285 0.069672690269 0.00094455429628 -0.013570654268
          0.00094455429628 -0.014153810021 0.0019010924421 -0.013570654268 0.0019010924421 0.018429166405
          0.069768915256 0.0013717621213 -0.014301621497 0.0013717621213 -0.013707200472 0.0022684189915
          -0.014301621497 0.0022684189915 0.014981726288 0.076147466521 0.001260464189 -0.0061593057613
          0.001260464189 -0.014837351911 0.0001315848915 -0.0061593057613 0.0001315848915 0.02186072433
          0.076205752295 0.0010281123625 -0.0063876160461 0.0010281123625 -0.016186717125 -0.00025805503227
          -0.0063876160461 -0.00025805503227 0.022012629119 0.077753677703 -0.0011826316294 -0.0067367549107
          -0.0011826316294 -0.015176300389 -0.00056992620225 -0.0067367549107 -0.00056992620225 0.02178539856
          0.079149023763 -0.00077955167829 -0.034885702295 -0.00077955167829 0.016168500074 -0.0015474614378
          -0.034885702295 -0.0015474614378 -0.0020897404783 0.1320228659 0.0081638672932 -0.00056120181289
          0.0081638672932 -0.0073107404812 0.010220341424 -0.00056120181289 0.010220341424 0.098768915632
          0.080630742892 -0.0009468158722 -0.0077776492365 -0.0009468158722 -0.015524080851 0.0016523105099
          -0.0077776492365 0.0016523105099 0.014843940511 0.074066586028 -0.0051045071635 -0.0021191090605
          -0.0051045071635 -0.031266390909 -0.0051708372191 -0.0021191090605 -0.0051708372191 -0.029926057065
          0.11187813216 -0.0015810467085 -0.00077756361616 -0.0015810467085 -0.034642106147 0.0020164338109
          -0.00077756361616 0.0020164338109 -0.049813030243 0.12044424755 0.006308283962 0.0053172113662
          0.006308283962 -0.0064888248448 0.010547195605 0.0053172113662 0.010547195605 0.097935664346
          0.13287421436 0.0064894465036 0.0036306565466 0.0064894465036 -0.0072460929342 0.0099319541214
          0.0036306565466 0.0099319541214 0.097705396102 0.11919474957 0.0063368064101 0.0041357030068
          0.0063368064101 -0.0026430142145 0.0068018988508 0.0041357030068 0.0068018988508 0.097671342802
          0.11904655528 0.014141679165 0.0046780847772 0.014141679165 -0.0064541541345 0.005249782648
          0.0046780847772 0.005249782648 0.097478095141 0.11275948371 0.0070958289585 0.00076991738537
          0.0070958289585 -0.0026291159971 0.0077746291844 0.00076991738537 0.0077746291844 0.09911607582
          0.12472358407 0.0083087320783 0.0035856926174 0.0083087320783 -0.0066923568331 0.0094822536093
          0.0035856926174 0.0094822536093 0.10243457812 0.16540713879 0.0084441574648 0.0078665510264
          0.0084441574648 -0.0077476702126 0.0093300598231 0.0078665510264 0.0093300598231 0.13737787476
          0.16537715292 0.0080820239962 0.0076811452139 0.0080820239962 -0.0092095985361 0.007358946443
          0.0076811452139 0.007358946443 0.13625615965 0.16935587282 0.0086275891826 0.0052721439552
          0.0086275891826 -0.0094265071009 0.0090583882709 0.0052721439552 0.0090583882709 0.1235916306
          0.16544250127 0.008663532851 0.008032442394 0.008663532851 -0.015133105755 0.0090250356493
          0.008032442394 0.0090250356493 0.13795259066 0.16204220684 0.007746094681 0.013331046933
          0.007746094681 -0.0095475173263 0.0083740487499 0.013331046933 0.0083740487499 0.1311824394
          0.16228896182 0.0087755465671 0.0062761392525 0.0087755465671 -0.0092024178963 0.0075064667514
          0.0062761392525 0.0075064667514 0.12629849591 0.16224144601 0.0090899885761 0.0059331814605
          0.0090899885761 -0.01102228851 0.0093187279534 0.0059331814605 0.0093187279534 0.12462439973
          0.15867829867 0.010300744085 0.0091869932835 0.010300744085 -0.0072025766267 0.010392706427
          0.0091869932835 0.010392706427 0.12277587869 0.16208798152 0.0092552465684 0.0067984548581
          0.0092552465684 -0.011181159934 0.0081616146043 0.0067984548581 0.0081616146043 0.12240631466
          0.16068723374 0.012457918512 0.0060482472041 0.012457918512 -0.0088560618927 0.0076148809214
          0.0060482472041 0.0076148809214 0.1262856638 0.16157586603 0.011482956316 0.0038001370333
          0.011482956316 -0.011526178776 0.0081598859118 0.0038001370333 0.0081598859118 0.13098578438
          0.16595082791 0.0088127122232 0.0053672922534 0.0088127122232 -0.0098977333975 0.0072617548141
          0.0053672922534 0.0072617548141 0.12898410909 0.16051619197 0.011417474094 0.013352061482
          0.011417474094 -0.0088748108749 0.007326474109 0.013352061482 0.007326474109 0.13128672509
          0.035677923755 0.0025441422468 -0.0086246521388 0.0025441422468 -0.0039270977589 -0.00055276624366
          -0.0086246521388 -0.00055276624366 0.032136710481 0.040414267808 0.0036166854495 -0.0074861661241
          0.0036166854495 -0.006535355791 0.00022461474081 -0.0074861661241 0.00022461474081 0.0323156879
          0.046574913825 0.0039827765084 -0.0065145560886 0.0039827765084 -0.0065210378792 0.00016677977997
          -0.0065145560886 0.00016677977997 0.030672852072 0.049139226357 0.0044233386859 -0.0066200768427
          0.0044233386859 -0.0076665422524 -0.0012481883528 -0.0066200768427 -0.0012481883528 0.029079448449
          0.13304283081 0.0092996261516 6.549435717e-06 0.0092996261516 -0.0094180510033 0.009438073667
          6.549435717e-06 0.009438073667 0.093737715324 0.050629887372 -0.00040821897157 -0.0071656592944
          -0.00040821897157 -0.008117401852 0.0035960355934 -0.0071656592944 0.0035960355934 0.028691893656
          0.040890077025 0.0054109972858 -0.0071409590889 0.0054109972858 -0.009012822881 0.00046863127188
          -0.0071409590889 0.00046863127188 0.032445098741 0.042096552328 -0.0016357813239 -0.01156410948
          -0.0016357813239 -0.0070263412875 -0.00022464809269 -0.01156410948 -0.00022464809269 0.028356197356
          0.12601780302 0.0082115604895 0.0029670650348 0.0082115604895 -0.0078298337161 0.009885851902
          0.0029670650348 0.009885851902 0.08885886222 0.047521656928 0.0022286418333 -0.018009934178
          0.0022286418333 -0.0052254836049 0.0032329291718 -0.018009934178 0.0032329291718 0.027150574262
          0.037034147568 0.0016902844622 -0.0078885355606 0.0016902844622 -0.0043930939931 0.00038268737617
          -0.0078885355606 0.00038268737617 0.030586292232 0.0099576769296 -0.0016241282634 -0.0057574039947
          -0.0016241282634 -0.0061182763745 0.0025252504784 -0.0057574039947 0.0025252504784 -0.0031743560445
          0.036312284124 -0.0064800508482 -0.0094227039353 -0.0064800508482 -0.0070510813742 0.0012942681794
          -0.0094227039353 0.0012942681794 -0.0046531246933 0.035748286958 -0.00023995223358 -0.019278140404
          -0.00023995223358 -0.006212072502 0.00042605489611 -0.019278140404 0.00042605489611 -0.0073103049016
          0.039830991962 0.013493676431 -0.005263859608 0.013493676431 -0.015889839354 -0.0013922572867
          -0.005263859608 -0.0013922572867 -0.0021057427952 0.035591835925 -0.00014054048664 -0.0098903891051
          -0.00014054048664 -0.0061989071554 0.0010994798314 -0.0098903891051 0.0010994798314 0.0067271870202
          0.034567006558 -0.0028928298133 -0.006254681411 -0.0028928298133 -0.0013129442863 -0.002209548127
          -0.006254681411 -0.002209548127 0.0077493134354 0.061745881402 0.0012114034761 -0.014461355678
          0.0012114034761 -0.01466322571 0.00033649688018 -0.014461355678 0.00033649688018 0.020337884051
          0.064581535442 -0.0010633312771 -0.013550697366 -0.0010633312771 -0.010810352859 -0.000774647189
          -0.013550697366 -0.000774647189 0.028482237741 0.049736798652 -0.0072015374174 -0.0040748505542
          -0.0072015374174 -0.0095920914596 -0.0066501416827 -0.0040748505542 -0.0066501416827 0.0011860482022
          0.047877840131 0.0013730890753 -0.010827095263 0.0013730890753 -0.016284602305 0.00033541813763
          -0.010827095263 0.00033541813763 -0.0055761415666 0.066961603565 0.0071870565232 -0.055803538377
          0.0071870565232 0.010144323076 0.0047895151918 -0.055803538377 0.0047895151918 0.034580708252
          0.16357635547 0.0077907791378 0.0022439230734 0.0077907791378 -0.014379188223 0.0085044552482
          0.0022439230734 0.0085044552482 0.10787113702 0.054823468625 0.0023024885717 -0.039694575921
          0.0023024885717 0.0064902080599 0.0042264525826 -0.039694575921 0.0042264525826 0.020118008527
          0.047248211331 0.00087243973739 -0.040786936005 0.00087243973739 0.012214528512 0.011543916331
          -0.040786936005 0.011543916331 0.024065457162 0.066631692315 -0.0023942302658 -0.016461757893
          -0.0023942302658 -0.026901647739 -0.0001144250528 -0.016461757893 -0.0001144250528 0.0035019870132
          0.01772054013 0.0074146922836 -0.013951117572 0.0074146922836 0.018138654947 0.0048590012915
          -0.013951117572 0.0048590012915 0.08791576831 0.019753914887 0.0040183735507 0.0084354098005
          0.0040183735507 0.0003559021058 0.0087502575615 0.0084354098005 0.0087502575615 0.054166291849
          0.057372768235 -0.00049832208147 -0.011845508052 -0.00049832208147 -0.015458151869 0.0040100984844
          -0.011845508052 0.0040100984844 0.004216260887 0.078656231322 -0.0018808038792 -0.009634150896
          -0.0018808038792 -0.021451008904 0.0012259421378 -0.009634150896 0.0012259421378 0.0051699167076
          0.05557169957 -0.0017520332313 -0.014013149634 -0.0017520332313 -0.019832816464 -0.001482602093
          -0.014013149634 -0.001482602093 0.0078714645724 0.11981145344 0.0050690849821 -0.00091852785864
          0.0050690849821 -0.0035156688296 0.0091954082124 -0.00091852785864 0.0091954082124 0.11106860571
          0.059505428426 -0.0015491299769 -0.041926527685 -0.0015491299769 0.0099194138563 0.0008220297722
          -0.041926527685 0.0008220297722 0.029835304338 0.12110049106 0.0085775311652 0.010664705958
          0.0085775311652 -0.0031837251506 0.0077703146023 0.010664705958 0.0077703146023 0.10900575922
          0.1370391774 0.0097886181302 0.0060510686613 0.0097886181302 -0.002652409255 0.0091867005083
          0.0060510686613 0.0091867005083 0.12013154597 0.066871080802 -0.0014561399155 -0.01439055315
          -0.0014561399155 -0.016749311429 -0.0029428285663 -0.01439055315 -0.0029428285663 -0.0037119424422
          0.068517332554 0.0031981099257 -0.0094826154664 0.0031981099257 -0.017220936605 0.0022056890486
          -0.0094826154664 0.0022056890486 0.0053321581122 0.085202165757 0.0091703198978 0.010067218737
          0.0091703198978 -0.00044762969993 0.006256361862 0.010067218737 0.006256361862 0.077685543564
          0.054618545331 0.0014263868793 -0.008952191062 0.0014263868793 -0.015095104323 0.0046207455885
          -0.008952191062 0.0046207455885 -0.018686923466 0.093193741981 0.00072048771375 -0.0089327922743
          0.00072048771375 -0.024663671925 -0.0018810402858 -0.0089327922743 -0.0018810402858 0.0030688804109
          0.077706837954 0.00050558339181 -0.005957638211 0.00050558339181 -0.022246092264 0.00093532029259
          -0.005957638211 0.00093532029259 0.0056788420144 0.0033706646698 0.039170986573 -0.042827780918
          0.039170986573 -0.013539371056 0.038738948724 -0.042827780918 0.038738948724 -0.024323345261
          0.066126498858 1.8930800228e-06 -0.01936462653 1.8930800228e-06 -0.013582518124 0.0025756566432
          -0.01936462653 0.0025756566432 0.0071471775079 0.042427343409 -0.00029482707348 -0.011407998181
          -0.00029482707348 -0.013585833864 0.0026993562194 -0.011407998181 0.0026993562194 0.0059281306388
          0.065531280756 0.0021277170137 -0.018497005968 0.0021277170137 -0.015671553343 -0.0040670767447
          -0.018497005968 -0.0040670767447 0.0081647516789 0.13768754152 0.0094286611019 -0.0012437591976
          0.0094286611019 -0.0018778731876 0.010826958408 -0.0012437591976 0.010826958408 0.13205234724
          0.13515788331 0.012358032321 0.00072523278945 0.012358032321 -0.00019570552544 0.0074442738045
          0.00072523278945 0.0074442738045 0.13075932424 0.12625329763 0.011071444777 0.0046014191491
          0.011071444777 0.0017384807071 0.0074785653728 0.0046014191491 0.0074785653728 0.12920239652
          0.12580411938 0.011554265342 0.0023037980061 0.011554265342 -0.00050711534897 0.0090658769294
          0.0023037980061 0.0090658769294 0.12788827942 -0.0074248699033 0.00012028574069 -0.0020997073828
          0.00012028574069 0.0052018648953 -0.0031835430295 -0.0020997073828 -0.0031835430295 0.016672535679
          0.022929799775 -0.0025739796461 0.001391670752 -0.0025739796461 9.092991863e-05 0.0071976919152
          0.001391670752 0.0071976919152 0.0071355226825 0.051309990894 -0.0044507561445 -0.001165618066
          -0.0044507561445 -0.0042217888793 0.0054070674938 -0.001165618066 0.0054070674938 -0.0099145393565
          0.02465536725 0.0019467696888 0.00048510988816 0.0019467696888 -0.0040330165188 0.0022624751097
          0.00048510988816 0.0022624751097 -0.0056360047351 0.02499127134 0.0017907380346 0.002521109958
          0.0017907380346 -0.0045491853461 0.00010572861286 0.002521109958 0.00010572861286 0.0042133734295
          0.026762278883 0.0019885961227 0.00022368613333 0.0019885961227 -0.0052471500117 0.0014795919315
          0.00022368613333 0.0014795919315 0.0035014900434 0.030686099847 0.0034452862599 0.012794109372
          0.0034452862599 -0.0048967153366 0.0027661227147 0.012794109372 0.0027661227147 -0.016250475808
          0.027059147916 -0.0042954210306 -0.0036211282093 -0.0042954210306 0.0063891115037 0.00016853479262
          -0.0036211282093 0.00016853479262 -0.003044390144 0.029784025208 -0.0069135386453 0.001664874794
          -0.0069135386453 -0.0069349415117 0.008096330876 0.001664874794 0.008096330876 -0.0034705053288
          0.031964530588 -0.0028174159283 0.012387418123 -0.0028174159283 -0.012594343744 1.767028189e-05
          0.012387418123 1.767028189e-05 -0.01038277274 0.17475579326 0.0078556773573 0.017672848629
          0.0078556773573 -0.011509507525 0.0068221940915 0.017672848629 0.0068221940915 0.12839414984
          0.16680162234 0.0089948880758 0.020668834356 0.0089948880758 -0.011357297186 0.0075394467889
          0.020668834356 0.0075394467889 0.13143255214 0.16833428814 0.012105667237 0.021232733877
          0.012105667237 -0.013473087618 0.0081009779968 0.021232733877 0.0081009779968 0.13159970306
          0.17363068132 0.010992271016 0.017369165075 0.010992271016 -0.013352696353 0.0080817766769
          0.017369165075 0.0080817766769 0.12833689447 0.17342187495 0.012458559505 0.018093083635
          0.012458559505 -0.019347176947 0.0032825163864 0.018093083635 0.0032825163864 0.12584589784
          0.18697169681 0.0063475430764 0.015140762007 0.0063475430764 -0.016708620785 0.0044413310341
          0.015140762007 0.0044413310341 0.12623543002 0.18755938414 0.0081775414914 0.014621309534
          0.0081775414914 -0.022494226438 0.010667677099 0.014621309534 0.010667677099 0.12133702197
          0.17375359758 0.012102987772 0.016990086584 0.012102987772 -0.021908122789 0.0094360320047
          0.016990086584 0.0094360320047 0.12111358539 -0.015057383327 -0.0056462358607 -0.0067531637567
          -0.0056462358607 0.001964125739 -0.0055052038756 -0.0067531637567 -0.0055052038756 0.0028917361045
          0.0057986240195 0.0015494993811 0.0080933308651 0.0015494993811 0.0043185953811 0.0011060412036
          0.0080933308651 0.0011060412036 -0.0038316529486 0.0650715904 0.0054968001124 -0.0046544273933
          0.0054968001124 -0.0083409937524 0.0016910487812 -0.0046544273933 0.0016910487812 0.030825506525
          0.059363623302 0.0030980736145 -0.0081513961518 0.0030980736145 -0.008615735634 0.00073861049876
          -0.0081513961518 0.00073861049876 0.028764101822 0.051927435224 0.0030043771579 -0.0080049045461
          0.0030043771579 -0.0074489933987 0.0023603817256 -0.0080049045461 0.0023603817256 0.031218792737
          0.039912266625 0.00028967762702 0.010536252119 0.00028967762702 0.0056774995827 0.0029256611357
          0.010536252119 0.0029256611357 0.06395444456 0.066237514113 0.0023674120962 0.0096159512777
          0.0023674120962 0.0053193099793 4.5880056122e-05 0.0096159512777 4.5880056122e-05 0.048895787976
          0.019305522654 0.0059736257889 0.0096041979721 0.0059736257889 0.0053629234693 0.00098587852147
          0.0096041979721 0.00098587852147 0.05164560584 0.020786517397 0.0027931373923 0.0067665076057
          0.0027931373923 0.012182538312 0.0074762338107 0.0067665076057 0.0074762338107 0.042259786885
          0.021069924407 -0.00033788321098 0.011688621844 -0.00033788321098 0.0057582147154 0.0032414356132
          0.011688621844 0.0032414356132 0.066441498618 0.020691195625 0.0038935586553 0.005524525224
          0.0038935586553 0.012158923644 0.00087513923836 0.005524525224 0.00087513923836 0.060654710625
          0.021366227975 0.0084596143815 0.001608451698 0.0084596143815 0.016344398339 0.00061322250853
          0.001608451698 0.00061322250853 0.057610549862 0.0407946707 -0.002669344621 -0.010336606487
          -0.002669344621 -0.0070111219238 -0.0025788817844 -0.010336606487 -0.0025788817844 0.025660793638
          0.044837069676 -0.011712922021 -0.011266102965 -0.011712922021 -0.0039200646265 -0.00022078496385
          -0.011266102965 -0.00022078496385 0.025869989472 0.041661430951 -0.00041783785581 -0.0076599455698
          -0.00041783785581 -0.0044327677242 0.00052916806753 -0.0076599455698 0.00052916806753 0.029406087548
          0.037531505068 0.0010082486015 -0.006986824007 0.0010082486015 -0.0045855215318 0.00091071968755
          -0.006986824007 0.00091071968755 0.030406171427 0.11231247 0.0038322502194 0.015110863646
          0.0038322502194 0.0016073738098 -0.0025693549871 0.015110863646 -0.0025693549871 0.10412576429
          0.11629300537 0.0085663381691 0.019782578017 0.0085663381691 0.0069308479129 0.0054077861038
          0.019782578017 0.0054077861038 0.090505110352 0.11587265096 0.0093013253097 0.015142689807
          0.0093013253097 0.0071167144663 0.0017263755716 0.015142689807 0.0017263755716 0.13385477242
          0.061398948754 0.012478750635 0.0027217334036 0.012478750635 0.0076845095564 0.002998461697
          0.0027217334036 0.002998461697 0.13142070253 0.066355964652 0.0088207959798 0.0014174449072
          0.0088207959798 0.0094188347058 0.003494397673 0.0014174449072 0.003494397673 0.13153833039
          0.072470804705 0.011472576632 0.0072462004849 0.011472576632 0.0098743816151 0.0064892521891
          0.0072462004849 0.0064892521891 0.13678014666 0.084150342155 0.0024773564202 -0.0058462295616
          0.0024773564202 -0.03688160713 0.0064032531452 -0.0058462295616 0.0064032531452 -0.036035600646
          0.083951621606 0.0048402583004 -0.0017323959468 0.0048402583004 0.010223477351 0.0057416738537
          -0.0017323959468 0.0057416738537 0.10752788249 0.082249193905 0.0076062091797 0.0012964563494
          0.0076062091797 0.0087521051912 0.0046517955998 0.0012964563494 0.0046517955998 0.10699523888
          0.078015141999 0.0054147613624 0.0073034584468 0.0054147613624 0.0081071657756 0.0093405504889
          0.0073034584468 0.0093405504889 0.10357269563 0.068494255484 0.0030747638176 0.01247701435
          0.0030747638176 -0.021786923709 0.0107824007 0.01247701435 0.0107824007 -0.022158559199
          -0.017578627658 -0.031163856794 -0.0075448447454 -0.031163856794 -0.012753368931 -0.0046107669886
          -0.0075448447454 -0.0046107669886 0.013397172512 0.0083668242979 -0.0057411561227 -0.01148145654
          -0.0057411561227 -0.0079677994694 -0.009874707451 -0.01148145654 -0.009874707451 0.013896142426
          0.0067107549369 -0.0044144430584 -0.017590483064 -0.0044144430584 0.0038879918716 0.00047633202202
          -0.017590483064 0.00047633202202 -0.0063341928668 -0.0023584707494 -0.0046991904719 -0.022373928053
          -0.0046991904719 0.0011811793273 0.00049800052624 -0.022373928053 0.00049800052624 0.012213131632
          -0.017095908353 -0.0041158621027 -0.009529682877 -0.0041158621027 0.0018540851822 0.0028106562343
          -0.009529682877 0.0028106562343 0.012453325143 -0.031788597298 0.001832962596 -0.011622918454
          0.001832962596 0.002308950782 0.0041293090046 -0.011622918454 0.0041293090046 0.012232624797
          -0.03205091806 -0.014970482622 -0.032844310134 -0.014970482622 0.001079989313 -0.00025937304662
          -0.032844310134 -0.00025937304662 0.0031151581281 -0.02404610899 0.0072195012337 0.018045207557
          0.0072195012337 0.0037084853174 0.0066093758611 0.018045207557 0.0066093758611 0.0051379674314
          -0.02586530486 0.0063118490552 0.014899485956 0.0063118490552 0.0036589448518 0.0020607943847
          0.014899485956 0.0020607943847 0.021703456009 -0.018884125648 0.0029170081488 0.0079713289571
          0.0029170081488 0.0049206879377 0.0058932651046 0.0079713289571 0.0058932651046 0.028027096035
          -0.018503057879 0.0021641137662 0.0097530344784 0.0021641137662 0.004665711093 -0.00032187992413
          0.0097530344784 -0.00032187992413 0.032189603391 -0.017161205205 0.0057980718368 0.0021556484889
          0.0057980718368 0.0032010626907 0.0040252698599 0.0021556484889 0.0040252698599 0.020268477753
          -0.019103045912 0.0047414988659 -0.00044534858335 0.0047414988659 0.0034084611734 0.0015942600134
          -0.00044534858335 0.0015942600134 0.018103545381 -0.021553902979 0.0019894329424 0.020439720333
          0.0019894329424 0.0053872170795 0.0032977751861 0.020439720333 0.0032977751861 0.0071228223958
          0.12855481356 0.01038016402 0.0022730487779 0.01038016402 -0.0059204366513 0.0080963891249
          0.0022730487779 0.0080963891249 0.096487474412 0.080735950269 -0.0019992403345 -0.010048417824
          -0.0019992403345 -0.017346689721 -0.001176468319 -0.010048417824 -0.001176468319 0.0071579844146
          0.071120346341 0.00032943721414 -0.0075615199911 0.00032943721414 -0.015910094309 0.0034018577435
          -0.0075615199911 0.0034018577435 0.019930406597 0.07020149605 0.00057073887666 -0.013040009029
          0.00057073887666 -0.015673043488 0.0017984055269 -0.013040009029 0.0017984055269 0.018072126625
          0.069773205801 0.0014236027127 -0.01121439565 0.0014236027127 -0.0166786825 0.00082364909323
          -0.01121439565 0.00082364909323 0.020509866261 0.065502991483 -0.00047455143154 -0.014587178756
          -0.00047455143154 -0.01552538782 3.8412641723e-05 -0.014587178756 3.8412641723e-05 0.022834715903
          0.065732534641 0.00088636346161 -0.015879661555 0.00088636346161 -0.012421682624 -0.0010011186976
          -0.015879661555 -0.0010011186976 0.021276489952 0.072033813533 0.004518225927 -0.007318491821
          0.004518225927 -0.01343090015 0.0074043931421 -0.007318491821 0.0074043931421 0.029024518465
          0.074052644359 0.0015059259623 -0.0067969652036 0.0015059259623 -0.014614833292 -0.00017001926999
          -0.0067969652036 -0.00017001926999 0.021025375999 0.080180405445 0.00060957214646 -0.0067020897284
          0.00060957214646 -0.016988781052 0.0022323550062 -0.0067020897284 0.0022323550062 0.018696255649
          0.087288304108 0.00051688790077 -0.0051501392793 0.00051688790077 -0.018774578947 -0.0025304842088
          -0.0051501392793 -0.0025304842088 0.0064485436489 0.087129766086 0.00083783050962 -0.0056321249982
          0.00083783050962 -0.018078999102 0.0013992227603 -0.0056321249982 0.0013992227603 0.011469537575
          0.030239423921 -0.010771003526 0.00049828231215 -0.010771003526 -0.022493914247 0.0051202964006
          0.00049828231215 0.0051202964006 -0.0020708765398 0.12020659958 0.0046010493461 -0.0011832931637
          0.0046010493461 -0.019708081792 0.0063446603188 -0.0011832931637 0.0063446603188 0.077395804239
          0.098565848115 0.0083180994156 0.0031754151842 0.0083180994156 0.0015356748629 0.0072827900229
          0.0031754151842 0.0072827900229 0.097520260765 0.086364002885 -0.00012022302289 -0.0053722397145
          -0.00012022302289 -0.019002833499 0.0019200571729 -0.0053722397145 0.0019200571729 0.01152069349
          0.085105343826 -0.00038500169234 -0.010170691485 -0.00038500169234 -0.023731674325 0.001811021227
          -0.010170691485 0.001811021227 0.010285139788 0.071288721502 0.002656881104 0.013255697735
          0.002656881104 0.010409724789 0.00020386600773 0.013255697735 0.00020386600773 0.127417339
          0.061623701891 -0.0026397127204 0.0097834457594 -0.0026397127204 0.0082686334658 0.010897624429
          0.0097834457594 0.010897624429 0.12218873333 0.10121138895 -0.0051040795786 0.006233397856
          -0.0051040795786 0.0050907803234 0.0093260557847 0.006233397856 0.0093260557847 0.1215425028
          0.070544982643 0.0036143530809 -0.002414317726 0.0036143530809 -0.020385380209 -0.0045315104187
          -0.002414317726 -0.0045315104187 0.0016855293141 0.055954589824 0.0010443817506 -0.007958742125
          0.0010443817506 -0.0094561538488 0.00081737804215 -0.007958742125 0.00081737804215 0.029744476919
          0.089471891825 0.01146477522 -0.007049002483 0.01146477522 0.035447231358 0.0046051927286
          -0.007049002483 0.0046051927286 -0.015032375224 0.054976690504 0.00080923931278 -0.012530219694
          0.00080923931278 -0.011407428625 0.00035917859404 -0.012530219694 0.00035917859404 0.022846125738
          0.052579244198 -0.0032531585658 -0.016417384176 -0.0032531585658 -0.0060847624023 -0.00053308391157
          -0.016417384176 -0.00053308391157 0.019200100263 0.05430646232 0.00065640659395 -0.017533609818
          0.00065640659395 -0.0091540353386 -0.00060806372784 -0.017533609818 -0.00060806372784 0.019417184522
          0.046346539732 0.0035802403326 -0.016398987259 0.0035802403326 -0.0087670254144 0.0021025893558
          -0.016398987259 0.0021025893558 0.025950066706 0.043542877502 0.0018394679803 -0.014312101445
          0.0018394679803 -0.0063759175152 0.0022384362032 -0.014312101445 0.0022384362032 0.024784195398
          0.054783878012 0.0021738442216 -0.018008905794 0.0021738442216 -0.0072511392365 0.0011333236099
          -0.018008905794 0.0011333236099 0.02488116542 0.060044256057 0.0011464417002 -0.013355455109
          0.0011464417002 -0.009498892113 0.00047314015382 -0.013355455109 0.00047314015382 0.025622457251
          0.14175390775 0.012168477779 -0.00055841387759 0.012168477779 -0.0084758535869 0.0070767919432
          -0.00055841387759 0.0070767919432 0.11176784927 0.132871664 0.011612811872 0.0025819945028
          0.011612811872 -0.0055705520473 0.0083860591238 0.0025819945028 0.0083860591238 0.1075563389
          0.050798080617 0.0035586278573 0.017720750993 0.0035586278573 -0.010408935381 0.0043312068929
          0.017720750993 0.0043312068929 0.012296958355 0.098984909505 0.0041390313431 -0.0011327714244
          0.0041390313431 -0.030405700932 -0.0033041012435 -0.0011327714244 -0.0033041012435 -0.028250939442
          0.060788142955 0.0035330525206 -0.010774932483 0.0035330525206 -0.016854537224 0.0038949239733
          -0.010774932483 0.0038949239733 -0.018311471769 0.05515093128 -0.00035402619117 0.020454929809
          -0.00035402619117 -0.0096450609184 0.0070248080114 0.020454929809 0.0070248080114 0.0043759264446
          0.060508707396 0.0033406123306 0.0026359820629 0.0033406123306 -0.014336472982 0.0016591671591
          0.0026359820629 0.0016591671591 0.033425043219 -0.017523416949 0.00084393007359 -3.5243655536e-05
          0.00084393007359 0.0074259951885 -0.0010725804636 -3.5243655536e-05 -0.0010725804636 0.0049470797195
          0.0225515009 0.00027039004208 -0.019396978913 0.00027039004208 -0.0025961477954 0.0029165334703
          -0.019396978913 0.0029165334703 -0.010505425313 -0.011305906602 -0.0032385473147 -0.00033849200673
          -0.0032385473147 0.001333862197 0.0026108803638 -0.00033849200673 0.0026108803638 0.0035779606462
          -0.017468403255 0.0018047244506 0.0018993881154 0.0018047244506 0.010176693855 0.00155037996
          0.0018993881154 0.00155037996 0.0037514652959 0.15273227127 0.0084401665992 0.0054584234409
          0.0084401665992 -0.0023545382779 0.0087804746949 0.0054584234409 0.0087804746949 0.13322058119
          0.15192092274 0.013521947666 0.0056969288539 0.013521947666 -0.0044958055858 0.0082828308979
          0.0056969288539 0.0082828308979 0.13891054617 0.15912135354 0.01495914747 0.0092845164546
          0.01495914747 -0.0073429691704 0.0087168332732 0.0092845164546 0.0087168332732 0.14252711545
          0.040246496584 -0.0012108164878 -0.013586493075 -0.0012108164878 -0.0061600237867 -0.0044264284972
          -0.013586493075 -0.0044264284972 0.011571814402 0.040145206764 -0.0038702829282 -0.014761099411
          -0.0038702829282 -0.011259058591 0.001070065493 -0.014761099411 0.001070065493 0.018349350437
          0.04211828731 -0.0027455627545 -0.021242103772 -0.0027455627545 -0.0087027762234 -0.00133178256
          -0.021242103772 -0.00133178256 0.010482631868 0.054995397402 0.0001644042363 -0.017107640689
          0.0001644042363 -0.0090278799821 -0.0013143166658 -0.017107640689 -0.0013143166658 0.010954692184
          0.13012733992 0.0055624996505 0.007625557589 0.0055624996505 -0.014626673458 0.013547553627
          0.007625557589 0.013547553627 0.070934629635 0.12663547721 0.0074751419269 0.0092483606077
          0.0074751419269 -0.013530289961 0.0086727946947 0.0092483606077 0.0086727946947 0.077590478442
          0.034553081436 -0.0028820052498 -0.017175511372 -0.0028820052498 -0.0023591826071 -0.0013743115271
          -0.017175511372 -0.0013743115271 0.024098819195 0.034611439493 -0.003034671439 -0.017020503694
          -0.003034671439 -0.0063402031814 -0.0036392160347 -0.017020503694 -0.0036392160347 0.023721260736
          0.080582945543 0.0084861087613 0.0048179528978 0.0084861087613 -0.0069233238757 0.0029362108563
          0.0048179528978 0.0029362108563 0.069085325859 0.07083572448 0.0010135792827 -0.012200213479
          0.0010135792827 -0.015640299721 -0.00086617713753 -0.012200213479 -0.00086617713753 0.013781544155
          0.080572888592 0.0018606316014 -0.0038427163291 0.0018606316014 -0.029784625002 0.0033076825494
          -0.0038427163291 0.0033076825494 -0.011391174002 0.11407705624 0.0083367153169 -0.00065402367923
          0.0083367153169 0.00021949501269 0.011704881405 -0.00065402367923 0.011704881405 0.12312597039
          0.080253496808 0.0060694735918 -0.0035561640724 0.0060694735918 -0.022714713158 0.0041054033471
          -0.0035561640724 0.0041054033471 -0.011313721752 0.11420918776 0.0088137428308 -0.00067005758865
          0.0088137428308 -0.0013369312639 0.0072441613258 -0.00067005758865 0.0072441613258 0.11721537333
          0.11246410104 0.0078437561966 0.0014121767239 0.0078437561966 0.00082843462275 0.0090768247799
          0.0014121767239 0.0090768247799 0.11489946134 0.12769241152 0.0086059192867 0.0056391708508
          0.0086059192867 -0.0025993207048 0.011087853951 0.0056391708508 0.011087853951 0.12320330153
          0.13831502918 0.0065218962295 0.0019162716586 0.0065218962295 -0.002217483415 0.011944866082
          0.0019162716586 0.011944866082 0.12391467679 0.12332175208 0.010084435464 -0.00059946045138
          0.010084435464 -0.0011930395355 0.0067146951206 -0.00059946045138 0.0067146951206 0.12002626609
          0.12200133637 0.011925452363 0.00099603049903 0.011925452363 0.00041954339855 0.011277469894
          0.00099603049903 0.011277469894 0.12912080924 0.16249195115 0.011017972888 0.015099854972
          0.011017972888 -0.011064623818 0.0085987290973 0.015099854972 0.0085987290973 0.13290567243
          0.20186246437 -0.0043841983767 0.030554704476 -0.0043841983767 -0.033695980425 0.0076777936043
          0.030554704476 0.0076777936043 0.043743316058 0.19169588224 0.024634180131 0.048636002015
          0.024634180131 -0.04075962014 -0.017671193202 0.048636002015 -0.017671193202 0.020687748442
          0.20521327901 0.021838869303 0.029135792907 0.021838869303 -0.047368517779 -0.0056180577673
          0.029135792907 -0.0056180577673 0.039867779996 0.17036565705 0.017880305594 0.0059032013346
          0.017880305594 -0.04014283845 0.013010437684 0.0059032013346 0.013010437684 0.083309267237
          0.16544238776 0.024317479653 0.0055310323561 0.024317479653 -0.038527934117 -0.0030990625661
          0.0055310323561 -0.0030990625661 0.11073771191 0.17883047296 0.0044962289755 0.017235776865
          0.0044962289755 -0.030249394572 0.0058192582519 0.017235776865 0.0058192582519 0.088269360139
          0.18327475438 0.005227861002 0.014032003125 0.005227861002 -0.0343151505 0.0066475038536
          0.014032003125 0.0066475038536 0.090139864146 -0.056473178479 -0.00011128164979 -0.00082357066317
          -0.00011128164979 0.015376427302 0.0070674363353 -0.00082357066317 0.0070674363353 0.047325705624
          -0.021381446344 0.0047727596588 0.010227833238 0.0047727596588 0.013832585392 -0.002031476817
          0.010227833238 -0.002031476817 0.042008261578 0.035589700673 -0.0088473356308 -0.0016285924875
          -0.0088473356308 -0.013442012223 -0.001520645516 -0.0016285924875 -0.001520645516 -0.015583204035
          0.03592204853 0.0041831919306 -0.016975956239 0.0041831919306 -0.0043986243157 -0.0095295581055
          -0.016975956239 -0.0095295581055 -0.0092764297662 0.015680386833 0.00016268635371 -0.019180313166
          0.00016268635371 -0.0040100475219 -0.012948069545 -0.019180313166 -0.012948069545 -0.0020326910713
          0.068351427091 0.0022135832226 -0.01281181902 0.0022135832226 -0.012926100389 0.00041235063682
          -0.01281181902 0.00041235063682 0.028507123473 0.070904567221 0.0041073489634 -0.012091209445
          0.0041073489634 -0.011550216775 0.00085292886213 -0.012091209445 0.00085292886213 0.028404162285
          0.12083880591 0.012264600118 0.002701790654 0.012264600118 -0.0082392551246 0.0065579613824
          0.002701790654 0.0065579613824 0.091585912882 0.12550797363 0.011284119277 0.0039364658652
          0.011284119277 -0.0092372908909 0.0094177365274 0.0039364658652 0.0094177365274 0.093151738855
          0.052225104636 0.002771164305 -0.013703762461 0.002771164305 -0.0086589649868 0.0011356655007
          -0.013703762461 0.0011356655007 0.023583612789 0.051008295604 -0.00017043305069 -0.0099887699169
          -0.00017043305069 -0.0067066751397 -0.00041166567099 -0.0099887699169 -0.00041166567099 0.02447112221
          0.056281654787 -0.00020946525979 -0.01318403889 -0.00020946525979 -0.0071566187427 -0.0010669127632
          -0.01318403889 -0.0010669127632 0.025383522828 0.050770259849 -0.0019585147029 -0.014573009026
          -0.0019585147029 -0.0099893056355 -0.00059148920739 -0.014573009026 -0.00059148920739 0.024758388662
          0.12365859238 0.01093559996 0.0045854816986 0.01093559996 -0.0097216684736 0.0087908291841
          0.0045854816986 0.0087908291841 0.088226158941 0.056519177063 8.5225099787e-05 -0.012806502701
          8.5225099787e-05 -0.0085636886481 -0.0011964330051 -0.012806502701 -0.0011964330051 0.025781929507
          0.063987627193 0.0005737863907 -0.016327128096 0.0005737863907 -0.010862387366 0.0020976876622
          -0.016327128096 0.0020976876622 0.024965797637 0.064399538093 0.00058465293267 -0.01348392559
          0.00058465293267 -0.011585269826 0.00046848598808 -0.01348392559 0.00046848598808 0.028699066901
          0.076813235794 0.0018683327689 -0.0057239754155 0.0018683327689 -0.017580265528 0.00054569405377
          -0.0057239754155 0.00054569405377 0.010463682945 0.088867667443 -0.0021067868987 -0.0049490796093
          -0.0021067868987 -0.022201109778 -0.0029980203482 -0.0049490796093 -0.0029980203482 0.0086907222992
          0.090307320548 0.0038812105905 -0.011996471216 0.0038812105905 -0.024091226424 0.0015497393004
          -0.011996471216 0.0015497393004 0.00040267654567 0.092006480179 0.0054076070477 -0.0063990428895
          0.0054076070477 -0.022763534094 0.0056323384646 -0.0063990428895 0.0056323384646 -0.0017149301035
          0.055918947795 0.0027678217749 0.004638400629 0.0027678217749 0.0015901823814 0.002261443752
          0.004638400629 0.002261443752 0.075415112175 0.087354030326 0.0012031438792 -0.011137218233
          0.0012031438792 -0.018231245124 0.0038662135346 -0.011137218233 0.0038662135346 0.00043780759081
          0.059588954779 0.00018435641172 -0.018588802738 0.00018435641172 -0.012242581922 -0.0015267685718
          -0.018588802738 -0.0015267685718 0.0097033303156 0.055737623196 0.00038549669826 -0.016734206273
          0.00038549669826 -0.010666736877 0.00025490466329 -0.016734206273 0.00025490466329 0.011034784381
          0.060753034319 -0.0027890851313 -0.011924937317 -0.0027890851313 -0.016213974743 -0.0026406754444
          -0.011924937317 -0.0026406754444 0.015643464891 0.058226843083 0.0011659003881 -0.011592317614
          0.0011659003881 -0.01268029507 -0.0045988845141 -0.011592317614 -0.0045988845141 0.003142942305
          0.16314160006 0.010058248196 0.007189507396 0.010058248196 -0.0077279812377 0.0089282237308
          0.007189507396 0.0089282237308 0.13533283674 0.16103412686 0.013900093003 0.0077137787249
          0.013900093003 -0.0088715507003 0.0096677534144 0.0077137787249 0.0096677534144 0.13569284329
          0.14358985105 0.012419258292 0.0073805258016 0.012419258292 -0.0043820621924 0.0097999693663
          0.0073805258016 0.0097999693663 0.13846575385 0.14322876658 0.012338501591 0.005766044816
          0.012338501591 -0.0040458158956 0.0083747191454 0.005766044816 0.0083747191454 0.13444334719
          0.15134705194 0.010903639053 0.0061575125401 0.010903639053 -0.0041502876578 0.0075499406768
          0.0061575125401 0.0075499406768 0.13286782925 0.15139631552 0.0086202157059 0.0099601338753
          0.0086202157059 -0.0034662896602 0.008778137651 0.0099601338753 0.008778137651 0.12682694885
          0.15550063781 0.008925895069 0.0076515202269 0.008925895069 -0.0078002917443 0.0073974239382
          0.0076515202269 0.0073974239382 0.12779013472 0.13549466282 0.014483443149 0.0028885034843
          0.014483443149 -0.0026405526642 0.0095399246322 0.0028885034843 0.0095399246322 0.13344013183
          0.067384848331 -0.010503468331 -0.031207041625 -0.010503468331 0.014332780598 -0.02695590084
          -0.031207041625 -0.02695590084 -0.01077564862 0.13346620612 0.0022240929404 0.0056521475659
          0.0022240929404 -0.023538645007 0.0057782706193 0.0056521475659 0.0057782706193 0.051945554693
          0.13445929976 0.0042899870755 0.010984693235 0.0042899870755 -0.020341902058 0.012181595862
          0.010984693235 0.012181595862 0.060600478889 0.12106258013 0.0058233330478 0.008186065714
          0.0058233330478 -0.016083543347 0.0060794544821 0.008186065714 0.0060794544821 0.069318796391
          0.12165794311 0.0023133948725 0.0051724930289 0.0023133948725 -0.0088791871004 0.01244266986
          0.0051724930289 0.01244266986 0.074932355312 0.10619750275 0.0082216151152 0.011968728556
          0.0082216151152 -0.012597832234 0.0033084193786 0.011968728556 0.0033084193786 0.069946409624
          0.057782861008 0.0018389289386 -0.010286132483 0.0018389289386 -0.024243807102 -0.0087283039628
          -0.010286132483 -0.0087283039628 -0.015146028563 0.078952268227 0.0063518237888 0.0031629299337
          0.0063518237888 -0.023937423134 -0.001704203026 0.0031629299337 -0.001704203026 -0.032957631007
          0.047038081669 0.0041741468189 -0.00015925340983 0.0041741468189 -0.022580234039 -0.0067600169467
          -0.00015925340983 -0.0067600169467 -0.016684296378 0.046422419745 -0.000603162929 -0.0061225255768
          -0.000603162929 -0.014594647637 -0.0013220099984 -0.0061225255768 -0.0013220099984 -0.015095414931
          0.057297241785 0.0069947242014 -0.020638369031 0.0069947242014 -0.02109379115 -4.5715985647e-05
          -0.020638369031 -4.5715985647e-05 -0.00063905816922 0.13337051533 0.010131370754 0.0029455990658
          0.010131370754 -0.0069698218069 0.010734164558 0.0029455990658 0.010734164558 0.11152203757
          0.133416335 0.010066791048 0.00043438410793 0.010066791048 -0.0071419130261 0.0081346402792
          0.00043438410793 0.0081346402792 0.10592021219 0.13259999108 0.011224180564 0.00051800575117
          0.011224180564 -0.0083185142925 0.0066324492741 0.00051800575117 0.0066324492741 0.11003482222
          0.051268839074 -0.0066595426306 -0.0066615484378 -0.0066595426306 -0.013217457695 -0.0013109105611
          -0.0066615484378 -0.0013109105611 -0.010949810877 0.14689579665 0.010157203377 0.00079048591665
          0.010157203377 -0.010787912946 0.010822487759 0.00079048591665 0.010822487759 0.10321361746
          0.0082068742583 0.0042732823523 -0.0054666299156 0.0042732823523 -0.014401265455 -0.002214720842
          -0.0054666299156 -0.002214720842 0.0062407811429 0.14933200445 0.0099427603508 -0.00065604442285
          0.0099427603508 -0.011056441989 0.0070597520235 -0.00065604442285 0.0070597520235 0.10435772384
          0.12539372831 0.011402395165 0.0013147037284 0.011402395165 -0.00056871651065 0.0077147448616
          0.0013147037284 0.0077147448616 0.12157354084 0.11334053123 0.011007233536 -0.0014268949306
          0.011007233536 8.9702660252e-05 0.0066591367194 -0.0014268949306 0.0066591367194 0.12233907038
          0.13383544449 0.010579898929 0.0019519470553 0.010579898929 -0.010111041121 0.0093921706693
          0.0019519470553 0.0093921706693 0.10591922143 0.10493595618 -0.0014631787942 0.0027757835797
          -0.0014631787942 -0.033031117573 0.00046237797892 0.0027757835797 0.00046237797892 -0.045081706878
          -0.019051707314 -0.0028620479084 -0.030138641601 -0.0028620479084 -0.00054344229538 -0.0028234008237
          -0.030138641601 -0.0028234008237 0.00014926453766 -0.014275265364 -0.0056356634343 -0.032759486739
          -0.0056356634343 -3.469446952e-18 -9.5409791179e-18 -0.032759486739 -9.5409791179e-18 6.9388939039e-18
          -0.0046930459902 -0.020345698395 0.013396134317 -0.020345698395 -0.00092817616372 0.00018071872615
          0.013396134317 0.00018071872615 0.0076865574604 -0.0042750530525 -0.0077586647089 0.011527033938
          -0.0077586647089 0.00049368408226 0.0052069642017 0.011527033938 0.0052069642017 0.0060898278055
          -0.007797770059 -0.0099854595762 -0.0034055245747 -0.0099854595762 -0.00090964399775 -0.0037182312368
          -0.0034055245747 -0.0037182312368 0.0044858523978 -0.0090881183016 -0.0015355698842 -0.011494430115
          -0.0015355698842 -0.0022410351289 -0.0028633247007 -0.011494430115 -0.0028633247007 0.0040724092885
          -0.0080859817471 0.010777860305 -0.01100743437 0.010777860305 -0.011567663525 -0.0055631577563
          -0.01100743437 -0.0055631577563 0.0038396145561 -0.0029801884492 -0.0064575765259 0.0077564862399
          -0.0064575765259 0.0016145156854 0.0023114267054 0.0077564862399 0.0023114267054 0.012792470495
          -0.0062284238131 -0.0061948187021 0.0034256869502 -0.0061948187021 0.0032368178005 -0.00023186499217
          0.0034256869502 -0.00023186499217 0.01211277589 0.088668530833 0.0044143271426 0.00065351868505
          0.0044143271426 -0.021052340943 0.0041712840027 0.00065351868505 0.0041712840027 -0.0020927384175
          0.064933165511 0.0017314531129 -0.0065493250576 0.0017314531129 -0.010786278341 9.3004237006e-05
          -0.0065493250576 9.3004237006e-05 0.026448773362 0.066173045308 0.002045190006 -0.0071498973591
          0.002045190006 -0.012364285182 0.00058909402514 -0.0071498973591 0.00058909402514 0.026486281376
          0.068229148927 0.00084868630833 -0.0064632907279 0.00084868630833 -0.011880144027 -5.2339711107e-05
          -0.0064632907279 -5.2339711107e-05 0.026439775299 0.15534160803 0.011133983172 0.01302163506
          0.011133983172 -0.0044160712963 0.0077395120665 0.01302163506 0.0077395120665 0.13167167634
          0.15323417917 0.0096836878059 0.011783829533 0.0096836878059 -0.0051968469636 0.007355865762
          0.011783829533 0.007355865762 0.13195343477 0.1488922757 0.012196456401 0.010315522583
          0.012196456401 -0.0061886159308 0.0091622561352 0.010315522583 0.0091622561352 0.13343592298
          0.14907616826 0.012821246838 0.0096032873395 0.012821246838 -0.0048496904917 0.0088022845584
          0.0096032873395 0.0088022845584 0.130781198 0.15169957506 0.011532761731 0.011163738769
          0.011532761731 -0.006177942479 0.010032174501 0.011163738769 0.010032174501 0.12585645176
          0.1531568683 0.010882111364 0.010490186389 0.010882111364 -0.0064647702161 0.0096260508263
          0.010490186389 0.0096260508263 0.12530233457 0.15202900694 0.010819477588 0.013593076768
          0.010819477588 -0.0059271298286 0.0068145360209 0.013593076768 0.0068145360209 0.13321926889
          0.1569219184 0.010538922012 0.0086384223455 0.010538922012 -0.0071985962215 0.010505851033
          0.0086384223455 0.010505851033 0.12555235154 0.069954424987 0.0023337823821 -0.0090034396236
          0.0023337823821 -0.010533118101 1.9334736144e-05 -0.0090034396236 1.9334736144e-05 0.027461110887
          0.075769786025 0.00077859943667 -0.0064900000361 0.00077859943667 -0.016902441743 -0.0012079325892
          -0.0064900000361 -0.0012079325892 0.022484843682 0.047028785822 -0.0040202779613 -0.015201621326
          -0.0040202779613 -0.0030574656409 -0.00018275415042 -0.015201621326 -0.00018275415042 0.022065602755
          0.076054596109 0.00054317632352 -0.0067388090571 0.00054317632352 -0.020004796221 0.0028905191875
          -0.0067388090571 0.0028905191875 0.0096326858809 0.11995149281 0.010655700701 0.00027187351203
          0.010655700701 -0.022910911459 -0.0013087191787 0.00027187351203 -0.0013087191787 0.023697578453
          -0.0064347039483 -0.0046467401644 0.0079651219623 -0.0046467401644 0.0060518981601 0.0059881372864
          0.0079651219623 0.0059881372864 0.010121572764 -0.0051248084236 -0.0082284030456 0.0041688675993
          -0.0082284030456 0.011168833085 0.0097783359824 0.0041688675993 0.0097783359824 0.011837231202
          -0.031598174206 0.0025760026766 -0.0012244911081 0.0025760026766 0.0076629290916 0.0093145975026
          -0.0012244911081 0.0093145975026 0.018597506414 -0.017249959461 -8.6174478416e-05 0.0092290236588
          -8.6174478416e-05 0.0073221348451 0.003792681419 0.0092290236588 0.003792681419 0.010839388946
          -0.01587511734 0.00080487023147 0.0018025202613 0.00080487023147 0.0071265608238 -0.0067186280873
          0.0018025202613 -0.0067186280873 0.0089551955924 -0.048031595388 -0.0018514959528 0.011768276199
          -0.0018514959528 0.010442675253 0.0097776252668 0.011768276199 0.0097776252668 0.016240698915
          -0.046788755291 -0.00039977704037 0.0061414445752 -0.00039977704037 0.011109537681 0.0077152835811
          0.0061414445752 0.0077152835811 0.021944214234 -0.05290571656 0.0005363564775 -9.8314130503e-05
          0.0005363564775 0.013809565687 0.0022764967117 -9.8314130503e-05 0.0022764967117 0.029956736633
          0.056019910363 -0.013848936019 -0.030001520412 -0.013848936019 -0.0034569041395 0.0048614261101
          -0.030001520412 0.0048614261101 -0.0050817505453 0.066010672068 -0.0053950850031 -0.0070267080698
          -0.0053950850031 -0.017756755663 -0.012294127964 -0.0070267080698 -0.012294127964 -0.014676336801
          -0.023648217672 0.0013654231096 -0.0042845170755 0.0013654231096 0.0094235279229 -0.0015058966687
          -0.0042845170755 -0.0015058966687 0.021432068087 -0.085795175949 -0.0055021968605 0.0064365925621
          -0.0055021968605 0.020956940834 -0.0020129131618 0.0064365925621 -0.0020129131618 0.032307932833
          -0.086046021432 -0.0072525054409 0.0078562675626 -0.0072525054409 0.013461138739 0.0009172630619
          0.0078562675626 0.0009172630619 0.034588984176 -0.074036155934 -0.0042961718033 0.011485344363
          -0.0042961718033 0.01993059398 0.0016512269348 0.011485344363 0.0016512269348 0.02586773639
          -0.051654442127 0.0035656927963 0.0097177872854 0.0035656927963 0.016715759745 -0.0065452320106
          0.0097177872854 -0.0065452320106 0.016404673433 0.035495455632 0.00018809628544 -0.0097454310109
          0.00018809628544 -0.005705849683 -0.0035431393428 -0.0097454310109 -0.0035431393428 0.012217038644
          0.033036993801 0.0065669257754 0.0047329688127 0.0065669257754 0.012333265287 0.0087796458164
          0.0047329688127 0.0087796458164 0.074717360092 0.06756317991 0.01407919658 0.01129457489
          0.01407919658 -0.0016931313981 0.0041272998185 0.01129457489 0.0041272998185 0.049975626546
          0.038613397261 0.0032158769667 0.0077511959329 0.0032158769667 0.0011631473001 0.01203195384
          0.0077511959329 0.01203195384 0.061841916581 0.065882032182 0.010245788923 0.02059324937
          0.010245788923 -0.0045156039197 0.0054221780245 0.02059324937 0.0054221780245 0.057004699171
          0.069959134316 -0.0017382009925 0.012130189355 -0.0017382009925 0.0011380045233 0.010247438751
          0.012130189355 0.010247438751 0.060976886095 0.050060238592 0.0010185110511 0.013149858629
          0.0010185110511 0.00022468435594 0.0068244163983 0.013149858629 0.0068244163983 0.04992670945
          0.049412631951 0.0094397460267 0.0029180475142 0.0094397460267 0.0095834788242 -6.2554702545e-06
          0.0029180475142 -6.2554702545e-06 0.052882968171 0.072654338074 0.0065973171266 -0.0073305534512
          0.0065973171266 -0.019090897852 -0.0020814836397 -0.0073305534512 -0.0020814836397 -0.0047529601242
          0.075488229789 0.0022337016802 -0.0082951256808 0.0022337016802 -0.023182117944 0.00075200973893
          -0.0082951256808 0.00075200973893 -0.0045928006488 0.063162241883 -0.00018777780139 -0.010005982868
          -0.00018777780139 -0.019397899199 -0.0041632635811 -0.010005982868 -0.0041632635811 9.2069392016e-05
          0.050845794885 -0.0010723090446 -0.013236553935 -0.0010723090446 -0.014841265735 0.00037712336657
          -0.013236553935 0.00037712336657 0.0041743520343 0.05292418123 0.0041893096171 -0.014760554497
          0.0041893096171 -0.019348224482 -0.0023051075812 -0.014760554497 -0.0023051075812 0.0052142779174
          0.050778508282 -0.00079333633974 -0.013779556239 -0.00079333633974 -0.010392136721 -0.0021281058484
          -0.013779556239 -0.0021281058484 0.0038282910921 0.065560473197 0.00020897073126 0.0039905077574
          0.00020897073126 -0.023321916498 -0.0022276391771 0.0039905077574 -0.0022276391771 -0.029085892169
          0.091547747688 0.0056625452177 0.013323529718 0.0056625452177 0.0075451301451 0.0065427854365
          0.013323529718 0.0065427854365 0.12948217952 0.03686402358 0.00041986948885 -0.012803302481
          0.00041986948885 -0.018683142887 0.0032752706241 -0.012803302481 0.0032752706241 -0.013250780926
          0.086587275018 0.01124625812 0.0059079802794 0.01124625812 0.012683630483 0.0055296525864
          0.0059079802794 0.0055296525864 0.12791564405 0.070495505795 0.004723454305 0.017504196031
          0.004723454305 0.019230539351 0.0088283893207 0.017504196031 0.0088283893207 0.11977286046
          0.081667462256 0.003288660704 0.013259217958 0.003288660704 0.0041823756774 0.0098186421644
          0.013259217958 0.0098186421644 0.099379330288 0.041015859382 -0.0117525529 -0.012843925177
          -0.0117525529 -0.01583573582 -0.0067752483781 -0.012843925177 -0.0067752483781 0.0016934654434
          0.054322976938 0.0020082330334 -0.0057086097598 0.0020082330334 -0.019787315619 -0.0010426538929
          -0.0057086097598 -0.0010426538929 0.0053704312486 0.056966762835 0.002232062642 -0.0071733423052
          0.002232062642 -0.022391614917 -0.0076964540965 -0.0071733423052 -0.0076964540965 -0.01007202444
          0.080388418437 0.0098236935347 -0.0076713239742 0.0098236935347 -0.028207398863 0.0040119400745
          -0.0076713239742 0.0040119400745 -0.027084709137 0.11960959582 0.0082740154387 -0.00041662249832
          0.0082740154387 -0.0019539290399 0.0088214775712 -0.00041662249832 0.0088214775712 0.11339909398
          0.12016919968 0.0082291258752 -0.0011353338393 0.0082291258752 -0.0021746343423 0.0097461034959
          -0.0011353338393 0.0097461034959 0.11097118339 0.12002127486 0.0060843418865 -0.0015167565428
          0.0060843418865 5.4902276835e-05 0.0096274333426 -0.0015167565428 0.0096274333426 0.11369758069
          0.1135488985 0.0071209054071 0.00039667053354 0.0071209054071 0.00061022071125 0.0096829048193
          0.00039667053354 0.0096829048193 0.11331349584 0.10615451767 0.0071769505267 -0.00082846179584
          0.0071769505267 0.0020076368804 0.0091239686104 -0.00082846179584 0.0091239686104 0.11334149283
          0.10677005641 0.0080424264842 -0.00051870155651 0.0080424264842 0.00023375221114 0.0081378556531
          -0.00051870155651 0.0081378556531 0.11282160241 0.10934224905 0.0063281446375 -6.2926234405e-05
          0.0063281446375 0.0012375859146 0.011047363962 -6.2926234405e-05 0.011047363962 0.10898232356
          0.11175260735 0.0072900696657 0.00064174802612 0.0072900696657 -0.001469445451 0.0080428032436
          0.00064174802612 0.0080428032436 0.10569540389 -0.022578592236 -0.00099533788514 0.012993098559
          -0.00099533788514 0.0057644266174 0.0019024519712 0.012993098559 0.0019024519712 0.026147330882
          0.032159149576 -0.00073736365541 -0.0092350434817 -0.00073736365541 -0.0050320761917 -0.0033397470265
          -0.0092350434817 -0.0033397470265 0.013969307374 0.028044600243 -0.0018529429336 -0.017219406965
          -0.0018529429336 -0.0051537478883 -0.0060056569662 -0.017219406965 -0.0060056569662 -0.00013560305316
          0.036553606082 -0.00028235776912 -0.013994090346 -0.00028235776912 -0.0092141994538 0.0031826640046
          -0.013994090346 0.0031826640046 0.0074869120907 0.083951362043 -0.00046384399152 -0.0076251618047
          -0.00046384399152 -0.023234291535 -0.0027799996785 -0.0076251618047 -0.0027799996785 -0.0036143073412
          0.027551876257 -0.0035187174669 -0.0066140280932 -0.0035187174669 -0.0054940709136 -0.0081293800527
          -0.0066140280932 -0.0081293800527 -0.0013975821539 0.013540313095 -0.0095004748099 -0.016614045847
          -0.0095004748099 -0.0035548674564 -0.00081273072032 -0.016614045847 -0.00081273072032 0.0046119448063
          0.08463852014 0.0019579304551 -0.010338587736 0.0019579304551 -0.024426738934 -0.0028944585986
          -0.010338587736 -0.0028944585986 -0.0020771598087 0.038151469111 0.0026450752625 -0.021408015168
          0.0026450752625 -0.0052497947644 0.0029683380826 -0.021408015168 0.0029683380826 0.0039453197293
          0.12147796918 0.0085567499699 0.0056248340027 0.0085567499699 -0.012986444556 0.01026762584
          0.0056248340027 0.01026762584 0.07352881585 0.092863755892 0.010172368417 0.014312982587
          0.010172368417 -0.015579094524 -0.00016638792685 0.014312982587 -0.00016638792685 0.033721656878
          0.098984584511 0.0047897010988 0.0046992967413 0.0047897010988 -0.01542983151 -0.0013882233323
          0.0046992967413 -0.0013882233323 0.028397744009 0.10117967921 0.0058378399306 0.0046131250035
          0.0058378399306 -0.019980334192 0.0050739343436 0.0046131250035 0.0050739343436 0.020027907651
          0.12591175239 0.0087537362568 0.0056129333295 0.0087537362568 -0.0091456065945 0.0062698517365
          0.0056129333295 0.0062698517365 0.083604282546 0.10659759416 0.011388104751 0.011406309283
          0.011388104751 -0.018484078056 0.0025043172936 0.011406309283 0.0025043172936 0.031491045998
          0.10731187064 0.0080961489121 0.01066484888 0.0080961489121 -0.0228379124 0.0021194426035
          0.01066484888 0.0021194426035 0.018718189166 0.10739562479 0.0047777520504 0.010173106065
          0.0047777520504 -0.033466392399 0.003763577582 0.010173106065 0.003763577582 0.019365938562
          0.12855875667 0.0088426733769 0.0025098016436 0.0088426733769 -0.017321256601 0.010549254727
          0.0025098016436 0.010549254727 0.081597531448 0.047926832251 0.010085707062 -0.0097308499262
          0.010085707062 0.01246615159 -0.0097142320528 -0.0097308499262 -0.0097142320528 0.024006824372
          0.08381115991 0.0044965775683 -0.015507767495 0.0044965775683 -0.028351920521 -0.0032235901882
          -0.015507767495 -0.0032235901882 -0.023575581975 0.083668634585 0.017889259168 0.008779788514
          0.017889259168 -0.017638974541 -0.0036982570917 0.008779788514 -0.0036982570917 0.0061394852585
          0.088119962669 0.0018022879893 0.0089429063723 0.0018022879893 -0.01720946669 -0.0045579841018
          0.0089429063723 -0.0045579841018 0.0061441973298 0.089056045995 0.0045388258933 0.0046120153416
          0.0045388258933 -0.027263435465 0.0035340559706 0.0046120153416 0.0035340559706 0.0023261276947
          0.16202640027 0.0081148384791 0.013612349028 0.0081148384791 -0.01095148797 0.010459646183
          0.013612349028 0.010459646183 0.13467441795 0.16525480515 0.0091715637948 0.013833154297
          0.0091715637948 -0.010742464021 0.0096523907048 0.013833154297 0.0096523907048 0.12903742036
          0.16142109967 0.0092193935555 0.016473846591 0.0092193935555 -0.010599333291 0.010014351082
          0.016473846591 0.010014351082 0.13078218732 0.080793400321 0.010512359461 0.0015672212663
          0.010512359461 -0.018387465685 0.0036389618381 0.0015672212663 0.0036389618381 -0.016951658315
          0.080949970859 0.0087531626115 0.00893036392 0.0087531626115 -0.016787715053 -0.0012299623343
          0.00893036392 -0.0012299623343 -0.0044027463698 0.080613822214 0.0098399855134 0.0071250958988
          0.0098399855134 -0.015787316808 0.010951430884 0.0071250958988 0.010951430884 -0.0051806031946
          0.034299342748 0.0082636987997 -0.00025587547118 0.0082636987997 -0.015342764492 0.0079430451819
          -0.00025587547118 0.0079430451819 0.0089021077946 0.064706149422 0.0051109215798 0.014708335598
          0.0051109215798 -0.016403620571 0.0023904157247 0.014708335598 0.0023904157247 0.0047310934958
          0.035124833154 0.0046127140603 0.0009480593999 0.0046127140603 -0.016879497269 -0.0027324339974
          0.0009480593999 -0.0027324339974 0.0090390331236 0.060647690689 -0.0035137137552 0.0048589931868
          -0.0035137137552 -0.019711123635 0.0022174945736 0.0048589931868 0.0022174945736 0.0025559066968
          0.16164529005 0.0073275020024 0.01701850594 0.0073275020024 -0.0092682039787 0.01106775514
          0.01701850594 0.01106775514 0.12992429652 0.085909750876 0.0098014817729 0.014582715439
          0.0098014817729 -0.01298349949 -0.0030169962788 0.014582715439 -0.0030169962788 0.041333668409
          0.1179897317 0.010972827134 0.00089205504431 0.010972827134 -0.0026993348518 0.0082781815474
          0.00089205504431 0.0082781815474 0.11043961884 0.081531308857 0.0027213654869 -0.0090300376538
          0.0027213654869 -0.032343385139 -0.0033153910767 -0.0090300376538 -0.0033153910767 -0.012305225385
          0.080533333593 0.00054599596534 -0.009803142651 0.00054599596534 -0.026176900669 0.0030750562841
          -0.009803142651 0.0030750562841 -0.0069255633814 0.13337618771 0.0013295317787 0.018532586769
          0.0013295317787 -0.0049937744273 0.0087157641416 0.018532586769 0.0087157641416 0.1124740773
          0.076886138506 0.0012946904724 -0.011230939658 0.0012946904724 -0.024057916917 -0.00021919120881
          -0.011230939658 -0.00021919120881 -0.0022370240546 0.073251810278 0.003633578871 -0.0045969195096
          0.003633578871 -0.023953585538 -0.0038433915052 -0.0045969195096 -0.0038433915052 -0.0028778075932
          0.047829644887 0.011671483699 0.0043672718014 0.011671483699 0.0066687104514 -0.0013218832454
          0.0043672718014 -0.0013218832454 0.053841639771 0.077099897604 0.0030155583486 -0.01623338277
          0.0030155583486 -0.023686332763 0.0019329168989 -0.01623338277 0.0019329168989 -0.010863638252
          0.060993066918 -0.0018180981527 -0.011907822781 -0.0018180981527 -0.014550506356 -0.00029889817984
          -0.011907822781 -0.00029889817984 -0.017913175906 0.035773191108 -0.0056100668853 -0.0097698543457
          -0.0056100668853 -0.01494031377 -0.0013937199669 -0.0097698543457 -0.0013937199669 -0.0069717893131
          0.029543739034 -0.0029980728394 -0.0061701449328 -0.0029980728394 -0.015812095666 -0.0028490508944
          -0.0061701449328 -0.0028490508944 -0.009038832743 0.060993358959 -0.00085646727392 -0.0021557548547
          -0.00085646727392 -0.025453563382 -0.001244481666 -0.0021557548547 -0.001244481666 -0.0056461549087
          0.060360643825 -0.00019051265004 -0.0037903737327 -0.00019051265004 -0.026148427027 0.0005596819261
          -0.0037903737327 0.0005596819261 -0.0087171243847 0.074344223398 0.00042902894492 -0.01447360163
          0.00042902894492 -0.026225186553 0.0013846651991 -0.01447360163 0.0013846651991 -0.016730520989
          0.071086253223 0.0013411782133 -0.0075171362682 0.0013411782133 -0.015634257264 0.0010459115995
          -0.0075171362682 0.0010459115995 0.022408625676 0.072785117144 0.00067846814844 -0.0081956650156
          0.00067846814844 -0.015014446364 0.0010298420018 -0.0081956650156 0.0010298420018 0.02273639873
          0.071288119686 0.00067975512029 -0.0097741443624 0.00067975512029 -0.012121529079 -0.00012549063491
          -0.0097741443624 -0.00012549063491 0.025352793968 0.063082262641 -0.00063476552985 -0.009968974724
          -0.00063476552985 -0.021339062011 -0.010385759526 -0.009968974724 -0.010385759526 -0.017518911944
          0.085549332097 -0.0018818138517 -0.0046467598205 -0.0018818138517 -0.027172303746 -0.0015939777277
          -0.0046467598205 -0.0015939777277 -0.030248421113 0.03200446612 0.00075944938859 -0.0066298766031
          0.00075944938859 -0.011628035066 0.00097395241626 -0.0066298766031 0.00097395241626 -0.0026120096601
          0.13150917839 0.0097061387051 0.0024615708021 0.0097061387051 -0.0098842190432 0.0088186308773
          0.0024615708021 0.0088186308773 0.086706479767 0.05418215461 -0.0019054762084 -0.010952487946
          -0.0019054762084 -0.020157680035 -0.0085458516937 -0.010952487946 -0.0085458516937 -0.015315992111
          0.054936858846 0.0012610252591 -0.0060268761617 0.0012610252591 -0.022590645944 -0.00083472772656
          -0.0060268761617 -0.00083472772656 0.0061536389533 0.06006322454 0.0020283899586 -0.016882849302
          0.0020283899586 -0.022555440499 -0.0002629701528 -0.016882849302 -0.0002629701528 -0.031436843553
          0.072777535947 0.0016102065092 -0.0052011215039 0.0016102065092 -0.015772273621 0.0010633282913
          -0.0052011215039 0.0010633282913 0.024898808064 0.061748495043 -0.00021075756438 -0.011383081803
          -0.00021075756438 -0.020949678658 -0.0016824949416 -0.011383081803 -0.0016824949416 -0.024104284689
          0.056142559416 -0.00052508609278 -0.0070174583377 -0.00052508609278 -0.020940731425 -0.0020017823806
          -0.0070174583377 -0.0020017823806 -0.015529839025 0.044544073601 0.00074578354119 -0.01075306341
          0.00074578354119 -0.015721647565 0.0022008344147 -0.01075306341 0.0022008344147 -0.014047620741
          0.049634521853 -0.0029748254535 -0.0050007951215 -0.0029748254535 -0.020331753767 0.0059964025849
          -0.0050007951215 0.0059964025849 -0.016279110303 0.069818016202 0.030487819468 0.012285188734
          0.030487819468 -0.005925019697 -0.0097577310015 0.012285188734 -0.0097577310015 0.037903652996
          0.090636637869 0.00051358418717 0.020202929861 0.00051358418717 -0.011595661828 -0.00037176379769
          0.020202929861 -0.00037176379769 0.032066365869 0.11080122039 0.01095729535 0.0026275905802
          0.01095729535 -0.0019911226365 0.0090996564892 0.0026275905802 0.0090996564892 0.09707073541
          0.069616938716 0.01922928155 0.031623338228 0.01922928155 -0.015970180889 -0.0023004404165
          0.031623338228 -0.0023004404165 0.0095848179862 0.10175168382 0.0084982062501 0.0030550173704
          0.0084982062501 -0.0015152862291 0.0076987156588 0.0030550173704 0.0076987156588 0.099062291062
          0.094160116686 0.002063618846 0.0015213638502 0.002063618846 -0.016923897461 0.0026362950891
          0.0015213638502 0.0026362950891 0.022901697614 0.087878252003 -0.00085341130659 0.010276305578
          -0.00085341130659 -0.012933519166 0.0016908475467 0.010276305578 0.0016908475467 0.015397758883
          0.086705137634 -0.0016350735697 0.013696219884 -0.0016350735697 -0.01203002647 -0.0017006792288
          0.013696219884 -0.0017006792288 0.028001290217 0.10374460353 0.0065383939538 0.00049074325039
          0.0065383939538 -0.025772692319 -0.0025770195986 0.00049074325039 -0.0025770195986 -0.027730527888
          0.12760342573 0.013196820677 0.0024238589077 0.013196820677 -0.0030652096253 0.0094344886757
          0.0024238589077 0.0094344886757 0.10995317762 0.099235225263 0.0092060128148 0.0040281775101
          0.0092060128148 -0.036072920608 -0.01276374735 0.0040281775101 -0.01276374735 0.011870788159
          0.10945879434 0.0040813048887 -0.0008691621748 0.0040813048887 -0.02549639278 0.010312523489
          -0.0008691621748 0.010312523489 0.0093027400057 0.062186884314 0.00085301234568 -0.014932053657
          0.00085301234568 -0.009422445543 -0.0005580457152 -0.014932053657 -0.0005580457152 0.02768668477
          0.058814281179 0.00052770546721 -0.013490314516 0.00052770546721 -0.0092133568042 -0.00070130518078
          -0.013490314516 -0.00070130518078 0.027401828452 0.12824938718 0.013418185528 0.02292194921
          0.013418185528 -0.027881973998 -0.012349977291 0.02292194921 -0.012349977291 0.066196272674
          0.066643170442 -0.0011623950573 -0.0079513912738 -0.0011623950573 -0.011414694946 -0.00023431611261
          -0.0079513912738 -0.00023431611261 0.026226565056 0.1238996653 0.014156558756 0.0063317348287
          0.014156558756 -0.0055505336048 -0.0028083993098 0.0063317348287 -0.0028083993098 0.094681597965
          0.12038048679 0.0084691915793 0.011100466891 0.0084691915793 -0.01235281394 0.001530995408
          0.011100466891 0.001530995408 0.092965866701 0.11262273281 0.011448460274 0.021769831406
          0.011448460274 -0.011648867164 0.0035330465852 0.021769831406 0.0035330465852 0.098422950829
          0.11452276801 0.0049436900186 0.017696742771 0.0049436900186 -0.026126508205 0.0022013787463
          0.017696742771 0.0022013787463 0.10080409495 0.15649113198 -0.0071428811121 0.022117108974
          -0.0071428811121 -0.015992493427 -0.0018854363708 0.022117108974 -0.0018854363708 0.096152314528
          0.075277032699 0.01156654091 0.0040452412999 0.01156654091 -0.0042856045594 0.00033316505787
          0.0040452412999 0.00033316505787 0.10216518827 0.072918939169 0.0073163407293 0.0059598003314
          0.0073163407293 0.0018974813206 0.0084109822669 0.0059598003314 0.0084109822669 0.10215726534
          0.091587993791 0.010099941142 0.0029079525266 0.010099941142 -0.0073903169252 0.004982774601
          0.0029079525266 0.004982774601 0.10174510714 0.041165068659 0.0021591460932 -0.010183229767
          0.0021591460932 -0.0031948124992 -0.0010577953646 -0.010183229767 -0.0010577953646 0.027120839782
          0.041535661244 0.0075463919931 -0.0072423703974 0.0075463919931 -0.0072721322559 0.0035514078589
          -0.0072423703974 0.0035514078589 0.021913947897 0.028774962865 0.0055601752603 -0.013070876532
          0.0055601752603 -0.0020198955291 0.0049676498552 -0.013070876532 0.0049676498552 0.020222451655
          0.031192413088 0.0032877396782 -0.0060604407862 0.0032877396782 -0.00185930931 0.0055894329219
          -0.0060604407862 0.0055894329219 0.014225957505 0.0053645801823 0.0037745615839 -0.012682160474
          0.0037745615839 0.00016249853648 0.0024464604225 -0.012682160474 0.0024464604225 0.036697679014
          0.062642218506 0.00082729611625 -0.015642215515 0.00082729611625 -0.010952347612 0.00033128661785
          -0.015642215515 0.00033128661785 0.028321344073 -0.023984826496 -0.0048679154067 -0.0075249824589
          -0.0048679154067 0.0096265190704 -0.0004544242321 -0.0075249824589 -0.0004544242321 0.027192047714
          0.047598252162 0.003380122251 0.005483023349 0.003380122251 -0.017052261571 0.0055747726589
          0.005483023349 0.0055747726589 -0.0066514965341 -0.0030520140909 -0.0025856489147 -0.013576751789
          -0.0025856489147 -0.0013096983716 -0.0023673340696 -0.013576751789 -0.0023673340696 0.014550959623
          -0.01167565604 -0.002538129563 -0.0080313129702 -0.002538129563 0.011722659527 0.0023484668844
          -0.0080313129702 0.0023484668844 0.022993614615 -0.048669636932 -0.0044494364724 -0.010048136171
          -0.0044494364724 0.016203640445 0.0077251431604 -0.010048136171 0.0077251431604 0.029443002698
          -0.045036534644 0.0029976012075 -0.012674632362 0.0029976012075 0.015522307886 -0.0037493091548
          -0.012674632362 -0.0037493091548 0.029015386034 0.075646744252 -0.0037795746485 -0.0079208042705
          -0.0037795746485 -0.015401721735 -0.0014603837085 -0.0079208042705 -0.0014603837085 0.020449975036
          0.076077563468 0.0027985439438 -0.011253209599 0.0027985439438 -0.023573813094 0.0032207495649
          -0.011253209599 0.0032207495649 0.0025253106201 0.075968740097 -0.00057017732061 -0.012191689653
          -0.00057017732061 -0.017198973993 0.0011548972314 -0.012191689653 0.0011548972314 0.0010129001936
          0.076020169751 -0.00018785011886 -0.013114032804 -0.00018785011886 -0.015776457289 -0.0029821285065
          -0.013114032804 -0.0029821285065 0.012344328125 0.075331515801 -0.0010769163536 -0.01161518667
          -0.0010769163536 -0.016828682516 -0.00049650334823 -0.01161518667 -0.00049650334823 0.012253814747
          0.068619671394 -0.00042434014302 -0.017950370428 -0.00042434014302 -0.016738975418 -0.0013676589903
          -0.017950370428 -0.0013676589903 0.020713704019 0.097159258465 0.0082610262153 0.0014671908843
          0.0082610262153 0.0026736005519 0.010162544203 0.0014671908843 0.010162544203 0.10263790144
          0.10479841707 0.0088967858193 0.0036327481721 0.0088967858193 -0.0011543926476 0.0088591563648
          0.0036327481721 0.0088591563648 0.097124989631 0.12430768591 0.0053370688085 0.019864753291
          0.0053370688085 -0.0067751171727 0.0021990301124 0.019864753291 0.0021990301124 0.084238011544
          0.14404032794 0.0013183841828 0.0039195181549 0.0013183841828 -0.012084670845 0.020702131755
          0.0039195181549 0.020702131755 0.05914327875 0.14358034266 0.0032057753843 0.006842601612
          0.0032057753843 -0.017084019526 0.013564394741 0.006842601612 0.013564394741 0.049159032803
          0.14426726567 0.005643651553 0.016479662062 0.005643651553 -0.021539384627 0.0068995363952
          0.016479662062 0.0068995363952 0.056944875261 0.14301248185 0.0028645114342 0.008249829611
          0.0028645114342 -0.022939799057 0.0089885684119 0.008249829611 0.0089885684119 0.08977643524
          0.100322781 0.0046262128044 0.002625177464 0.0046262128044 -0.0013509441231 0.0066582721876
          0.002625177464 0.0066582721876 0.10120660103 0.08094846602 0.0059112699469 0.0034890671053
          0.0059112699469 0.0039723096605 0.0054394464944 0.0034890671053 0.0054394464944 0.10265233107
          0.17269017829 -0.0015091832486 0.012593443979 -0.0015091832486 -0.034125428009 0.036538631051
          0.012593443979 0.036538631051 0.062146133622 0.19493569181 0.03592835357 0.015371308432
          0.03592835357 -0.059062436396 0.00029648358735 0.015371308432 0.00029648358735 0.043455286755
          0.10048598345 0.011233824223 0.024968169002 0.011233824223 -0.018613604761 0.0050228813598
          0.024968169002 0.0050228813598 0.032967108553 0.048352631245 9.5673480434e-05 -0.0333002439
          9.5673480434e-05 0.007930625682 -0.00023867988108 -0.0333002439 -0.00023867988108 0.050209396334
          0.075376060523 0.0029669301526 0.00097994302888 0.0029669301526 -0.024768761824 -0.0027366665665
          0.00097994302888 -0.0027366665665 -0.024961010076 0.074885923414 0.0037320417495 0.0030235614565
          0.0037320417495 -0.016904053408 -0.0025581151413 0.0030235614565 -0.0025581151413 -0.032229179929
          0.10815026902 0.00062834570197 -0.0016868171268 0.00062834570197 -0.033773872929 0.00036507679324
          -0.0016868171268 0.00036507679324 -0.041539963331 0.005100387222 0.0037073129838 -0.00090657225711
          0.0037073129838 0.0076968061127 -0.00049455756091 -0.00090657225711 -0.00049455756091 -0.0077570042986
          0.0031197865959 0.0084718391571 0.0043600377107 0.0084718391571 0.0031039053281 0.0035921224042
          0.0043600377107 0.0035921224042 0.019114882444 -0.0074028896838 -0.0002999869627 0.0067909998216
          -0.0002999869627 -0.00088595116163 0.0062394264267 0.0067909998216 0.0062394264267 0.018669284876
          -0.016449335737 0.00082929571763 0.0048980059301 0.00082929571763 0.0047103753336 -0.0024565199157
          0.0048980059301 -0.0024565199157 0.032179567284 -0.021309429857 0.001742687697 0.0086370629672
          0.001742687697 0.0078225698191 -0.0089448133042 0.0086370629672 -0.0089448133042 0.039496171945
          -0.02039307817 0.0011010814844 0.0048236159412 0.0011010814844 0.0076835442734 -0.010026200229
          0.0048236159412 -0.010026200229 0.031442178646 -0.04086239705 -0.0055694570522 -0.0034486630942
          -0.0055694570522 0.015792660457 -0.0018298148341 -0.0034486630942 -0.0018298148341 0.039636592417
          -0.039700269937 0.0031226495354 0.0018604042667 0.0031226495354 0.021040939049 0.0013722059689
          0.0018604042667 0.0013722059689 0.041590170732 -0.034642624428 -0.0045790779553 0.010341301736
          -0.0045790779553 0.013464448747 0.0049498742312 0.010341301736 0.0049498742312 0.041721661921
          -0.024006030318 -0.0029198984785 0.0059149814308 -0.0029198984785 0.0089315484552 0.0030387409569
          0.0059149814308 0.0030387409569 0.043252667626 0.01696918115 0.012237109567 -0.0014544364973
          0.012237109567 0.0080662091913 -0.0053898664189 -0.0014544364973 -0.0053898664189 0.026981798799
          0.021215497067 0.01518545058 0.0071012672932 0.01518545058 0.010100351415 0.0010275579445
          0.0071012672932 0.0010275579445 0.026690669837 0.014673806629 0.0012662562312 0.010116657113
          0.0012662562312 -0.0015434742818 -0.0062073951195 0.010116657113 -0.0062073951195 0.035669058968
          -0.0014583364391 0.0061604763803 -0.0064316344255 0.0061604763803 -0.0024843533919 -0.00015302401514
          -0.0064316344255 -0.00015302401514 0.020659058072 0.037600197793 -0.004660285478 -0.0019308149853
          -0.004660285478 -0.0047271980079 0.0019732260566 -0.0019308149853 0.0019732260566 0.019006550368
          0.034418166309 0.0033381472988 -0.0011691919234 0.0033381472988 -0.0015864841927 0.0049767139002
          -0.0011691919234 0.0049767139002 0.019864700547 0.02769645639 0.0068080614438 0.0048355052729
          0.0068080614438 -0.0032004936285 0.00052852104507 0.0048355052729 0.00052852104507 0.024758733808
          0.12145085548 -0.034493675858 0.042396766872 -0.034493675858 -0.062137370365 -0.025279978795
          0.042396766872 -0.025279978795 0.068098383814 0.12635549379 0.035506128436 0.037937836549
          0.035506128436 -0.051617132869 0.0013504975551 0.037937836549 0.0013504975551 0.06988550335
          0.086325862717 0.0047580893469 0.036046825579 0.0047580893469 -0.048071817489 -0.004087215458
          0.036046825579 -0.004087215458 0.070380828882 0.13583832715 -0.042680657259 0.041783157027
          -0.042680657259 -0.06545829513 -0.024378217113 0.041783157027 -0.024378217113 0.068086285769
          0.2251778058 0.055569922451 0.062984817769 0.055569922451 -0.062655204729 0.028251196286
          0.062984817769 0.028251196286 0.064953653766 0.075458046909 0.00077793813686 0.002570416927
          0.00077793813686 -0.0065672379405 -0.0021633167909 0.002570416927 -0.0021633167909 0.018519733165
          0.098579711341 0.0072602376526 0.0036088589645 0.0072602376526 0.0019781940839 0.0080955512912
          0.0036088589645 0.0080955512912 0.096967394494 0.15927266405 0.0053227119064 0.018032392499
          0.0053227119064 -0.0058151528956 0.0082001467029 0.018032392499 0.0082001467029 0.14166093496
          0.15918492145 0.0067566429679 0.013620513801 0.0067566429679 -0.0049087184551 0.0064169325738
          0.013620513801 0.0064169325738 0.14409478856 0.07936312739 -0.0027979262848 -0.010788144894
          -0.0027979262848 -0.025126746453 9.4033339383e-05 -0.010788144894 9.4033339383e-05 -0.007890555994
          0.083350082942 -0.00091930927926 -0.0053815022808 -0.00091930927926 -0.026970236209 -0.00042152153777
          -0.0053815022808 -0.00042152153777 0.002540726922 0.026691354271 -0.0016204153935 -0.017543909415
          -0.0016204153935 -0.0025506578861 -0.0034369498789 -0.017543909415 -0.0034369498789 0.022723057432
          0.16014209549 0.0066489455039 -0.0032426019406 0.0066489455039 -0.012750620284 0.003370153356
          -0.0032426019406 0.003370153356 0.10285448333 0.026045099131 -0.00029691518678 -0.016210329025
          -0.00029691518678 0.00084329596232 0.002719906132 -0.016210329025 0.002719906132 0.032911923528
          0.10965762739 -0.0010421388907 0.015407797264 -0.0010421388907 -0.0019642774891 0.0088995800114
          0.015407797264 0.0088995800114 0.10127130747 0.11104933476 0.0047250682421 0.024852358714
          0.0047250682421 -0.0042244366714 0.0013594358327 0.024852358714 0.0013594358327 0.082073386745
          0.11107371888 0.004343725811 0.024224159354 0.004343725811 -0.016228670091 0.024009418171
          0.024224159354 0.024009418171 0.089102542781 0.14425421099 0.0062648830122 0.0094786239925
          0.0062648830122 -0.016482722006 0.021972175634 0.0094786239925 0.021972175634 0.091821248687
          0.14392463816 0.0053412453283 0.0053904015976 0.0053412453283 -0.018394648324 0.0045518444596
          0.0053904015976 0.0045518444596 0.093661181024 0.12404967643 0.0024528095171 0.022904525647
          0.0024528095171 -0.0097714741063 0.0066457673228 0.022904525647 0.0066457673228 0.078249997522
          0.15103680037 0.0057568241887 0.019772335309 0.0057568241887 -0.018480168129 0.0037221907057
          0.019772335309 0.0037221907057 0.097343991996 0.056024360658 0.00022200645101 -0.015360979174
          0.00022200645101 0.012370894799 0.0085444160666 -0.015360979174 0.0085444160666 0.012741864755
          0.1501431421 0.004600488621 0.022713218967 0.004600488621 -0.017411054127 0.012328537894
          0.022713218967 0.012328537894 0.096651174963 0.14847598485 0.009987357718 0.01593162509
          0.009987357718 -0.010751188078 0.0053263007086 0.01593162509 0.0053263007086 0.1038059812
          0.13340408721 0.004518334598 0.032511058978 0.004518334598 -0.012186542908 0.011283778197
          0.032511058978 0.011283778197 0.085574470417 0.13622338514 0.0096613856097 0.016626936233
          0.0096613856097 -0.012807948369 0.0081515705127 0.016626936233 0.0081515705127 0.10829846395
          0.064499489544 0.00057600532372 -0.0099555246427 0.00057600532372 -0.016693258286 -0.0039239638844
          -0.0099555246427 -0.0039239638844 0.013591141853 0.15437626138 0.014941723361 0.012782619424
          0.014941723361 -0.0057289730669 0.009422907593 0.012782619424 0.009422907593 0.14297537223
          0.14957146138 0.016636389231 0.01213006334 0.016636389231 -0.0050040562945 0.0098432842531
          0.01213006334 0.0098432842531 0.14291410327 0.064812755726 0.00062710941509 -0.0074139805188
          0.00062710941509 -0.016942773572 -0.00048307720315 -0.0074139805188 -0.00048307720315 -0.0013070328489
          0.14882114144 0.012806143754 0.011320858849 0.012806143754 -0.003241406564 0.0086024613413
          0.011320858849 0.0086024613413 0.14243323273 0.15906096527 0.011320130368 0.012065749704
          0.011320130368 -0.005638125154 0.0075736240521 0.012065749704 0.0075736240521 0.1421629025
          0.16065564622 0.010564294109 0.013379479716 0.010564294109 -0.0059069124252 0.0078541434741
          0.013379479716 0.0078541434741 0.1419442019 0.084319129494 0.0031949744882 0.0014713951829
          0.0031949744882 0.0048290512956 0.0055822373607 0.0014713951829 0.0055822373607 0.10217659322
          0.14118318184 0.012212552742 0.0037687632123 0.012212552742 -0.0039474860552 0.0071330207267
          0.0037687632123 0.0071330207267 0.12632861896 0.075954837458 0.0023321158281 0.0050578372592
          0.0023321158281 0.0047788861219 0.0062579645632 0.0050578372592 0.0062579645632 0.093713259715
          0.064960226135 0.0079504344973 0.010999484342 0.0079504344973 0.0032771975739 0.0073671946841
          0.010999484342 0.0073671946841 0.10305225788 0.150675989 0.0058211276429 0.030496017189
          0.0058211276429 -0.011252588599 0.0052553334039 0.030496017189 0.0052553334039 0.12113038203
          0.15464700036 -0.0028026707264 0.029409122985 -0.0028026707264 -0.013225878687 0.016799168373
          0.029409122985 0.016799168373 0.11735398431 0.058936148405 0.0017059826306 -0.0060039452143
          0.0017059826306 -0.0085959218862 -0.00080580642588 -0.0060039452143 -0.00080580642588 0.029193103142
          0.060130929847 0.0013767671612 -0.0078056323359 0.0013767671612 -0.0086023848233 -4.7656818875e-05
          -0.0078056323359 -4.7656818875e-05 0.031205188851 0.058744091277 0.0014948176782 -0.0091843676035
          0.0014948176782 -0.0056373770528 -0.0006895506374 -0.0091843676035 -0.0006895506374 0.030028276447
          0.11659663598 0.0042351632175 0.0082685402372 0.0042351632175 -0.013852664053 0.01030722797
          0.0082685402372 0.01030722797 0.053351975586 0.11687715806 0.0037364594779 0.007593532113
          0.0037364594779 -0.018571297312 0.0084729072808 0.007593532113 0.0084729072808 0.053333612367
          0.056153763881 0.00057124581171 -0.0083225263943 0.00057124581171 -0.0075936167048 -0.00012869578081
          -0.0083225263943 -0.00012869578081 0.032065162654 0.11639116154 0.0033357995265 0.00857782838
          0.0033357995265 -0.016323813731 0.0084907928307 0.00857782838 0.0084907928307 0.051199280851
          0.1157799507 0.0043605336958 0.010153707749 0.0043605336958 -0.01220549586 0.0093657485515
          0.010153707749 0.0093657485515 0.049255581102 0.061176451499 0.00056254507441 -0.0084785013615
          0.00056254507441 -0.0089143795484 -0.00032824998175 -0.0084785013615 -0.00032824998175 0.030953949783
          0.060480467272 -0.0018987407516 -0.006325426482 -0.0018987407516 -0.0073500119139 0.0001485749577
          -0.006325426482 0.0001485749577 0.029254221165 0.057645702138 0.0022627224949 -0.0081148313334
          0.0022627224949 -0.0062120583379 -0.00094421051874 -0.0081148313334 -0.00094421051874 0.030033854161
          0.11565288193 0.0098026662617 0.0076253203288 0.0098026662617 -0.005372648565 0.0060355558568
          0.0076253203288 0.0060355558568 0.082247655911 0.16431538611 0.0045338601151 0.010149096133
          0.0045338601151 -0.0064546245208 0.0044818253065 0.010149096133 0.0044818253065 0.13821137893
          0.15917443237 0.0037936547262 0.012290601236 0.0037936547262 -0.0026531752384 0.010739958805
          0.012290601236 0.010739958805 0.14637761614 0.16404264328 0.0072672906317 0.0099150787365
          0.0072672906317 -0.0054462621649 0.004705182762 0.0099150787365 0.004705182762 0.14396418568
          0.16109559172 0.0062575140357 0.014350509568 0.0062575140357 -0.0044704406241 0.0059083274347
          0.014350509568 0.0059083274347 0.13736452092 0.093316237354 0.0072995359787 0.0033672504559
          0.0072995359787 0.001202302833 0.0067646217806 0.0033672504559 0.0067646217806 0.089812762385
          0.16401235734 0.0063009244557 0.010647517297 0.0063009244557 -0.0032836068065 0.0062534592929
          0.010647517297 0.0062534592929 0.14068274736 0.16309792448 0.005902630551 0.0084331143017
          0.005902630551 -0.0030650655454 0.0056504746926 0.0084331143017 0.0056504746926 0.13565372608
          0.1547169742 0.0093382926726 0.0057776685663 0.0093382926726 -0.004989752297 0.014050537461
          0.0057776685663 0.014050537461 0.13933952661 0.11920785781 0.015094390736 -0.0026399117262
          0.015094390736 -0.0045291823479 0.0096052038452 -0.0026399117262 0.0096052038452 0.1030230123
          0.066703252701 -0.00075372383671 -0.0068623470755 -0.00075372383671 -0.012797573195 0.0010165079334
          -0.0068623470755 0.0010165079334 0.028688669835 0.066879954135 0.0001032476681 -0.006482821402
          0.0001032476681 -0.0098124161532 0.0013368635781 -0.006482821402 0.0013368635781 0.027530103096
          0.064399650039 -0.00039946350102 -0.011884632889 -0.00039946350102 -0.0099143057485 0.00024429099198
          -0.011884632889 0.00024429099198 0.025339219196 0.065343717166 -0.0016563097639 -0.0059073570234
          -0.0016563097639 -0.0098655957988 0.00057282847134 -0.0059073570234 0.00057282847134 0.028346749775
          0.062841363218 -0.0034466327738 -0.0069308300325 -0.0034466327738 -0.0097643002464 0.0013454522129
          -0.0069308300325 0.0013454522129 0.029566588383 0.056713321053 0.0035422709787 -0.0065695426943
          0.0035422709787 -0.010226029215 0.00028589563365 -0.0065695426943 0.00028589563365 0.029570022649
          0.056846865397 -0.00077268605928 -0.013966551526 -0.00077268605928 -0.0073120416341 0.0035651027117
          -0.013966551526 0.0035651027117 0.032227935522 0.060875685602 -0.0015115872578 -0.0068928932828
          -0.0015115872578 -0.0072746204614 0.0010508605198 -0.0068928932828 0.0010508605198 0.029551607719
          0.11413649138 0.00099737310311 0.0074798994934 0.00099737310311 -0.03457494318 0.0028969428031
          0.0074798994934 0.0028969428031 -0.029421690054 0.11464027827 0.0001365827683 0.0061654985004
          0.0001365827683 -0.033410676304 0.0061625523194 0.0061654985004 0.0061625523194 -0.029385144913
          0.086812937105 -0.00027613631852 0.0017981930708 -0.00027613631852 -0.033401233611 0.0053612791031
          0.0017981930708 0.0053612791031 0.0047813626524 0.084564442037 -2.4160863207e-05 0.0092540920545
          -2.4160863207e-05 -0.034093844706 -5.5396177445e-05 0.0092540920545 -5.5396177445e-05 -0.011940630472
          0.084708705815 0.001329229408 0.0096918022057 0.001329229408 -0.021397559264 0.0039959567369
          0.0096918022057 0.0039959567369 -0.019136043217 0.075045103581 -0.0043091280113 0.014679095811
          -0.0043091280113 -0.023388903499 0.0092496202306 0.014679095811 0.0092496202306 -0.017479281375
          0.027285144024 -0.00043300637863 -0.011630530175 -0.00043300637863 -0.0056497071212 0.0028002097689
          -0.011630530175 0.0028002097689 0.021431707756 0.025938416561 -0.0079059742379 -0.0037513683636
          -0.0079059742379 -0.00038524149212 -0.0035719724096 -0.0037513683636 -0.0035719724096 0.029030916323
          0.038002447726 0.0034667726232 -0.021243651425 0.0034667726232 -0.0061784725774 0.0031987020765
          -0.021243651425 0.0031987020765 0.0041227091061 0.045689962314 0.0020493725046 -0.016052331234
          0.0020493725046 -0.0061034611034 5.8373827404e-05 -0.016052331234 5.8373827404e-05 0.016657016842
          0.049205586903 0.0028251277231 -0.01228728609 0.0028251277231 -0.0060223930458 -0.00010691164773
          -0.01228728609 -0.00010691164773 0.0096784600081 0.15388223145 0.0083111360411 0.0089337844818
          0.0083111360411 -0.00909724477 0.010559111087 0.0089337844818 0.010559111087 0.12371434851
          0.15058502821 0.010072702646 0.010869915281 0.010072702646 -0.0099737302181 0.0099109105011
          0.010869915281 0.0099109105011 0.12488444701 0.16077302487 0.0099520667762 0.0078680191297
          0.0099520667762 -0.010706642483 0.0093706780916 0.0078680191297 0.0093706780916 0.1253175039
          0.15402232688 0.0083711853309 0.0087853557259 0.0083711853309 -0.011073450444 0.0095933434214
          0.0087853557259 0.0095933434214 0.1252109224 0.15456907326 0.0074677395061 0.0085666312683
          0.0074677395061 -0.011520552329 0.010419132615 0.0085666312683 0.010419132615 0.12518726676
          0.15843124072 0.0097806156119 0.0072948622268 0.0097806156119 -0.010617993898 0.0095284760135
          0.0072948622268 0.0095284760135 0.12557153054 0.15481750208 0.0098956310158 0.0070589609237
          0.0098956310158 -0.0085946277998 0.008079908026 0.0070589609237 0.008079908026 0.1269510922
          0.15510485677 0.0095608468637 0.0067644978874 0.0095608468637 -0.0088665022202 0.0088277295438
          0.0067644978874 0.0088277295438 0.12700533507 0.076085849789 -0.0003630694122 -0.0072180084021
          -0.0003630694122 -0.015705574462 0.00020296197696 -0.0072180084021 0.00020296197696 0.02424438366
          0.077262428425 -0.002537642841 -0.0066014926273 -0.002537642841 -0.013288199579 -0.002192784706
          -0.0066014926273 -0.002192784706 0.023582067696 0.073653362891 -0.0015129181046 -0.0092888673107
          -0.0015129181046 -0.012858248977 0.00017624489568 -0.0092888673107 0.00017624489568 0.025158798698
          0.067520471548 -0.0031941821971 -0.0084323385558 -0.0031941821971 -0.0092853564775 0.00041113210337
          -0.0084323385558 0.00041113210337 0.025039174616 0.066652406992 -0.0016800007302 -0.0080676186402
          -0.0016800007302 -0.010995081246 0.0014984439585 -0.0080676186402 0.0014984439585 0.028074858635
          0.072447030171 -0.00045451358991 -0.0097917971465 -0.00045451358991 -0.013774605962 0.00082781311251
          -0.0097917971465 0.00082781311251 0.028557072085 0.072104535454 0.0004440862757 -0.0093627488042
          0.0004440862757 -0.015002169614 -0.00052543090584 -0.0093627488042 -0.00052543090584 0.022622857788
          0.072714665379 0.00054827508066 -0.0082421270023 0.00054827508066 -0.015904637991 0.00049335476225
          -0.0082421270023 0.00049335476225 0.0239371459 0.1236175876 0.010316957442 -0.00088935316572
          0.010316957442 -0.00592100298 0.008070924703 -0.00088935316572 0.008070924703 0.095390973806
          0.058676137828 -0.0016319783851 -0.021822568368 -0.0016319783851 0.017261237853 -0.0037250498783
          -0.021822568368 -0.0037250498783 0.010940077994 0.044850402354 0.0014266005255 -0.030670211719
          0.0014266005255 0.013557283692 0.002050449563 -0.030670211719 0.002050449563 0.043487591431
          0.12248692627 0.0097571450037 -0.00076818730709 0.0097571450037 -0.005735382812 0.0094421702724
          -0.00076818730709 0.0094421702724 0.099093219484 0.1170587683 0.0082758326524 -0.00053053438987
          0.0082758326524 0.00059086066616 0.0095548666766 -0.00053053438987 0.0095548666766 0.11450752825
          0.11894376715 0.010691633543 -0.0014628492532 0.010691633543 -0.0015771588589 0.0087934739086
          -0.0014628492532 0.0087934739086 0.11493295692 0.035647070985 0.0039339060104 -0.021804365565
          0.0039339060104 0.014868019029 -0.0014733786717 -0.021804365565 -0.0014733786717 0.035563109391
          0.12838536503 0.011280744411 0.0002210756335 0.011280744411 -0.0018588741196 0.01038489051
          0.0002210756335 0.01038489051 0.11665007661 0.11528240762 0.010248826356 -0.001288545801
          0.010248826356 -0.001373544271 0.0095923505202 -0.001288545801 0.0095923505202 0.11727707861
          0.13381928793 0.010218160876 0.0013632894821 0.010218160876 -0.0025032247321 0.010108283861
          0.0013632894821 0.010108283861 0.11013551523 0.0019034860976 -0.0026876796304 -0.0061432237697
          -0.0026876796304 0.0027235358732 -0.0073215202167 -0.0061432237697 -0.0073215202167 0.013504269345
          0.020759849657 -0.0021137672971 -0.0082585231861 -0.0021137672971 -0.0035769576034 -0.0022939247725
          -0.0082585231861 -0.0022939247725 0.0096376712984 -0.0068012744101 -0.0016131331752 0.0057448616582
          -0.0016131331752 0.0011353015563 -0.0013598192573 0.0057448616582 -0.0013598192573 0.020205699563
          0.0075268275444 -0.0033047147282 -0.0060937978071 -0.0033047147282 -0.00048478446996 0.0026644230126
          -0.0060937978071 0.0026644230126 0.026196444125 0.0094596529742 -0.0052361421665 -0.01543522704
          -0.0052361421665 0.0055414496478 -0.001687978681 -0.01543522704 -0.001687978681 0.021297906144
          0.070494223966 -0.0009202115062 -0.0081246622638 -0.0009202115062 -0.010268597467 -0.001597574117
          -0.0081246622638 -0.001597574117 0.023524064356 0.14816382891 0.0080763982516 0.0025659709669
          0.0080763982516 -0.010108385641 0.0080128838194 0.0025659709669 0.0080128838194 0.10970218584
          0.087904342592 0.01174647158 0.0051750469636 0.01174647158 2.1270665339e-05 0.0081761084852
          0.0051750469636 0.0081761084852 0.089971070327 0.068064285201 0.00099362766454 -0.0095784598822
          0.00099362766454 -0.011747934597 -0.0015193393081 -0.0095784598822 -0.0015193393081 0.023880523842
          0.038003288828 -0.004771082346 -0.010819799147 -0.004771082346 -0.0038799741569 -9.8338109589e-05
          -0.010819799147 -9.8338109589e-05 0.031180755062 0.041757984995 -0.0029597641761 -0.0072686653742
          -0.0029597641761 -0.0032175722855 0.00015214057216 -0.0072686653742 0.00015214057216 0.024419801033
          0.13478566968 0.0081602961066 0.0067327785637 0.0081602961066 -0.012278041981 0.0076249269676
          0.0067327785637 0.0076249269676 0.078363842697 0.050001637766 -0.0033304614472 -0.011545507774
          -0.0033304614472 -0.0058482723977 -0.00065937667908 -0.011545507774 -0.00065937667908 0.026111516024
          0.03997754474 -0.0023522067065 -0.0072166506485 -0.0023522067065 -0.0030007120502 0.0016015187286
          -0.0072166506485 0.0016015187286 0.029492654471 0.03417362181 -0.0034925626852 -0.0080027629308
          -0.0034925626852 -0.0032103613831 0.0011985132852 -0.0080027629308 0.0011985132852 0.033673858275
          0.033904153889 -0.0033097073275 -0.0086179107017 -0.0033097073275 -0.0021682922736 0.00089198121894
          -0.0086179107017 0.00089198121894 0.03271902535 0.035225470784 -0.0028802802869 -0.0076873261864
          -0.0028802802869 0.00034322937349 0.00010602146851 -0.0076873261864 0.00010602146851 0.032154918353
          0.11788452974 0.010503203343 0.0061361335356 0.010503203343 -0.031657663795 0.00028824294481
          0.0061361335356 0.00028824294481 0.019691274126 0.12783625639 0.0082436147974 0.0094420687717
          0.0082436147974 -0.014962625226 0.0071305190345 0.0094420687717 0.0071305190345 0.065520853951
          0.13309995196 0.012138502828 0.0049344717116 0.012138502828 -0.018398904707 0.0088835679877
          0.0049344717116 0.0088835679877 0.067776513643 0.1337071487 0.0079592461436 0.0043321634104
          0.0079592461436 -0.020462129245 0.0065944355361 0.0043321634104 0.0065944355361 0.067030868203
          0.15425669757 0.0089614821733 -0.00074475984224 0.0089614821733 -0.014107900166 0.010046827214
          -0.00074475984224 0.010046827214 0.10213048607 0.15454296755 0.0013998150638 0.0082864067149
          0.0013998150638 -0.012870676162 0.013117752101 0.0082864067149 0.013117752101 0.092926005694
          0.15997069311 0.010806097462 0.0018462071658 0.010806097462 -0.014605877568 0.012805180346
          0.0018462071658 0.012805180346 0.099927265124 0.13062359882 0.0078950966499 0.0029431144684
          0.0078950966499 -0.015573534382 0.0065959708686 0.0029431144684 0.0065959708686 0.071174546547
          0.11733169746 0.0010290184921 0.0076647703485 0.0010290184921 -0.015464675244 0.010605758547
          0.0076647703485 0.010605758547 0.070172217871 0.12342298438 0.0082223296531 0.0058427117113
          0.0082223296531 -0.01495851402 0.0069313796699 0.0058427117113 0.0069313796699 0.070427008427
          0.12405712901 0.0064694176732 0.003570016724 0.0064694176732 -0.010159811891 0.012642271427
          0.003570016724 0.012642271427 0.071585957138 0.12224280288 0.007978029266 0.007458864032
          0.007978029266 -0.011394562319 0.0094499023362 0.007458864032 0.0094499023362 0.063336924872
          0.12223962647 0.0081582334821 0.0077935859686 0.0081582334821 -0.014922863503 0.007424544665
          0.0077935859686 0.007424544665 0.07104887274 0.12239663656 0.00916133527 0.010460695506
          0.00916133527 -0.010939497267 0.014044237665 0.010460695506 0.014044237665 0.071586225967
          0.12030203482 0.0076663504018 0.0082319396968 0.0076663504018 -0.01083640284 0.0064948618839
          0.0082319396968 0.0064948618839 0.078617958254 0.12136707643 0.0080810387214 0.0085326254333
          0.0080810387214 -0.011868321964 0.0063176356523 0.0085326254333 0.0063176356523 0.078630270386
          0.12147369977 0.0077523638877 0.0059614887146 0.0077523638877 -0.011858947992 0.0060996040317
          0.0059614887146 0.0060996040317 0.074560849206 0.12966622811 0.0093360617107 0.0048918128619
          0.0093360617107 -0.016833191512 0.010400817706 0.0048918128619 0.010400817706 0.070851933425
          0.14097878553 0.010389904793 0.0028579110486 0.010389904793 -0.018911361009 0.010060161269
          0.0028579110486 0.010060161269 0.071207109353 0.14217382737 0.0072393735602 0.0035695757846
          0.0072393735602 -0.017237382555 0.0054936269967 0.0035695757846 0.0054936269967 0.070539525688
          0.13561253223 0.0053579765709 0.0064504546878 0.0053579765709 -0.017522600675 0.0079468023677
          0.0064504546878 0.0079468023677 0.079687224498 0.13864501244 0.0020357049815 0.0031433013342
          0.0020357049815 -0.018155651061 0.0075985667225 0.0031433013342 0.0075985667225 0.079602621619
          0.12888191736 0.0078524637346 0.0046010743683 0.0078524637346 -0.017010030433 0.0078172143888
          0.0046010743683 0.0078172143888 0.079641276733 0.12664721641 0.0094654979248 0.0041061109016
          0.0094654979248 -0.011000841059 0.0083631461441 0.0041061109016 0.0083631461441 0.079536609113
          0.12616054734 0.0077674141674 0.0040287104679 0.0077674141674 -0.014785175293 0.0098915643748
          0.0040287104679 0.0098915643748 0.081035335254 0.13218411763 0.01058533547 0.0037593279221
          0.01058533547 -0.015496988208 0.0063134330345 0.0037593279221 0.0063134330345 0.075177142278
          0.13216706876 0.010626630013 0.0038319565248 0.010626630013 -0.01231967927 0.0055179599028
          0.0038319565248 0.0055179599028 0.07498486579 0.12679145125 0.0093431114879 0.0035757436352
          0.0093431114879 -0.010976234945 0.0086945345442 0.0035757436352 0.0086945345442 0.081326364351
          0.049929012376 0.0024276296318 -0.0095308538306 0.0024276296318 -0.004797010425 0.001037915093
          -0.0095308538306 0.001037915093 0.03046000587 0.044176198713 0.0024201333157 -0.010070172649
          0.0024201333157 -0.0035474428717 -0.00053162384481 -0.010070172649 -0.00053162384481 0.028961611847
          0.05722914668 0.00094267892977 -0.01390851114 0.00094267892977 -0.0059490840906 0.00079202949941
          -0.01390851114 0.00079202949941 0.028856231456 0.054215281652 0.00071181470215 -0.013904442221
          0.00071181470215 -0.0068500883792 -0.0014709128844 -0.013904442221 -0.0014709128844 0.030892705689
          0.058127319699 0.0037778848466 -0.0092709134591 0.0037778848466 -0.0056001310334 -0.00030695887672
          -0.0092709134591 -0.00030695887672 0.031100178687 0.050542794778 0.00062611322708 -0.011765719542
          0.00062611322708 -0.0058496291342 -0.0018634358777 -0.011765719542 -0.0018634358777 0.029842457695
          0.15149515186 0.015218480987 0.015608500805 0.015218480987 -0.0045449804363 0.0069261564164
          0.015608500805 0.0069261564164 0.14899091621 0.1534823746 0.013155989843 0.014028941723
          0.013155989843 -0.0031848145491 0.0066841152308 0.014028941723 0.0066841152308 0.14571085765
          0.14915302399 0.010637553144 0.020251500355 0.010637553144 -0.0039578731541 0.0084985777318
          0.020251500355 0.0084985777318 0.1414771306 0.051685639355 0.0018799814508 -0.011442966185
          0.0018799814508 -0.0061070145708 0.00037473426061 -0.011442966185 0.00037473426061 0.027759967172
          0.15088112789 0.011060335593 0.024146656307 0.011060335593 -0.0056749342925 0.004592265655
          0.024146656307 0.004592265655 0.13728648097 0.14896692488 0.012755636676 0.026061063015
          0.012755636676 0.00016931159695 0.0062324467537 0.026061063015 0.0062324467537 0.13688659049
          0.15795074668 0.015699624817 0.015876499494 0.015699624817 -0.0030591216667 0.00650370694
          0.015876499494 0.00650370694 0.14532663692 0.1311637773 0.019485458588 0.022144633611
          0.019485458588 -0.0007378812132 0.0023101846028 0.022144633611 0.0023101846028 0.12888910155
          0.058132506795 -0.0076223462541 -0.022555625528 -0.0076223462541 -0.025362384211 -0.0067271249768
          -0.022555625528 -0.0067271249768 0.0019969522478 0.055842965219 -0.004210487125 -0.020650580988
          -0.004210487125 -0.017534917158 -0.001560343423 -0.020650580988 -0.001560343423 0.0053755649876
          0.044409468652 -0.0038097275413 -0.014380392158 -0.0038097275413 -0.012185462239 -0.0028062903371
          -0.014380392158 -0.0028062903371 0.0021332918334 0.067126244534 0.00031023461658 -0.015428546144
          0.00031023461658 -0.012706821037 -0.0050293938729 -0.015428546144 -0.0050293938729 -0.0010764575949
          0.067532050529 -0.0002966063815 -0.014270112905 -0.0002966063815 -0.017353644036 -0.0028315439997
          -0.014270112905 -0.0028315439997 -0.00055049016057 0.057865904367 -0.048156978273 -0.049364973684
          -0.048156978273 -0.014102594439 -0.023948394971 -0.049364973684 -0.023948394971 -0.025610064691
          0.068178797626 -0.0012810037674 -0.011697324461 -0.0012810037674 -0.019291557539 -0.0032407144427
          -0.011697324461 -0.0032407144427 0.0081846616604 0.053303332712 0.0099790772111 0.010129927241
          0.0099790772111 0.0029247924567 0.0093090020641 0.010129927241 0.0093090020641 0.087089421821
          0.069633215826 0.012312486497 0.0082336858834 0.012312486497 0.001978529404 0.0054843296285
          0.0082336858834 0.0054843296285 0.077440894442 0.078431843001 0.011604999456 0.0074486012839
          0.011604999456 -0.0012568044956 0.0071234892511 0.0074486012839 0.0071234892511 0.076756477917
          0.063096222089 0.0016002854255 -0.0081922363171 0.0016002854255 -0.0096750566934 -9.1153778058e-05
          -0.0081922363171 -9.1153778058e-05 0.02740670446 0.079894870171 0.0012036459266 -0.0074059890777
          0.0012036459266 -0.018206624675 0.0021629629899 -0.0074059890777 0.0021629629899 0.013779979235
          -0.046722935568 0.0087087185736 -0.0010521660832 0.0087087185736 0.021190133621 -0.00036573265565
          -0.0010521660832 -0.00036573265565 0.012954309117 -0.02332957116 -0.010648886709 -0.0054490818728
          -0.010648886709 0.0034866522966 -0.00013617269247 -0.0054490818728 -0.00013617269247 0.010168881908
          -0.063601030787 0.0014260544037 0.0052924088957 0.0014260544037 0.017180187313 0.0043129623918
          0.0052924088957 0.0043129623918 0.027795647815 -0.043858825187 -0.00052063254323 -0.005062386487
          -0.00052063254323 0.011741442619 -0.00083057895423 -0.005062386487 -0.00083057895423 0.026477661378
          -0.042692078338 -0.00011236366643 -0.0037237767489 -0.00011236366643 0.010981131591 0.003547411186
          -0.0037237767489 0.003547411186 0.011089956107 0.023742473509 0.011566491895 0.00062401910135
          0.011566491895 0.0084940632517 0.00078987325561 0.00062401910135 0.00078987325561 0.020453966058
          -0.043797634218 -0.003663587157 0.0053806398741 -0.003663587157 0.016115125157 0.0085833655742
          0.0053806398741 0.0085833655742 0.020029746642 0.059697771046 -0.0097461373073 -0.022472304898
          -0.0097461373073 -0.008012626187 -0.0021327416629 -0.022472304898 -0.0021327416629 -0.015013002335
          0.034105453007 -0.012938254828 -0.029110140131 -0.012938254828 -0.0078024611198 -0.0057927399869
          -0.029110140131 -0.0057927399869 -0.0035497492808 -0.065962660188 -0.011304622389 0.0014120205906
          -0.011304622389 0.019667875703 -0.0011167166756 0.0014120205906 -0.0011167166756 0.020593228774
          0.15300444617 0.0075339984318 -0.0013276982758 0.0075339984318 -0.013476509893 0.0089564874714
          -0.0013276982758 0.0089564874714 0.099555123711 0.14996948703 0.010798688606 -0.0024483515541
          0.010798688606 -0.015667982557 0.011157514647 -0.0024483515541 0.011157514647 0.099891974738
          0.078087961195 -0.0053149947256 -0.020655694628 -0.0053149947256 -0.011490081112 -0.011597399977
          -0.020655694628 -0.011597399977 0.0057560987357 0.19150755264 0.0027498477652 0.0015253880353
          0.0027498477652 -0.040736335295 -0.0077680267903 0.0015253880353 -0.0077680267903 0.091753145235
          0.1683103278 0.0011274072513 0.018536421179 0.0011274072513 -0.031576632112 -0.013092201762
          0.018536421179 -0.013092201762 0.083854304768 0.06376846688 0.00060518178505 -0.010461178528
          0.00060518178505 -0.010473997907 -0.00044433057231 -0.010461178528 -0.00044433057231 0.027515666617
          -0.020132102 -0.0012143584195 -0.0042553598597 -0.0012143584195 0.0087273744964 0.0054244826796
          -0.0042553598597 0.0054244826796 0.019035218449 0.17333873881 0.0068836500614 0.022126731739
          0.0068836500614 -0.022308980678 0.0032449555063 0.022126731739 0.0032449555063 0.10173281986
          0.173159862 0.0079806833104 0.019759365578 0.0079806833104 -0.027037745183 0.0097549619592
          0.019759365578 0.0097549619592 0.10248451969 0.094289299838 0.0089141295782 0.0046865721675
          0.0089141295782 -0.00029173946552 0.0042343404897 0.0046865721675 0.0042343404897 0.086162231379
          0.02418254314 -0.00068800771512 0.0088848667736 -0.00068800771512 0.0083192489221 0.0068523816907
          0.0088848667736 0.0068523816907 0.02702862587 -0.0045804391519 0.0028700058195 -0.0027624649153
          0.0028700058195 0.0080413771847 0.0077196580337 -0.0027624649153 0.0077196580337 0.024339244088
          -0.0024794143139 -0.00017492644036 0.0014014784292 -0.00017492644036 0.003337451137 -0.003524797129
          0.0014014784292 -0.003524797129 0.029614455866 -0.018896271593 0.0051092085691 0.0089271138434
          0.0051092085691 0.012358001104 0.0018534492631 0.0089271138434 0.0018534492631 0.031840073818
          -0.028700302652 -0.00048993339817 0.0090663825097 -0.00048993339817 0.015131229789 0.0053117798134
          0.0090663825097 0.0053117798134 0.033750065499 0.017044635384 0.0006716941669 0.0076465182968
          0.0006716941669 0.014757783529 0.0036232883635 0.0076465182968 0.0036232883635 0.027017651518
          0.018929685313 0.0054611437154 0.011183820851 0.0054611437154 0.0016624044334 0.0027322416076
          0.011183820851 0.0027322416076 0.02979286758 0.0039273121099 -0.0036088030743 0.0092562201022
          -0.0036088030743 0.013434398912 0.0029815299674 0.0092562201022 0.0029815299674 0.045364624326
          -0.0038401253926 0.0011278232237 0.0066929348159 0.0011278232237 0.012698140579 0.0036717262222
          0.0066929348159 0.0036717262222 0.044872778796 -0.00051835799674 0.0013630078793 -0.0085493496634
          0.0013630078793 0.012706160554 0.0019044385667 -0.0085493496634 0.0019044385667 0.059954752322
          -0.020101707155 -0.011780566027 0.006351926402 -0.011780566027 0.015824774575 0.0025064844596
          0.006351926402 0.0025064844596 0.056015024428 0.084226035259 -0.0015811359256 -0.01439003675
          -0.0015811359256 -0.029328566896 0.0039537620416 -0.01439003675 0.0039537620416 -0.019364706442
          0.072990027723 -0.00037878597979 -0.011230518487 -0.00037878597979 -0.02916009259 0.0061676526113
          -0.011230518487 0.0061676526113 0.0016648645644 0.14831254543 0.014733383136 -4.0271697451e-05
          0.014733383136 -0.014527678499 0.0024190836414 -4.0271697451e-05 0.0024190836414 0.10414608093
          0.14791965996 0.010879310867 0.00065730786538 0.010879310867 -0.011195399432 0.011190753019
          0.00065730786538 0.011190753019 0.10299792508 0.14991422828 0.0083225141018 0.0038555653368
          0.0083225141018 -0.010078947764 0.0096996442625 0.0038555653368 0.0096996442625 0.10497727207
          0.14638682577 0.010656687731 -0.0005442078064 0.010656687731 -0.0090725957356 0.0082254148355
          -0.0005442078064 0.0082254148355 0.10702941112 0.14474885199 0.010123110632 -0.0013614215212
          0.010123110632 -0.0070355861233 0.011104908586 -0.0013614215212 0.011104908586 0.11109760149
          0.14733779991 0.0099366220934 0.0023062249024 0.0099366220934 -0.0076783769296 0.0095808341251
          0.0023062249024 0.0095808341251 0.11387453953 0.14882564106 0.011310158316 0.003580623133
          0.011310158316 -0.0099961266962 0.0058824410355 0.003580623133 0.0058824410355 0.10833865524
          0.14465202987 0.012051795312 0.00012577096869 0.012051795312 -0.0084844063834 0.0079819723259
          0.00012577096869 0.0079819723259 0.10682167356 0.14766037627 0.0090651356833 0.0047204828943
          0.0090651356833 -0.0093955150565 0.011239807914 0.0047204828943 0.011239807914 0.11550378944
          0.15768871458 0.0095814572756 0.00053226293959 0.0095814572756 -0.010291881633 0.011139333903
          0.00053226293959 0.011139333903 0.11723858186 0.14835984369 0.011182176801 -0.00076359377922
          0.011182176801 -0.011530560267 0.010688908321 -0.00076359377922 0.010688908321 0.10716806333
          0.16050763389 0.0088347547459 -0.0023538191456 0.0088347547459 -0.011232547236 0.010359715624
          -0.0023538191456 0.010359715624 0.10477266637 0.050578767949 0.0037380948637 0.0081147612057
          0.0037380948637 -0.01176078566 0.007105634823 0.0081147612057 0.007105634823 -0.01415646866
          0.042793252886 0.0046969566355 0.0046582810137 0.0046969566355 -0.015984462234 0.0020960532834
          0.0046582810137 0.0020960532834 -0.0089926699553 0.057099413697 0.0010815055896 -0.010607576486
          0.0010815055896 -0.022012803666 0.0017109610813 -0.010607576486 0.0017109610813 -0.011857175175
          0.15127759565 0.017416251346 0.0064244456613 0.017416251346 -0.0067294895145 0.0069595508909
          0.0064244456613 0.0069595508909 0.12723607735 0.15459184294 0.0090754317243 0.0072980211083
          0.0090754317243 -0.0065630253334 0.0093598688856 0.0072980211083 0.0093598688856 0.12645075266
          0.14751573656 0.0057448962727 0.0095387943004 0.0057448962727 -0.0064957155241 0.010323765765
          0.0095387943004 0.010323765765 0.1257462127 0.15002656922 0.008346528466 0.0072205108662
          0.008346528466 -0.0048606739476 0.0090358704856 0.0072205108662 0.0090358704856 0.12671623409
          0.14979034673 0.01031244692 0.0037309566257 0.01031244692 -0.0057265517058 0.0098767956493
          0.0037309566257 0.0098767956493 0.12649030569 0.15207494445 0.0082859767561 0.011208819738
          0.0082859767561 -0.0057047541006 0.0072163958809 0.011208819738 0.0072163958809 0.14207925426
          0.14916704296 0.010844851968 0.0025665144505 0.010844851968 -0.0056600762918 0.0089463808664
          0.0025665144505 0.0089463808664 0.13142450959 0.14607358944 0.0095746455628 0.0042456307896
          0.0095746455628 -0.0028917168783 0.0086298945275 0.0042456307896 0.0086298945275 0.1308206775
          0.15008377046 0.0074788317303 0.0063505411871 0.0074788317303 -0.0051309784805 0.010380094966
          0.0063505411871 0.010380094966 0.12948921922 0.1936425582 0.0094596291368 0.014061484826
          0.0094596291368 -0.026567046997 0.013396333988 0.014061484826 0.013396333988 0.050185718636
          0.14602921452 0.009609217579 0.027485471249 0.009609217579 -0.019186528877 0.016701587048
          0.027485471249 0.016701587048 0.047919119915 0.12252708218 0.0027124604492 0.0023582457644
          0.0027124604492 -0.021037156752 0.011196128491 0.0023582457644 0.011196128491 0.041200343355
          0.15768472459 0.014119015227 0.013528021898 0.014119015227 -0.037470540108 -0.0037570174729
          0.013528021898 -0.0037570174729 0.027608615515 0.076688335223 0.0017440417176 -0.011971798212
          0.0017440417176 -0.020999913524 0.0011041035984 -0.011971798212 0.0011041035984 0.001076565853
          0.091034371522 -0.0038189717662 -0.0069494515362 -0.0038189717662 -0.021444003054 0.00036553524934
          -0.0069494515362 0.00036553524934 0.002272943263 0.093338148978 -7.1660947433e-05 -0.0031953904855
          -7.1660947433e-05 -0.028358187116 0.0010344089057 -0.0031953904855 0.0010344089057 0.0061176384588
          0.086811999315 0.002025317514 -0.0068236896114 0.002025317514 -0.028163471981 0.00067300772952
          -0.0068236896114 0.00067300772952 0.0067860267563 0.057357660644 0.0018562650782 -0.0195575607
          0.0018562650782 0.020828868851 -0.0054795780821 -0.0195575607 -0.0054795780821 -0.010937676316
          0.056867540736 0.00079264983937 -0.020740150315 0.00079264983937 0.02169507805 0.0028847615763
          -0.020740150315 0.0028847615763 0.023847831964 0.077198138875 0.0012928359953 -0.005838538097
          0.0012928359953 -0.019085059585 0.00041226944437 -0.005838538097 0.00041226944437 0.0065566394862
          0.091293715917 0.0015151982729 -0.0039482019687 0.0015151982729 -0.019788540007 0.0012354840358
          -0.0039482019687 0.0012354840358 0.0059197897511 0.091278899569 0.00022300727102 -0.0039346790711
          0.00022300727102 -0.023726800716 0.0016710889688 -0.0039346790711 0.0016710889688 0.0059125339458
          0.078178430978 0.00361690257 -0.0093213919448 0.00361690257 -0.024586408519 0.0028845222503
          -0.0093213919448 0.0028845222503 0.0053859440733 0.074346563537 0.00093452182436 -0.0081710660115
          0.00093452182436 -0.01906571078 0.0017911086917 -0.0081710660115 0.0017911086917 0.0055278726624
          -0.0066819241215 0.03283388294 -0.060128966804 0.03283388294 -0.085234070942 -0.0056126292833
          -0.060128966804 -0.0056126292833 0.055743679349 -0.0034729056048 0.018960163037 -0.059405048125
          0.018960163037 -0.075712251659 -0.0034457826936 -0.059405048125 -0.0034457826936 0.055351013052
          0.027908561288 0.031585069976 -0.03740102591 0.031585069976 -0.075302909464 0.02254434512
          -0.03740102591 0.02254434512 0.0078841755865 0.032557983023 0.0099546450718 -0.029677384817
          0.0099546450718 0.0040120798173 -0.0025375455262 -0.029677384817 -0.0025375455262 0.015191275545
          0.031742385685 0.0080824659035 -0.045420333349 0.0080824659035 -0.0032224107017 0.0097155135122
          -0.045420333349 0.0097155135122 -0.028714339841 0.0082781917093 -0.0081446683693 -0.063376900316
          -0.0081446683693 -0.014423371069 -0.0016174607674 -0.063376900316 -0.0016174607674 0.012994344307
          -0.032647306365 -0.047968447773 -0.057218280754 -0.047968447773 -0.049627228267 -0.006551870077
          -0.057218280754 -0.006551870077 0.045722922557 0.030482694735 0.0065436121512 -0.056753492592
          0.0065436121512 -0.0049743786594 -0.0088389925489 -0.056753492592 -0.0088389925489 0.042736813851
          0.050279624937 -0.0078366318993 -0.019511421904 -0.0078366318993 0.03724527608 0.036845701168
          -0.019511421904 0.036845701168 0.041305930491 0.049422163269 -0.013173050522 -0.027558021397
          -0.013173050522 0.0051090422766 -0.0045054332863 -0.027558021397 -0.0045054332863 0.036640586971
          0.16063555014 0.011025065356 0.013363910209 0.011025065356 -0.0054480638225 0.0091310075228
          0.013363910209 0.0091310075228 0.13257093506 0.15094588965 0.012219262737 0.010863851735
          0.012219262737 -0.004662284258 0.0084943933949 0.010863851735 0.0084943933949 0.13288254341
          0.14998751308 0.012186743804 0.0069568765262 0.012186743804 -0.0044717562699 0.010304766383
          0.0069568765262 0.010304766383 0.13665452737 0.15357733114 0.011951951462 0.0057476831957
          0.011951951462 -0.0046892369122 0.011330599468 0.0057476831957 0.011330599468 0.1332122441
          0.15500442462 0.0099931658788 0.01502309905 0.0099931658788 -0.0068178226406 0.0066173774151
          0.01502309905 0.0066173774151 0.13709658718 0.16336693649 0.0088099121073 0.017666326592
          0.0088099121073 -0.0084847827665 0.0080970228378 0.017666326592 0.0080970228378 0.13605894448
          0.16610544316 0.010350813541 0.018390135002 0.010350813541 -0.0077075866193 0.0088270457228
          0.018390135002 0.0088270457228 0.13509073528 0.16642940746 0.0093391527088 0.016671377524
          0.0093391527088 -0.007668470289 0.015842612418 0.016671377524 0.015842612418 0.14333862144
          -0.073971911125 0.0032842985849 -0.016710172967 0.0032842985849 0.013542392609 -0.0022996690752
          -0.016710172967 -0.0022996690752 0.039156840641 0.12202266298 0.0085238421048 -0.001569536117
          0.0085238421048 -0.0025872084713 0.010705908051 -0.001569536117 0.010705908051 0.11983144271
          0.12877918331 0.0077134462363 -0.00057756183991 0.0077134462363 -0.0015464857755 0.006827692532
          -0.00057756183991 0.006827692532 0.11664299349 0.13599447075 0.0081093723798 -0.00088934134183
          0.0081093723798 -0.015318585003 0.0079948098347 -0.00088934134183 0.0079948098347 0.089638496446
          0.13932423459 0.0078655340181 0.0029518093177 0.0078655340181 -0.01266168626 0.0094329653393
          0.0029518093177 0.0094329653393 0.086070442644 0.13522300959 0.0063038547876 0.003094521336
          0.0063038547876 -0.011088322159 0.0097339281598 0.003094521336 0.0097339281598 0.086093530558
          0.13964804784 0.0058688727486 0.0046476552077 0.0058688727486 -0.013998075597 0.011807461767
          0.0046476552077 0.011807461767 0.078319687033 0.1378838352 0.0065887615706 0.0027938127389
          0.0065887615706 -0.012486655708 0.0085661864514 0.0027938127389 0.0085661864514 0.085225062901
          0.14245603088 0.0083419355588 0.00071318620456 0.0083419355588 -0.016089051654 0.0087418982757
          0.00071318620456 0.0087418982757 0.085950165061 0.13942903368 0.0076114883685 0.002543207275
          0.0076114883685 -0.015835240539 0.010283724785 0.002543207275 0.010283724785 0.087658391217
          0.092131246787 0.0058489871648 -0.0049262562374 0.0058489871648 -0.021354001963 0.00094490311145
          -0.0049262562374 0.00094490311145 -0.03119873271 0.096968101001 0.0029134810589 0.0017487359638
          0.0029134810589 -0.034118814462 0.00028051510292 0.0017487359638 0.00028051510292 -0.029540271814
          0.087934249915 0.0051599812385 0.00020112583981 0.0051599812385 -0.025377658046 0.0060391044222
          0.00020112583981 0.0060391044222 -0.025797779237 -0.00072137807858 -1.2935650645e-07 -0.0082009936149
          -1.2935650645e-07 -0.0047454167492 0.010999014568 -0.0082009936149 0.010999014568 0.0043828583971
          0.059233916908 0.00025863847853 -0.015389022102 0.00025863847853 -0.011524519981 0.00064713504394
          -0.015389022102 0.00064713504394 0.02664592827 0.052396505057 0.0023705735536 -0.0098358798699
          0.0023705735536 -0.0083496746274 -3.0343538856e-05 -0.0098358798699 -3.0343538856e-05 0.031476832198
          0.052726429591 0.0022393946266 -0.0057967108801 0.0022393946266 -0.0083801260692 0.00041372712233
          -0.0057967108801 0.00041372712233 0.030051971107 0.064077810231 0.0063209846843 -0.0055259204068
          0.0063209846843 -0.0076610084542 -6.8913195085e-05 -0.0055259204068 -6.8913195085e-05 0.029608980805
          0.035095405507 0.0014089915208 -0.0064977878204 0.0014089915208 -0.0048758782701 0.0030937060448
          -0.0064977878204 0.0030937060448 0.032170612667 0.12352419364 0.01135068023 0.0001592621562
          0.01135068023 -0.0011637412246 0.010131968114 0.0001592621562 0.010131968114 0.12839436619
          0.07681254331 0.0048417734189 -0.0056107180448 0.0048417734189 -0.024269469774 -0.0011512894642
          -0.0056107180448 -0.0011512894642 0.0055528730339 0.01784797628 -0.0026103733852 -0.0084915439638
          -0.0026103733852 -0.0080402777632 0.0019800638284 -0.0084915439638 0.0019800638284 -0.0023911035222
          0.024806760741 0.0041485638473 -0.012559946821 0.0041485638473 -0.012033913207 0.0012369443184
          -0.012559946821 0.0012369443184 -0.00098750440938 0.039919440654 0.0016288435739 -0.0076170332872
          0.0016288435739 -0.012931819802 -0.0028865979601 -0.0076170332872 -0.0028865979601 -0.0076303115556
          0.020251145844 -0.0011749656839 -0.0025935745811 -0.0011749656839 -0.010953219505 0.0043696564773
          -0.0025935745811 0.0043696564773 0.0090715338121 0.01049672922 0.00046811457239 -0.014714217271
          0.00046811457239 -0.0088017510182 0.00097811549821 -0.014714217271 0.00097811549821 0.0061674946533
          0.010984795293 -0.0023760203355 -0.014952609377 -0.0023760203355 0.0077250250017 0.0016621493412
          -0.014952609377 0.0016621493412 -0.0042933362333 0.021348410025 -0.0099449013416 -0.012101153549
          -0.0099449013416 -0.0029832057668 0.0032220750349 -0.012101153549 0.0032220750349 -0.0043259377855
          -0.011510027598 -0.010618479651 -0.010873947762 -0.010618479651 -0.00089601637242 -0.0016603957525
          -0.010873947762 -0.0016603957525 0.0070475654528 0.13771017381 0.0037513040673 0.0048505289768
          0.0037513040673 -0.02966300381 -0.0067789599468 0.0048505289768 -0.0067789599468 0.066328191344
          0.10533637066 0.0048606249002 0.019875800829 0.0048606249002 -0.029547566634 -0.0056052997803
          0.019875800829 -0.0056052997803 0.077934697779 0.12999725841 0.0096348576871 0.014699483879
          0.0096348576871 -0.011635275846 -0.0013667679172 0.014699483879 -0.0013667679172 0.075329292537
          0.12810425545 0.010482354981 0.0049370278554 0.010482354981 -0.012413829705 0.010202359996
          0.0049370278554 0.010202359996 0.084033363652 0.13181432592 0.0096876506579 0.0040141261678
          0.0096876506579 -0.013845620591 0.0085017427038 0.0040141261678 0.0085017427038 0.082013552719
          0.12838044255 0.0086094486987 0.0018348899786 0.0086094486987 -0.01328066089 0.008189106641
          0.0018348899786 0.008189106641 0.080783401229 0.1281135062 0.010549202786 0.0033055906142
          0.010549202786 -0.015708426516 0.0076219653755 0.0033055906142 0.0076219653755 0.081458014659
          0.13741523176 0.0097062518842 0.0028339783526 0.0097062518842 -0.017080341375 0.0069950374512
          0.0028339783526 0.0069950374512 0.081172285902 0.13367807557 0.0098555332064 0.0034715741749
          0.0098555332064 -0.015124131306 0.009404667517 0.0034715741749 0.009404667517 0.084085515742
          0.16679763105 0.013099560749 0.027084971144 0.013099560749 -0.012297644152 0.0084171262561
          0.027084971144 0.0084171262561 0.12366125178 0.13753931498 0.013452164085 0.0027312603746
          0.013452164085 -0.013071049197 0.0090557288079 0.0027312603746 0.0090557288079 0.081013060943
          0.1280941395 0.010613926994 0.0035603979738 0.010613926994 -0.013919452978 0.0092694973047
          0.0035603979738 0.0092694973047 0.081220058292 0.12723136119 0.010191264606 0.0048140653254
          0.010191264606 -0.011783736812 0.007802371196 0.0048140653254 0.007802371196 0.081247379646
          0.12838160034 0.0098022881817 0.0019948792431 0.0098022881817 -0.012011166248 0.0074424917209
          0.0019948792431 0.0074424917209 0.083352750067 0.12831731028 0.010008763078 0.0024520514489
          0.010008763078 -0.0093847954806 0.007034738311 0.0024520514489 0.007034738311 0.080443658814
          0.12786837627 0.0086845990833 0.0027704170422 0.0086845990833 -0.013290294682 0.0079916528907
          0.0027704170422 0.0079916528907 0.081667971822 0.12619829951 0.011200199056 0.0032716985434
          0.011200199056 -0.011288634595 0.0069586980676 0.0032716985434 0.0069586980676 0.082674901056
          0.12499567514 0.011463533722 0.0053822066037 0.011463533722 -0.011345926324 0.006544258191
          0.0053822066037 0.006544258191 0.085121776661 0.098296775786 0.0068557020531 0.012808696009
          0.0068557020531 -0.013657440462 0.0061995707677 0.012808696009 0.0061995707677 0.009829497473
          0.077533128587 0.0031398579988 0.010579928738 0.0031398579988 -0.0091775191508 0.0042618786819
          0.010579928738 0.0042618786819 0.034091111428 0.090211202345 0.005763043066 0.019242300943
          0.005763043066 -0.017503234333 -0.0021337950138 0.019242300943 -0.0021337950138 0.029006471906
          0.083824829933 -0.0067093594112 0.014887115266 -0.0067093594112 -0.016518616079 0.0058259017495
          0.014887115266 0.0058259017495 0.036733920901 0.061897446742 0.0016799670929 -0.026460190638
          0.0016799670929 0.016903648324 0.00083543820662 -0.026460190638 0.00083543820662 0.0059378840565
          0.036647744834 0.0018934249669 0.012095088529 0.0018934249669 0.01096287177 0.0016461937921
          0.012095088529 0.0016461937921 0.070243049663 0.0037038540519 -0.00036739124565 -0.013124719646
          -0.00036739124565 0.00037555982192 0.0024579821813 -0.013124719646 0.0024579821813 0.0052866109113
          0.023297879407 -0.0025685034321 -0.014889984371 -0.0025685034321 -0.0080662411025 -0.010123285421
          -0.014889984371 -0.010123285421 -0.013350094135 0.022154363367 -0.003640179617 -0.017165688736
          -0.003640179617 -0.0084104746594 -0.0094492755808 -0.017165688736 -0.0094492755808 -0.0059449605706
          0.045822387438 0.0010537715519 -0.011554827122 0.0010537715519 -0.0075040608368 -0.0089576135137
          -0.011554827122 -0.0089576135137 -0.020353050556 0.018763112878 -0.0064747996815 -0.01416595539
          -0.0064747996815 -0.0093094473512 -0.0061472389174 -0.01416595539 -0.0061472389174 -0.0081688949256
          0.10064046853 0.00096409535929 0.02378061494 0.00096409535929 -0.021261820413 0.0085255389664
          0.02378061494 0.0085255389664 0.070488547956 0.090876427424 0.013151020722 0.019773034793
          0.013151020722 -0.018355995478 0.0093745193708 0.019773034793 0.0093745193708 0.06979569974
          0.13897619306 0.013346834078 0.0084449888573 0.013346834078 -0.018533729802 0.011096979443
          0.0084449888573 0.011096979443 0.054943635503 0.14112624279 0.0078996772415 0.010692273095
          0.0078996772415 -0.022563024681 0.0135372886 0.010692273095 0.0135372886 0.05358194898
          0.12124632925 0.0060024009756 0.016071727 0.0060024009756 -0.021805532667 0.020046585899
          0.016071727 0.020046585899 0.090430415789 0.12240747458 0.0092534671642 0.010020817103
          0.0092534671642 -0.013725591888 -0.0029822134658 0.010020817103 -0.0029822134658 0.085731910454
          0.060919426623 0.004552977131 -0.0048730343221 0.004552977131 -0.025098046695 0.0041958559386
          -0.0048730343221 0.0041958559386 -0.025488598632 0.091954708444 0.013413615324 0.0057706020368
          0.013413615324 -0.024524264862 0.01041679655 0.0057706020368 0.01041679655 -0.027015433431
          0.086430500726 0.0050195615146 -0.0045624410652 0.0050195615146 -0.032268825588 0.001372579768
          -0.0045624410652 0.001372579768 -0.037498708482 0.067743651156 0.0014728509844 -0.0040563005635
          0.0014728509844 -0.031024433872 -0.0022250747283 -0.0040563005635 -0.0022250747283 -0.030397309014
          0.078202466148 0.00093461070761 -0.0029567108874 0.00093461070761 -0.031047538848 -0.0025297148108
          -0.0029567108874 -0.0025297148108 -0.031492817002 0.10421268122 0.0011337433407 -0.0092918409558
          0.0011337433407 -0.031389190969 -0.0062196918038 -0.0092918409558 -0.0062196918038 -0.068589807557
          0.062100187877 0.00044708809958 -0.0081157276924 0.00044708809958 -0.016738470414 0.0012027131237
          -0.0081157276924 0.0012027131237 0.018501502829 0.1228653759 -0.0034958163856 -0.0094796191305
          -0.0034958163856 -0.026968531958 0.0032664431937 -0.0094796191305 0.0032664431937 -0.030026619825
          0.090079019516 0.025062408871 0.00273418764 0.025062408871 -0.037739105305 -0.0141798928
          0.00273418764 -0.0141798928 -0.027906975533 0.082498516799 0.00072302683399 -0.0051282673659
          0.00072302683399 -0.024252844764 -0.0012172148588 -0.0051282673659 -0.0012172148588 -0.020131231427
          0.079611966316 -0.00024817292597 -0.0048701730368 -0.00024817292597 -0.022808129659 -0.0012391208619
          -0.0048701730368 -0.0012391208619 -0.020147633042 0.11153836225 0.0031221115862 -0.0014063803603
          0.0031221115862 -0.024166043594 0.0036746133651 -0.0014063803603 0.0036746133651 -0.031842270087
          0.14711216185 0.0095328693027 0.0017291612821 0.0095328693027 -0.011105880033 0.0077379092575
          0.0017291612821 0.0077379092575 0.10356397605 0.15294757246 0.0097923288369 0.00073591530513
          0.0097923288369 -0.011298645432 0.0092978164344 0.00073591530513 0.0092978164344 0.10831511904
          0.15039630515 0.0079226450905 0.0034380775254 0.0079226450905 -0.014016025696 0.01247230531
          0.0034380775254 0.01247230531 0.10482986747 -0.036936744786 -0.0039930784286 -0.01546204153
          -0.0039930784286 0.0021595044064 -0.001569726443 -0.01546204153 -0.001569726443 0.023574923108
          -0.046940783675 0.011323107035 -0.0022894538056 0.011323107035 0.018885249447 0.0013597030166
          -0.0022894538056 0.0013597030166 0.019508582961 0.048442096695 -0.0013218137846 -0.030647059481
          -0.0013218137846 0.0041163592024 0.017907567839 -0.030647059481 0.017907567839 0.068595613106
          0.043527219285 0.0056688251074 -0.017614556241 0.0056688251074 0.011099775117 0.0015257798688
          -0.017614556241 0.0015257798688 0.0343123967 0.03137633316 0.0027394262941 -0.02492227776
          0.0027394262941 0.012146817998 0.0050253135748 -0.02492227776 0.0050253135748 0.045705831868
          0.065108592453 -0.0067926711231 -0.003546603522 -0.0067926711231 -0.016895901428 -0.0044892038102
          -0.003546603522 -0.0044892038102 -0.02617767027 0.091336332913 -0.031090081968 -0.014567735277
          -0.031090081968 -0.00012459761524 0.0042697841438 -0.014567735277 0.0042697841438 -0.021913425083
          0.10227971299 0.038903459253 0.038757599126 0.038903459253 -0.010747223285 0.0091353257305
          0.038757599126 0.0091353257305 -0.0087003883041 0.06068476738 0.022000145593 0.011205045999
          0.022000145593 -0.0055617462191 0.0083532138914 0.011205045999 0.0083532138914 -0.017953426248
          0.085199850677 0.0027511980923 -0.003490725465 0.0027511980923 -0.01972543889 0.0011049773521
          -0.003490725465 0.0011049773521 0.0089582210769 0.14700140077 0.0081829506797 0.0014861381595
          0.0081829506797 -0.011405555111 0.011705939526 0.0014861381595 0.011705939526 0.10600386546
          0.13089368079 0.0082694807864 0.0012309530013 0.0082694807864 -0.0072637047176 0.008245192082
          0.0012309530013 0.008245192082 0.11344929355 0.089072860385 0.0033551860205 -0.0036118412649
          0.0033551860205 -0.028672272736 -0.0019404435691 -0.0036118412649 -0.0019404435691 -0.012428419939
          0.095258254601 0.0055495476051 -0.0088476700935 0.0055495476051 -0.031358932632 0.0053595741257
          -0.0088476700935 0.0053595741257 -0.014063867072 0.12713529073 0.0088811015989 -0.00066880728001
          0.0088811015989 0.00075858775374 0.0087632484531 -0.00066880728001 0.0087632484531 0.1150011766
          0.13866718313 0.0074603643507 -0.00039568953475 0.0074603643507 -0.0087871019414 0.010587349517
          -0.00039568953475 0.010587349517 0.10418644407 0.12860430627 0.007035838766 0.0010138885513
          0.007035838766 -0.0083374106006 0.0091545395254 0.0010138885513 0.0091545395254 0.10394876074
          0.14009073169 0.0079670883846 -0.0003869480969 0.0079670883846 -0.0086125998534 0.010422563658
          -0.0003869480969 0.010422563658 0.098020356647 0.14232964306 0.0087925990387 -0.003163284144
          0.0087925990387 -0.0081932298995 0.0069071784382 -0.003163284144 0.0069071784382 0.10146691144
          0.069965967554 0.045110562183 0.0090483339612 0.045110562183 -0.024541391071 -0.025978525018
          0.0090483339612 -0.025978525018 -0.036221787155 0.058789157406 0.12271568838 0.07032865117
          0.12271568838 0.053857883137 -0.055452028071 0.07032865117 -0.055452028071 -0.11812493043
          0.09762154916 0.048090865248 -0.044043521035 0.048090865248 -0.028217990676 -0.044369040674
          -0.044043521035 -0.044369040674 0.025552683695 0.15152029494 0.013524111012 0.015675517893
          0.013524111012 -0.00094110457048 0.0086584489215 0.015675517893 0.0086584489215 0.14881645661
          0.14823468288 0.011344939931 0.020207717407 0.011344939931 -0.0023841763021 0.011757242467
          0.020207717407 0.011757242467 0.14638408291 0.13713687704 0.0021092982602 0.014022239667
          0.0021092982602 -0.006028258657 0.0069959616439 0.014022239667 0.0069959616439 0.14297346306
          0.14905538008 0.011561977551 0.011530903881 0.011561977551 5.9713970911e-05 0.0063531469246
          0.011530903881 0.0063531469246 0.14223299827 0.051855600656 0.0014636015887 -0.013352276038
          0.0014636015887 -0.0064231628759 0.0009829159798 -0.013352276038 0.0009829159798 0.036204588731
          0.045630563825 0.00045069094798 -0.0079468156137 0.00045069094798 -0.00095346185443 -0.0030369370427
          -0.0079468156137 -0.0030369370427 0.030184753949 0.04429150985 0.0022738743522 -0.0087872805098
          0.0022738743522 -0.0034351826955 -0.0018370010772 -0.0087872805098 -0.0018370010772 0.034588536712
          0.045408151963 0.0018467995538 -0.0091134087374 0.0018467995538 -0.0053255545899 -0.00072420515459
          -0.0091134087374 -0.00072420515459 0.034208417786 0.044678932642 -0.00048312063516 -0.0088193489075
          -0.00048312063516 -0.006472929504 0.00068265548138 -0.0088193489075 0.00068265548138 0.034124518012
          0.056398421108 0.0029496649888 -0.0079788995907 0.0029496649888 -0.0052523440477 -0.00023349598058
          -0.0079788995907 -0.00023349598058 0.030534275438 0.055201775876 0.00084121419673 -0.0074827354227
          0.00084121419673 -0.0086272955233 4.4549340951e-05 -0.0074827354227 4.4549340951e-05 0.031373715498
          0.11136466425 0.010108966264 0.0032188656926 0.010108966264 -0.00025328899449 0.0078397161542
          0.0032188656926 0.0078397161542 0.097394807712 0.11043440453 0.00073880432593 0.0025000753994
          0.00073880432593 -0.019812218427 0.0033454567379 0.0025000753994 0.0033454567379 0.037036576475
          0.12116472092 0.0083588664614 0.014835994427 0.0083588664614 -0.014946879545 0.0099045802397
          0.014835994427 0.0099045802397 0.042344589776 0.11205750045 0.0078052938364 0.0093166089316
          0.0078052938364 -0.0146788669 0.0073434996336 0.0093166089316 0.0073434996336 0.055419530291
          0.10835176136 0.0039831038707 0.016510613772 0.0039831038707 -0.01627312765 0.010026776006
          0.016510613772 0.010026776006 0.051009437773 0.10695612858 0.0041361357677 0.014410043834
          0.0041361357677 -0.010299045005 0.010601845045 0.014410043834 0.010601845045 0.047867703248
          0.094481923009 0.0031944690093 0.006958496513 0.0031944690093 -0.0099237754637 0.0082594019502
          0.006958496513 0.0082594019502 0.050514317606 0.098869469826 0.0014921793457 0.012292033958
          0.0014921793457 -0.014862784508 0.0049587759086 0.012292033958 0.0049587759086 0.056727047128
          0.060324932613 -0.01214459978 -0.011143576209 -0.01214459978 0.010851775235 -0.0083327612961
          -0.011143576209 -0.0083327612961 -0.012823697298 0.085045632825 0.0062633879571 0.0086572940277
          0.0062633879571 0.0018044162199 0.020177022484 0.0086572940277 0.020177022484 -0.0052907583327
          0.086436329303 0.013182322294 -0.0036893484205 0.013182322294 -0.036579435642 0.040110136714
          -0.0036893484205 0.040110136714 0.013405745921 0.082746446048 0.01066148713 0.0047630601436
          0.01066148713 0.0049052400129 0.0030704068393 0.0047630601436 0.0030704068393 0.036468955596
          0.11728690934 0.011999918709 0.014965678913 0.011999918709 -0.036806912571 0.065909234689
          0.014965678913 0.065909234689 -0.053879762778 0.12226696601 -0.022042534203 0.036635860632
          -0.022042534203 -0.011472485634 0.027431447473 0.036635860632 0.027431447473 -0.0175675014
          0.21580313873 -0.054275804676 0.14648226326 -0.054275804676 -0.00096982936972 -0.0069385510468
          0.14648226326 -0.0069385510468 0.093774315793 0.094681518898 -0.0056416710794 0.00046653194298
          -0.0056416710794 0.0079007102797 0.013602195945 0.00046653194298 0.013602195945 -0.031165689216
          0.083093287732 0.010242969108 0.0057591923448 0.010242969108 0.0028045464983 0.0047304800482
          0.0057591923448 0.0047304800482 0.0361862129 -0.0055586474495 0.0065603109427 -0.0080662508376
          0.0065603109427 0.0082141427697 -0.0023391000215 -0.0080662508376 -0.0023391000215 0.026955009409
          -0.02325385621 -0.0032368767171 -0.0021713385669 -0.0032368767171 0.010396933991 -0.0066047887712
          -0.0021713385669 -0.0066047887712 0.032443830298 -0.022647278188 -0.0056307298634 -0.0046109035112
          -0.0056307298634 0.0090997967218 0.007814810573 -0.0046109035112 0.007814810573 0.040118273277
          0.014973856646 0.003230822472 -0.0049779810647 0.003230822472 0.0032616112075 0.0015828698578
          -0.0049779810647 0.0015828698578 0.023858110433 0.084650790618 8.4038861599e-05 0.0056009343647
          8.4038861599e-05 -0.037426914747 0.005335799199 0.0056009343647 0.005335799199 0.0029328289098
          0.090552342454 -0.0066826349007 -0.0024445445108 -0.0066826349007 -0.036808253154 0.0014844987715
          -0.0024445445108 0.0014844987715 -0.022403542897 0.094542076742 0.00022463386941 0.0081079967784
          0.00022463386941 -0.034351099584 0.0035076903309 0.0081079967784 0.0035076903309 -0.022271971228
          0.064491948251 0.0099632557259 -0.0061920106036 0.0099632557259 -0.029624702373 0.00091414858611
          -0.0061920106036 0.00091414858611 -0.022449307205 0.069626103025 0.0014211077294 -0.0043023758927
          0.0014211077294 -0.019297765005 0.0029864314297 -0.0043023758927 0.0029864314297 -0.028756751963
          0.054166091651 -0.0026385684958 0.0070074222253 -0.0026385684958 -0.018556298406 -0.0015423100094
          0.0070074222253 -0.0015423100094 -0.005921793192 0.11125593121 0.043248842506 0.021222496029
          0.043248842506 -0.048653542287 0.014940697759 0.021222496029 0.014940697759 -0.0027641578147
          0.053649772817 -0.00051315483625 0.0068569555148 -0.00051315483625 -0.02574048749 2.872454303e-05
          0.0068569555148 2.872454303e-05 -0.0053869785812 0.058715145498 -0.0027350777489 -0.012148715258
          -0.0027350777489 -0.026655081789 -0.0052309290762 -0.012148715258 -0.0052309290762 -0.031927390141
          0.10371989756 -0.0021194984394 -0.00418667808 -0.0021194984394 -0.03495853145 0.00013677888415
          -0.00418667808 0.00013677888415 -0.040950697317 0.12132741211 0.0026828167166 -0.0058861736215
          0.0026828167166 -0.04528499136 -0.0056729809683 -0.0058861736215 -0.0056729809683 -0.043242968904
          0.10465949835 0.0046593600448 -0.00026593845841 0.0046593600448 -0.03456986471 -0.006193503803
          -0.00026593845841 -0.006193503803 -0.029217061599 0.055314467423 0.0059111143838 -0.041433281429
          0.0059111143838 0.0048966860225 0.013414531776 -0.041433281429 0.013414531776 0.0086184879912
          0.055418963375 0.0071847767283 -0.040816998434 0.0071847767283 0.019337837035 0.015384061917
          -0.040816998434 0.015384061917 -0.016106728298 0.054294805663 0.02077748318 -0.038609774807
          0.02077748318 0.002892577143 -0.023391615097 -0.038609774807 -0.023391615097 -0.019452743474
          0.16259687388 0.0087699003751 0.01386572472 0.0087699003751 -0.0082083184202 0.010005710392
          0.01386572472 0.010005710392 0.13412181884 0.16356384217 0.010053647566 0.01193678881
          0.010053647566 -0.0092580662415 0.0072703023166 0.01193678881 0.0072703023166 0.13795865199
          0.14844349904 0.0089077034212 -0.0015103515867 0.0089077034212 -0.011261855244 0.0096873744555
          -0.0015103515867 0.0096873744555 0.11103861576 0.016268390035 -0.016095184531 -0.010338990637
          -0.016095184531 -0.0013770906532 -0.0063899648537 -0.010338990637 -0.0063899648537 0.0097034843887
          -0.011983359183 -0.0015954962693 -0.0031986793067 -0.0015954962693 0.0020294306976 -0.0021529084376
          -0.0031986793067 -0.0021529084376 0.013654330139 0.0027647180814 -0.0024281041907 -0.019934147406
          -0.0024281041907 0.00189365582 -0.0033372804251 -0.019934147406 -0.0033372804251 0.0078425020492
          0.026620036864 -0.011902351895 -0.0090390620741 -0.011902351895 0.0056293044353 -0.0071890460512
          -0.0090390620741 -0.0071890460512 0.0044808968724 -0.0020643342915 0.0017491507517 -0.018919416705
          0.0017491507517 -0.00050491633421 -0.0040318013962 -0.018919416705 -0.0040318013962 0.0076569169416
          0.098458117739 0.0073073154956 0.0019981163158 0.0073073154956 0.0019603940831 0.0087948017294
          0.0019981163158 0.0087948017294 0.089010173553 0.094130911672 -0.0012958827494 0.0085640039612
          -0.0012958827494 -0.0022087885872 0.0094156908076 0.0085640039612 0.0094156908076 0.090997881518
          0.08658763688 0.0045371027074 0.010311783296 0.0045371027074 0.0014542434961 0.0064233407055
          0.010311783296 0.0064233407055 0.090922323118 0.096221729013 0.0059585276216 0.0037600150776
          0.0059585276216 0.00138951184 0.0087672380371 0.0037600150776 0.0087672380371 0.09962112266
          0.10047973619 0.009406248513 0.0024160262153 0.009406248513 0.0017401995046 0.0070272440915
          0.0024160262153 0.0070272440915 0.099871307905 0.1007202977 0.0081663722677 0.0018978979626
          0.0081663722677 0.0024485702952 0.0078749102327 0.0018978979626 0.0078749102327 0.10040250581
          0.088948652558 0.0057054880519 0.0040332621105 0.0057054880519 0.0032352221152 0.0073399612064
          0.0040332621105 0.0073399612064 0.10075533158 0.089440573349 0.0057037760434 0.0034531352584
          0.0057037760434 0.0023229207275 0.0074454813946 0.0034531352584 0.0074454813946 0.10142773847
          0.081928572329 0.0040768374566 0.002480552505 0.0040768374566 0.0059365871115 0.0090132352769
          0.002480552505 0.0090132352769 0.10175481924 0.028996152812 0.0053426746796 0.0008573168911
          0.0053426746796 -0.0044799209979 -0.009090094009 0.0008573168911 -0.009090094009 0.024838661138
          0.01745327138 0.0081500228047 -0.021528013911 0.0081500228047 -0.004915193316 -0.0044688814232
          -0.021528013911 -0.0044688814232 0.0081596578604 0.043757471773 0.0027218482335 -0.013642345786
          0.0027218482335 -0.012513786336 0.00094598954087 -0.013642345786 0.00094598954087 0.0048356995227
          0.14434738866 0.011220966872 0.0067560003617 0.011220966872 -0.0020182963064 0.010869618535
          0.0067560003617 0.010869618535 0.13451108225 0.082059004675 0.013309083704 0.0081654934912
          0.013309083704 0.0017691866716 0.006607255563 0.0081654934912 0.006607255563 0.0906370439
          0.072432711879 0.00183493858 -0.0059560386733 0.00183493858 -0.014158012331 -0.001746852093
          -0.0059560386733 -0.001746852093 0.022503916375 0.021732244338 0.0028205494898 -0.021695504712
          0.0028205494898 0.0016181060482 -0.0055061340349 -0.021695504712 -0.0055061340349 0.0012175573722
          0.078302530767 0.01145384008 0.009693760854 0.01145384008 0.0008769904054 0.0071492022023
          0.009693760854 0.0071492022023 0.091897234592 0.048707041999 0.0064839898242 -0.017256322883
          0.0064839898242 -0.020959616108 -0.00084601240734 -0.017256322883 -0.00084601240734 -0.0082238367371
          0.074606183658 0.00045210583225 -0.018022648862 0.00045210583225 -0.025495228485 -0.0071177964703
          -0.018022648862 -0.0071177964703 -0.015205006428 0.073681320096 0.0012701662986 -0.018367378734
          0.0012701662986 -0.02086762487 -0.0077513633706 -0.018367378734 -0.0077513633706 -0.015168908602
          0.078465748153 0.0090069536763 0.0081059477797 0.0090069536763 0.0041035522442 0.0096432299447
          0.0081059477797 0.0096432299447 0.097548853562 0.079779833085 0.011544470407 0.0029638623746
          0.011544470407 0.0050134485088 0.008502649437 0.0029638623746 0.008502649437 0.098311110624
          0.08789088567 0.012114066398 0.002790209314 0.012114066398 0.00014994081036 0.0073291266671
          0.002790209314 0.0073291266671 0.095545253652 0.063216414827 0.00083743412875 -0.0134185349
          0.00083743412875 -0.0099305857853 -0.00011384372106 -0.0134185349 -0.00011384372106 0.026334927191
          0.061874603428 -0.00023007371881 -0.010858663959 -0.00023007371881 -0.010695611571 0.00070149451095
          -0.010858663959 0.00070149451095 0.02624536706 0.063222157627 0.00078650388151 -0.013405408613
          0.00078650388151 -0.0095075952048 -0.00012412217108 -0.013405408613 -0.00012412217108 0.025972265262
          0.067364230812 0.0026347491459 -0.01278631616 0.0026347491459 -0.01035671641 -0.00012732708406
          -0.01278631616 -0.00012732708406 0.026185183255 0.043782887893 0.015936066884 -0.039800120596
          0.015936066884 -0.0056045098827 -0.0020570949254 -0.039800120596 -0.0020570949254 0.0076214989214
          0.042244761844 0.0067026735642 -0.045654981868 0.0067026735642 -0.0085551587388 0.002473251092
          -0.045654981868 0.002473251092 0.015334094164 0.066333925991 0.025996477749 -0.030343251619
          0.025996477749 0.0065834099022 0.011317531231 -0.030343251619 0.011317531231 -0.012113591312
          0.069695043533 0.018171753564 -0.04613987128 0.018171753564 0.0090975315991 0.013434807836
          -0.04613987128 0.013434807836 -0.014368699576 0.069771965114 0.018735030207 -0.047590176738
          0.018735030207 -0.00064909741957 0.0077252657528 -0.047590176738 0.0077252657528 0.011237400639
          0.057200595653 0.0098990757508 -0.040786273285 0.0098990757508 0.0035619411981 -0.0067457050878
          -0.040786273285 -0.0067457050878 0.04312422255 0.05805407729 0.008473962082 -0.036450182293
          0.008473962082 0.00061047522038 -0.0029702237452 -0.036450182293 -0.0029702237452 0.042391513752
          0.058046686351 0.0073238457837 -0.035110141506 0.0073238457837 -0.0086937776972 0.003475184366
          -0.035110141506 0.003475184366 0.040116726547 0.074719486825 0.011270350134 -0.061172106032
          0.011270350134 -0.007985300743 0.0018000420425 -0.061172106032 0.0018000420425 -0.0086294680122
          0.029178715694 0.012150496629 -0.037617875688 0.012150496629 -0.0061264864413 -0.0070965321894
          -0.037617875688 -0.0070965321894 0.075699591738 0.055478165756 0.0091792495104 -0.023098527339
          0.0091792495104 -0.016347823317 -0.017004070165 -0.023098527339 -0.017004070165 0.077241397878
          0.061307096116 0.021761025965 -0.037265680106 0.021761025965 -0.015900901636 -0.0046162531299
          -0.037265680106 -0.0046162531299 0.042555843581 0.13036490206 0.0089010330514 0.0018287440247
          0.0089010330514 -0.009526688381 0.010475142959 0.0018287440247 0.010475142959 0.098118881117
          0.1332881462 0.010389127454 0.00021742342933 0.010389127454 -0.0097105809536 0.0079498852037
          0.00021742342933 0.0079498852037 0.095919106953 0.13697254188 0.0066498060525 0.0024460580039
          0.0066498060525 -0.013085904533 0.0084194212119 0.0024460580039 0.0084194212119 0.088730862203
          0.14040778844 0.0024783336765 0.0031758309671 0.0024783336765 -0.013705625972 0.01202747244
          0.0031758309671 0.01202747244 0.086349083727 0.13553447308 0.0089429345319 -0.0030708035437
          0.0089429345319 -0.011230854938 0.0092916933457 -0.0030708035437 0.0092916933457 0.10048736946
          0.061915526306 -0.0009852823972 -0.0092477333389 -0.0009852823972 -0.016429095757 -0.0017533169055
          -0.0092477333389 -0.0017533169055 -0.0027902631433 0.056335121352 -0.0030528101644 -0.014014157555
          -0.0030528101644 -0.021849314212 -0.0030471437247 -0.014014157555 -0.0030471437247 -0.0023259490634
          0.052336208296 -0.00029367262675 -0.011738404322 -0.00029367262675 -0.014350665277 -0.0024149508217
          -0.011738404322 -0.0024149508217 -0.0031051776076 0.063022022257 0.0016241872356 -0.011861870285
          0.0016241872356 -0.010583510662 0.00013646888793 -0.011861870285 0.00013646888793 0.026270342188
          0.075102323311 0.0025993954755 0.0039310939062 0.0025993954755 0.0044878106208 0.0065215125161
          0.0039310939062 0.0065215125161 0.10034486703 0.040613321283 0.01056781238 0.0054842381435
          0.01056781238 0.015412898547 0.00022216344797 0.0054842381435 0.00022216344797 0.10928140741
          0.033506587684 -0.0023043325405 -0.0036105304705 -0.0023043325405 0.017975448431 0.0056392136517
          -0.0036105304705 0.0056392136517 0.1161595889 0.032750897739 -0.0013572899897 -0.00073505866741
          -0.0013572899897 0.016789482328 0.0021684227755 -0.00073505866741 0.0021684227755 0.12519971207
          0.05254915906 0.0046128083891 -0.0093034550288 0.0046128083891 -0.011114868338 0.0050206839132
          -0.0093034550288 0.0050206839132 -0.017344088081 0.022605074009 0.001752128155 -0.0068190118302
          0.001752128155 -0.010599990649 0.0070506114341 -0.0068190118302 0.0070506114341 -0.013473261023
          0.064212068956 0.0028439058503 -0.011098221377 0.0028439058503 -0.011765294691 0.00097098983076
          -0.011098221377 0.00097098983076 0.028462296844 0.067196746115 0.0014700783747 -0.014170654266
          0.0014700783747 -0.011266555445 0.0019089795025 -0.014170654266 0.0019089795025 0.029927802216
          0.065123842113 0.0026428737875 -0.0090529736326 0.0026428737875 -0.012312741049 0.00017726902988
          -0.0090529736326 0.00017726902988 0.03285155531 0.04524552296 -0.0024987297628 -0.018610283744
          -0.0024987297628 -0.010614983257 -0.00068238549812 -0.018610283744 -0.00068238549812 0.023168295677
          -0.0071748977758 0.0021448395406 0.0079233917899 0.0021448395406 0.0041763926914 0.005502747706
          0.0079233917899 0.005502747706 0.015687323013 0.051823102418 -0.00023988687201 -0.017897522658
          -0.00023988687201 -0.010273279931 -0.00095561437499 -0.017897522658 -0.00095561437499 0.022627295167
          0.084691369574 0.0069886865935 0.0054252569664 0.0069886865935 0.0019968714887 0.0094879876697
          0.0054252569664 0.0094879876697 0.09675024582 0.07607102537 0.0063783690041 0.0029036042875
          0.0063783690041 0.0028844892458 0.007238286878 0.0029036042875 0.007238286878 0.10062112298
          0.078040644209 0.0034052118895 0.00089510791726 0.0034052118895 0.0058521831369 0.0087307734337
          0.00089510791726 0.0087307734337 0.10111062582 0.15023483813 0.0094308261064 -0.0016598295047
          0.0094308261064 -0.01507583801 0.0093197273973 -0.0016598295047 0.0093197273973 0.096157801939
          -0.077677296407 -0.0075127120185 -0.00057097808358 -0.0075127120185 0.015787632984 0.0026836158861
          -0.00057097808358 0.0026836158861 0.021305555689 0.14167834379 0.010761685241 0.00050748302714
          0.010761685241 -0.013541503487 0.011023539201 0.00050748302714 0.011023539201 0.099599047045
          0.14119123243 0.013414341035 -0.0023328820506 0.013414341035 -0.01275994139 0.0090536826299
          -0.0023328820506 0.0090536826299 0.10300575986 0.15008341022 0.0083609742127 -0.0050886598198
          0.0083609742127 -0.010896505586 0.011210023909 -0.0050886598198 0.011210023909 0.10351429633
          0.15012853465 0.0096068859241 0.00057017894161 0.0096068859241 -0.011308619096 0.0090050904889
          0.00057017894161 0.0090050904889 0.091983346833 0.14944201303 0.010246131857 0.000993544212
          0.010246131857 -0.011393748558 0.010866615772 0.000993544212 0.010866615772 0.10169753284
          0.14879459424 0.0090516505914 -1.7259283866e-05 0.0090516505914 -0.011225446588 0.0069769024358
          -1.7259283866e-05 0.0069769024358 0.10184771007 0.14913761985 0.0084818266646 0.00054976860894
          0.0084818266646 -0.014352699328 0.010001179061 0.00054976860894 0.010001179061 0.098923589264
          0.15092848803 0.0092978864148 0.0007415112163 0.0092978864148 -0.015086193417 0.0083113853671
          0.0007415112163 0.0083113853671 0.096086826701 0.048554129114 0.0080536007999 -0.005932342265
          0.0080536007999 0.0072248589381 -0.00099861363309 -0.005932342265 -0.00099861363309 0.028093136346
          0.047720149393 0.0081134935391 -0.0051316994208 0.0081134935391 0.0082427473835 7.9440275018e-05
          -0.0051316994208 7.9440275018e-05 0.028585985364 0.047657564049 0.008311654072 -0.004058000337
          0.008311654072 0.0078625013119 -0.0014587389583 -0.004058000337 -0.0014587389583 0.0241835183
          0.054681690531 0.012484192 -0.010787282503 0.012484192 0.0050851836045 -0.011371717676
          -0.010787282503 -0.011371717676 0.023972294404 0.084873400538 0.0096963396005 0.0041462664491
          0.0096963396005 -0.026448877493 0.0028186728861 0.0041462664491 0.0028186728861 -0.021881810533
          0.052243998884 0.00027732698003 -0.024591051217 0.00027732698003 0.013466695596 -0.020993641951
          -0.024591051217 -0.020993641951 -0.0027777950793 0.05702853422 0.0085297820128 -0.0081837053262
          0.0085297820128 0.027476101682 0.0039638547493 -0.0081837053262 0.0039638547493 0.0037487012663
          0.056279228088 0.0056789840411 -0.0092191073943 0.0056789840411 0.0196948811 -0.0056270646091
          -0.0092191073943 -0.0056270646091 0.012739616981 0.056726363593 0.0057095219721 -0.0087880179022
          0.0057095219721 0.017952639478 -0.0044854886846 -0.0087880179022 -0.0044854886846 0.012446171081
          0.050464133979 -0.0017819601613 -0.0025872186848 -0.0017819601613 0.013484509871 0.0066195118552
          -0.0025872186848 0.0066195118552 0.0093311923972 0.057193101541 0.0062970069457 -0.0076334926775
          0.0062970069457 0.018186053068 -0.011949434872 -0.0076334926775 -0.011949434872 0.003785169581
          0.17223591464 0.0070858064925 0.021008561802 0.0070858064925 -0.015679913132 0.011222270031
          0.021008561802 0.011222270031 0.1143687157 0.17689549699 0.0094986767917 0.020132983704
          0.0094986767917 -0.015877332216 0.010726795928 0.020132983704 0.010726795928 0.11453202136
          0.16975487499 0.0071730303252 0.02170523928 0.0071730303252 -0.016618789802 0.011747198237
          0.02170523928 0.011747198237 0.1303481139 0.059697571588 0.0045519669149 -0.0086398390931
          0.0045519669149 0.02068937595 0.012225163466 -0.0086398390931 0.012225163466 -8.0795606871e-05
          0.051396551395 -0.0022291383334 -0.013498649058 -0.0022291383334 0.015617249115 0.0080660685913
          -0.013498649058 0.0080660685913 -0.0028476003974 0.051353726939 0.0075839938661 0.0081782369456
          0.0075839938661 -0.006018691881 0.004577969563 0.0081782369456 0.004577969563 0.026439421493
          0.050384284388 0.0067769681182 0.011647497822 0.0067769681182 0.0022289580634 0.0064559972104
          0.011647497822 0.0064559972104 0.014138644447 0.044892710666 0.0066218576766 0.011475487044
          0.0066218576766 0.0032480728415 0.00080682163601 0.011475487044 0.00080682163601 0.045260216236
          -0.0048163542472 -0.0025782626375 0.0062400108291 -0.0025782626375 0.0015473915303 -0.0002191625428
          0.0062400108291 -0.0002191625428 0.046278101333 0.029575691248 0.0080797284135 0.021047848192
          0.0080797284135 0.00030529330957 0.010880765701 0.021047848192 0.010880765701 0.043326228211
          0.027264152024 0.0042772037706 0.014165705689 0.0042772037706 0.0034137561141 0.002884743591
          0.014165705689 0.002884743591 0.024016889295 0.0063577312804 0.01020553732 0.0026690688477
          0.01020553732 0.013697781927 -0.0030983802711 0.0026690688477 -0.0030983802711 0.046831490092
          0.10728612505 0.0018827403349 0.0098133434576 0.0018827403349 -0.0030055587941 0.0098427634264
          0.0098133434576 0.0098427634264 0.079973862614 0.097751199622 0.0072596347345 0.0087423667189
          0.0072596347345 -0.0059072582805 0.0099454957071 0.0087423667189 0.0099454957071 0.081779790733
          0.10049569742 0.006448191583 0.011314813601 0.006448191583 -0.0057301735945 0.00865570665
          0.011314813601 0.00865570665 0.079733277601 0.076355645516 0.0015521693904 -0.0072613632055
          0.0015521693904 -0.018916979863 -0.0003138011681 -0.0072613632055 -0.0003138011681 0.009619451295
          0.076230065362 0.0015758520527 -0.009310772447 0.0015758520527 -0.018866876824 0.0014904968289
          -0.009310772447 0.0014904968289 0.013011271408 0.039701349838 0.0018449780438 0.0043455601343
          0.0018449780438 -0.0033736750232 0.0010900295834 0.0043455601343 0.0010900295834 0.025592755948
          0.035579631671 0.00051408020945 -0.010175539655 0.00051408020945 -0.0036665570023 -0.0014030551093
          -0.010175539655 -0.0014030551093 0.0096615078481 0.012982407174 0.00011005689911 0.0032531318801
          0.00011005689911 0.0017650524963 -0.00047049613197 0.0032531318801 -0.00047049613197 -0.018118544654
          -0.0025005243664 -0.0019884431876 -0.010594986543 -0.0019884431876 0.0015883752307 -0.00024071202797
          -0.010594986543 -0.00024071202797 0.010687092188 0.013106285242 -0.00060602248278 0.0016576549386
          -0.00060602248278 -0.0066870512328 0.0044205950838 0.0016576549386 0.0044205950838 0.00094014594778
          -0.0021525442732 -0.0024994107423 -0.0093756213508 -0.0024994107423 0.0055091951076 0.0052630267158
          -0.0093756213508 0.0052630267158 -0.01373444768 -0.0049517162965 -0.0085996535896 0.0012701782999
          -0.0085996535896 0.00082271546783 0.0065777812314 0.0012701782999 0.0065777812314 0.0014226675066
          0.011072551199 0.0042193548713 -0.011385869765 0.0042193548713 -0.010384029485 0.01080707699
          -0.011385869765 0.01080707699 -0.0048952965298 0.042338533122 -0.0020413053534 -0.016699198745
          -0.0020413053534 -0.0080009882178 -0.00045566791364 -0.016699198745 -0.00045566791364 0.027728121534
          0.039711573536 -0.0078951455108 -0.012112492633 -0.0078951455108 -0.0067251666569 -0.00059065937067
          -0.012112492633 -0.00059065937067 0.027208604409 0.051990037772 -0.0010047817776 -0.012464887256
          -0.0010047817776 -0.004346929852 -0.0017984932215 -0.012464887256 -0.0017984932215 0.026533272449
          0.059292328149 -0.0020749585469 -0.02108422215 -0.0020749585469 -0.010591497057 -0.0023883149839
          -0.02108422215 -0.0023883149839 0.020038530823 0.054225252042 -0.0032098089254 -0.015006339712
          -0.0032098089254 -0.0072199516733 -0.0028520534297 -0.015006339712 -0.0028520534297 0.021554542259
          0.046664215894 -0.0052633040768 -0.015999653504 -0.0052633040768 -0.0071758644939 -0.0024251547711
          -0.015999653504 -0.0024251547711 0.022230555823 0.043092697406 -0.005294019242 -0.018829053127
          -0.005294019242 -0.0059563206194 -0.0002760907978 -0.018829053127 -0.0002760907978 0.026793288293
          0.1164050395 0.0056535360665 0.011091254557 0.0056535360665 -0.011106089379 0.0084548693888
          0.011091254557 0.0084548693888 0.077366991929 0.12320546404 0.0064988952032 0.0079488227977
          0.0064988952032 -0.01322658336 0.0073679509579 0.0079488227977 0.0073679509579 0.078601253487
          0.017132895868 0.0035788218608 0.0032179270136 0.0035788218608 0.0069605864298 -0.0001352931134
          0.0032179270136 -0.0001352931134 0.053927028293 0.017386162024 0.0020169127919 -0.00011142854823
          0.0020169127919 0.0093828533597 0.0035824921735 -0.00011142854823 0.0035824921735 0.058480811493
          0.038025236125 0.011842839313 0.0025363822801 0.011842839313 0.0043107180757 -8.0995519533e-05
          0.0025363822801 -8.0995519533e-05 0.074682910501 0.13574500212 0.0075638110275 0.0004841526286
          0.0075638110275 -0.009161688832 0.0076931581662 0.0004841526286 0.0076931581662 0.095947138446
          0.16357957006 0.0060454236112 0.01898340407 0.0060454236112 -0.013953258216 0.0044205638253
          0.01898340407 0.0044205638253 0.11698296469 0.1370848933 0.011263621028 0.0011540567947
          0.011263621028 -0.014447194877 0.0073344819685 0.0011540567947 0.0073344819685 0.088640445797
          0.13600698661 0.01016339114 -0.00095763595007 0.01016339114 -0.012073890417 0.0092576755525
          -0.00095763595007 0.0092576755525 0.08926139355 0.14265573588 0.011439881206 0.00018421666055
          0.011439881206 -0.011861604657 0.0094827096511 0.00018421666055 0.0094827096511 0.089456465006
          0.14300267299 0.011873848253 0.001178574333 0.011873848253 -0.014416645087 0.007249452055
          0.001178574333 0.007249452055 0.088403749458 0.14370019178 0.011809027521 4.5628410759e-05
          0.011809027521 -0.015392951737 0.0086514362549 4.5628410759e-05 0.0086514362549 0.088532265731
          0.13931318256 0.0097619984694 -0.0039848518503 0.0097619984694 -0.015088591207 0.010577684968
          -0.0039848518503 0.010577684968 0.09633572957 0.13551217349 0.010854430085 -0.00061088191856
          0.010854430085 -0.0079965373402 0.0082673941874 -0.00061088191856 0.0082673941874 0.094852124645
          0.028134238767 0.0040288273207 -0.0033615091263 0.0040288273207 -0.0033096230965 0.0037685804428
          -0.0033615091263 0.0037685804428 0.03291645973 0.13314027103 0.0068820088448 0.0031013146359
          0.0068820088448 -0.029744697166 0.012113552858 0.0031013146359 0.012113552858 0.033845911069
          0.12586500717 0.0065016712075 0.0055734650949 0.0065016712075 -0.023818793296 0.0093732012485
          0.0055734650949 0.0093732012485 0.034390808114 0.13299510644 0.010845111032 0.01065179048
          0.010845111032 -0.027895654266 0.0066279441361 0.01065179048 0.0066279441361 0.032936674994
          0.027271889985 0.0042376572268 -0.0061714859666 0.0042376572268 -0.0013028789854 0.00030366809505
          -0.0061714859666 0.00030366809505 0.032112857026 0.040679374296 0.0015364565108 -0.0093081823096
          0.0015364565108 -0.0009038788411 -9.3561070574e-05 -0.0093081823096 -9.3561070574e-05 0.025552360415
          -0.00021002426561 -0.0046347067794 -0.0052866405102 -0.0046347067794 0.0065345623822 0.0012285424322
          -0.0052866405102 0.0012285424322 0.028559413007 0.010153085728 -0.0060071946185 -0.01607255072
          -0.0060071946185 0.0055151272383 -0.0021903802788 -0.01607255072 -0.0021903802788 0.020223928745
          0.01113647437 -0.0051086613354 -0.013208977229 -0.0051086613354 0.0055452875322 -0.0015880455611
          -0.013208977229 -0.0015880455611 0.02343278633 0.0098834547093 -0.0070627780824 -0.01532610065
          -0.0070627780824 0.003109601732 -0.005188164754 -0.01532610065 -0.005188164754 0.020001207886
          0.032580949944 -0.0026281337971 -0.01350136116 -0.0026281337971 0.0031612852626 -0.0063960595623
          -0.01350136116 -0.0063960595623 0.01714408645 0.038894217174 -0.0018731417883 -0.0070164621657
          -0.0018731417883 -0.0025114622362 -0.0027481037598 -0.0070164621657 -0.0027481037598 0.0223735891
          0.012237356892 -0.0058265780187 -0.011575146396 -0.0058265780187 -0.0029072730443 -0.0025113687365
          -0.011575146396 -0.0025113687365 0.025967626707 0.010418009157 -0.0059952586657 -0.015160186929
          -0.0059952586657 0.0052049789131 -0.0050018546849 -0.015160186929 -0.0050018546849 0.019476286794
          0.012449988205 0.00079989652453 -0.0065478968904 0.00079989652453 0.00059903057168 9.8840384469e-05
          -0.0065478968904 9.8840384469e-05 0.0279100312 0.012173559948 0.00028094568317 -0.0075324495072
          0.00028094568317 0.0080437970378 0.0015407113134 -0.0075324495072 0.0015407113134 0.02568919752
          0.0073017044278 -0.010902233659 -0.01449205844 -0.010902233659 0.0021926426465 -0.002336335668
          -0.01449205844 -0.002336335668 0.028153802213 0.036368119062 -0.0064964741109 -0.010787893756
          -0.0064964741109 -0.0023875451763 -0.0011715244755 -0.010787893756 -0.0011715244755 0.028556487586
          0.033846637151 -0.0027004014282 -0.019229692545 -0.0027004014282 -0.0024055555878 -0.00090013138917
          -0.019229692545 -0.00090013138917 0.027447889356 0.032318579058 -0.0032394084351 -0.016620668802
          -0.0032394084351 -0.0020659105303 -0.00086387942369 -0.016620668802 -0.00086387942369 0.024468468601
          0.028724946723 -0.0016576854636 -0.0072211668871 -0.0016576854636 -0.0024104777743 -0.0008602964691
          -0.0072211668871 -0.0008602964691 0.02906317996 0.028813449982 -0.00087781769248 -0.0064573325656
          -0.00087781769248 0.002631659138 0.002759501267 -0.0064573325656 0.002759501267 0.030366693243
          0.025659590262 -0.0057821897441 -0.0073738443499 -0.0057821897441 0.0015166904745 0.0020827302716
          -0.0073738443499 0.0020827302716 0.030186381232 0.027806247675 -0.0039147108406 -0.0080961188551
          -0.0039147108406 0.0016056280788 0.0035709186748 -0.0080961188551 0.0035709186748 0.027512307115
          0.071322401432 0.0025486208728 -0.0072058306133 0.0025486208728 -0.014626949194 0.00058689557324
          -0.0072058306133 0.00058689557324 0.024785215229 0.073997187572 0.00046923963856 -0.0045293542631
          0.00046923963856 -0.013662081108 -0.00097506650942 -0.0045293542631 -0.00097506650942 0.02705045231
          0.058242484723 0.0043436661148 0.0066026116271 0.0043436661148 0.0044540120141 0.010921798593
          0.0066026116271 0.010921798593 0.085116020401 0.082331075698 0.0071454507283 0.011304529125
          0.0071454507283 0.0032474811073 0.0083938179268 0.011304529125 0.0083938179268 0.079863904915
          0.083662523167 0.0067688747131 0.011025653357 0.0067688747131 -0.0027945312655 0.0089788065646
          0.011025653357 0.0089788065646 0.079880655707 0.079404521276 0.0096659327282 0.012966825347
          0.0096659327282 0.00776285786 0.0059771896992 0.012966825347 0.0059771896992 0.079221214087
          0.058848648027 0.0031278602487 0.0096879848662 0.0031278602487 0.006654915505 0.0027189951474
          0.0096879848662 0.0027189951474 0.083749387739 0.058756057374 0.0043375929199 0.010501186927
          0.0043375929199 0.0065244998285 0.00034064209869 0.010501186927 0.00034064209869 0.08094553145
          0.053309056038 -0.00025983706151 0.0023989935557 -0.00025983706151 0.0095460486835 0.0062116369969
          0.0023989935557 0.0062116369969 0.092297643038 0.048791801561 0.0027474876631 -0.0017941125046
          0.0027474876631 0.012238551465 0.0075320216482 -0.0017941125046 0.0075320216482 0.08886643439
          0.057901434737 0.0011022367675 0.0044177762659 0.0011022367675 0.0083801697841 0.0063709445905
          0.0044177762659 0.0063709445905 0.09306207211 0.080472438018 0.0076504842144 0.010572849137
          0.0076504842144 -0.00038089307659 0.0050255800373 0.010572849137 0.0050255800373 0.08607581169
          0.078117885962 0.0072330488972 0.011435905557 0.0072330488972 0.0045465010501 0.0056119919981
          0.011435905557 0.0056119919981 0.085797016974 0.014545359323 0.003083045545 -0.0054742233324
          0.003083045545 -0.0033914755605 0.0016565962804 -0.0054742233324 0.0016565962804 0.021920347448
          0.014967256032 -0.0013845978548 -0.0012893628345 -0.0013845978548 0.00046614504402 0.00047357714253
          -0.0012893628345 0.00047357714253 0.020615949563 0.024996497929 -0.006412526417 0.00054097056754
          -0.006412526417 0.0028742188636 -0.00068537077779 0.00054097056754 -0.00068537077779 0.02043248239
          0.023714582685 -0.00090420436666 -0.0041969629614 -0.00090420436666 -0.0016744854445 0.00097811924546
          -0.0041969629614 0.00097811924546 0.021200680144 0.022781617622 -0.0065578483831 -0.011297232632
          -0.0065578483831 -0.0085529098169 -0.005847898059 -0.011297232632 -0.005847898059 0.015024198495
          0.047270340095 -0.0072096329731 -0.014319242389 -0.0072096329731 -0.0089570121767 -0.0046436305939
          -0.014319242389 -0.0046436305939 0.012400320999 0.035234952646 0.00040027162832 -0.010249300794
          0.00040027162832 -0.003693587157 -0.0010516083389 -0.010249300794 -0.0010516083389 0.023034734068
          0.035938653183 -0.00077348499834 -0.012525678253 -0.00077348499834 -0.0078471531787 0.00022962452146
          -0.012525678253 0.00022962452146 0.015854207417 0.017295276897 -0.001219173471 -0.011148538396
          -0.001219173471 0.004539067747 0.0022693426103 -0.011148538396 0.0022693426103 0.021442515904
          0.026977329898 0.0017252822006 -0.0050687817007 0.0017252822006 0.0034273131905 0.0020010615214
          -0.0050687817007 0.0020010615214 0.023026970194 0.027340904698 0.00045478900529 -0.0073144583882
          0.00045478900529 9.875132834e-05 0.00042297642235 -0.0073144583882 0.00042297642235 0.025461454651
          0.082246500372 0.0025034195659 -0.0076342600156 0.0025034195659 -0.018330972207 0.0023888966102
          -0.0076342600156 0.0023888966102 0.013790386657 0.067621766085 -0.0025236851022 -0.010328428846
          -0.0025236851022 -0.018070947356 0.0024691907706 -0.010328428846 0.0024691907706 0.013803520907
          0.068940298418 -0.00054522287851 -0.012491455136 -0.00054522287851 -0.015123793303 -0.00068798034868
          -0.012491455136 -0.00068798034868 0.016988579874 0.076235697402 -0.00032858572528 -0.0059627548609
          -0.00032858572528 -0.015133330525 -0.00080391148035 -0.0059627548609 -0.00080391148035 0.016821443241
          0.082987626789 0.00106041292 -0.003592246172 0.00106041292 -0.01845002612 -0.0012639987733
          -0.003592246172 -0.0012639987733 0.015637803639 0.074479156872 0.00066561342965 -0.014513522621
          0.00066561342965 -0.018252923501 -0.0033858268837 -0.014513522621 -0.0033858268837 0.013728128218
          0.06886435656 -0.00040867443772 -0.011051253523 -0.00040867443772 -0.018370586737 -0.0021223029916
          -0.011051253523 -0.0021223029916 0.015704391198 0.075233584588 0.0017754992735 -0.012614801285
          0.0017754992735 -0.018171173769 -0.00044127508043 -0.012614801285 -0.00044127508043 0.0071434520514
          0.074061008835 7.7858802007e-05 -0.006393925726 7.7858802007e-05 -0.019516721609 0.0023618532893
          -0.006393925726 0.0023618532893 0.0087372584759 0.072505389796 0.0032984310489 -0.0068183339361
          0.0032984310489 -0.019676324069 0.00093485752427 -0.0068183339361 0.00093485752427 0.0094383213106
          0.073006106066 0.0023907025693 -0.0059115523032 0.0023907025693 -0.018306766396 -0.0020526829113
          -0.0059115523032 -0.0020526829113 0.0045396087023 0.073815333807 0.001794326977 -0.0096867085675
          0.001794326977 -0.016801659936 0.0030568788934 -0.0096867085675 0.0030568788934 0.010231530889
          0.069127541532 0.00057754554038 -0.010683856823 0.00057754554038 -0.014709356269 -0.00050642890467
          -0.010683856823 -0.00050642890467 0.014553893461 0.066618651356 0.0044244592983 -0.014631122061
          0.0044244592983 -0.0094184960547 0.0014175074171 -0.014631122061 0.0014175074171 0.020213131287
          0.05877027122 0.00048165369705 -0.01437665885 0.00048165369705 -0.010239951323 -0.00079742571427
          -0.01437665885 -0.00079742571427 0.024939260248 0.036279734409 0.0027576776031 -0.011572620825
          0.0027576776031 -0.014885484021 0.00026043889972 -0.011572620825 0.00026043889972 0.011027697993
          0.042292855438 0.0079050057292 -0.022395335775 0.0079050057292 -0.0095876378259 0.00096679577132
          -0.022395335775 0.00096679577132 0.0057840187161 0.021994159685 0.0064859303625 -0.0088756095145
          0.0064859303625 0.018271590692 0.0032911671462 -0.0088756095145 0.0032911671462 0.090808367606
          0.027985371955 0.0084337431689 0.010309204395 0.0084337431689 0.018899527977 0.0089724429993
          0.010309204395 0.0089724429993 0.094140035303 0.057362203566 0.006424092951 -0.0016558430003
          0.006424092951 0.012894912603 0.0079495533665 -0.0016558430003 0.0079495533665 0.098461285395
          0.055995738353 0.0079216536207 0.012096242811 0.0079216536207 0.011276275738 -0.0051498558542
          0.012096242811 -0.0051498558542 0.13216250643 0.045174731523 0.0032375362256 -0.018475550833
          0.0032375362256 -0.014967429655 -0.0015289346176 -0.018475550833 -0.0015289346176 -0.002235238822
          0.047551946324 0.0037816767927 -0.021621620011 0.0037816767927 -0.016497996776 -0.0050950325051
          -0.021621620011 -0.0050950325051 -0.0029652700407 0.047967309576 0.0024930978328 -0.023989348215
          0.0024930978328 -0.012512376961 0.002023156862 -0.023989348215 0.002023156862 0.0062051797668
          0.060490847425 0.0012139442255 0.0041393075529 0.0012139442255 -0.022134281294 0.012414685674
          0.0041393075529 0.012414685674 -0.023345416701 0.056099638784 0.00034521727189 -0.012547503732
          0.00034521727189 -0.022273986397 0.010490983621 -0.012547503732 0.010490983621 -0.027749999561
          0.055240600915 0.0019736707822 -0.014477543262 0.0019736707822 -0.0086656060601 -0.0020940854723
          -0.014477543262 -0.0020940854723 0.020848803054 0.055200561048 0.0018770117444 -0.013619697469
          0.0018770117444 -0.0085845725039 0.0023051726293 -0.013619697469 0.0023051726293 0.019714165321
          0.058997913928 0.0020153895263 -0.012255055774 0.0020153895263 -0.010274678474 0.00028684859459
          -0.012255055774 0.00028684859459 0.017681583199 0.051953509322 0.0038261391659 -0.013066907506
          0.0038261391659 -0.0076442698218 3.5379854379e-05 -0.013066907506 3.5379854379e-05 0.024384391023
          0.053711676341 0.0026639961058 -0.011446633012 0.0026639961058 -0.0095280384335 0.0024064355832
          -0.011446633012 0.0024064355832 0.021410022106 0.061277999809 0.002037671512 -0.017314043841
          0.002037671512 -0.0094790357425 0.0029525016575 -0.017314043841 0.0029525016575 0.024677959363
          0.056519792983 0.00021328353917 -0.011729483298 0.00021328353917 -0.0070804532285 0.00020677440774
          -0.011729483298 0.00020677440774 0.025832265208 0.12819087659 0.010494476967 0.0029780678574
          0.010494476967 -0.0097256018904 0.0086293018366 0.0029780678574 0.0086293018366 0.086638918545
          0.045649184767 -0.0015484302944 -0.013981817301 -0.0015484302944 -0.0070312887082 -0.00011499520078
          -0.013981817301 -0.00011499520078 0.025971430049 0.13930283051 0.01088713862 -0.002271228105
          0.01088713862 -0.0070630707728 0.0072266530307 -0.002271228105 0.0072266530307 0.11109554707
          0.13784981324 0.010812032967 0.00079389912568 0.010812032967 -0.0068998734297 0.0084992192644
          0.00079389912568 0.0084992192644 0.11205901916 0.13375048103 0.0088301215831 0.0011311332772
          0.0088301215831 -0.0063882124321 0.0088747033551 0.0011311332772 0.0088747033551 0.11206198078
          0.038823764676 -0.00069526679442 -0.022118188051 -0.00069526679442 0.01287656832 0.0040542628855
          -0.022118188051 0.0040542628855 0.046640124536 0.043672684263 0.0060591038748 -0.033543075664
          0.0060591038748 0.013377232074 0.0061213476001 -0.033543075664 0.0061213476001 0.037261598455
          0.1243601005 0.00715593192 0.0039185411295 0.00715593192 -0.005403391683 0.012437828638
          0.0039185411295 0.012437828638 0.11230668749 0.03883347069 -0.0028844100254 -0.0160066296
          -0.0028844100254 -0.0061715542853 0.00094336074925 -0.0160066296 0.00094336074925 0.004894225266
          -0.010980328557 0.025655403205 0.00086421340094 0.025655403205 0.0051681727632 -0.012580854662
          0.00086421340094 -0.012580854662 -0.00028193845778 0.037277315052 -0.0019323036419 -0.023077930054
          -0.0019323036419 -0.0097922503446 -0.0025036942856 -0.023077930054 -0.0025036942856 0.01117246105
          0.0090453947975 0.0030699254786 -0.015668329773 0.0030699254786 -0.0078102300817 -0.0023313271524
          -0.015668329773 -0.0023313271524 0.0099968280878 0.0038920339042 0.00022284196717 -0.014359138596
          0.00022284196717 0.0035234080281 0.00022827610521 -0.014359138596 0.00022827610521 0.0099254989537
          0.01076838484 -0.0019709147024 -0.015123557271 -0.0019709147024 -0.005019547438 -0.0014528946033
          -0.015123557271 -0.0014528946033 0.0096095398674 0.031332429411 -0.0021326745648 -0.013041462648
          -0.0021326745648 -0.0097323122011 0.0039787731764 -0.013041462648 0.0039787731764 -0.0049753327927
          0.032956810987 -0.00075901665959 -0.016566941245 -0.00075901665959 -0.010399297098 -0.00091949066938
          -0.016566941245 -0.00091949066938 0.00066665886977 0.032519424755 -0.00055377502255 -0.02130654584
          -0.00055377502255 -0.010437089133 -0.00042924925404 -0.02130654584 -0.00042924925404 0.00067822473067
          0.0412066446 -0.0046307021281 -0.023148263821 -0.0046307021281 -0.021226253936 0.0028258605017
          -0.023148263821 0.0028258605017 0.0006186939669 0.03032405784 -0.0021341235878 -0.019427863533
          -0.0021341235878 -0.0097134361371 0.0049727327816 -0.019427863533 0.0049727327816 0.007881307132
          0.069959345462 -0.0056915022534 -0.021542800421 -0.0056915022534 -0.011511667766 -0.0011552888291
          -0.021542800421 -0.0011552888291 -0.010855820258 0.038267104866 -0.0019766343558 -0.01918345812
          -0.0019766343558 -0.0098237563168 -0.0037603955856 -0.01918345812 -0.0037603955856 -0.0084778863422
          0.099493708423 0.011082793209 0.0041747124831 0.011082793209 1.8246698044e-05 0.0077667489059
          0.0041747124831 0.0077667489059 0.097669526807 0.083545630685 0.013345046663 0.0036099555517
          0.013345046663 -0.0001697021695 0.0074213985079 0.0036099555517 0.0074213985079 0.099011029876
          0.099070914265 0.014823041445 0.0041316059638 0.014823041445 -0.00024756355547 0.0034246062892
          0.0041316059638 0.0034246062892 0.098344892525 0.10166848966 0.011982270773 0.0091956281986
          0.011982270773 -0.0038018935153 0.0066961101201 0.0091956281986 0.0066961101201 0.089590320891
          0.066490960611 0.0020392304176 -0.011875695766 0.0020392304176 -0.012318581727 -0.00040512576165
          -0.011875695766 -0.00040512576165 0.021895772429 0.071583398189 0.0013943045914 -0.010302539746
          0.0013943045914 -0.01273963363 -0.00032747881484 -0.010302539746 -0.00032747881484 0.022229261517
          0.071601425178 0.0020525820258 -0.0096207719904 0.0020525820258 -0.013585531774 -0.00067129908404
          -0.0096207719904 -0.00067129908404 0.022413043969 0.072449907994 0.00094733752043 -0.0064211213922
          0.00094733752043 -0.013056253527 -0.0015270012351 -0.0064211213922 -0.0015270012351 0.022428962348
          0.066937555919 0.0042475315108 -0.0036540647981 0.0042475315108 -0.015042616795 -0.0095060912982
          -0.0036540647981 -0.0095060912982 -0.0070653693342 0.060732454422 0.0011006767591 0.0054361861435
          0.0011006767591 -0.013843123018 -0.01212785023 0.0054361861435 -0.01212785023 -0.0016733255958
          0.03962217289 -0.0060514173963 0.023903675371 -0.0060514173963 -0.012614154525 0.0054632828866
          0.023903675371 0.0054632828866 0.017348068218 0.038612452818 -0.00023059493848 0.027379377554
          -0.00023059493848 -0.0022543824953 8.3243633415e-05 0.027379377554 8.3243633415e-05 0.010275452696
          0.024446914442 -0.0045183113856 -0.0018841077906 -0.0045183113856 -0.0019240712925 0.00090379449503
          -0.0018841077906 0.00090379449503 0.007352659294 0.029767362725 0.012536673474 0.0056128877082
          0.012536673474 -0.0048975136901 -0.0041379081964 0.0056128877082 -0.0041379081964 0.0032528113901
          0.064017743322 0.00074154673362 0.017344049849 0.00074154673362 -0.020500141256 0.0030763958246
          0.017344049849 0.0030763958246 0.0043116016586 0.036426384433 6.0950972635e-05 -0.019782803741
          6.0950972635e-05 -0.006207902667 0.0047386156174 -0.019782803741 0.0047386156174 0.014264456496
          0.044214315416 0.0013105078144 -0.011767967386 0.0013105078144 -0.0063655612608 0.0036329714233
          -0.011767967386 0.0036329714233 0.0065423235585 0.053069390695 0.0025426563765 -0.013208662705
          0.0025426563765 -0.012853474905 0.0015816977632 -0.013208662705 0.0015816977632 0.0062623341781
          0.048175284458 -0.00016982451691 -0.010755650772 -0.00016982451691 -0.0094766668869 -0.0011367885543
          -0.010755650772 -0.0011367885543 0.0084405846308 0.050365528683 0.0052919894399 -0.010639658638
          0.0052919894399 -0.014372005675 0.00030304134736 -0.010639658638 0.00030304134736 0.0083752285502
          0.051175148433 0.0028505631583 -0.010153288521 0.0028505631583 -0.0071490068185 -0.00037057438674
          -0.010153288521 -0.00037057438674 0.0041485396396 0.042052799697 0.0020574616151 -0.021444479337
          0.0020574616151 -0.0072161522657 -0.0011542896101 -0.021444479337 -0.0011542896101 0.011854422707
          0.053757854018 -0.0071958668564 -0.011450540833 -0.0071958668564 -0.010317422747 -0.0032315225703
          -0.011450540833 -0.0032315225703 0.017131768775 0.076118993262 0.002662852498 -0.021754327164
          0.002662852498 -0.013968074716 0.0021768714383 -0.021754327164 0.0021768714383 0.009497077744
          0.058917077893 -0.001362365272 -0.015050732185 -0.001362365272 -0.014025130231 0.002668566937
          -0.015050732185 0.002668566937 0.0081954161832 0.06599088262 0.0010685050471 -0.0092090016943
          0.0010685050471 -0.015202906821 0.0013373328747 -0.0092090016943 0.0013373328747 0.0074825301233
          0.062658527269 0.0041694653083 -0.014422443136 0.0041694653083 -0.0065620148031 0.0017610690107
          -0.014422443136 0.0017610690107 0.0035896626629 0.049431322548 0.0028696850549 -0.01092781331
          0.0028696850549 -0.013374052964 -0.00065417476396 -0.01092781331 -0.00065417476396 0.01777538694
          0.1361178136 0.011306860936 0.00038576965052 0.011306860936 -0.0017696374471 0.01098801965
          0.00038576965052 0.01098801965 0.12718702886 0.1359193133 0.011154774378 0.0052550189261
          0.011154774378 -0.0015138135222 0.0083148356881 0.0052550189261 0.0083148356881 0.11788162884
          0.13500611602 0.012312263033 0.0061259236913 0.012312263033 -0.001920936949 0.0090176106383
          0.0061259236913 0.0090176106383 0.12013029147 0.12908734569 0.010365569492 0.0024742626959
          0.010365569492 -0.0019387009148 0.0072080899049 0.0024742626959 0.0072080899049 0.11847212819
          0.12842036448 0.010499607563 0.0014346295121 0.010499607563 -0.0019654838888 0.0073955225247
          0.0014346295121 0.0073955225247 0.11985906028 0.1285592022 0.010088558445 0.0010225949217
          0.010088558445 -0.00088831054909 0.0085349756694 0.0010225949217 0.0085349756694 0.12103559318
          0.12892115464 0.009908416646 0.00023792832027 0.009908416646 -0.0017284688361 0.0072236696286
          0.00023792832027 0.0072236696286 0.11962180437 0.12891510495 0.011198182653 0.0011676530223
          0.011198182653 -0.0011421890305 0.007590651417 0.0011676530223 0.007590651417 0.11799633313
          0.13296788256 0.010964512809 0.0042511250733 0.010964512809 -0.0015805063852 0.007804661389
          0.0042511250733 0.007804661389 0.12747055389 0.061047789407 0.007749513341 -0.0050118272241
          0.007749513341 0.006839315337 0.00010077528794 -0.0050118272241 0.00010077528794 0.099109614851
          0.052787966914 0.00475866249 -0.00949431329 0.00475866249 -0.007823782429 -0.0015478977062
          -0.00949431329 -0.0015478977062 0.032962415429 0.050719112504 0.003335418373 -0.0071131448164
          0.003335418373 -0.0085647498964 0.00037713150492 -0.0071131448164 0.00037713150492 0.030567512503
          0.046669331735 0.0031134880181 -0.0073394961279 0.0031134880181 -0.006093484822 0.0012867815908
          -0.0073394961279 0.0012867815908 0.030897204315 0.046293954154 0.004523198425 -0.0070227746378
          0.004523198425 -0.006369722182 -0.0016025122078 -0.0070227746378 -0.0016025122078 0.031205824046
          0.053342657382 0.00265974478 -0.0081011694057 0.00265974478 -0.0086255344784 0.00092609268055
          -0.0081011694057 0.00092609268055 0.029539470919 0.061865616093 -0.0002067443169 -0.0084927603891
          -0.0002067443169 -0.0097778039068 0.00051322058961 -0.0084927603891 0.00051322058961 0.029685051558
          0.063614635316 0.002215348597 -0.010079448897 0.002215348597 -0.010207392385 -0.00029899382371
          -0.010079448897 -0.00029899382371 0.030617457578 0.059594947756 0.0029006078383 -0.0056178001732
          0.0029006078383 -0.0095003088894 0.0010563907051 -0.0056178001732 0.0010563907051 0.031099631629
          0.058764833826 0.002996112312 -0.0042148346895 0.002996112312 -0.0088222823142 0.00070955330002
          -0.0042148346895 0.00070955330002 0.02877839836 0.088325394888 0.0070754074056 0.0090027766845
          0.0070754074056 -0.0010295706041 0.0085659148267 0.0090027766845 0.0085659148267 0.069946325285
          0.088897635027 0.0090762530944 0.0056195825792 0.0090762530944 0.00098643286927 0.0048378515581
          0.0056195825792 0.0048378515581 0.076769371706 0.081313593016 0.0018518033806 0.0077102254501
          0.0018518033806 -0.00013072568983 0.0075215775846 0.0077102254501 0.0075215775846 0.076276175921
          0.077955487021 0.010123616961 0.015948809024 0.010123616961 -0.0069836868924 0.0031200217069
          0.015948809024 0.0031200217069 0.074740914403 0.082397756402 0.0080924658968 0.012506951243
          0.0080924658968 0.0010645806696 0.0074883886013 0.012506951243 0.0074883886013 0.080861000367
          0.083627857981 0.0071502891118 0.011559541078 0.0071502891118 -0.00075689775284 0.010287822921
          0.011559541078 0.010287822921 0.079899628448 0.099526125447 0.0039256804742 0.011451892671
          0.0039256804742 -0.0017471166048 0.0098722943671 0.011451892671 0.0098722943671 0.079784021595
          0.0690263529 0.0022794398235 -0.01406737134 0.0022794398235 -0.013970448527 0.002162893443
          -0.01406737134 0.002162893443 0.013082065498 0.068440340122 0.0025306309959 -0.012127931728
          0.0025306309959 -0.013542024709 -0.00098933649797 -0.012127931728 -0.00098933649797 0.016711180278
          0.076052798834 0.0012909549931 -0.00871686768 0.0012909549931 -0.013378110188 -0.0019341847441
          -0.00871686768 -0.0019341847441 0.014246372886 0.12628267693 0.0053479607998 0.0103118657
          0.0053479607998 -0.03460480146 0.0018621085715 0.0103118657 0.0018621085715 0.023623303496
          0.1036587128 0.0065763261928 0.00043069469616 0.0065763261928 -0.0323968308 -0.00041245402819
          0.00043069469616 -0.00041245402819 0.022781577848 0.10569483265 0.0014188902982 -0.0016686052918
          0.0014188902982 -0.024717536832 1.2212574143e-05 -0.0016686052918 1.2212574143e-05 0.020499888584
          0.1070355448 0.0047341833023 0.00012881218783 0.0047341833023 -0.017266867711 0.0040057545554
          0.00012881218783 0.0040057545554 0.022637315109 0.09131964157 0.0026665514715 0.017107744854
          0.0026665514715 -0.016940482358 0.0092393447822 0.017107744854 0.0092393447822 0.019331620866
          0.077537841601 0.00094596547386 0.0098138493827 0.00094596547386 -0.016944279326 0.0062277928718
          0.0098138493827 0.0062277928718 0.036389804251 0.097599995505 0.0045289760701 0.014511658599
          0.0045289760701 -0.020072167662 0.0074599742617 0.014511658599 0.0074599742617 0.020128124096
          0.103362785 0.0099125918806 -0.0011493095293 0.0099125918806 -0.017489776335 0.0076517278587
          -0.0011493095293 0.0076517278587 0.016155222511 0.12784902287 0.011327984295 0.0091489906271
          0.011327984295 -0.022673238213 0.0021642950133 0.0091489906271 0.0021642950133 0.022423620976
          0.10882078806 0.005076525889 0.0047273797056 0.005076525889 -0.017788805041 0.01024418541
          0.0047273797056 0.01024418541 0.034493031723 0.10512023889 0.0064655396932 0.011751489409
          0.0064655396932 -0.018075903621 0.0094207808586 0.011751489409 0.0094207808586 0.035192764082
          0.10739220298 -0.0012754348912 0.011640227806 -0.0012754348912 -0.014790559734 0.00060285377653
          0.011640227806 0.00060285377653 0.03153485517 0.10883332138 0.0053304073435 0.0044196080268
          0.0053304073435 -0.024521000447 0.0044579539519 0.0044196080268 0.0044579539519 0.042033841615
          0.078442247316 0.0075586511312 0.008491581276 0.0075586511312 -0.0056921693132 -0.00061718017714
          0.008491581276 -0.00061718017714 0.037913160731 0.078794242748 0.010781249538 0.012502627747
          0.010781249538 -0.0033093596995 0.0037373167005 0.012502627747 0.0037373167005 0.044990397908
          0.08471988054 0.0024116713524 0.020086637134 0.0024116713524 -0.010472520519 -0.003150316602
          0.020086637134 -0.003150316602 0.053926528719 0.11806240683 0.010653979178 0.00061739670528
          0.010653979178 -0.0015745141076 0.0089172128722 0.00061739670528 0.0089172128722 0.1103087972
          0.11509455968 0.01017039249 -0.0012554880168 0.01017039249 -0.00087316391829 0.009373506843
          -0.0012554880168 0.009373506843 0.10987012905 0.11492859312 0.0075183888101 0.0011810015536
          0.0075183888101 -0.0031001428185 0.010018627015 0.0011810015536 0.010018627015 0.11061335499
          0.074976939293 0.0035351925935 0.0019719708279 0.0035351925935 -0.029748405331 -0.0022294207826
          0.0019719708279 -0.0022294207826 -0.020364460815 0.066181338535 -0.00061299977167 0.002232485208
          -0.00061299977167 -0.026012440651 0.0009452139932 0.002232485208 0.0009452139932 -0.018736065326
          0.1190094413 0.007234716192 0.0045007169816 0.007234716192 -0.0030079369155 0.0070035269522
          0.0045007169816 0.0070035269522 0.10649945527 0.039577640629 0.00064315915365 -0.021128910255
          0.00064315915365 0.011016467545 0.0012549768082 -0.021128910255 0.0012549768082 0.048659571901
          0.0097410241141 -0.00044430563161 -0.011434264632 -0.00044430563161 0.022885667481 0.0091967708471
          -0.011434264632 0.0091967708471 0.044399502919 0.037208342104 0.00052405326163 -0.018014308125
          0.00052405326163 0.012184924004 0.0014765691073 -0.018014308125 0.0014765691073 0.04075232863
          0.030663786952 0.0033023574895 -0.020683666258 0.0033023574895 0.011184477028 0.0037825225061
          -0.020683666258 0.0037825225061 0.047346967493 0.034677967289 0.0016168356569 -0.027113624012
          0.0016168356569 0.016721183758 -0.0028065050766 -0.027113624012 -0.0028065050766 0.021498675826
          0.035241001902 0.0033135290976 -0.025941380084 0.0033135290976 0.017941033005 0.0030335822299
          -0.025941380084 0.0030335822299 0.022571546186 0.13798749421 0.01052433186 0.00091369558832
          0.01052433186 -0.010821280598 0.0076715390085 0.00091369558832 0.0076715390085 0.10594907382
          0.13593062189 0.012009760817 -0.003980732478 0.012009760817 -0.01173431595 0.010220904803
          -0.003980732478 0.010220904803 0.10038099426 0.1343692189 0.013522126445 -0.002561451711
          0.013522126445 -0.0088066090848 0.0077942763034 -0.002561451711 0.0077942763034 0.099342810697
          0.13534657197 0.0087588256723 -0.00046528090071 0.0087588256723 -0.010041266117 0.0094455059538
          -0.00046528090071 0.0094455059538 0.1089364172 0.13387888207 0.0090553399799 0.0012688994389
          0.0090553399799 -0.0072917387588 0.0091838188575 0.0012688994389 0.0091838188575 0.10689015768
          0.13047790244 0.011602479014 0.00037359360995 0.011602479014 -0.0068707952974 0.0095218230825
          0.00037359360995 0.0095218230825 0.1033991402 0.12129123424 0.0038389258081 -0.0066750450225
          0.0038389258081 -0.038329965357 0.01691285236 -0.0066750450225 0.01691285236 -0.060287805283
          0.09239414016 -0.0044785229548 -0.0025894876167 -0.0044785229548 -0.025767129704 0.0029662365143
          -0.0025894876167 0.0029662365143 -0.045575320787 0.07378445402 0.0030127319355 -0.010231231873
          0.0030127319355 -0.022930726895 -0.0054450818973 -0.010231231873 -0.0054450818973 -0.026163283908
          0.075427232499 0.002963346144 -0.0039170683177 0.002963346144 -0.029023529889 0.0049288017826
          -0.0039170683177 0.0049288017826 -0.020205127022 0.060802404502 0.0011633241386 0.0062706682787
          0.0011633241386 -0.023184799865 -0.0036108086014 0.0062706682787 -0.0036108086014 -0.018726239608
          0.071275962036 0.0016734980479 -0.025505113059 0.0016734980479 0.01326974411 -0.017622504219
          -0.025505113059 -0.017622504219 0.014726927377 0.069711844105 0.00043811933555 -0.020284277203
          0.00043811933555 0.01555839297 -0.012935505253 -0.020284277203 -0.012935505253 -0.0026023330264
          0.060272177296 -0.00027465510633 -0.025214648921 -0.00027465510633 0.015728353211 -0.011514184566
          -0.025214648921 -0.011514184566 0.0091982857327 0.058443774939 -0.003073148943 -0.022133640868
          -0.003073148943 0.014327614322 -0.013080868667 -0.022133640868 -0.013080868667 0.017698683672
          0.071141826671 0.0031247880532 -0.0095560776639 0.0031247880532 -0.023220232876 -0.0050976377629
          -0.0095560776639 -0.0050976377629 -0.019032974753 0.073295977237 0.0034592224658 -0.0062383252597
          0.0034592224658 -0.0236854052 -0.0016586240715 -0.0062383252597 -0.0016586240715 -0.030456563642
          0.096620490787 0.0037023989047 0.00079310100381 0.0037023989047 -0.024749466948 -0.002793168256
          0.00079310100381 -0.002793168256 -0.02970467918 0.081060670365 0.0018833457822 -0.0023062390142
          0.0018833457822 -0.023110961921 -0.0066799022458 -0.0023062390142 -0.0066799022458 -0.023611994143
          0.078557177808 0.0041644509762 -0.010861229112 0.0041644509762 -0.01725097295 -0.0064420346125
          -0.010861229112 -0.0064420346125 -0.023681998837 0.085927105041 0.0121496621 -0.0038039232386
          0.0121496621 -0.020876480165 0.0045775519871 -0.0038039232386 0.0045775519871 -0.017850781078
          0.052873976766 -0.0071693680952 -0.013981967808 -0.0071693680952 -0.0019172360579 -0.0072450747564
          -0.013981967808 -0.0072450747564 0.031320407311 0.014444178555 -0.003701290425 -0.025485046215
          -0.003701290425 -0.012197059191 0.0017152595495 -0.025485046215 0.0017152595495 0.02345179494
          0.042562784849 0.0042751538231 -0.026218213337 0.0042751538231 -0.011445537686 0.015707849523
          -0.026218213337 0.015707849523 0.019773238693 0.043755858778 0.0011452388175 -0.010783491484
          0.0011452388175 -0.0072106615181 0.0045059567562 -0.010783491484 0.0045059567562 0.0036946601123
          0.01306407759 -0.0021875796182 -0.017651146269 -0.0021875796182 -0.0057056363868 -0.00067795660381
          -0.017651146269 -0.00067795660381 0.012708502432 0.010000556342 0.005598443592 -0.0079609473901
          0.005598443592 -0.0053456245056 -0.0015973816045 -0.0079609473901 -0.0015973816045 0.0099551128961
          0.011171092956 0.0020836651341 -0.012554307272 0.0020836651341 2.9613504711e-05 0.0066391878249
          -0.012554307272 0.0066391878249 0.022019369982 0.065650693154 0.00011309076229 -0.014339201212
          0.00011309076229 -0.015048337814 -0.0016841317026 -0.014339201212 -0.0016841317026 0.019307076472
          0.065741705694 0.00061820837967 -0.013966131993 0.00061820837967 -0.013017243354 0.0011754389736
          -0.013966131993 0.0011754389736 0.020030168218 0.063780004714 0.0018062312868 -0.015194706965
          0.0018062312868 -0.01196864322 0.00050687838 -0.015194706965 0.00050687838 0.020389322217
          0.061071394333 -0.00012852438186 -0.017317907071 -0.00012852438186 -0.011445143581 0.00017087041876
          -0.017317907071 0.00017087041876 0.01945646897 0.061870480038 -0.0002636050889 -0.019594802319
          -0.0002636050889 -0.011424189804 0.00057188419358 -0.019594802319 0.00057188419358 0.025806070481
          0.056263687811 -0.0015067547723 -0.017043834418 -0.0015067547723 -0.010275274703 -0.00027509157893
          -0.017043834418 -0.00027509157893 0.026046150944 0.057819570455 0.00095217948861 -0.012332982571
          0.00095217948861 -0.011181235884 -0.0014077693507 -0.012332982571 -0.0014077693507 0.024955465363
          0.060918523847 0.0010402752568 -0.012989564894 0.0010402752568 -0.012094761625 -0.0011373617279
          -0.012989564894 -0.0011373617279 0.02500335396 0.061527918948 -0.00017327607805 -0.014577867697
          -0.00017327607805 -0.0097647605377 0.0018431608151 -0.014577867697 0.0018431608151 0.028759049508
          0.06154790369 -0.00019733172584 -0.01435253031 -0.00019733172584 -0.010247429145 0.00011155658264
          -0.01435253031 0.00011155658264 0.02713141116 0.057241929212 0.00084051505686 -0.0097453416109
          0.00084051505686 -0.0097499231721 0.00022037155292 -0.0097453416109 0.00022037155292 0.030367327384
          0.059819709474 0.0014526574456 -0.013523328469 0.0014526574456 -0.010102600109 0.0014632238565
          -0.013523328469 0.0014632238565 0.026709064305 0.063194224079 0.0017123515564 -0.009693452855
          0.0017123515564 -0.0091522646332 0.00061117474491 -0.009693452855 0.00061117474491 0.027607765975
          0.061543251076 0.00072873669159 -0.016015728824 0.00072873669159 -0.011888918016 7.5867395065e-05
          -0.016015728824 7.5867395065e-05 0.01757184627 0.061777259296 0.00095903120675 -0.013275825535
          0.00095903120675 -0.011831134893 0.00059242981678 -0.013275825535 0.00059242981678 0.021511277045
          0.053296714843 0.00096775556319 -0.014909079801 0.00096775556319 -0.011815531244 0.00036008361024
          -0.014909079801 0.00036008361024 0.024704684854 0.052590766169 -0.0023985565025 -0.011768029117
          -0.0023985565025 -0.0092843051029 -0.00093245533533 -0.011768029117 -0.00093245533533 0.024974507902
          0.061778025185 0.00077848708849 -0.013097474118 0.00077848708849 -0.0092203732608 -0.0022160350519
          -0.013097474118 -0.0022160350519 0.02451094046 0.061555379209 -0.002311295784 -0.012895392985
          -0.002311295784 -0.010925644596 -0.00040859745748 -0.012895392985 -0.00040859745748 0.02435166456
          0.060245875477 0.00063921809288 -0.010250359905 0.00063921809288 -0.013692554625 0.00062854686106
          -0.010250359905 0.00062854686106 0.020300818208 0.067904666714 0.0007957868682 -0.013840094757
          0.0007957868682 -0.013690389212 0.00060904506789 -0.013840094757 0.00060904506789 0.019179018035
          0.065723591365 0.00086700003469 -0.012498066117 0.00086700003469 -0.01084986914 -0.00022453399968
          -0.012498066117 -0.00022453399968 0.018572660701 0.059575844751 -0.00072523614162 -0.01234221951
          -0.00072523614162 -0.010353887021 -0.00087454080019 -0.01234221951 -0.00087454080019 0.019093402085
          0.057434145007 -0.00088726964217 -0.015938787166 -0.00088726964217 -0.010099975095 -0.0022549250156
          -0.015938787166 -0.0022549250156 0.017668319087 0.058665140884 -0.00068766427286 -0.013054222928
          -0.00068766427286 -0.010506576169 -0.00036180983851 -0.013054222928 -0.00036180983851 0.019799237717
          0.06044290994 -0.00028024817493 -0.011212346222 -0.00028024817493 -0.010738852459 0.0015093630319
          -0.011212346222 0.0015093630319 0.015259438596 0.12831574233 0.0115370604 0.0028216931945
          0.0115370604 -0.010879724386 0.0060444165924 0.0028216931945 0.0060444165924 0.086668779336
          0.12666097217 0.011629448902 0.0027949943031 0.011629448902 -0.01033077728 0.0070842078676
          0.0027949943031 0.0070842078676 0.088613950224 0.12626538316 0.010949370824 0.0017383273915
          0.010949370824 -0.0094862422977 0.0085725117497 0.0017383273915 0.0085725117497 0.091215429828
          0.12844729092 0.010740269268 0.00012514202154 0.010740269268 -0.0074979333451 0.008946624582
          0.00012514202154 0.008946624582 0.095370768915 0.14718025015 0.0064426604046 0.0037503680224
          0.0064426604046 -0.014693956308 0.0087239938057 0.0037503680224 0.0087239938057 0.088973427572
          0.14738416438 0.0065209009079 0.0050488205714 0.0065209009079 -0.016079145168 0.012409057238
          0.0050488205714 0.012409057238 0.090065146916 0.14706612651 0.012207281821 0.0010683336456
          0.012207281821 -0.013709910808 0.0084855251074 0.0010683336456 0.0084855251074 0.094446496277
          0.14512192578 0.011230584575 -0.001542836293 0.011230584575 -0.013697650962 0.0057421852273
          -0.001542836293 0.0057421852273 0.095014617806 0.13527163676 0.0095936803881 0.00080462103476
          0.0095936803881 -0.011538622267 0.0079685237371 0.00080462103476 0.0079685237371 0.095842155346
          0.14841510861 0.013136408458 0.0039550434798 0.013136408458 -0.013721554058 0.011084024143
          0.0039550434798 0.011084024143 0.1000522921 0.1424713931 0.0075902901157 0.00031359587381
          0.0075902901157 -0.013313783005 0.010808635675 0.00031359587381 0.010808635675 0.099567714984
          0.14239531022 0.0076966734494 0.00099794351615 0.0076966734494 -0.011340112445 0.0086054775203
          0.00099794351615 0.0086054775203 0.094143963706 0.14258085239 0.0080155738779 -0.00035526511261
          0.0080155738779 -0.011661422263 0.0082086641375 -0.00035526511261 0.0082086641375 0.099733305847
          0.14364534859 0.0071349748863 0.002006665889 0.0071349748863 -0.014744708554 0.010113821402
          0.002006665889 0.010113821402 0.10106708332 0.16019480628 0.00825268586 0.016880105128
          0.00825268586 -0.0082269139725 0.0092020445137 0.016880105128 0.0092020445137 0.13067636578
          0.15952742342 0.0090344468655 0.017477652575 0.0090344468655 -0.0091147747962 0.00886395916
          0.017477652575 0.00886395916 0.13483816352 0.15904487107 0.0085434692913 0.019202364104
          0.0085434692913 -0.005210564726 0.005131346535 0.019202364104 0.005131346535 0.13551158188
          0.15780578744 0.0076632535595 0.021294750855 0.0076632535595 -0.0055554678459 0.0071468172864
          0.021294750855 0.0071468172864 0.1329766666 0.16131022195 0.010825600081 0.020179160083
          0.010825600081 -0.0072180558659 0.0059961649504 0.020179160083 0.0059961649504 0.13332721137
          0.16043181872 0.012191427493 0.020040354199 0.012191427493 -0.0092615786149 0.0066816469757
          0.020040354199 0.0066816469757 0.13605559136 0.15919620513 0.010010510074 0.015717649742
          0.010010510074 -0.0074375908885 0.0067354478168 0.015717649742 0.0067354478168 0.13133890779
          0.15873483409 0.010413786005 0.013847166519 0.010413786005 -0.0077205858987 0.0074639809368
          0.013847166519 0.0074639809368 0.13557703492 0.15915533471 0.010215746139 0.015747986439
          0.010215746139 -0.0044697293199 0.010290120313 0.015747986439 0.010290120313 0.13475317978
          0.1593704861 0.0051097497627 0.01746628647 0.0051097497627 -0.011194539933 0.0030234619246
          0.01746628647 0.0030234619246 0.13969555183 0.1588954718 0.0094203537777 0.014503567001
          0.0094203537777 -0.0083246758956 0.0084230533636 0.014503567001 0.0084230533636 0.13221184402
          0.16113175928 0.010365532867 0.016818555175 0.010365532867 -0.0079456558102 0.0094850990227
          0.016818555175 0.0094850990227 0.13426676788 0.1607275242 0.0093103648992 0.015212234394
          0.0093103648992 -0.0091724518025 0.00891061227 0.015212234394 0.00891061227 0.13645544601
          0.09230580425 0.0043633088212 0.0053514080734 0.0043633088212 -0.0037676941002 0.0096988513405
          0.0053514080734 0.0096988513405 0.088167165577 0.046434056023 0.016338450477 -0.0041162935627
          0.016338450477 0.014868360471 -0.00047730216757 -0.0041162935627 -0.00047730216757 0.0734225646
          0.026039862479 0.0035772946177 -0.013617640124 0.0035772946177 0.014964702184 0.006332424006
          -0.013617640124 0.006332424006 0.089127518118 0.034254482965 -0.021436303935 -0.001493056028
          -0.021436303935 0.015152862471 0.019468994019 -0.001493056028 0.019468994019 0.074045258858
          0.045395092358 0.0007003734688 -0.010479091617 0.0007003734688 -0.007977331947 -0.0006620098514
          -0.010479091617 -0.0006620098514 0.015155306386 0.051473921704 -0.00033202497979 -0.020261874931
          -0.00033202497979 -0.0085396611328 -0.0022688087956 -0.020261874931 -0.0022688087956 0.01641879998
          0.090000560212 -0.013909003995 0.0051933674288 -0.013909003995 -0.017016835974 -0.0063233468064
          0.0051933674288 -0.0063233468064 0.031415214139 0.068279049589 -0.0038200355522 -0.011747204709
          -0.0038200355522 -0.013191671953 -0.0015297533889 -0.011747204709 -0.0015297533889 0.01931409311
          0.080792415302 0.017085843042 -0.02794309674 0.017085843042 -0.015251727133 0.0033494800168
          -0.02794309674 0.0033494800168 0.01269908423 0.061156550605 0.0023776734914 -0.011724008303
          0.0023776734914 -0.014150416728 -0.00049864661154 -0.011724008303 -0.00049864661154 0.020419122668
          0.060738286903 0.0012700254399 -0.01286151799 0.0012700254399 -0.011389511036 0.00033213622631
          -0.01286151799 0.00033213622631 0.019919380485 0.052463277844 -0.0067426468634 -0.0057317335987
          -0.0067426468634 -0.013410403883 0.0030381301082 -0.0057317335987 0.0030381301082 0.016847419097
          0.054454901239 0.00059110882771 -0.016734369798 0.00059110882771 -0.011458098053 -0.00023672040033
          -0.016734369798 -0.00023672040033 0.022274696896 0.088141441748 -0.011883535219 -0.00020046662529
          -0.011883535219 -0.015589958306 0.0008959488165 -0.00020046662529 0.0008959488165 0.024374636354
          0.04507992658 -0.0010829378591 -0.019754506821 -0.0010829378591 -0.0072564496624 -0.0003479837313
          -0.019754506821 -0.0003479837313 0.018918670053 0.05293416541 0.0020102945188 -0.017582429967
          0.0020102945188 -0.0061883683655 0.00039406623129 -0.017582429967 0.00039406623129 0.019433728236
          0.065465735517 -0.0029358734286 -0.011519654733 -0.0029358734286 -0.012832721707 -0.00075179688047
          -0.011519654733 -0.00075179688047 0.020428813424 0.066245840669 -0.0021750251256 -0.0022394531582
          -0.0021750251256 0.031535888659 0.0078320793227 -0.0022394531582 0.0078320793227 -0.024921114944
          0.064269280348 0.0047816410349 -0.00040685230406 0.0047816410349 0.016540836395 0.017871992535
          -0.00040685230406 0.017871992535 0.0020342437143 0.061863571435 0.0041567552269 -0.0074043816721
          0.0041567552269 0.020757127939 0.011746560743 -0.0074043816721 0.011746560743 -0.014081429277
          0.065777428134 -0.0043251373098 -0.0078847144642 -0.0043251373098 0.022010907695 -0.013497619665
          -0.0078847144642 -0.013497619665 -0.031979338295 0.12533800544 0.035341534399 0.0018693939447
          0.035341534399 0.046420478845 0.027080964585 0.0018693939447 0.027080964585 -0.04730497917
          -0.023297261607 0.0015615105257 0.0073934490443 0.0015615105257 0.011664511258 -0.0062164686759
          0.0073934490443 -0.0062164686759 -0.00050490162829 -0.021669487489 -0.00098817009391 0.0038262295768
          -0.00098817009391 0.014696198653 -0.0019346961436 0.0038262295768 -0.0019346961436 0.0055402046122
          -0.017856736787 0.00047107171754 0.012054613854 0.00047107171754 0.0151235804 0.0011653733354
          0.012054613854 0.0011653733354 0.023279640503 -0.051690457909 -0.022988369316 -0.0038316374566
          -0.022988369316 0.017906389816 0.0012205595855 -0.0038316374566 0.0012205595855 0.022253929356
          -0.074026376171 0.0095329194506 -0.0052423254958 0.0095329194506 0.014273369506 0.0023470230651
          -0.0052423254958 0.0023470230651 0.022184511086 -0.04313209085 -0.011628228281 -0.0021453196452
          -0.011628228281 0.026920150642 0.00087722056298 -0.0021453196452 0.00087722056298 0.022265240426
          -0.029518053017 0.0053414540102 -0.0065228253508 0.0053414540102 0.021856119101 -0.0032857211404
          -0.0065228253508 -0.0032857211404 0.022545220508 -0.022534411869 0.00077509825121 0.011823649949
          0.00077509825121 0.020488663831 -0.00077043313896 0.011823649949 -0.00077043313896 0.022369197444
          -0.022064567982 0.0036219313905 -0.00064590566517 0.0036219313905 0.0046914608485 0.00023990907735
          -0.00064590566517 0.00023990907735 0.012031129561 0.10560765164 0.00047305842481 0.0018152673043
          0.00047305842481 -0.031772384903 0.00072743205179 0.0018152673043 0.00072743205179 -0.025115453603
          0.082776542828 -0.0060050317126 -0.010518604306 -0.0060050317126 -0.025821869705 0.0020802830304
          -0.010518604306 0.0020802830304 -0.028755304667 0.073836563429 0.0012323051654 -0.0073778028632
          0.0012323051654 -0.015575430053 0.0015538862689 -0.0073778028632 0.0015538862689 0.023362372204
          0.077826765539 0.0026155624735 -0.0049700902783 0.0026155624735 -0.015438090513 -0.00077344373195
          -0.0049700902783 -0.00077344373195 0.016873548623 0.037487220371 0.01887585751 0.0039482841835
          0.01887585751 -0.024478345602 -0.00015972620727 0.0039482841835 -0.00015972620727 -0.031406333417
          0.084005458717 0.0019131088151 -0.0087012970156 0.0019131088151 -0.032697141231 -0.00095415510044
          -0.0087012970156 -0.00095415510044 -0.029996273728 0.064033035699 0.0024456355572 -0.0091454497918
          0.0024456355572 -0.022495270783 -0.0027094881539 -0.0091454497918 -0.0027094881539 -0.029396959722
          0.066161764837 -0.00013309560309 -0.013963862892 -0.00013309560309 -0.019545252345 0.0046304650014
          -0.013963862892 0.0046304650014 -0.031484144724 0.053433117247 -0.014313501722 -0.023406016038
          -0.014313501722 -0.029802795797 -0.0018406388939 -0.023406016038 -0.0018406388939 -0.035530701827
          0.083584939837 -0.0020183515837 -0.0051841126129 -0.0020183515837 -0.024832138191 0.0060772370773
          -0.0051841126129 0.0060772370773 -0.030044990297 0.085462141577 0.0033549150639 -0.0022320277831
          0.0033549150639 -0.019364360657 0.0045096719707 -0.0022320277831 0.0045096719707 -0.03552621246
          0.10079389617 -0.0051708976131 -0.0030265493365 -0.0051708976131 -0.030625514181 -0.0020561658078
          -0.0030265493365 -0.0020561658078 -0.033415848701 0.09924105664 -0.0004970976783 -0.0002151662794
          -0.0004970976783 -0.040714436258 -0.0054352130638 -0.0002151662794 -0.0054352130638 -0.032012216111
          0.076067519699 0.0011938895818 -0.0052899837001 0.0011938895818 -0.015812463181 -8.2191433633e-06
          -0.0052899837001 -8.2191433633e-06 0.018054451552 0.080447305541 -0.0012808162681 -0.0088623181665
          -0.0012808162681 -0.014770027876 0.0035631006637 -0.0088623181665 0.0035631006637 0.014191835396
          0.081626394381 0.00019905562478 -0.0094660127494 0.00019905562478 -0.01978409652 0.00075826640516
          -0.0094660127494 0.00075826640516 0.013891045496 0.081699506192 -0.0049286829905 -0.0047131899046
          -0.0049286829905 -0.017143494104 -0.002507533346 -0.0047131899046 -0.002507533346 0.01767462793
          0.066557532763 0.0020627003546 -0.0072294204093 0.0020627003546 -0.010525551769 0.00028931940434
          -0.0072294204093 0.00028931940434 0.028461958267 0.076058511714 0.0052071947635 -0.020626908606
          0.0052071947635 -0.023722187311 -0.011214214434 -0.020626908606 -0.011214214434 -0.016346526463
          0.070843001751 0.0076552707563 -0.031382527341 0.0076552707563 -0.024618579043 -0.0034641865841
          -0.031382527341 -0.0034641865841 -0.0096458446054 0.07054038704 0.012670593273 -0.032509794271
          0.012670593273 -0.025493026054 -0.010514145101 -0.032509794271 -0.010514145101 -0.0057940334209
          0.069342246489 0.010086884559 -0.029494596805 0.010086884559 -0.029973910586 -0.0059433655273
          -0.029494596805 -0.0059433655273 -0.0099622861497 0.091816590173 -0.00058971443121 -0.0085812701309
          -0.00058971443121 -0.040437851253 0.0051503053877 -0.0085812701309 0.0051503053877 -0.018964987763
          0.090055406624 0.00065237663347 -0.011327938787 0.00065237663347 -0.038286153079 0.0031588059921
          -0.011327938787 0.0031588059921 -0.018150969822 0.076045969629 0.015955592265 0.004882671443
          0.015955592265 -0.023000809726 -0.013708283975 0.004882671443 -0.013708283975 -0.032246473365
          0.13005333258 0.0087995363727 -0.00054790530413 0.0087995363727 -0.006218850933 0.0075256011319
          -0.00054790530413 0.0075256011319 0.10300297916 0.13026438499 0.0083011415643 0.00066394612074
          0.0083011415643 -0.0079593902448 0.011072246178 0.00066394612074 0.011072246178 0.095884996559
          0.13586128659 0.0067006048341 0.0052320619937 0.0067006048341 -0.0080709317468 0.0075520471964
          0.0052320619937 0.0075520471964 0.1043967422 0.13575230636 0.0073790749036 0.0048411735099
          0.0073790749036 -0.0094958020891 0.012778075727 0.0048411735099 0.012778075727 0.10578070151
          0.13510962671 0.0078203308817 0.002093537399 0.0078203308817 -0.007517631284 0.0098343257211
          0.002093537399 0.0098343257211 0.10426171257 0.14206427901 0.0081760464317 0.00071340693621
          0.0081760464317 -0.0093975995056 0.012179128556 0.00071340693621 0.012179128556 0.10598739387
          0.14394699927 0.012370646421 -0.0011274014069 0.012370646421 -0.008202069102 0.0090013306597
          -0.0011274014069 0.0090013306597 0.10768259356 0.14717924198 0.0076464067662 0.0045559273777
          0.0076464067662 -0.012063060509 0.01062984076 0.0045559273777 0.01062984076 0.10850705751
          0.1447249301 0.0070660282659 -0.00010006862062 0.0070660282659 -0.011940394035 0.0098601088719
          -0.00010006862062 0.0098601088719 0.10009657874 0.14275928417 0.0068115234447 -0.0017337555187
          0.0068115234447 -0.011067559113 0.009783512626 -0.0017337555187 0.009783512626 0.098758888583
          0.14972050406 0.0037971114564 -0.0065091977996 0.0037971114564 -0.010284323562 0.01225647877
          -0.0065091977996 0.01225647877 0.1017206122 0.14608290077 0.006410203495 0.00088179379799
          0.006410203495 -0.011984214868 0.0099516549094 0.00088179379799 0.0099516549094 0.10434469477
          0.1445105542 0.0084763936362 -0.0013654266385 0.0084763936362 -0.007733592307 0.0064485325469
          -0.0013654266385 0.0064485325469 0.10711675716 -0.022068180666 -0.0067308917842 -0.0089060043335
          -0.0067308917842 0.0081524918688 0.0067433976904 -0.0089060043335 0.0067433976904 0.019779362163
          -0.024066535732 0.0022534695649 -0.0060026795608 0.0022534695649 0.015117040355 -0.001435074924
          -0.0060026795608 -0.001435074924 0.016062985442 0.056341380509 0.0022353439105 -0.013060320231
          0.0022353439105 -0.0089884272529 0.00017094676096 -0.013060320231 0.00017094676096 0.028948904007
          0.056898757351 0.001562100666 -0.012771022131 0.001562100666 -0.0086341218809 0.00024642625937
          -0.012771022131 0.00024642625937 0.028705602295 0.060840753936 0.0022894194714 -0.012697847942
          0.0022894194714 -0.009488516383 -0.00076782198482 -0.012697847942 -0.00076782198482 0.027201760628
          0.062140184098 0.00067309327787 -0.014893855959 0.00067309327787 -0.010058164261 0.0013054858698
          -0.014893855959 0.0013054858698 0.028218558025
        </DataArray>
        <DataArray type="Float64" Name="vonMisesStress_forMV_lambda140000_mu50000" format="ascii" RangeMin="556.15344469" RangeMax="32982.144097">
          15414.490961 6588.5510375 4767.22789 13384.575545 10876.221511 6400.5696793
          14150.854902 8611.8225184 32042.039604 6633.6559775 7107.056626 5107.7203205
          4132.3985546 7977.2782504 10747.155612 5899.7584927 9322.3005182 8561.6085233
          10842.926246 5344.230023 16418.452294 7556.9212843 14343.406435 9436.6156837
          17428.296698 10118.970001 4683.376081 8380.8751639 2446.4871106 12187.610134
          15941.327 10347.380021 9066.5273809 11719.816009 7109.2356482 10559.06466
          11494.422656 10424.020264 4946.0270098 16895.90682 8481.5320516 8053.0502078
          11627.550695 16719.898287 4984.7031893 5750.7310131 6961.9137075 2654.8433066
          14932.911631 6239.8066375 9565.9344593 10308.219284 3487.60397 12349.77539
          3851.5308228 3442.5071971 3490.6715626 3762.4901928 6790.1406238 7916.9582991
          5551.2337 5612.6071487 9688.3503556 6487.3577383 7106.757244 5783.1535584
          7408.5598314 6499.8042259 12820.040994 23825.384226 2777.3372351 2567.5482729
          3684.3437581 4755.5820267 10641.062855 13572.143334 17053.987628 22001.118737
          15197.137635 4895.4470812 14332.281834 11882.42552 9144.5756054 8323.7630683
          9321.3379985 10991.463468 7126.2714973 12651.559082 7091.8388663 5994.6377526
          7376.0348441 13128.956862 16649.948922 8180.6917835 12055.775045 5098.5567229
          3935.214156 16321.539895 3686.7200683 8198.7556816 12201.395284 19150.875773
          9718.8377614 11594.793563 8745.6610117 9180.0206789 12987.492865 3934.9615742
          8533.4971932 3012.9248524 13555.594428 2929.6457993 5982.0245701 13994.12391
          6867.3587833 7847.8347669 3811.8719459 9420.0102713 3559.5804248 10072.483612
          17228.488945 6975.6349797 6101.6143073 9531.2503767 8717.74735 11831.047075
          15127.39332 1171.8865738 6488.3421892 15286.72357 15912.161171 11174.744855
          3613.4920115 4118.4266104 10061.633548 6538.701767 12117.663353 6036.2211189
          6872.7965695 15076.477315 14341.432602 6869.5138224 6486.0993918 4193.6872657
          10272.581556 9925.5492929 2617.4087084 10895.334305 11881.091275 7358.9450046
          6401.8144244 3371.8755199 3167.261727 2832.6241819 6574.8932224 4138.5867021
          12968.949896 6667.6084699 12802.297112 3938.7182078 3469.3310343 8922.9463916
          10092.552352 7061.412714 16083.418386 14445.122071 5317.2957897 10180.519047
          8730.6963716 12947.444963 2856.9293714 14139.366608 4215.6326685 11553.746132
          4879.014785 7138.4039673 15460.000514 15255.20731 13568.605049 10091.520077
          16060.201214 16405.189689 5072.6665387 8751.1139797 8058.4010094 6288.1580328
          7357.6281985 8281.0021266 14493.619762 7278.735579 11628.738221 7468.2872708
          1891.6819362 5536.074854 9972.3242193 13498.493048 1309.3352601 6033.780347
          6352.4772079 6730.9939984 8325.2483392 13006.291092 13001.262641 9453.8497818
          15065.342378 11829.96528 4588.6069106 7395.4347046 9364.6005808 3119.3216469
          5406.5828631 12220.823667 6962.9578798 5933.0592902 4195.4691199 10079.601615
          10126.412059 11288.70856 8730.5184176 18095.381946 14199.176336 6303.6082378
          4380.7597761 3924.0513755 15421.994481 7365.1211547 15775.278228 8696.9013783
          3402.0823697 19089.618993 3606.8894874 5400.5076752 10275.419037 6277.3486463
          16548.511813 5797.570798 16366.541531 14814.284562 10233.299142 5665.4469833
          7364.9343938 6301.489909 6128.8935644 6812.8690234 6527.0618 13287.937041
          16441.530092 2881.5304237 6532.0005461 17502.610727 9471.7369408 6637.903821
          10931.918718 13879.284827 6838.3151634 6105.4810708 6456.9519027 8812.8016236
          12721.718413 6364.19183 7561.0729485 5976.2054408 10873.371213 12403.417854
          5918.4380425 8278.2107312 16431.291192 16431.405727 16248.670751 11301.025405
          20844.022828 11861.082536 4669.7626936 9353.3684283 6489.3134295 7087.0313431
          16940.027236 10738.910674 3287.6905052 6189.534441 6901.9706252 4499.3107573
          4382.9117914 5992.7757163 7245.3844025 10146.535907 3847.6474222 7082.5446542
          6504.9966004 9742.3815483 6510.2278094 7245.512594 9212.7890261 8778.8616181
          14218.622885 7235.266664 11001.679905 5071.1652238 4962.6895112 8132.1409289
          12368.570663 3594.8949673 8715.2321101 12149.49201 11961.139325 16204.109765
          16394.897856 17309.525987 10032.417512 11110.187528 7568.8177017 12207.286067
          3529.3063594 12570.034064 12088.598146 12587.008454 14094.181659 5089.1102236
          9492.2845535 9312.999297 8207.7534249 4751.3043806 4567.0134884 10211.563496
          7107.0226391 10133.085772 4621.6198773 11785.387512 9168.9573547 6367.1831135
          2810.6549589 5641.6535606 9443.8844958 7255.2827981 7792.3674748 15548.891791
          4393.1741382 5888.1705734 12943.924654 1830.51708 14629.018717 6527.6945381
          8301.7169143 7915.8075944 5913.8801891 15909.428601 9353.3684283 4785.4363452
          8762.8765394 3558.5860133 5313.7567501 6465.2652954 7705.3014225 7825.4641382
          5373.6671592 6146.7300402 3225.2518427 15851.544405 15097.574451 15370.053166
          10166.072576 16440.544726 15915.440797 7776.0882832 11733.738547 12898.863181
          12824.541873 10102.736351 4371.814808 11373.504745 6567.5966605 11361.504525
          7051.6322305 15531.710015 5362.96874 16573.010259 4956.9854019 3067.89908
          6999.3857566 17445.667996 8069.2541481 12540.124802 3680.6201771 11652.602036
          6809.834843 8535.9138388 17418.563473 9803.8902203 5212.4176057 11500.934048
          4367.6851844 1322.848561 16882.803812 8047.7275193 7762.8849509 6030.9810651
          5287.9336623 5416.2556468 4479.6298518 6999.5047057 7079.0614638 6059.1540049
          10566.479896 11122.475745 9526.1052526 12503.141705 5193.3156352 4325.5161535
          7286.715045 6867.5847035 6898.7532341 7155.4786264 3621.019784 6761.6480814
          7984.4759501 11618.372468 7980.2926467 8269.3810547 6862.9528092 5804.8057493
          10748.917917 25817.446812 9357.0225798 7961.3280217 7701.1954179 9964.5175902
          2795.6998335 6700.7864688 13827.829223 7662.4466286 12987.643936 4903.3957406
          13813.158795 13967.425828 7576.164417 7984.8367837 17381.176487 4894.2369025
          6937.6962744 3374.3377192 4101.9993929 12485.232098 11239.551779 10774.652691
          6192.3991711 13368.316088 5107.2904239 3476.5733974 13845.57511 8437.2362648
          16566.04612 6224.849264 9964.0018204 4188.9015711 11861.723334 12696.213465
          5003.8809886 2836.9611409 9588.8765223 4341.9602517 7576.9337809 10962.118848
          11255.569676 6529.6515853 10706.314942 4321.6496267 6372.888634 11307.242153
          5194.5579736 3380.6201387 11426.197536 12077.527628 8396.801199 10016.436785
          6435.3785804 16290.218759 13842.745973 6407.8586912 8546.5453147 1417.9910286
          6524.8369869 2185.1878645 8658.2406605 6360.8124991 14747.104313 8076.4722308
          4267.5063958 8839.0605791 16092.140156 12648.524812 15827.991698 5716.8625501
          9869.9127902 16479.381247 4643.9099091 11809.081704 14756.687846 4612.4163785
          14332.282267 3935.8789986 4526.0750956 5790.5390637 7499.9822853 13657.887337
          9164.1630012 6878.9367962 16342.919094 9853.4155101 8785.5181934 10376.57182
          10388.092028 15240.193321 10300.504028 5781.6829178 7005.5969353 16157.222362
          7675.4953077 7950.9969265 8800.8370039 7326.506377 9619.5585031 12649.763061
          8024.9860185 14276.488644 10256.270239 5542.2447988 6256.8191073 3835.6889115
          3053.745588 16400.494427 16418.42966 5093.0463453 8463.9340007 6230.5510929
          7014.2242618 2715.7173565 6803.005622 5770.6074387 15270.951639 9582.7512117
          11001.593413 16472.900463 11782.135913 15860.539667 29482.275586 3201.8650784
          5311.4969275 1990.2131906 5573.8161264 10373.165549 16397.173709 12180.206221
          4282.5219408 6785.3088253 14524.184276 6714.3010639 14007.317704 2971.3490575
          8452.9972453 4616.0690846 6423.3038138 6184.1800427 7909.8686815 4076.2226129
          9690.2819738 9755.3947477 7853.0029031 8075.5461829 9013.8020642 4117.0009056
          6137.3072463 3827.8990481 13143.325204 5864.5045757 17503.031131 13307.917128
          6175.643523 9907.4706192 8645.1612601 5903.6437066 6362.3339027 9366.6880945
          5744.4667621 6724.520677 2639.3370967 7833.317574 5280.5528396 4521.3396327
          11842.641786 6477.0158581 11789.070568 14177.375442 15157.464875 15804.170415
          10408.716347 8510.2983126 16190.642955 6282.5841163 3369.6143015 11545.75139
          10973.647175 15572.039109 9150.0740872 3099.7304791 12649.038484 9150.8678488
          6195.9581308 6605.1648441 8062.891794 2373.4380645 7181.1948005 10533.327654
          10143.669551 5655.1350651 4030.6026567 9545.7268669 8949.7446444 10364.294079
          6949.5406117 14502.199553 14528.023885 9841.8148137 4989.7928429 5937.0313614
          12708.279253 5126.5654203 7909.6004706 7708.0285083 15879.526819 4226.2438901
          16795.945526 15379.173821 5536.7665511 10010.777403 7587.5676242 13898.718615
          14497.851106 8666.5237419 6400.2790779 6598.8121183 12813.255538 3238.0441128
          15544.22022 8241.0835849 10433.739259 4816.3216966 4399.9393453 7026.9696891
          6641.8277085 11369.187967 14523.642921 6789.5241276 6843.8223076 15817.63714
          5784.8749923 15132.024271 6892.8154892 9406.5926483 14718.511414 11974.955858
          14614.348865 6614.9376249 6735.0375414 14107.762179 9056.8989887 2897.3467438
          9157.7332636 18888.461127 13452.039217 3912.2408021 7142.0269148 12121.813501
          3624.1787871 13071.038382 4608.5365187 7100.6120694 6414.9540134 3635.6993325
          6434.4570556 7620.5581076 8344.3322688 9235.5932041 5400.9060585 13454.30138
          4372.1971382 12301.448109 18387.522737 6792.6605484 6385.3235198 12140.996746
          7151.0298602 10792.193973 9744.8204427 12017.337247 6706.888498 9799.7744553
          15424.012753 7165.9290944 13652.358768 4649.6181235 6865.1289039 8538.9553771
          13090.337019 16354.616502 16259.316899 11433.767629 11083.172011 11508.81176
          15060.666586 6629.195546 6467.9349776 7207.4022255 5686.0278329 7320.6551296
          10783.362088 10484.890171 6651.446713 7455.5622787 5510.3555227 9225.8235702
          15439.976973 8776.6079774 6819.7818795 6537.4073539 15510.026583 5623.7858447
          4698.1638674 15739.446248 5021.6917126 8866.9358405 16647.145021 7538.767781
          3969.0289786 5881.1260635 16487.050623 3754.6369969 11321.563578 18282.063395
          8499.9636564 5713.8350164 4504.1756611 6634.9885541 2688.3068343 6909.9803129
          10176.859847 14585.925166 6998.7134915 13683.630538 11853.111941 16440.785602
          7022.924852 6567.7274279 6208.0811896 7893.2143277 6869.8086496 13720.238814
          15386.981501 7097.9428952 6412.360401 3828.26155 5114.3732661 9905.7616817
          12024.520023 2918.4886106 5138.4005086 3019.6047769 6767.8653076 3933.1287853
          7672.1844267 7638.9621104 9811.4743713 10494.649255 3235.0920574 4514.0961087
          7274.5544341 7736.2557455 14834.209242 13981.501729 15476.807727 16134.680771
          5671.050715 14847.37469 7107.8440206 15550.389545 5354.8920143 7722.2545596
          6760.8794075 2961.0055846 14605.378535 13025.437949 11119.57164 12441.973906
          13257.758277 3440.579316 6088.5659566 16275.15145 2580.2379532 2718.4891007
          16852.17701 3047.6869876 1611.4250937 9623.2462287 4508.3139401 16940.987295
          6309.5472746 14590.691104 4150.5432615 11615.80718 4936.9069305 2849.6005354
          16345.524306 12012.000493 7546.5157491 21874.640073 4990.4716069 8801.2076084
          15740.500484 4311.079791 2798.3810365 5690.710061 7654.0335962 7694.0351566
          17236.773227 5526.6469476 9800.7431917 6788.0936967 7027.5664539 7945.7523038
          4360.7709857 15002.403593 6864.6105864 6276.9190023 15136.087686 8777.1397725
          9489.5667009 14760.046614 8040.7113808 12085.467209 12457.546774 5549.4348791
          9833.1111714 8530.7651912 6853.441437 4315.0632578 8009.1908822 12406.934378
          11667.767383 2647.6993751 4672.5071826 10269.81515 14585.798086 5612.3159145
          16617.546118 8389.263214 6072.681041 11271.062883 10815.297003 11063.26874
          10343.983169 15405.124754 9955.3338676 4063.7511024 6485.4340881 8886.2822936
          11191.686871 1635.9344708 6870.9929238 7599.5207113 9804.9717628 13214.272432
          8285.2030513 4115.4004438 10078.810251 12541.387648 6741.2679132 6314.9516663
          10887.659204 7276.7644846 4914.166982 11002.48396 2814.5372634 11182.475542
          10211.33106 6437.8355553 11585.279109 9262.6062781 9686.2795602 19425.113096
          14648.967721 12404.248235 18189.656647 10095.123912 12927.740294 16180.565515
          15662.173234 6391.9889866 16616.544447 6400.987543 10804.085684 4898.1858839
          8168.0679905 2938.1069639 7599.9502348 15604.047258 9936.6686806 10642.722817
          6824.4910297 11781.592516 6760.0918014 9962.5571887 13191.786199 12481.392936
          4913.2042037 4939.2491668 23200.19197 17175.224396 5116.7671074 15976.711656
          14925.251039 15571.431236 12539.953176 13310.473294 15018.175319 6523.6924142
          7004.4171401 8588.0163842 7875.1390225 9398.0680844 6354.6558193 7038.9570878
          17006.12764 16341.686145 3587.287997 7862.1903277 6889.6521316 7845.0642284
          12867.789229 16395.630203 14028.431539 1554.5205578 12518.275485 12611.947497
          3740.375302 18913.235598 6344.1214805 8527.0674032 14508.152882 15065.847176
          9519.0506246 4965.3134834 13038.261823 19777.474849 11414.476082 13395.389489
          11191.108357 4113.1963182 5409.7910943 9293.416684 7306.5114014 2889.2945823
          9969.0331722 8266.4099386 4811.4865049 14226.175743 15095.193275 16344.783083
          16197.706204 12324.253014 13224.009247 5913.350552 4787.5536311 7830.8861486
          11018.282148 2331.8098742 9599.6510889 11227.358316 2669.5404387 6346.9372922
          16833.483716 5812.6760056 3796.6765176 14890.994985 16767.024047 12805.150298
          7855.4652415 5863.6307463 10616.228854 13777.857456 14714.641552 14410.480344
          8268.6850478 13848.442615 4834.922614 14105.506799 6873.3686003 11912.360702
          9533.5238872 6485.6644364 6773.5349856 16681.251942 6723.9924157 3403.0441151
          12086.504197 13234.827365 1851.1262091 3919.5770637 11005.488796 2450.3830248
          4836.1367019 8012.0651234 3878.1276145 9579.9880279 16743.866932 5813.2329994
          12036.531913 3310.64223 10608.695881 10277.454253 9035.9401323 7248.641023
          16449.210253 6745.5951168 14892.410086 5448.1602055 11727.72154 16291.324043
          4780.9399495 14338.413393 8860.28933 18548.710032 3581.1231788 5897.9938418
          12839.672582 7122.8722778 7569.6701044 9419.2025574 6918.384498 10158.698167
          8033.113902 17929.048051 2365.7565725 9407.198434 7564.7407585 5155.3314293
          5265.7359799 2242.0751943 8977.3254668 5324.8103103 16049.048577 5245.0522741
          2487.4529137 16290.081093 11129.566606 19407.953868 14645.574961 15189.450117
          11101.09244 6687.3664603 6412.1698328 4764.3139835 6651.820885 11457.11874
          6818.0778771 7184.9327357 11390.500349 11976.422836 9938.4830079 3594.3589871
          7062.7045952 10575.292545 6929.5871117 13223.958294 11328.75945 16140.457853
          3389.7075012 16759.185003 16027.589282 8781.9648293 6800.4709493 8583.3685498
          3101.3381222 3601.4306442 8785.8199455 15892.773681 8268.5451703 6118.260403
          7562.1052561 15085.029773 16452.746214 7319.9077408 10995.527057 4988.9182471
          5022.1480365 7084.8624517 25200.894482 7667.795515 10842.251192 9589.6287249
          6925.0668597 3125.2890123 9505.1494201 3022.4110209 8521.8198181 5743.7831537
          13197.213446 13624.514992 13143.684621 15744.695406 4127.6920984 8041.664095
          9106.3334344 3973.0543131 7657.1224148 4794.9569725 15829.772756 8499.547019
          7898.2965802 7329.6083731 18013.357554 15931.136129 16438.851274 13362.127604
          14773.075438 3490.5439787 15338.910604 8559.0891329 8852.5542585 5110.305566
          6786.5094408 15352.527115 11312.093942 7092.2219263 9927.9265786 4672.8512621
          3544.1269284 4157.0083211 16913.99915 20156.844932 3185.401185 12657.323495
          16143.739534 9853.5158763 6899.5504245 12509.95568 3013.3867106 7660.917741
          6114.3088966 14992.168443 16760.166311 6760.6807593 5364.12868 5786.4528453
          1774.1924936 8186.2382354 16246.515754 8886.7576351 6973.2963022 8586.1449329
          1275.9531276 17992.301799 6791.8048131 9732.0879811 6248.9295569 11942.947998
          2800.6445474 12593.005617 6873.5273285 7257.9368124 13552.737398 14861.961122
          6526.5624865 5877.3546855 7647.2840154 16402.453655 10050.853402 6094.4998796
          8418.3225824 4736.3540985 7552.406594 9328.4385432 7541.4068971 4672.6898387
          15792.189698 9307.4527207 10478.494522 6890.2805375 5985.4113437 4039.025717
          8950.6326999 6807.3005602 6535.182488 9532.6741931 16428.011396 7392.9495715
          12382.645627 13149.514856 7726.5453979 8736.3184784 5934.2804055 7084.8119293
          11001.182883 7165.3153612 18564.024227 10316.565667 5187.7021095 5279.7369313
          13521.884112 12331.646504 5834.1524013 16709.533485 17681.735099 11710.035361
          11780.509687 17347.447595 10451.544284 2485.0476493 11063.643641 12221.861307
          8088.8955881 3378.1635622 7491.9685935 6435.5360523 14583.347419 10702.988358
          15921.203009 5770.0672466 15001.703794 12272.599304 9388.6654179 15583.309705
          9543.6415844 4312.8374396 4974.4450225 14521.142375 9494.3910002 6645.791686
          15322.153099 7091.1817182 16582.244139 11767.209033 6267.256637 10839.398246
          3895.5416277 16501.727045 7335.8868531 6226.3604307 16844.185694 6740.6482931
          15270.775412 4267.6005468 3414.6887486 7928.4732525 15760.195511 2798.2796589
          6845.083176 7511.694267 13018.986484 10157.218469 7270.8007319 8324.4532544
          11459.815667 7706.7284942 8510.0428281 8142.1216796 8331.1674869 9211.3373187
          12144.08134 16544.579164 16854.329078 10453.465856 8791.4239577 13999.775164
          7327.8254544 2037.4715612 8510.2523855 11735.205887 10060.834392 14624.351632
          7383.8551657 6337.6235923 11396.209816 9940.0761375 8195.7462315 7807.453578
          6694.7638212 8116.9894817 6062.0712626 16058.031787 4972.3281485 16084.1919
          9008.1039394 7221.8506283 9648.0506072 3650.3401732 8985.3903069 7292.3733591
          12872.917698 8233.4363046 26049.612351 7053.8297394 6911.1595351 11148.164174
          6020.0283944 4639.707477 11094.162699 15328.547798 6972.5960341 3868.8876261
          9606.9457714 11254.51166 13366.92445 4837.6606609 6241.2389343 18205.122516
          7731.2349229 3825.0567605 2272.2637489 6743.9720971 11662.417426 11236.304208
          6790.8932214 4879.2140363 7474.8574155 6424.4515751 4159.9571511 6670.9819426
          9776.8260277 16155.635031 3591.5377003 17800.222068 9254.2324162 2176.256109
          12128.019887 2286.9507443 14867.98585 5951.2734365 10511.93909 3462.9205609
          10275.588815 16684.561788 7270.0557094 2841.8727714 7803.3007982 8371.0991025
          7080.9903793 6541.1080798 4918.8089544 5716.8625501 7512.7100416 5525.8360028
          15093.230654 10375.387429 5080.3322283 5183.8166741 3086.238326 8056.5018068
          13098.083682 15334.254873 7340.6313917 13995.930876 14425.665467 9411.9773709
          10122.728912 13479.928216 16410.663727 7372.1644019 10572.167883 11238.012038
          7622.4256666 10207.983869 12809.060796 7800.0530267 3308.4140616 8569.2560735
          8581.3892069 12792.890443 12210.57451 7379.3167948 3760.0806305 4001.2359293
          4857.7704886 11368.838669 15750.459943 6166.5338698 13615.543327 7209.2074699
          9320.0307468 6769.669129 4222.3514831 8525.9945154 10683.868559 6681.3239247
          13342.835143 6538.3313757 3431.690109 13961.120436 3239.6566868 7588.0464841
          8743.2211499 4932.1755441 7399.9771389 15069.929937 6803.2696325 8488.181121
          5458.2950611 15629.849511 4539.5558675 2789.5658404 13269.929534 15685.168637
          2514.6505886 14855.249582 6473.217453 12544.37604 6461.2070948 16690.547489
          9820.1144077 11594.223307 4647.7457577 14278.73667 6421.7396678 10932.517582
          12954.869996 15144.823148 8807.2794137 13464.535921 4801.811516 4417.4849127
          2845.1806422 8557.705423 13682.438317 14076.014335 6165.8576177 7225.0217212
          8349.1115728 13654.842558 7412.6737624 7239.6992696 3329.9449293 7592.2535785
          11124.239659 5716.8625501 12661.591615 16322.687218 4056.371864 3141.6688856
          2994.9178468 3583.2003036 12552.915291 6350.1917945 9640.7892422 4249.8381491
          8167.4356707 6978.2811978 13229.648079 3266.2877266 15038.506905 16609.771121
          10975.688954 16197.230911 20888.12033 12193.464809 8018.7248418 16826.222717
          2766.6879778 11709.533051 3705.5120002 16561.868822 9944.1008192 6958.9132042
          3027.4544972 8153.476178 4149.7002966 7116.4612839 8103.4370648 7153.4114568
          6775.3237221 7321.7144721 6939.4122947 13079.306432 4613.8652653 5380.6817247
          6911.6028674 14710.999553 3811.4875904 16361.602102 12438.864844 16116.932582
          10155.301988 15973.886856 9125.3378362 7181.8869899 12139.168013 13434.742629
          6407.1133163 11694.697779 2920.2180785 4248.0537776 15312.229277 12225.403946
          12645.926594 5432.6123577 2478.8665945 11638.095583 6800.3217588 9426.8518949
          6418.8843196 7256.8986306 15341.150425 2572.847788 7992.8893511 18985.041458
          5560.6409649 10252.000752 8309.9517834 15253.864102 15869.945631 8550.5968675
          11124.675923 2996.2116995 7745.6629305 10577.956632 5731.551355 11243.239096
          11142.863293 21305.814554 10068.383259 5827.4378033 10360.859207 13727.488851
          9831.1210516 17397.868628 15612.276434 6173.2612468 1281.9600558 6588.16078
          6393.2496459 10180.681293 11006.240582 13486.699481 7853.6739505 14899.240266
          8034.9408039 13461.187527 10962.226794 10517.743293 7793.2187393 5201.1753039
          16599.12426 16316.561402 16607.377109 12921.948116 4618.0004877 16830.930362
          7054.5205694 14995.56446 7172.0364309 12126.943007 14425.975841 5360.1741918
          2949.0357986 12698.921514 4807.2376639 9007.5083057 5748.1366523 3407.0671472
          9866.6450056 6302.5033727 8117.4065193 8126.7158308 13230.646643 8560.0384051
          6624.1173976 2542.6554778 4257.3799257 4844.1172718 14975.168114 9572.0015033
          13570.34576 6951.5825095 9172.6392245 7467.4277599 12179.928139 11941.481397
          1746.8947678 8395.9869925 9424.1305907 7379.9189727 6806.7540737 12304.666693
          8894.5331455 5513.4334267 3189.6003017 11767.185597 6779.498516 4060.1075448
          16539.485228 9486.932737 11413.657502 5859.2420538 9082.4611882 13872.75394
          4368.9065286 9335.1836415 17463.325228 4769.3237203 13455.700731 16170.594761
          7351.1760261 15199.233594 5520.69074 6500.7741133 3327.0510713 12937.612454
          6856.5921903 4204.0074106 10815.678508 9815.2527946 17226.453141 24698.962628
          7309.1256466 12264.375907 7096.8276043 15973.538231 7655.116973 16128.885126
          7167.2498544 7557.8194934 11233.14529 9115.8730851 9634.362054 3159.3622899
          11100.459715 2009.9661894 16027.282321 11407.632018 4081.5721435 8193.1825006
          6940.2691951 12901.439161 8544.9170672 4768.1711258 11152.219542 4578.2920258
          13285.938964 8528.5058751 12528.044347 2302.7277399 12727.249233 2290.6604906
          11161.679835 13644.356503 9674.1711089 9034.7203719 4986.5413178 10712.421457
          6378.6636106 7582.0247018 6480.0150589 6481.8967158 11285.936979 11219.161307
          8870.874795 4243.6854534 13643.239073 6462.6669438 13645.851366 11827.509407
          13594.526132 6304.4440561 16243.749354 10092.222664 7712.4743508 6666.991387
          6768.9648987 7486.1732128 5758.3885415 14588.539546 12969.130027 12422.156369
          10397.168611 4849.317947 5744.0827188 12689.033911 3855.7848937 12433.763623
          7525.671668 9769.3161421 6452.7757787 6916.7252168 11635.144258 11797.650553
          22695.704094 5088.7410443 4044.8570846 5075.8283689 11305.797513 12256.009693
          6583.9897726 8031.3315476 4233.8393041 10332.511599 7206.5567217 16318.354885
          12428.394041 12242.003633 3013.0378822 3943.293877 7744.0883809 11783.767498
          6888.3902006 9331.957402 12922.241317 16094.747888 1950.4731721 12002.361574
          8737.597722 17817.560168 3635.9139262 5891.3612557 13811.607391 13433.535967
          5345.2564017 14226.27087 2937.2501052 4080.7365725 5726.5731143 6387.8393129
          11617.142139 1691.832658 8039.4761303 6947.3985139 5539.1383177 7250.662923
          15663.948604 8691.0893994 10352.59946 5423.861273 13168.725086 15563.083261
          9761.3101084 16228.601822 1944.3226736 15188.705895 11162.67142 3695.4318806
          12695.660882 9252.9427703 16171.676044 6525.6851397 16794.374266 11649.211491
          12554.346518 15830.694816 15864.508584 2160.2368894 9635.361367 7926.0187991
          5933.2701333 19236.683884 13464.074139 13642.551998 4111.0519458 10046.653418
          14901.359811 7753.3758531 4642.0692072 9144.3541966 18227.781087 19322.249042
          7589.3635155 9757.3555891 3203.6949704 2976.8169044 6301.1365886 4326.6537077
          9117.2882356 16653.555585 7580.277396 11033.378173 13175.037642 2238.2272863
          10527.426118 3070.2089949 8544.1805833 11059.201247 9855.5529363 15874.880038
          8427.1899384 7657.54545 13613.022127 4640.5120461 12886.620331 2611.5165942
          15018.208649 11295.653357 5110.5388834 11934.770994 9862.957965 8519.1525256
          6641.7092748 12085.763185 5758.3483387 6737.14414 13498.04711 6311.6335478
          4953.9676062 3061.3613405 6136.6899794 8623.386394 4143.2521598 5875.1783276
          13272.665058 12860.094728 6044.5673298 7990.2755775 5931.0412327 2719.7627815
          11491.787019 3446.1627264 8759.6424747 11963.357272 4610.0555287 9760.2742109
          5994.7635194 16727.35301 12888.230654 5834.9644498 16865.028149 8734.3659271
          8674.5960552 2826.5771561 15278.615779 15613.654487 15894.071624 2454.5415013
          6396.886794 14513.287333 11555.336146 13528.290192 15244.882894 15474.938455
          6323.6767988 6332.2029642 5634.3622977 8087.2965209 6330.7270768 7140.9728228
          20425.426259 6457.0646009 12128.772655 6220.9369725 12427.546217 1978.9632425
          11421.219199 16223.819363 14911.566592 6945.5318366 9681.9513976 16168.606122
          6291.573666 8446.9139934 7452.1670146 16404.499025 8654.5541383 4903.7448695
          7840.5280958 12750.732347 5032.0176397 14459.356611 9155.6366246 5774.2569802
          12483.563641 13670.099604 17482.579241 13347.42502 3568.3114329 10787.959252
          6969.2078506 12863.961805 2348.385397 10916.178251 4470.6501094 17547.337544
          6903.5085659 15700.860895 10215.526219 3170.9057949 13096.583675 13295.565437
          15478.752619 12014.019116 5382.2574515 7120.2943719 14102.547878 5290.8432404
          2552.3236013 11323.274027 3367.1740093 2326.3727296 4859.1016704 16045.345473
          5173.0954136 6440.9873515 13172.070708 10138.69292 8822.892705 6617.1176395
          6287.514112 13236.116558 6239.1908286 1949.48589 16269.63002 4748.4221362
          16499.234388 13899.993901 16985.868381 11311.625457 7999.9181675 16055.820053
          13026.646182 5512.9025813 4806.920007 7217.5439194 6586.211607 5915.6843258
          6084.4277005 10366.161681 7132.4173675 15918.2645 15748.584353 10117.293906
          3460.3741062 7030.6501777 6545.9384075 8301.0440439 11037.080722 2971.6209757
          9129.5074889 12917.158281 4801.3560927 5207.1606622 14367.357399 9466.793003
          8156.5403658 18801.295899 4856.3158628 6640.9942491 4202.8430464 7768.8044657
          4091.9030418 9689.0350914 9202.958176 5099.4287061 10721.405235 7764.5368976
          9445.8632103 10206.87351 9578.8664201 14307.964945 6679.5008707 5263.3421215
          4998.4501006 11117.040013 3085.7678284 7814.8902352 9173.3565008 8481.8946036
          4194.4224662 14644.472498 7515.4622363 16301.718982 4294.5041104 16379.197495
          4756.9834555 4900.151826 6593.4183922 10022.708814 5201.1113104 7487.8256481
          11896.917453 15777.409136 8300.747167 10996.711746 4968.1097142 3723.0327064
          15294.548153 4965.1901142 15784.240912 8239.5043649 7964.6100363 4815.5577439
          6317.5989 10093.648016 6128.7394671 3435.1724792 12464.630309 5810.6773424
          16271.19741 11754.821447 8998.7871924 10162.709351 2342.7390979 4630.7201641
          13537.270746 13067.058614 12398.364314 3445.6179955 10379.982661 13900.115308
          3434.7244923 4721.7530469 12608.297682 5504.5197801 5597.7132794 7856.9044349
          4719.7134941 7620.2645871 13044.992571 15484.187606 14576.962867 3923.3271999
          7242.0005004 14939.52271 6448.91533 9316.9429603 6469.3561325 7662.7242906
          9432.7885873 16182.796631 16509.989825 7497.0088486 9923.2458885 13246.212243
          3928.1616322 15698.410112 13255.270087 10284.346096 17454.691933 6576.5092795
          14908.6304 17640.563856 16369.080683 1561.2388703 10446.233835 6975.1383832
          12171.671873 5301.3545347 15495.479414 7583.9726666 10366.769898 15258.140855
          6478.4643553 9286.4117582 7752.5940383 10590.626954 4401.5941622 9951.0437103
          6494.2370457 16305.939758 16731.087348 4748.9961767 9127.133827 6429.5689884
          7004.1702329 9900.2758395 2016.3446748 6769.2813119 6034.5722531 10479.039168
          7317.8632059 13584.251265 18284.601206 3848.5814125 5895.1111303 18500.767854
          6479.1246041 10363.156974 5414.8923712 32698.8717 11750.146851 3177.1865472
          10993.93746 14861.803513 8346.1974857 8691.842098 13055.173404 6277.660111
          7315.2226307 14277.71719 14780.421787 12670.09231 5149.1227934 5847.6755316
          7691.2065929 9063.4094416 15634.813161 6313.5041239 4892.3275174 7329.0321351
          6748.2869372 25650.395984 11695.037129 6169.4185817 2139.6496141 17971.435023
          6282.3055166 12083.313454 15531.027988 15829.927393 17635.019066 12023.714601
          5019.3178426 12542.298264 11627.679743 15391.068629 13946.840495 13680.66302
          11645.880278 9436.1558616 6647.9324911 3378.2991337 3896.5084089 6942.8048926
          10337.682339 15723.604379 4444.1606632 6219.7769959 9004.1408775 4398.7925128
          17456.159584 8615.3645408 2651.9302261 8068.5995377 14919.99626 5644.782293
          15330.47515 6554.4848726 15625.587806 17433.432654 13833.95405 15007.995947
          4053.0423349 14490.105567 13225.999744 7059.2799853 7891.006446 7901.7303512
          4145.8095503 6991.4979247 9866.2064955 8113.6371612 2805.365013 5304.2704189
          8034.303017 7307.6926429 6960.5039401 9821.8526239 13092.297835 6664.608214
          9980.2453893 8539.6248812 7306.6616172 5247.7847296 5038.8376846 4969.8073084
          8283.703631 7272.9329477 11329.817343 1512.5907428 6119.6358597 14004.444718
          18027.159124 3667.6870544 12465.899146 21339.830378 2828.2968398 6745.7482449
          9732.5477871 3853.8598807 6897.8944688 6780.2059117 9619.2228177 12043.572663
          12921.394492 7133.1269402 9357.8091451 13254.440351 16286.632035 9639.8671529
          2015.6755806 7451.8609369 9613.3610837 6219.9142905 5038.8594531 5170.7723754
          16853.669291 16200.375137 10690.803209 8594.5737483 14120.549422 7134.2347267
          8157.4230081 15238.783247 5361.3330488 6325.117233 7992.7622228 8596.2230917
          12699.640153 4361.2797269 15292.654007 15313.222604 6850.7863162 4272.0630939
          12544.813521 12478.378025 13555.348625 4176.6652706 2647.2901517 8097.0292186
          16126.393691 6874.8704147 4984.8550602 6237.6294724 5055.7005572 14598.878732
          4106.8975643 12520.224001 9492.9375015 14492.84789 12788.324917 11017.154967
          12196.710195 6683.7123768 12113.506166 5702.056777 12727.91069 8196.5050881
          6521.0923443 15746.220184 14055.456086 15443.425548 12411.230999 10511.124868
          14836.758805 8957.7672421 5842.2574394 12181.288683 6259.5265677 11841.81308
          6860.3195429 15735.923708 11039.313101 15482.966813 11554.670809 6806.9427648
          9385.821975 15368.712334 16581.780497 5111.221671 16421.366574 10961.064404
          2580.7580635 11589.438854 9293.3019493 7663.908901 13980.09115 13733.880453
          10993.2973 14640.098197 6191.0774254 6232.6521879 15716.324621 9988.4075345
          6341.357889 17468.485827 6880.3585147 10428.638928 7452.9100472 15795.021194
          13759.947612 7038.7874619 11944.922043 9648.5221774 7228.4453494 6956.2292624
          9610.8431602 4137.9830058 7076.0480249 7903.4948523 6585.6894756 12980.766979
          3065.6060376 3167.7958166 12520.930666 2605.5533856 10293.11287 6839.7327381
          4218.6635816 7693.5543001 8408.467347 1688.7554074 9839.1506358 14856.003261
          5699.6636504 13090.436917 13662.768494 14648.885495 12258.448438 9465.3018401
          9046.8134937 11302.752812 7217.2911375 11586.878369 6233.1438927 7484.5562898
          8570.5513382 15170.705664 10595.652393 14520.659428 6965.6944572 5523.8839273
          7268.3938424 7719.5929979 11707.1202 8438.1690023 14312.835133 12919.224019
          15387.445968 14995.221547 5623.4922135 7539.7333141 12296.734297 10723.269787
          6764.4681954 3892.1233123 9575.9651141 15712.73389 11351.340137 3724.7469271
          6624.6911422 3676.0980713 4018.8941501 2846.4513687 11029.732048 11041.479883
          7914.7061698 9293.2028924 7689.895751 7926.9162461 7249.3709184 11567.453623
          4164.3054224 11888.425777 4657.6476544 4612.9985257 6717.1136834 5931.8506138
          8954.2829054 1891.2651817 8723.0229588 8692.1912683 12076.960697 11264.566567
          4806.8666489 10621.885716 10024.197198 5250.7280983 13746.760085 9022.8653291
          7483.1918447 12455.238231 10344.561126 7677.2511733 6534.6060036 5256.1773333
          2808.2432397 5199.7291162 6852.315611 7881.209953 5550.0182021 6126.8268271
          7697.8020736 12484.786336 10400.856546 6614.8410068 10527.435658 4825.2395096
          5676.9961906 10855.561179 10659.96887 9553.8792906 15460.510585 3761.9867543
          16083.074286 13026.369377 14802.891166 9378.71579 9651.8257049 8781.5430491
          14367.531251 17406.056771 2675.836478 5083.7239203 8971.9816146 2477.546044
          7125.0690254 12449.460184 8290.8818715 5571.3206935 12737.636493 7972.3501455
          9499.4924178 8713.6651226 10507.359655 11813.013745 3268.4409421 2118.3303882
          6897.9497477 11059.71241 6359.5713504 6489.7500283 2789.5599374 6216.9226202
          10784.50219 7607.6215169 8877.2474401 16141.116474 26336.906188 4871.976596
          15101.21113 7481.3818931 7940.1672238 10644.01798 11424.870964 14402.98838
          2636.5666572 7861.3372449 12824.851912 9158.5500879 7193.4603676 12932.091002
          6773.7726665 8623.0848698 8218.221893 5519.7064119 11332.032287 6385.6983323
          13838.031283 3652.1011322 13345.371041 12437.420183 10877.143285 13071.503372
          10936.491149 17317.920925 12647.240595 13895.461834 12871.519772 6627.5497197
          3630.5843869 8837.6177997 5847.6735969 15348.161431 13605.313402 14698.739333
          5688.4087161 7262.7771325 5492.2525081 5829.0422526 12397.94614 13249.080379
          17193.03212 22211.784414 8361.4662174 3751.2619048 11496.529863 7558.3283405
          4937.8688687 9565.4653989 3107.7173816 4682.0942691 8027.3376274 3853.9186404
          7068.6550851 11615.705573 8678.8075471 7174.4848852 12224.730868 10163.24118
          5337.0466884 6525.4446604 9018.1150522 6560.8118851 4665.9750064 11453.541191
          10818.534936 6729.6451675 7651.7240048 13528.765072 15352.175326 3569.3060785
          11169.326383 16363.255262 2432.8930127 4670.0616933 12508.250388 14821.729018
          3840.9985827 4985.3294338 16249.276555 9803.1604333 10934.75288 7517.5511137
          6326.6684589 8240.8680025 7990.858616 2824.1425218 14936.952785 6146.9915623
          8153.1926528 10333.389896 6548.4727791 2489.0723703 13020.076748 8869.9723993
          12254.515781 8961.6449468 8532.3054113 12325.089828 16698.601883 5142.6645147
          9192.4014967 4931.4472087 12149.150096 10768.674297 11788.459006 10095.811119
          11943.446563 6839.2354197 8340.8598202 6603.6677775 10202.858619 3990.496877
          4419.8903135 3943.818814 17578.782005 16200.089679 8173.5063344 17222.02712
          4333.7820028 4279.319024 2489.1624889 5463.0671845 8605.5173869 9447.7902188
          8725.7435705 15921.052434 13398.980254 6186.1440724 16063.794507 7023.9663878
          16388.274835 5902.2184443 13267.737006 13394.038838 5283.789016 12355.366857
          2774.9584228 9714.7724125 3519.0161643 17302.072104 9394.0957658 7489.671659
          3386.742313 7651.6000158 10937.880132 16037.765158 13671.294289 3247.4893251
          14411.597578 6843.7190399 8114.6200191 13370.984017 4551.0122305 4146.6875026
          5574.5221157 6064.8585734 5519.7064119 10609.020643 2529.7894756 3792.7904952
          14236.251028 12726.52611 12289.310034 8485.2603334 5207.0236776 6119.0205931
          15209.277678 11336.359406 13319.224651 7630.4556763 17941.909012 4296.787398
          6733.2861123 5825.8342726 11769.127029 6234.3952971 5912.8595177 15666.654959
          4903.3050893 3862.3002511 6848.7407895 2988.6080631 10222.694719 17511.40417
          4948.8177686 12011.320017 7193.0825251 7423.1898132 7975.186681 7840.9294192
          11350.641699 10299.099329 7725.314936 8123.1013981 10878.824868 11007.22819
          11726.729155 11702.966192 4964.7537085 12543.903552 15865.472068 4871.3005273
          7056.2523489 4817.5948276 5339.9035294 16126.94138 5553.8092372 8167.2576542
          2296.0173657 11484.829632 2918.2318384 6428.5694593 14727.823346 4373.6274859
          17270.376047 18296.977189 18081.512027 8145.7283534 5377.2381579 10000.846266
          23433.770108 15675.656441 4722.3194903 27367.357077 15943.332715 14828.955121
          13212.833856 7394.345476 8021.0277156 15241.5241 13923.674104 2124.492086
          6408.6216106 5110.2210246 14866.157876 8008.5139704 9263.19032 16154.100889
          11239.081555 5536.1957268 10619.646322 9317.6269734 8884.671173 16986.804867
          10320.937157 8914.3354124 5739.5973873 5526.6393709 6439.8850307 20207.873296
          18897.987711 20668.38704 7633.8741111 4506.6166123 16306.329104 9789.3959871
          15177.277476 16617.371275 5520.3504213 5388.5852017 7844.9851136 2061.5901711
          6967.5791196 5333.6529246 10843.299277 4550.2926607 2847.3566729 9947.3667195
          6449.3515201 9795.2066942 10415.477408 11856.65809 9672.6967463 5425.4477795
          7502.2625466 9408.7678088 6897.8407936 12762.630195 12266.756094 5707.0809537
          7006.8729228 7157.5668615 12898.319965 14391.352373 8898.4217481 16165.990167
          9200.7942857 8692.4134441 2086.0174376 16158.589834 7426.2254154 3627.2676309
          6776.8911147 8247.7707187 14920.425116 6492.3629904 8328.133196 6228.1215823
          16802.950916 8748.6240212 16378.622325 5247.6705399 9601.123494 1699.3804578
          11703.037553 8790.5828012 7479.1030497 8937.9957145 7452.9132207 3967.009504
          6067.2025676 4074.2502124 9471.7893129 3303.7914261 8424.9204538 8610.5942441
          15117.722433 2623.7081554 11032.669472 12519.363593 9255.2890164 8518.305646
          8611.5389065 10695.11406 6832.8334865 6334.0296132 7384.46798 2758.192123
          6618.5371615 8075.4253264 6670.4707853 7495.7809008 10527.997719 15956.693601
          8591.858939 4177.6679436 14523.548385 15247.740108 8955.4325099 6704.5332174
          13245.91056 16491.320891 7732.8885832 3554.1682892 12278.263125 8469.4714387
          15282.734142 11000.440151 18651.207303 4428.3701322 7636.1341181 7711.5511716
          8120.3068277 7586.3530672 10022.892117 16762.296587 7238.5816888 4852.9551373
          14654.746737 7867.5487837 3740.7201333 14314.696477 9764.6901956 8427.5795238
          8120.4151182 8980.0027112 2639.0678755 5659.3557887 8094.1424949 12158.084446
          12635.002354 3480.0417242 5835.9451987 7086.7413023 16139.399528 16142.550486
          15498.727353 6956.7027351 8899.6450357 16427.179232 10129.927459 9976.7914758
          13440.228747 15750.474951 6692.097658 2578.5068649 5459.6020751 8695.9976909
          6066.2333692 9859.4182133 11481.338594 9605.766363 10476.839893 12106.681888
          4031.6880379 6019.3838017 3169.8588596 9848.459187 6281.0755552 16716.762458
          16622.67848 4691.310048 10017.934985 14169.566252 15932.960025 16680.343617
          7905.2488013 16209.430282 4097.7903836 11380.266933 6191.1601805 14703.650378
          2361.2701769 5710.819597 3506.6162172 4290.8722396 15394.353082 13200.981041
          7134.7838831 7451.2152642 15236.205117 2449.4062229 7577.6476504 13032.414818
          10968.808679 10304.5031 5706.8913197 5398.6553835 11148.599172 11514.851227
          15303.187804 13492.211282 9346.2703267 7783.052924 18431.562145 19069.802583
          17333.382964 2647.3810082 9492.3113007 10770.044392 12349.159348 9655.9528657
          9246.9539058 4543.7646567 15091.073422 8424.3005491 9415.708949 10087.357439
          6721.2849351 3920.645706 11650.887158 16383.390111 3062.3321037 6795.8656513
          11036.97381 3152.8157312 15037.574946 11185.737421 16370.13588 12402.138527
          2829.8797326 7008.2826374 4886.0477256 10138.975719 4328.6983902 9235.4346799
          29724.065058 5419.0512933 7161.5614576 7278.7881753 6619.8855375 11264.392146
          8782.3575255 16480.748282 6972.9294692 10483.714331 10927.215671 20400.144247
          9538.9973571 8704.9875154 11182.527653 3456.4034059 10816.794603 7566.2725393
          10836.440607 16153.500116 9627.0824578 2561.8498536 3648.879934 16086.663175
          10081.023349 6755.7604798 1888.3755423 2456.3979904 7300.4830849 4951.3442354
          5068.6326553 5322.7930046 4873.7032287 16103.114836 14862.807291 6363.9076203
          17936.964384 15105.662036 15262.90662 5261.6203041 16296.721307 5186.8209647
          3572.3199095 11326.974953 10858.072444 6656.1267772 17793.010359 3954.351763
          7927.2859009 5684.1298846 2399.7375964 7173.4002367 8980.1766622 22370.660901
          10302.505482 9654.3179981 11162.862159 12252.262946 12629.905902 13259.387205
          9910.862354 13405.447192 12520.23869 8582.5320611 7648.8667473 4593.7706088
          8416.8857478 10548.594009 11230.684625 7579.0658327 11625.204611 10150.875003
          6612.6871428 2795.982418 12998.758898 3097.1505872 7493.3344714 9537.5259893
          8981.5317588 5330.5506848 5527.3455284 8829.429258 8856.7202979 4350.0986954
          9082.4079902 12514.653668 9774.0906569 7301.1632048 10599.475377 6486.94867
          4226.7219287 18894.418239 10625.105758 6582.6761508 6569.8587496 5835.0838362
          3535.8929709 13121.945133 14684.251365 7147.332856 3769.1405485 7178.239992
          5540.6870604 14115.672531 13994.506349 14161.411685 13996.249723 10659.300593
          7702.3945221 9932.7824564 5237.4069016 7871.577636 18941.657025 9136.4837864
          10572.59616 5739.9580636 5574.2896863 4232.1774899 5481.8931879 15014.025919
          17168.161488 1068.6998355 6004.7170205 7938.7474556 6879.2597147 11159.087586
          10953.989407 3966.1049782 7511.2953446 7411.319548 8198.3530083 3177.0370925
          6817.0948318 9691.1784194 12676.73383 6702.8742494 8296.4543716 7263.6021768
          8226.7177446 11670.652959 7270.5647281 6355.2869405 1994.0990093 5126.1047585
          6451.8869022 8126.3322975 3692.9478181 3599.0401126 7083.3372218 16341.324765
          5892.0887297 16114.108045 16131.200643 8596.4017796 7694.7679828 5812.4872626
          7009.7854582 13447.756709 7940.4124806 7299.1372614 6589.5107255 8626.8421997
          9663.2200154 2570.0282516 13527.650713 13025.688347 9204.4711451 11993.521639
          7063.6692948 12030.844157 3782.9412317 14345.072054 6817.6378934 8877.0349025
          7555.3360803 10071.482307 8751.0129463 7121.4018738 3185.7500765 10759.97616
          11157.194104 11342.970014 10042.327523 10344.270689 11535.013236 7771.179713
          10798.50248 10894.086441 7479.9265711 18218.485727 18216.546357 4386.030891
          4557.3310198 16517.766121 16473.39453 2889.4934861 2318.8598892 2748.9995703
          2387.8135428 14984.695724 13709.006059 9031.3870576 21814.63175 9674.6418308
          2467.3812627 14493.182727 12395.777284 11135.482398 6862.79791 6366.4726061
          5186.2874424 10801.791379 11255.327725 13889.050203 14877.610938 17072.659258
          14298.280016 7124.0056955 3770.6539334 9353.3684283 14005.467701 7997.0590953
          5483.4328508 5579.0391811 16176.119881 8442.4855586 5427.2410413 5185.2777732
          5481.5986355 8789.3107585 10008.453462 6678.8439531 15016.891576 17288.625921
          18314.144536 8282.1480649 6360.7427371 8094.3084857 6866.1957934 13585.148196
          5930.8424586 5671.2187931 6655.9306318 3073.3528356 7116.1699742 8094.0325351
          2759.4862097 14672.806334 4800.911664 2668.331975 10492.697159 5351.6490861
          9197.4129289 10041.685952 5506.7279244 9088.560661 8361.3192519 7218.138261
          10123.492734 10848.514058 1864.5873487 2194.7306495 7106.0468619 8263.8666697
          11150.423876 6992.0810934 11352.223238 16061.418845 10546.374919 7407.8813464
          9635.7853586 9335.0005414 4170.732071 4005.6979303 2385.7183989 8182.8000468
          6353.4736346 9490.9784417 9236.1387064 16785.47028 4757.0607641 6998.6402052
          9242.2230011 11515.66602 8818.4508052 7775.984748 15235.910494 7946.3246192
          15431.89802 10723.927355 8233.383842 6609.5360116 6954.1094713 8159.0200413
          9439.5386582 10812.939895 7673.3899615 6994.0900632 7667.6135745 7348.6494151
          4185.3073395 7983.7266575 9875.2136096 14232.263998 10808.846756 6029.3547469
          16440.322291 6808.989331 10742.053947 10087.798235 16674.798564 4267.0480921
          7644.8737756 7225.1854543 3411.3278714 4776.209622 6969.8914949 4253.2123882
          6510.2559778 6599.4305376 4105.2124647 4507.9942934 6679.1315982 6228.3270979
          4577.770291 10394.788755 14077.637202 14900.790194 14024.361448 3675.3289236
          3653.3949039 16042.419999 10407.590611 16154.092032 10003.415353 18223.859874
          6809.6309533 8288.9300929 16314.0188 8313.8294918 16110.58988 16867.937172
          4950.8420052 3104.8813753 2253.9355726 10123.618484 4352.4973152 5194.1558935
          4828.4857475 14474.737156 5537.1602561 9888.9764256 6112.35603 7947.7260372
          5029.9366352 5336.2116013 4760.6378235 14580.798158 14293.709104 6188.1189231
          6315.7875366 5388.4472631 12923.916105 6663.905762 3017.5666707 11362.684213
          6444.5809286 6593.8141558 7714.4210891 12444.386812 7667.5034248 6272.2715583
          6322.4387931 10605.023252 6342.4321284 3409.5974366 17760.344734 18151.330035
          6967.5692331 11988.625645 4478.3809085 12671.727178 9854.2317958 7735.7610254
          11558.185768 13503.817425 6853.7148986 15041.703214 10456.615792 7131.8869422
          12317.623218 14532.798274 14481.983746 15233.148839 12745.316417 11959.705993
          12089.824218 5052.3567855 6494.5877582 11431.531612 11619.512851 16515.195742
          16520.454955 9356.8970401 16223.645109 16777.685802 4539.6296527 14990.748718
          5037.0199067 5063.6291736 7297.0419476 13451.923842 7262.5741835 13038.500587
          13932.82655 14905.784214 4250.4725582 12883.927878 12253.784844 4132.9055212
          2425.2439461 2476.4293372 8957.6449025 6935.3038592 6490.1221285 7537.4731783
          16243.465633 16212.984772 7651.8850501 7478.9415923 6211.6041877 7750.4399802
          11401.410199 5067.1247076 10104.778099 13667.352877 2838.7641356 12820.250894
          6414.9505304 6315.9473418 14772.787357 14782.377908 13588.276346 6306.6899509
          13385.317224 13572.741377 14471.972827 8303.6971163 6572.5375107 1928.8625622
          13146.048344 12977.923666 10466.472347 8964.0913606 12832.401919 13576.033367
          15093.371147 14625.230824 13067.173256 4011.299413 6589.7764152 6385.5043126
          14229.682325 14876.360316 14244.091648 9292.7577227 12156.864878 8454.1047268
          12116.558083 11580.497917 5632.8323791 5718.1841639 3312.9178955 11791.821123
          6622.7665793 5390.2233858 13528.859323 6102.278338 10188.179323 10365.489695
          5249.8588973 5654.9818121 5040.2655744 5193.1443939 5259.5533162 3176.6853798
          12362.998048 11228.370033 13756.333148 13075.332006 8555.5493031 16007.545068
          7046.7001844 2254.5151224 6899.9937932 14549.945546 6419.6969985 11329.985037
          9387.381638 4062.8953272 5272.200772 5403.1156023 12605.092373 7194.6522952
          11064.906166 2098.1424241 15375.039959 4719.4472452 7154.9966957 4180.017417
          14838.794663 4618.8054732 8162.0959503 5863.025972 2930.368683 2561.0499718
          15238.643134 3823.5054412 3154.457569 6715.152211 6416.2567779 6419.612466
          6818.4822181 3157.4501044 8921.2231864 9430.7195367 10981.576769 10065.156829
          7384.3213482 8899.562269 15898.025566 16899.555007 16147.399327 3765.1948745
          1233.3203504 16287.667154 4592.9390056 15181.355302 15032.196734 10757.016775
          8205.3531756 7275.2215003 15639.653815 9090.4558798 11355.066551 9818.8041358
          15325.756867 17271.776889 13440.925343 16529.913299 16582.59895 16471.383258
          16757.546678 15893.039431 16081.232104 12575.162622 12565.79326 2144.9521833
          16011.437464 16169.438095 10402.082534 9946.6525599 9186.8858347 13503.818206
          15366.751522 10268.294482 16302.058276 16153.759676 11641.052011 6088.3203071
          7069.6349957 9586.0166103 8756.9498658 4188.6745253 12325.975289 3921.3515709
          13193.36089 2325.0632677 7771.0212728 7664.9465324 4915.4881585 1905.2977046
          5859.5758963 4503.0419633 6053.3570045 5910.2464409 12281.454164 12076.556891
          5011.3513019 1808.5909553 17481.943996 9146.8544923 8895.5424304 7613.2582005
          9336.239214 8540.9166488 13626.376822 15112.449773 6398.1747657 5978.3466702
          10562.948117 11292.445881 9337.1887031 6159.9695662 10971.304657 12285.023447
          11710.903045 2082.0504324 17552.418747 16817.679559 19370.695389 20090.52728
          18761.446548 16252.749949 16043.800764 16606.270503 11738.288019 12216.842559
          2985.0068743 11882.201311 12493.868994 12835.685215 7945.6836298 5092.8375398
          16658.758381 17379.126441 9172.8450953 19243.331579 10621.250176 3081.0735773
          10523.37704 10457.157198 10258.997519 7702.8231829 8545.748354 15344.325328
          8791.5634247 8790.2294878 9229.7393189 5875.909604 7204.5183454 7451.9981999
          14918.53296 6291.1801574 8222.0816683 19126.287674 7287.7805033 6649.2528317
          6770.2713258 8079.9088099 6885.1373477 7775.0383299 6038.6921518 7156.2207892
          7576.7494197 7229.5089683 10343.030658 7337.2158667 6357.200728 4006.3604958
          9989.8087314 10201.59696 10717.969568 4157.8771245 3135.7679616 3707.7258791
          3762.2020902 3814.0643828 3558.7484105 10517.218676 9356.5732312 11402.882155
          11774.864634 12955.478949 13441.054346 10633.325967 10084.33089 5518.0245635
          4391.218323 13954.243174 11424.542399 7353.207892 8637.6746073 9375.194909
          5353.3646463 6556.1311528 7478.0673374 13030.583863 13428.906075 9321.6292055
          12971.417798 11540.207301 14510.539031 9283.2820635 7343.914943 10175.046483
          14866.727329 8874.4035684 8738.4260502 8102.5118042 7981.7076994 7211.1474192
          11610.609042 16877.993708 8989.8684697 8214.898026 7991.4267344 2920.6163165
          5943.2499979 7410.4284661 11172.010744 11155.940093 11319.37927 11300.499251
          11084.428477 11390.221272 10811.264125 10307.581218 9935.2966144 4003.0665972
          2969.2431801 3543.2429706 4063.5250482 2310.0449856 2509.4211225 4257.0680693
          6064.6794888 2252.6298737 3022.4511395 8834.8953664 3375.1394919 3696.7279158
          4002.7736337 16062.176073 15674.138908 6691.2894546 5469.1381842 5366.1133331
          3552.8967366 5402.8818039 10968.091315 12329.758904 10534.980608 8442.4367855
          9408.127831 10361.887291 10064.752788 10820.445646 11629.880035 11921.475279
          7004.63347 7067.5901216 7066.653262 11125.127283 5765.9260673 2332.9890706
          2429.0134737 3048.0502167 4501.1185472 7037.0621577 6676.0814438 6911.499579
          9895.0634014 5863.0173135 5977.1551565 12618.344408 12476.47422 4283.5190455
          6155.141568 7435.9790731 5521.9871149 4976.4165194 4711.9278486 6196.6805554
          7531.0634866 12421.091324 8008.8914124 3819.3064011 7626.172447 2307.5361599
          3901.2301921 3086.9481171 11313.849535 11306.988173 7552.2785869 16353.578727
          3442.103387 7336.5787631 3235.6659779 16157.347312 11873.598737 17228.527094
          11988.095913 16257.604044 11877.874587 12827.176284 12198.699109 5195.9902267
          7469.5674649 7628.2800233 7381.3419811 4674.2693185 3469.8500123 4922.6753156
          10292.077319 9889.5758762 7387.0345458 9838.165349 9016.118611 24046.786863
          19881.626616 20135.459202 10855.32147 5810.0442688 17766.935914 8592.8773867
          8353.5127891 7342.5206143 9388.5342221 5576.0662794 9702.857487 12237.84115
          13067.427493 13610.663828 13841.110131 10729.489982 9434.3347156 15777.115652
          14220.639759 14347.989079 4400.8845627 12740.383413 17662.38608 7344.8005143
          6335.2929977 6152.1942559 2456.1405701 2387.2674714 7203.0024189 10467.561266
          7847.1718401 12472.943214 12317.173665 10166.842734 7182.6365745 5146.6259359
          5844.4754991 5082.0860298 11614.774411 8609.7508745 14554.233226 11011.369938
          7789.1274035 8311.6234318 2486.1726547 10241.639384 11563.594184 3575.7924566
          8870.476297 7657.9596927 8515.1818181 3705.9716996 3639.2160283 9262.773871
          3533.8744833 5198.6508348 5431.3089057 3936.6709621 5389.6507809 3944.1997424
          3533.942113 4996.4307081 9989.3885988 12799.75211 10719.939996 8074.5812743
          10693.036148 6776.0207661 7226.2380947 7292.8626429 17412.010815 11081.462075
          16630.847519 7578.9535828 7420.7437829 7595.9561681 12471.962464 8117.1287608
          12163.952172 9027.5660404 9115.2448293 11444.960851 12957.397027 13105.510718
          2690.7455215 1433.850245 3506.9968494 3573.506015 3372.4364597 6710.8742315
          8786.4198822 8384.2757743 6852.1022972 5392.5552566 8068.4989199 15130.082678
          4307.7554527 5978.0703284 3051.0623443 7248.4958875 3739.0277484 3739.0277484
          3872.2118426 4058.7803086 9680.5203972 3375.2304517 5567.331651 6936.9668228
          10512.103988 4862.999615 8551.7531019 9602.1046788 8025.223564 6497.0431146
          9957.4305394 8375.9218189 2614.9296677 12767.505776 8097.7220347 7477.1348353
          13916.078072 5802.7887432 17471.796221 18444.727711 13335.630729 3499.2595755
          1918.195179 13385.851965 14073.01234 16044.958333 16118.288282 7900.1341506
          9129.2888993 12648.670549 24343.944717 5670.8572375 2986.2565498 6534.1685689
          6066.9247346 5228.2045402 8072.1942753 5009.0907654 4672.4356335 15332.192068
          5788.5181791 12013.130357 11061.743835 10930.735146 8528.255554 11812.392959
          14034.861731 9087.9412812 4989.560269 14547.475161 15428.037539 14792.181609
          14518.735084 10839.277451 6267.3643413 13343.37976 4504.9287242 6678.9681867
          4602.0165899 4604.6868332 12626.039347 5271.2410966 556.15344469 3663.2352963
          7928.5186818 2621.063148 3112.5390878 3449.8208167 4066.9529678 6219.0437733
          6478.4376771 5775.4308396 5417.2604223 4915.6185539 5504.718207 5317.0222616
          10055.98852 4154.0404745 5799.0932575 5764.8481157 6996.3240974 8107.3656308
          7539.46682 7544.3315373 6780.3359884 6876.2974225 9185.8827959 14812.238767
          5214.6828831 6353.4599284 17352.538278 17306.506763 10022.527283 10085.750708
          9365.7757735 5667.1591112 13630.034752 12938.167506 17072.256801 10188.86651
          15669.781644 7456.1376172 15438.525513 6198.9710637 7574.8165658 7007.0228988
          4636.3728415 12241.213874 13167.363076 6821.1191527 5632.2815141 6404.5367558
          14780.614227 15679.332122 16509.154962 16261.608133 8743.2739299 16295.204264
          16019.949368 16496.802585 15807.166816 16440.543794 20311.825422 7901.3804621
          6418.4944432 6161.5944348 4842.0362676 8661.7125742 7629.473762 6807.3838381
          2872.7395111 4674.0244453 5933.6131714 6469.9222003 6505.832143 7881.0857634
          6649.8467294 14511.626241 5889.0150842 6399.9676033 7806.2873571 12257.89106
          7914.7280476 7448.5593778 7856.024812 5470.6854583 7184.1214332 13000.263262
          12990.719781 13317.738766 13503.590089 13511.273616 12746.623282 12845.91337
          12413.826194 7415.2971687 6523.1263599 6475.9753512 9017.8397611 15740.355134
          15628.897361 15341.450498 15746.055041 6495.9137335 16386.673075 13353.78863
          13309.805074 2201.3734536 2776.1681026 4235.3872956 14087.430818 13808.000075
          14388.719787 14328.900053 958.67369695 6608.432133 7029.7955014 6193.3270019
          11604.076339 4750.6593399 2507.9421898 6133.8064369 6736.0463549 6548.5302365
          7338.0493754 7150.8207928 7677.0227691 7805.5898575 7875.0291081 7970.9350207
          7575.1751806 8498.1996484 8105.7927865 8441.4623778 7763.1355247 5643.8543816
          1075.4537451 8120.191879 4648.8087655 3532.716143 4160.3123901 3972.4956733
          6762.0350861 12544.505785 17152.317702 5075.1179392 13227.302957 3315.4811346
          2829.4525222 4896.5380842 17979.950392 10477.647974 7463.2276344 11025.547554
          6802.2378024 6561.4231119 7481.6927362 7244.3251831 31355.760952 4358.743876
          3266.2182216 7194.758065 8511.0098894 15814.558728 5590.6679874 7474.912904
          14667.316861 13838.19894 14210.539953 13484.684859 13454.093121 13230.588222
          13662.916945 13110.38899 13667.967453 13526.445258 4729.5618011 3709.7144661
          9112.9741557 11472.761291 11628.649631 14261.188675 13167.977543 11648.390819
          6358.8936152 16399.337035 7143.0002303 7178.9337805 17962.055018 6703.2910093
          7022.243122 6348.9663721 10120.283549 7645.0891858 7664.5516663 5463.0416064
          6645.0469732 7021.675376 4829.5417402 14827.985371 7869.6572506 8456.1782903
          6007.4280731 7942.7610609 7585.7724954 7647.3836776 7472.5289254 7945.7911359
          7163.5847481 6949.1640439 7779.4339739 7423.8210799 7178.2520234 7483.2805567
          17194.607737 8042.42301 8366.9257758 8250.4505717 17317.518331 14153.58147
          9692.6266161 9003.1650012 8842.7251814 7696.2475262 7766.0593262 8002.9042087
          8119.1146486 8190.6166095 9544.5623006 12806.460645 8625.7117752 10548.698353
          15473.427398 11958.047131 12808.003575 11399.960053 11940.295156 11072.733651
          12390.817036 16302.00447 16364.548881 16256.851073 17047.675016 16131.853634
          15827.442577 15978.642504 15409.564323 15911.220352 15762.342429 16199.85016
          16206.88894 16026.042968 4104.0670037 4579.4645104 4901.7444326 5181.3385191
          12948.835666 5326.402408 4880.2290746 4833.4818325 12183.689974 5605.4033725
          4106.5457926 1860.8163957 4668.5209727 5407.0486391 5623.1030109 4087.1802623
          3466.203754 7086.0146762 6943.7441978 5774.688936 6246.6637235 10955.736274
          15897.284682 8160.6471124 7965.8104913 8751.7529178 7561.6525472 5215.0146038
          6876.3767234 9142.6240727 7049.2897505 12058.636228 8456.1183058 12178.968766
          13449.251783 8201.072423 7900.0433395 8615.3044573 7371.4826979 10790.05753
          8993.9328891 12325.775539 7921.9772294 5327.0810904 7947.4000457 13909.27425
          13553.808686 12837.008993 12994.275871 2189.7999812 2431.9876418 5986.257063
          2998.3531946 2681.9634217 2897.7310023 4846.3134179 2839.0262893 3976.7229135
          4874.4210232 17166.930283 16847.88187 17237.673608 17322.997574 17813.549856
          18349.812524 18915.876117 17979.821056 2509.4998897 1697.2285451 6490.2409152
          6088.6408144 5441.3522763 5414.8795 5700.487733 4558.36836 3237.7913168
          5856.1757353 4637.0248172 4176.681882 4639.833458 5103.6525086 4344.3716233
          4094.5103474 11029.60027 10623.938656 12273.247783 10984.452505 10713.521185
          11295.243209 12161.828275 8892.7507781 8986.9206701 8852.5186395 9501.8691809
          6309.8546275 3427.2384209 3359.6632868 4173.7890478 3192.5954436 4545.332306
          7126.0226792 4556.6866359 5028.1998155 4439.5537713 4724.1689582 3488.3400826
          3360.3383445 4553.5057074 12383.473633 9020.119407 7711.1592946 7833.3438735
          7763.5687819 7461.8202549 7329.2897338 7658.0929976 7821.4480866 8601.5147759
          9648.7757499 9453.2412875 5048.1394414 12492.996889 9854.6605535 9442.1261025
          9808.6515464 10402.966003 10203.26619 10982.900897 8286.628578 5870.6163888
          9381.3699139 6147.8744903 5864.0189009 6288.9504605 5646.1457545 5046.8355472
          6227.7543473 6455.2525511 13985.256691 13014.589279 6251.7525702 12866.919861
          8108.5664179 6993.0230593 6611.2229912 2392.4096034 4525.8445023 1566.5982387
          2560.6913901 14812.495194 15314.089044 16242.3137 4756.1189304 5195.2867344
          5794.3539205 6404.8504727 12925.555765 12580.662215 4473.8070807 4781.3327977
          8423.166138 7906.5365489 10283.361257 12122.91749 9878.0122694 11873.972624
          11479.568186 13075.7797 13601.360484 12468.313348 12848.963774 16471.902704
          21512.420676 23104.390174 23118.307577 18745.134262 18797.066899 18448.484011
          19120.542207 9290.0932258 5848.6066988 5256.8050622 5509.7277887 4426.4865198
          7391.0733949 7478.0342081 11976.289792 12465.121517 5808.3396813 5294.8742716
          5953.1404655 5863.0597336 12236.601697 6063.3532979 7084.0364621 6987.5989253
          8461.1386245 9986.6013967 10662.576776 10726.225304 6703.5713577 9973.4172803
          7147.52399 6542.2940632 7041.1035904 6802.1241343 16098.379124 16199.701614
          14858.657283 14573.94343 14929.451449 14674.095676 15326.03419 14046.041076
          10104.196083 13677.663347 13728.612285 12167.032064 11698.11024 10856.05167
          8136.9477129 10842.279022 6826.7465097 6223.0853584 7990.4280847 13336.481553
          13096.165485 13303.413833 6548.8359376 14334.251519 2509.3698709 14484.878874
          12638.715217 12011.841597 13451.147057 14447.454331 5594.0668591 5931.7933397
          4360.1958467 2722.6637946 2211.6040641 2362.2158836 3163.3635764 2278.2352279
          2007.189907 10212.644641 6661.9565902 6923.3024023 7031.0915201 15284.506612
          15179.576272 15135.827795 14904.38528 15029.292718 15090.437985 15289.750171
          15381.611086 7157.7024269 8137.5357588 5121.8520135 8614.5306006 12755.159275
          2420.6886245 2861.6881974 4873.3904705 3164.3094077 2686.2489612 6711.5270719
          6625.0434822 7619.2928974 8356.6293663 8635.5738763 4126.2044953 11385.898744
          11311.903517 9940.9174921 7143.7252855 4003.7719942 5879.336155 7011.5526274
          5880.1119339 7800.6828712 7045.8347488 5602.2604499 4504.9936309 8724.7405909
          9203.4113204 7706.7531208 6290.3091349 6909.1529351 6049.213831 9224.1038247
          11153.124743 5777.3096439 10392.294591 9382.1647144 9240.7457445 5991.4876551
          6613.5654281 7628.1614833 11039.357792 12041.862203 12008.03012 11861.412532
          11472.786998 10978.639145 11146.675637 11015.497714 11191.445333 4813.3090877
          3644.8676736 4437.0551552 4719.5093464 9984.4815638 3660.716015 3633.4103913
          10156.015519 5469.4350245 12067.803313 9883.9266436 10068.695984 10805.705654
          12148.583851 11265.06056 11751.039952 12495.097007 13123.630231 4305.5064556
          11349.425521 9824.4949299 9742.6132603 10548.461928 16437.714306 16437.306366
          16318.477116 10037.492161 9470.5916953 9584.2376533 4735.9524533 7781.8708281
          4601.3815441 7270.9197268 16184.421255 9117.0768976 11950.23844 10670.966289
          10010.464743 13399.435559 9405.7105491 8939.6402178 4948.6946193 9929.2457475
          8004.8362108 5116.4843734 4428.7136949 7857.418762 7952.265886 9941.952274
          7646.4434451 7762.3781099 7432.2334535 8626.6990381 11465.338095 4157.0830711
          12727.403113 7602.4870379 6873.2130785 9222.8711127 7736.9983925 8664.3920203
          7559.5005124 6242.5618086 6955.2846243 8868.5862715 9549.7786986 10950.459441
          9958.0684431 10400.020714 9768.4792178 9185.3782722 8932.0193504 13107.644326
          12604.210378 12211.220089 12287.733964 6722.8264416 6344.9692015 14530.350967
          6903.325623 12072.2505 12378.502357 12543.06996 13808.795018 15689.213597
          9820.0092974 9195.027893 10635.358945 4324.9001506 4664.2868527 3791.3297164
          3249.3787004 4141.293407 6931.5740989 4764.7211765 6191.2443188 2953.1077359
          3417.0383712 7605.2775998 7223.3160489 8092.2162985 9189.8133338 8812.5054225
          8472.7355447 8407.1407523 8040.3300983 9998.1157174 10480.630279 12173.586248
          14023.19848 14241.332276 14728.03894 14836.027522 10317.977885 9108.8854175
          19135.903238 23144.601477 11413.392574 7098.8431276 10049.891537 10077.596139
          14599.688455 1580.7244288 2381.4981808 2842.0632539 4330.8983996 5698.7212163
          4893.715019 7258.0913626 7352.0307046 7020.9455218 5959.4615193 2848.5016488
          3256.7263747 3836.3165359 2740.34139 3792.5338111 3310.5581557 3290.1648982
          19399.837065 18143.419871 14209.208327 20966.095661 29319.195373 7304.3918531
          9783.9251028 16099.348105 15967.242363 9892.8643692 9937.6863613 4149.0758665
          15319.070945 4081.8169513 11201.227339 11275.160018 13205.316219 14830.128906
          14474.167073 12490.454184 15437.260473 5307.1806241 15504.882662 14622.525036
          14189.744055 14190.555942 7345.1063744 15926.283079 15643.286384 7626.8708595
          15261.371734 16006.717867 16134.895451 9048.5664331 14060.727643 8280.0350333
          9121.8702265 15900.962985 16363.519548 5962.751892 6132.9291087 5815.490407
          11551.760995 11919.492523 5759.53644 11696.883311 11367.102962 6264.7677661
          5990.722869 5738.1031271 11087.019477 16067.661476 15850.37765 16200.722471
          15775.367308 9222.6230178 15876.332009 15561.739042 15569.467193 12062.89707
          6992.4092278 6740.7504059 6760.1312087 6600.4582705 6440.5230192 5973.3118426
          6138.4428925 6036.2406528 14687.173623 14685.82089 10684.300418 11044.825523
          10657.715316 10050.507119 3682.4975061 3243.3207902 5498.7100084 5298.4875331
          5391.1322436 15276.390939 15253.42683 15915.007458 15507.400127 15582.740108
          15754.839687 15351.046762 15399.338956 8069.3364906 7990.4254624 7685.3418579
          6845.0077504 6879.2241978 7659.3396634 7739.658685 7820.1199006 12015.682904
          5912.0493282 6147.4988275 12059.631284 11727.891453 12099.306616 4369.5101146
          12758.6344 12017.24428 12861.35975 2052.9000681 2605.9636468 2627.5220423
          2697.7364924 3173.9869409 7171.8994094 14439.542455 9275.8635414 7128.0564452
          4398.3264562 4157.4865376 13047.50371 5282.2019381 4107.2795497 4015.1771313
          3896.0620507 3634.9663325 13328.505452 12649.119592 13444.128486 13531.914159
          15110.584292 14911.926873 15637.287209 12868.571978 11879.879791 12277.505461
          11986.72898 11867.002268 12231.047599 12147.900715 11821.434078 12007.545465
          11883.571398 13024.111426 14117.052133 13932.008951 13569.92387 13794.873647
          13021.946048 12333.250787 12674.776013 13091.514439 12789.96687 12373.52556
          5100.9234226 4588.6580481 5990.6998633 5862.3643442 5805.3707487 5355.5176671
          15979.245956 15694.320288 15528.400794 5416.2249197 15730.776668 15208.985919
          16022.939362 14046.139222 8527.5419363 7461.8424373 5731.6654888 7981.4719182
          8183.4008527 14875.693082 8030.9170106 7904.5276694 7690.7404221 8332.0376428
          6466.2776945 8770.4275848 6596.9246105 3704.4347324 8741.7147245 6486.6398564
          5446.1509921 2444.5344934 6471.1210273 8319.4484253 6885.6373277 8835.0379012
          14862.931154 14963.323445 9243.9153404 20231.536274 17819.872613 6681.8497814
          3719.7087381 17617.724859 18047.964114 9274.1692721 2615.3404734 2927.4958478
          3033.8482324 4788.5036036 5844.5867046 1853.7622655 3302.7966763 4166.8443606
          4493.8637223 5716.5421038 7004.3529734 11197.365817 9342.8988385 14813.614226
          14463.717749 14478.321118 14192.502501 14052.094385 14335.271442 14477.349979
          14041.231581 14609.105533 15397.198996 14627.085967 15362.90799 6657.5095168
          5689.6455499 7686.5457786 15140.874255 15131.898092 14673.92288 14674.228458
          14750.695092 15542.311403 14883.519624 14388.774098 14809.186924 19718.411738
          15521.821389 12634.846243 17552.703905 9119.4880954 10361.116654 10879.731653
          10283.892329 6893.3073091 4983.3028793 8698.7792194 10100.830743 10368.741837
          9329.3743386 8512.2840296 17072.268532 15693.67413 13304.487988 5982.9479054
          9711.7804586 11358.440461 15688.984289 10893.842023 7438.1431921 6648.6450088
          15767.333678 15082.390085 15127.901495 15216.022269 15721.731301 16416.954876
          16538.403946 16932.698398 10696.914891 12581.168952 12597.521469 13572.642547
          13535.339597 13063.194103 13613.161187 13356.532316 14074.899941 13877.873037
          11946.198812 12899.391784 11435.374783 2504.9742822 6689.3806094 5624.9765065
          5457.9738907 6382.2342343 4062.8595565 12989.461764 9089.1078971 2836.1781886
          4002.2242461 5242.3130908 2883.4816755 3099.4806935 2983.6394333 3733.1803308
          3100.5262222 14632.97694 12883.6176 12742.809264 12731.78892 13034.450241
          12658.73211 12919.876606 13709.990826 13347.258076 17069.994026 13482.039781
          12783.602642 12494.398191 12602.526191 12299.78867 12641.025287 12396.273833
          12390.364442 10585.09099 7783.9138419 9989.9356915 9199.3724191 6891.3475272
          5575.8469194 2354.0503347 4658.0251373 4534.900003 6586.7955187 3998.1356643
          11836.85518 10967.603168 14054.423211 14562.994782 13818.019547 12437.589341
          8728.6862422 12177.409258 12198.915051 9881.452044 10969.254207 15872.980696
          6986.8819043 15249.923865 13299.408956 10515.590128 10149.09492 13997.139988
          14317.998144 14895.236258 14935.351283 5997.3742082 6914.040921 8395.9907118
          4326.4852563 5303.1053019 8836.6567156 12009.917046 14780.116641 8602.9453272
          9426.2150954 14456.092741 13189.142176 11090.24278 12064.240623 12269.142521
          13546.612696 12801.393199 13469.72699 13631.286878 13618.778454 31573.891169
          17499.692225 15604.59376 15632.212566 14871.43736 14883.130963 5721.3821902
          4366.7498776 4654.2219351 4890.9171743 4922.8769277 5561.0072403 5736.8168142
          10777.976581 11333.829709 12318.636663 11268.017698 11331.47364 10641.081935
          9286.4205837 10223.398261 7213.0008979 9557.1573285 12988.862689 7096.4132872
          20199.801815 16272.727472 32982.144097 11444.869405 7322.4573111 3376.00988
          5036.6484396 5741.8455175 2081.6656273 10855.595334 12145.837124 12424.460115
          9300.2341063 9447.9641841 6859.0812151 16724.52436 7240.8938411 9117.7161394
          14200.251631 16627.001639 13729.027721 9034.9226511 9848.8567591 10816.126965
          16195.495167 16427.769208 14648.408119 3819.6388428 2338.012741 3569.5599108
          3593.3196692 3483.6085517 9430.5794154 9736.7082045 9022.2187777 9852.2058497
          10060.258904 10011.553841 9384.1703265 9527.4069952 8936.7411339 3653.0571838
          4503.7573944 5544.7566309 14473.795519 8983.9608734 7611.2720642 4404.2019689
          8978.2621897 7176.3498816 10110.967075 9813.4313188 8962.384269 8923.0040383
          9514.9462134 6749.2752468 6561.7254438 6714.918382 7104.3148871 8653.0703281
          9134.5589412 10104.803987 11646.244422 11085.970003 8798.4434974 8290.4206184
          8645.479826 13605.379471 9946.0433661 9958.2094868 10254.602185 12913.334089
          13044.118125 13404.847935 13720.342888 13472.893436 7432.4052602 7491.6944059
          6522.8818683 6703.2941087 8717.9738386 8663.859883 9223.2694833 10148.11204
          6991.1425465 3878.2458936 6878.2526671 7239.5150484 6932.3783074 5859.7874635
          2617.2492144 6212.3087796 9211.8892845 8977.8810899 8760.5100911 14781.100288
          9733.3338119 14158.070371 14171.261084 14577.694804 14344.738024 14539.882675
          14383.953076 14682.583928 14809.524067 3980.2940839 3802.2660328 3825.6546594
          5553.7475292 11073.643357 7439.1326155 5102.80832 4569.4243734 4622.8472698
          4122.3680372 5488.9031127 17216.077211 17567.145832 17585.605646 5914.1455861
          5512.2597102 5402.7752812 5056.7533616 4773.1287911 4962.7493813 5769.2045483
          3440.6218982 4192.3176152 10241.132276 10014.351029 10120.81219 8566.3093712
          8545.3592379 3895.1382002 3888.6350283 2786.8923223 2203.4206488 1915.6013615
          2543.8683186 1984.117408 3413.8589592 5349.5455958 4858.2733399 5354.0606961
          7102.8627287 5971.8605645 5521.7440645 5495.3755267 11612.347426 12246.188697
          4360.1712512 4617.856797 6447.0361852 13101.424837 16329.756915 13606.59283
          13326.933864 13837.644631 14054.09351 14219.77401 14042.921159 13027.871419
          3587.6980876 14432.075112 13252.97698 14361.082684 3386.2862766 3994.9945852
          2884.3494613 3266.915684 2933.4345092 3393.9032583 3660.5687151 3852.516109
          3389.0116194 3207.5348585 2632.9605266 2081.1423104 3962.9003432 4171.5033522
          4750.6286455 4285.3884018 3386.6797055 2964.4781862 3144.9904606 3097.9479151
          7569.31395 7640.6052307 7487.4000541 8254.1548348 8891.6593807 7753.2676608
          7054.7824816 6904.4305951 7262.7748879 6789.3085067 7492.5210485 8722.6285484
          8173.4057735 2520.0282662 1831.7036318 2312.8071156 2540.2071693 3759.5842265
          5703.0982577 3883.6614718 4374.6988625 2501.2039822 2398.3281117 2925.9667071
          9015.3714194 7736.4334062 7660.8743971 8098.5531285 8966.9768177 8558.0398178
          7860.6073894 8653.4465128 8396.7468646 8268.0244847 8311.7120056 8253.3361737
          7599.8865898 7150.9030265 6476.8287888 4887.0374072 6184.9081681 7348.7719536
          7637.9318866 7626.0460776 10915.182976 6384.3108812 7029.9531927 6806.9817355
          8629.3944212 8604.9091418 6101.3024719 6039.3066758 6408.3018907 5678.9500195
          5858.0292205 6851.5305836 5871.9574495 12488.88461 5214.9008685 13644.699252
          13584.45018 13245.330863 4955.3699787 6605.0392767 12682.090295 4945.8607851
          5151.8347472 5741.1172001 3289.5631592 2564.415267 3060.160351 4566.1513125
          4847.7686017 5342.9548054 6860.7857973 4927.7781969 8987.760562 5837.7876122
          10158.233395 9633.651532 10265.545154 10399.476739 7156.2648176 7555.8553609
          7601.1676311 7529.7274498 8059.582822 7304.5165006 6304.6099341 5970.0180432
          2472.2370888 4003.6687769 8120.5602517 5104.3393682 5032.1576867 6325.6433443
          5443.1850414 6049.5314935 5660.8115131 5698.9673587 6066.5468217 8948.5346964
          7000.0058369 7435.2885122 6983.7764827 5781.6009473 13640.915081 13190.067914
          13320.928408 12800.862647 12829.058226 12793.108434 12803.159617 12715.028695
          13413.220683 8189.069098 5666.3249249 5395.9159197 4895.0448439 4922.9648321
          5614.526311 6387.5989347 6650.0859498 6115.9740426 5934.8486439 8540.0806505
          8497.8542505 8128.1217153 8973.1341207 8559.45164 8770.3179712 9684.3845366
          7744.8887007 7496.3618446 8083.743671 14255.640306 11907.665762 11475.836794
          11044.760219 10131.41169 8450.002364 10766.893413 11020.721951 13620.840969
          11226.390848 11071.721442 10875.182575 11636.582367 7549.9530311 7725.1794528
          9130.2637276 11843.018509 11596.79678 11796.170206 10068.162253 8888.5103273
          11782.7185 5002.8702779 3955.9824145 4133.1882447 4839.2459603 4996.3985233
          4816.6738864 13752.912597 13642.91713 13214.276764 13599.212375 13172.462148
          12866.607177 17464.829029 12962.13511 10053.419174 10105.390089 8282.756107
          7857.4239668 7734.8481985 6799.2348304 6180.8052727 9438.1246053 10133.51632
          12418.957418 10518.856317 10181.910834 10789.865369 5642.5581614 5503.8663605
          7115.2383797 5073.8571671 3600.248374 2294.825907 3131.7357067 7446.8548999
          7268.2694683 7097.1959322 6980.3630512 7198.9441752 6487.2215508 6354.9065188
          6717.0443001 6684.3765046 6697.9554878 6080.2576324 6505.1259563 6494.352371
          6977.0863644 6788.3617321 6217.2808294 5759.9925205 6568.7798722 6675.6666105
          6653.303592 7505.8825386 7033.6380863 6448.9787621 6508.7470662 6418.6549887
          6539.3964019 12587.923217 12482.753473 12445.123659 12515.909281 14340.206868
          14595.259283 14430.618017 14234.049325 13337.103976 14737.388947 14124.305999
          13765.063829 13933.040554 14362.456921 15993.384521 16212.056482 15834.250956
          15791.477202 16170.942787 16443.308075 15836.270721 15955.141877 15732.311956
          16475.63096 15913.103612 16188.718996 16286.126631 9630.6091024 5855.7951964
          7427.2657336 7232.2916591 4981.2750049 6304.0559654 9693.5871514 7423.3577333
          10282.557346 6850.4950624 6652.7064378 5936.6004321 6403.3811205 9294.0695005
          5682.3634318 5980.9178308 7112.1812595 8102.5032945 6487.0146446 7046.8499794
          8934.541954 16842.419897 3510.2615041 3363.6439111 4317.2829923 8245.6693882
          9449.647707 7088.4840752 5404.4476782 4856.3431893 3173.1933691 13422.07291
          11213.328536 7876.7035251 8261.5123096 7370.7275347 11641.495678 9177.6128281
          9571.2182934 9851.959818 11202.786957 11425.285577 13328.88949 13614.275577
          8102.7376386 8617.47602 9096.0156865 8774.4481756 6801.734486 10492.696603
          10523.390913 10817.873616 10629.057699 12415.302813 12128.057664 11050.120075
          12656.507826 12693.123636 13253.549464 13551.93417 13183.75456 13937.371725
          14018.856667 14584.942109 14137.001078 13880.075723 14438.264095 14336.165515
          13867.040464 4370.5041935 4126.5265532 6128.2788581 6114.4364409 6490.9023134
          6772.1087742
        </DataArray>
      </CellData>
      <Points>
        <DataArray type="Float32" Name="Points" NumberOfComponents="3" format="ascii" RangeMin="0.072268766002" RangeMax="5.3679323258">
          2.9183690548 -0.10514099896 0.18946899474 2.9301850796 -0.41978639364 0.12177300453
          2.7572391033 -0.22472290695 -0.032116010785 2.6479671001 -0.18968589604 0.18436330557
          0.32533699274 0.30109125376 -0.45768621564 0.49993100762 0.0054506729357 -0.41626721621
          0.25168299675 0.024994578212 -0.46399909258 0.33304131031 0.20393286645 -0.24557299912
          -0.8307570219 -0.058059498668 -0.35817700624 -0.76909697056 -0.29619181156 -0.33838999271
          -0.6087269187 0.024860799313 -0.30977600813 -0.63126498461 -0.15162830055 -0.47663301229
          -0.18109099567 0.051842641085 -1.0570659637 -0.31712800264 -0.025899430737 -0.85415101051
          -0.29308599234 -0.22735399008 -1.0733640194 -0.3908880055 0.018037790433 -1.0773969889
          1.3978904486 -0.12460799515 0.020671008155 1.7837769985 -0.11298939586 0.15795660019
          1.6362780333 -0.19434309006 -0.1196873039 1.5581665039 -0.242820099 0.18669840693
          -2.1267375946 -0.28440442681 -0.5801320076 -2.1830513477 -0.50529420376 -0.71057498455
          -2.2481837273 -0.50829571486 -0.4661166966 -1.9995814562 -0.50839465857 -0.5625320673
          2.4447433949 0.34735611081 0.78896600008 2.3064310551 0.54786038399 0.58645904064
          2.4725689888 0.38891109824 0.53518199921 2.5429031849 0.55357050896 0.69124501944
          4.9471430779 0.61130398512 0.85095900297 4.7051949501 0.60293000937 1.1564450264
          4.9242591858 0.60738301277 1.1569290161 4.7970080376 0.40450099111 0.99685043097
          4.2345128059 0.15581940114 1.1804380417 4.0558829308 0.27783259749 1.3923959732
          4.2713618279 0.37677168846 1.2242929935 4.2366080284 0.27729278803 1.4644019604
          -3.1450257301 -0.19032800198 -0.44944301248 -3.0045845509 -0.31262481213 -0.59387999773
          -3.1707112789 -0.50821882486 -0.61334198713 -3.1325054169 -0.50747013092 -0.43627199531
          0.74646031857 0.32201400399 -0.03702198714 0.66463452578 0.50741457939 -0.17443799973
          0.64910101891 0.50723767281 0.064737014472 0.51253330708 0.2876406908 -0.10298900306
          -4.7578840256 0.28817969561 -0.030578099191 -4.4985280037 0.48879349232 -0.082372002304
          -4.5292730331 0.2915058732 0.031001500785 -4.6132879257 0.48546689749 0.14135861397
          -1.7018979788 0.48639988899 -0.31914901733 -1.9025046825 0.29032579064 -0.52002221346
          -1.7097920179 0.31207630038 -0.45334500074 -1.9671391249 0.48218691349 -0.52298557758
          4.3505711555 0.60127097368 0.76294797659 4.2772049904 0.36336359382 0.94083797932
          4.548661232 0.31044599414 0.7846570015 4.4798941612 0.42885500193 0.6264359951
          1.5581665039 -0.242820099 0.18669840693 1.3978904486 -0.12460799515 0.020671008155
          1.7837769985 -0.11298939586 0.15795660019 1.5601570606 0.064071901143 0.17068810761
          -3.9980287552 -0.32266074419 -0.13652320206 -4.1002011299 -0.31287899613 -0.40952581167
          -4.2235832214 -0.18397390842 -0.2816118896 -4.2165794373 -0.29792863131 -0.10957739502
          4.0834741592 -0.21439018846 0.53021103144 4.0511579514 -0.20270109177 0.7991797924
          3.9133279324 -0.075963594019 0.57894998789 4.2261519432 -0.095267094672 0.65937298536
          0.81277400255 -0.48748779297 -0.2579177916 0.67708927393 -0.18054930866 -0.18623100221
          0.63634902239 -0.49167880416 -0.31372991204 0.73383498192 -0.30438300967 -0.4254899919
          1.3097800016 -0.27519398928 -0.1584803015 1.4941439629 -0.30191999674 -0.0081950007007
          1.4299919605 -0.4650863111 -0.25022679567 1.3789390326 -0.47327530384 -0.003226995701
          -0.081785798073 -0.18698275089 -0.35594800115 -0.062883600593 -0.026130199432 -0.024199999869
          0.098207399249 -0.032019931823 -0.19597899914 0.071282997727 -0.17594109476 -0.0039079999551
          3.0206739902 0.45230871439 -0.12432000041 2.7448999882 0.34383347631 0.0055840001442
          3.1546220779 0.28414210677 -0.077771998942 2.8420228958 0.24354210496 -0.20201000571
          -2.4720232487 0.27283710241 -0.72016400099 -2.6538431644 0.18475399911 -0.59675198793
          -2.6349360943 0.29374942183 -0.88281100988 -2.8207395077 0.30260008574 -0.65172201395
          0.43230000138 -0.066396504641 -0.95820701122 0.20461019874 -0.067686937749 -1.0017780066
          0.36064499617 -0.039502311498 -0.75520098209 0.31595930457 -0.22976750135 -0.98769599199
          0.87983602285 -0.093330197036 -0.22511909902 0.73383498192 -0.30438300967 -0.4254899919
          0.87655997276 -0.11350530386 -0.45971497893 0.7164170146 -0.01385910064 -0.332908988
          3.9359619617 0.090236805379 1.1565029621 3.8712925911 0.060066998005 1.3235830069
          3.7523159981 -0.085600093007 1.2815630436 3.7040190697 0.031617399305 1.0519629717
          1.1952601671 -0.29477098584 0.064541012049 1.3097800016 -0.27519398928 -0.1584803015
          1.178434968 -0.4816032052 0.03579299897 1.3789390326 -0.47327530384 -0.003226995701
          -1.0361119509 0.21812960505 -0.37398898602 -1.1287009716 0.49046784639 -0.31941500306
          -1.0550040007 0.40813687444 -0.10020700097 -1.2542339563 0.29450172186 -0.30690699816
          -2.3831439018 0.30391207337 -0.93155002594 -2.6349360943 0.29374942183 -0.88281100988
          -2.4720232487 0.27283710241 -0.72016400099 -2.4843699932 0.064298801124 -0.91173398495
          -1.0108540058 -0.22747680545 -0.36507099867 -1.0780789852 -0.26223245263 -0.61954492331
          -0.99892598391 -0.51049762964 -0.55400800705 -0.83050501347 -0.26468807459 -0.57061237097
          -4.1561627388 -0.30235728621 0.4173707962 -4.4515519142 -0.45291829109 0.45512139797
          -4.0673441887 -0.49335995317 0.36177811027 -4.3543543816 -0.49132984877 0.25861698389
          3.3624682426 -0.19947208464 0.94604200125 3.2812619209 -0.41720849276 0.63608801365
          3.3867809772 -0.23781871796 0.5709104538 3.3097200394 -0.10290320963 0.73021501303
          0.82692998648 -0.47690171003 -0.55843901634 0.9440330267 -0.47934010625 -0.38176751137
          0.81277400255 -0.48748779297 -0.2579177916 0.73383498192 -0.30438300967 -0.4254899919
          0.56008797884 0.052585806698 -0.68334698677 0.49993100762 0.0054506729357 -0.41626721621
          0.6582840085 -0.086143799126 -0.53992497921 0.4496409893 -0.20598120987 -0.64667701721
          -0.62441599369 0.23691308498 -1.0922019482 -0.81324702501 0.26146668196 -0.86965799332
          -0.50009101629 0.076063752174 -0.91057896614 -0.78103899956 0.039071749896 -1.0954949856
          -2.8014369011 -0.27421984076 -0.022419007495 -2.8796532154 -0.32189744711 -0.3305183053
          -2.8594679832 -0.50669443607 -0.096579000354 -2.7347252369 -0.50761651993 -0.30021220446
          4.9991178513 0.039471499622 1.0460796356 5.0286197662 0.27560698986 1.0374772549
          4.8725390434 0.29623439908 1.2086399794 4.7789177895 0.14037750661 0.96490341425
          -1.596382618 -0.17736847699 -1.051363945 -1.4744634628 -0.41700416803 -1.0684100389
          -1.5961900949 -0.24007625878 -0.77421802282 -1.3467004299 -0.27448686957 -1.0782300234
          0.56008797884 0.052585806698 -0.68334698677 0.76200997829 0.19809819758 -0.53690600395
          0.52244597673 0.28034487367 -0.58197897673 0.70296800137 0.32958817482 -0.69135397673
          5.0362038612 -0.1984565109 1.0518586636 5.2391929626 -0.046786397696 1.0306526423
          5.1633911133 -0.40683791041 0.92723697424 5.2039008141 -0.31573709846 1.1745685339
          4.372276783 -0.18564900756 1.2451930046 4.4337921143 0.1125216037 1.254134059
          4.4053249359 -0.07816299051 1.462864995 4.2263350487 -0.055008299649 1.4182280302
          -4.0447149277 -0.49747499824 0.14612358809 -3.8215641975 -0.23188085854 0.091413997114
          -4.0265545845 -0.28167268634 0.21848671138 -3.9980287552 -0.32266074419 -0.13652320206
          0.20165160298 -0.28208371997 -0.78509497643 0.066189996898 -0.13907346129 -0.85989201069
          0.13293649256 -0.12217481434 -0.6249139905 -0.055491000414 -0.26846665144 -0.58021008968
          1.7837769985 -0.11298939586 0.15795660019 1.9838659763 -0.058840800077 0.22020068765
          1.912476182 -0.21805660427 0.34040221572 1.7636737823 0.046389199793 0.32517156005
          3.4191789627 0.57933980227 0.56054317951 3.0461831093 0.56736302376 0.63019996881
          3.2744851112 0.38130360842 0.56395947933 3.1758000851 0.57594889402 0.29714500904
          0.44702979922 0.50523287058 -0.018845997751 0.31266918778 0.50222033262 -0.13974998891
          0.34905490279 0.20103774965 0.07488899678 0.51253330708 0.2876406908 -0.10298900306
          -2.3400249481 -0.19343669713 -0.23309500515 -2.4908249378 0.11884979904 -0.11749400944
          -2.5937309265 -0.094380997121 -0.091197997332 -2.5705890656 -0.0096552502364 -0.37767747045
          -2.8009653091 0.022092198953 -0.32149419188 -2.6538431644 0.18475399911 -0.59675198793
          -2.7821593285 0.30021998286 -0.44675600529 -2.9424054623 0.1131972 -0.47736001015
          -1.7018979788 0.48639988899 -0.31914901733 -1.8419760466 0.17466241121 -0.33885499835
          -1.684795022 0.12831169367 -0.21073399484 -1.7097920179 0.31207630038 -0.45334500074
          2.7912619114 0.22470119596 0.5612180233 2.6809933186 0.045304298401 0.64524197578
          2.5975399017 0.036539699882 0.30856120586 2.5117163658 0.16574789584 0.5378869772
          -3.5198493004 0.28535220027 -0.20457419753 -3.6321229935 0.48460400105 -0.30110099912
          -3.71869874 0.25738021731 -0.13884219527 -3.6243565083 0.17590141296 -0.3374350071
          -2.2434971333 -0.063827201724 -0.95553797483 -2.2304649353 -0.22556725144 -0.77245599031
          -2.1201012135 -0.050273101777 -0.70986998081 -2.0257306099 -0.031649298966 -0.9920539856
          0.18558773398 0.49153119326 -0.87829899788 0.073762997985 0.35499945283 -1.0218420029
          -0.10962300003 0.48779779673 -0.82918798923 -0.091403998435 0.28790903091 -0.89287102222
          -1.9761929512 -0.084401905537 0.01688499935 -2.0529088974 0.052241001278 -0.20910900831
          -2.1631000042 -0.090172797441 0.050840999931 -2.0592620373 -0.25566390157 -0.23402400315
          1.655272007 0.093524098396 -0.11352000386 1.8510379791 0.076726302505 -0.29504978657
          1.8809980154 0.037144001573 -0.0096619697288 1.9772109985 0.2443075031 -0.15706959367
          -3.9273982048 0.42422729731 -0.62899297476 -3.687541008 0.43435680866 -0.67268902063
          -3.7273154259 0.27898979187 -0.49260097742 -3.7656788826 0.48673638701 -0.49626898766
          -2.0592620373 -0.25566390157 -0.23402400315 -2.1005930901 -0.28334778547 0.038400001824
          -1.9509960413 -0.51507622004 -0.028830006719 -2.2283110619 -0.34106051922 -0.12456599623
          -1.2542339563 0.29450172186 -0.30690699816 -1.4487729073 0.26224949956 -0.55564618111
          -1.293176055 0.1205618009 -0.45924699306 -1.2275027037 0.26585769653 -0.64385217428
          -0.49614500999 -0.18467617035 -0.78485298157 -0.70339399576 -0.074503429234 -0.67528831959
          -0.51164197922 0.025980791077 -0.55774062872 -0.42318299413 -0.15868732333 -0.55037420988
          -2.5874330997 -0.50843310356 -0.077546991408 -2.8014369011 -0.27421984076 -0.022419007495
          -2.8594679832 -0.50669443607 -0.096579000354 -2.7347252369 -0.50761651993 -0.30021220446
          4.9800801277 0.31590399146 0.82129001617 5.0286197662 0.27560698986 1.0374772549
          4.9991178513 0.039471499622 1.0460796356 4.7789177895 0.14037750661 0.96490341425
          -3.4454441071 0.45380440354 -0.71922898293 -3.2531692982 0.48335590959 -0.6420429945
          -3.2644114494 0.48313009739 -0.43453800678 -3.5693891048 0.4848459959 -0.46422702074
          -1.8079010248 -0.20703689754 -0.34597599506 -1.8747121096 0.0029144007713 -0.49748280644
          -2.0975265503 -0.075285196304 -0.43518251181 -1.9710366726 -0.33433938026 -0.42893758416
          -2.1485760212 0.26226508617 -0.74843597412 -2.188603878 0.16068729758 -0.96540898085
          -2.0292806625 0.11994799972 -0.99204802513 -1.9643406868 0.25973030925 -1.0027730465
          -0.64104998112 -0.30240130424 -0.9189350009 -0.74040699005 -0.49768507481 -0.86798501015
          -0.67207598686 -0.50358366966 -0.68930828571 -0.47170200944 -0.50193786621 -0.68685621023
          0.79302960634 -0.29305431247 -0.039216998965 0.67708927393 -0.18054930866 -0.18623100221
          0.81067937613 -0.037577752024 -0.03468298912 0.68674623966 -0.13471266627 0.16325600445
          -2.5996620655 -0.2836445868 0.13820500672 -2.6173989773 -0.49825462699 0.14134299755
          -2.4840130806 -0.30007189512 -0.074917010963 -2.5874330997 -0.50843310356 -0.077546991408
          -2.9013741016 -0.1873832345 0.19913700223 -3.0995531082 -0.23698805273 0.23871299624
          -2.9620211124 -0.34429514408 0.21156999469 -3.0159440041 -0.32825475931 -0.049925994128
          -3.5523664951 0.0045121996664 -0.18042999506 -3.8043015003 -0.00087310036179 -0.39245098829
          -3.8473057747 -0.00070657959441 -0.13606338203 -3.5914151669 -0.15871548653 -0.36829999089
          2.0660989285 -0.22966709733 0.14300569892 2.1862559319 -0.44939181209 0.30064499378
          2.3360071182 -0.43899869919 0.085661202669 1.9601919651 -0.45431318879 0.13470560312
          4.7225232124 0.21502579749 1.4921859503 4.7499132156 0.39788281918 1.4921859503
          4.8725390434 0.29623439908 1.2086399794 4.9263429642 0.33198681474 1.4921859503
          -1.8008160591 -0.23927970231 -0.014976000413 -1.8710329533 -0.32551139593 -0.18849799037
          -1.8079010248 -0.20703689754 -0.34597599506 -1.8348480463 -0.01922108978 -0.21806798875
          -4.2873783112 -0.33291450143 -0.56937742233 -4.1002011299 -0.31287899613 -0.40952581167
          -4.1405329704 -0.51005542278 -0.4925802052 -4.2843179703 -0.50610029697 -0.3169965148
          -4.7949709892 -0.27444934845 -0.028330069035 -4.9758749008 -0.49966689944 -0.16735000908
          -5 -0.39700898528 0.035171099007 -4.7671570778 -0.49938252568 -0.076874218881
          -0.17038999498 0.33329957724 -0.6997410059 -0.17106099427 0.49157705903 -0.57271128893
          -0.35219299793 0.31618493795 -0.60427820683 -0.3020440042 0.48588180542 -0.73787802458
          1.7636737823 0.046389199793 0.32517156005 1.6243675947 -0.24140480161 0.4665620923
          1.7837769985 -0.11298939586 0.15795660019 1.5706268549 -0.052340894938 0.45530718565
          0.43729901314 0.24008713663 -0.95277100801 0.56008797884 0.052585806698 -0.68334698677
          0.63849902153 0.22250783443 -0.90636301041 0.43230000138 -0.066396504641 -0.95820701122
          2.8261909485 0.28350150585 0.9414550066 3.0184175968 0.12345609814 0.73364597559
          3.0447850227 0.06147922948 1.0241279602 3.0665662289 0.3753657043 0.82187402248
          5.1458821297 -0.319552809 1.3943560123 4.9993109703 -0.25089299679 1.5284099579
          4.8533592224 -0.39696198702 1.5024620295 4.9736399651 -0.40930470824 1.310732007
          -4.7917890549 -0.033734429628 0.26267528534 -5 0.15884299576 0.21330599487
          -4.8499131203 0.16269566119 0.48204991221 -5 0.07584580034 0.38386198878
          -0.44009780884 -0.045463498682 -0.38387098908 -0.46809598804 0.17155979574 -0.082805998623
          -0.6087269187 0.024860799313 -0.30977600813 -0.45164808631 0.18338213861 -0.40235000849
          2.5975399017 0.036539699882 0.30856120586 2.2926232815 0.21838380396 0.36620301008
          2.6138679981 0.31076711416 0.28303608298 2.5117163658 0.16574789584 0.5378869772
          1.7837769985 -0.11298939586 0.15795660019 2.0660989285 -0.22966709733 0.14300569892
          1.912476182 -0.21805660427 0.34040221572 1.9838659763 -0.058840800077 0.22020068765
          4.5186548233 -0.2072378099 0.99021959305 4.6312479973 -0.18212139606 1.2574429512
          4.7013711929 -0.40805020928 1.0405980349 4.4776749611 -0.40230458975 1.0684930086
          0.56008797884 0.052585806698 -0.68334698677 0.30108499527 0.17071788013 -0.6524900198
          0.49993100762 0.0054506729357 -0.41626721621 0.25168299675 0.024994578212 -0.46399909258
          -3.5145463943 -0.50127327442 0.11511399597 -3.5967168808 -0.45885637403 0.3317900002
          -3.4147019386 -0.30549126863 0.2988910079 -3.334307909 -0.50118452311 0.24856700003
          -0.20478600264 -0.4216414988 -1.0713649988 -0.32380700111 -0.29127669334 -0.87523800135
          -0.29308599234 -0.22735399008 -1.0733640194 -0.14045800269 -0.19142946601 -0.79101097584
          -0.14834499359 -0.49472266436 -0.76049399376 -0.33674499393 -0.49515008926 -0.82062500715
          -0.29999598861 -0.31015944481 -0.61351531744 -0.47170200944 -0.50193786621 -0.68685621023
          2.0660989285 -0.22966709733 0.14300569892 1.9601919651 -0.45431318879 0.13470560312
          2.3360071182 -0.43899869919 0.085661202669 2.0085380077 -0.44803181291 -0.051146503538
          -3.133988142 0.48230528831 -0.1387040019 -3.2902696133 0.27174562216 0.025448989123
          -3.3095912933 0.2773117125 -0.21319679916 -3.3706200123 0.48187199235 0.10127900541
          -3.3023517132 0.0064315996133 -0.24028472602 -3.5914151669 -0.15871548653 -0.36829999089
          -3.3609697819 -0.25755804777 -0.25123178959 -3.3833937645 -0.032667398453 -0.48868498206
          0.75077849627 0.37738004327 0.19743099809 0.72277122736 0.1972938925 0.1844419986
          0.74646031857 0.32201400399 -0.03702198714 0.56493777037 0.3193680346 0.1386000067
          3.6680510044 -0.16187010705 0.64812618494 3.8355340958 -0.40645951033 0.54560798407
          3.7570819855 -0.18195958436 0.41518300772 3.6210319996 -0.40883889794 0.49147000909
          3.0500233173 -0.10988160223 0.76281303167 3.0756709576 -0.422498703 0.57748502493
          3.167424202 -0.4212833941 0.82355499268 3.1153120995 -0.17042639852 0.52375102043
          4.2261519432 -0.095267094672 0.65937298536 4.0860438347 -0.014925898984 0.46736100316
          4.2723498344 0.019195003435 0.35912799835 4.1978611946 0.12986010313 0.5741019845
          1.40358603 0.24286289513 -0.3494130075 1.655272007 0.093524098396 -0.11352000386
          1.5727180243 0.33926710486 -0.070410497487 1.7200000286 0.27868279815 -0.33277949691
          4.7822642326 -0.20231451094 0.72078299522 5.1017589569 -0.19658398628 0.71833097935
          4.9700870514 -0.40666720271 0.87981498241 4.9587922096 -0.11951480061 0.84872800112
          -4.7949709892 -0.27444934845 -0.028330069035 -5 -0.39700898528 0.035171099007
          -4.8250303268 -0.49250531197 0.14701525867 -4.7671570778 -0.49938252568 -0.076874218881
          3.0461831093 0.56736302376 0.63019996881 2.9040269852 0.39754191041 0.64887100458
          3.0462920666 0.35370859504 0.42864450812 2.8127799034 0.36863431334 0.39534589648
          -3.6580049992 0.19486609101 -0.67846798897 -3.8068175316 -0.027711499482 -0.64996302128
          -3.5941543579 0.02097989805 -0.47818499804 -3.5939254761 -0.0081771295518 -0.69047999382
          -3.5503668785 -0.17767935991 -0.019175993279 -3.8215641975 -0.23188085854 0.091413997114
          -3.6940450668 -0.011909330264 0.12301498652 -3.6205406189 -0.31749200821 0.12511700392
          2.0636451244 -0.34763351083 0.61844497919 1.9232388735 -0.45981270075 0.32396870852
          2.1862559319 -0.44939181209 0.30064499378 2.1206483841 -0.27323719859 0.41196197271
          3.7870020866 -0.19021171331 1.074723959 3.7523159981 -0.085600093007 1.2815630436
          3.8999164104 -0.26179867983 1.3262170553 3.6797263622 -0.37727758288 1.2562580109
          -1.0108540058 -0.22747680545 -0.36507099867 -1.0854450464 -0.072821497917 -0.097055003047
          -0.8307570219 -0.058059498668 -0.35817700624 -0.83420801163 -0.058261297643 -0.10190299898
          4.372276783 -0.18564900756 1.2451930046 4.5119929314 -0.044536296278 1.1272319555
          4.5186548233 -0.2072378099 0.99021959305 4.6312479973 -0.18212139606 1.2574429512
          -0.62441599369 0.23691308498 -1.0922019482 -0.81324702501 0.26146668196 -0.86965799332
          -0.55084097385 0.27224868536 -0.88415497541 -0.50009101629 0.076063752174 -0.91057896614
          0.7164170146 -0.01385910064 -0.332908988 0.95586800575 0.071381397545 -0.33720040321
          0.87655997276 -0.11350530386 -0.45971497893 0.87983602285 -0.093330197036 -0.22511909902
          -4.4548616409 -0.039748691022 0.44836860895 -4.4945139885 -0.24172013998 0.45762220025
          -4.2245573997 -0.0047437800094 0.42267590761 -4.3568739891 -0.16453392804 0.20460030437
          -1.8519480228 0.40634250641 -0.0071279997937 -1.8959770203 0.26786220074 -0.15826401114
          -1.9377369881 0.14763340354 0.0093440003693 -1.6865179539 0.27380079031 -0.033339001238
          -3.5145463943 -0.50127327442 0.11511399597 -3.6205406189 -0.31749200821 0.12511700392
          -3.3824651241 -0.30312857032 0.073741987348 -3.4147019386 -0.30549126863 0.2988910079
          -0.63126498461 -0.15162830055 -0.47663301229 -0.70339399576 -0.074503429234 -0.67528831959
          -0.66083502769 -0.29501193762 -0.69995200634 -0.42318299413 -0.15868732333 -0.55037420988
          3.7608931065 -0.4066208899 0.33188599348 3.7570819855 -0.18195958436 0.41518300772
          3.5444030762 -0.40834650397 0.28405502439 3.5797228813 -0.13064749539 0.085768997669
          -2.0546720028 0.3103351891 0.029857000336 -2.1283559799 0.094898201525 0.043953001499
          -1.9377369881 0.14763340354 0.0093440003693 -2.0947520733 0.29650449753 -0.21109998226
          0.44537511468 -0.27799990773 -0.12429698557 0.474378407 -0.11557681859 -0.24810600281
          0.67708927393 -0.18054930866 -0.18623100221 0.48138740659 -0.12545976043 0.10301499814
          2.4307379723 -0.44270971417 0.40620398521 2.4038360119 -0.2405732125 0.18867635727
          2.3360071182 -0.43899869919 0.085661202669 2.5536410809 -0.43353191018 0.20064629614
          -3.8473057747 -0.00070657959441 -0.13606338203 -4.0971708298 0.14169080555 0.095920503139
          -3.9542860985 -0.041209600866 0.17256499827 -4.0808696747 -0.048765938729 -0.15966640413
          -2.4353275299 -0.11288639903 -0.92088502645 -2.6172776222 -0.17857418954 -0.88542699814
          -2.6087565422 -0.063813298941 -0.63231498003 -2.3716421127 -0.18197050691 -0.6025840044
          -0.90989202261 0.24085079134 -0.62744837999 -1.1938619614 0.03204099834 -0.66020560265
          -1.0361119509 0.21812960505 -0.37398898602 -0.96610802412 -0.023699499667 -0.59952700138
          -0.54038512707 0.49495917559 -0.25420597196 -0.38844299316 0.49596226215 -0.19252300262
          -0.46809598804 0.17155979574 -0.082805998623 -0.59276729822 0.46036344767 -0.093910999596
          -0.096773996949 -0.50181341171 -0.56035459042 -0.14834499359 -0.49472266436 -0.76049399376
          -0.055491000414 -0.26846665144 -0.58021008968 -0.29999598861 -0.31015944481 -0.61351531744
          -0.43998798728 -0.035619899631 -0.082337997854 -0.27925050259 -0.14596910775 -0.065104998648
          -0.37324941158 -0.23546770215 -0.36768600345 -0.4785284996 -0.28558018804 -0.089541003108
          3.4009900093 0.56842762232 0.97544896603 3.2735610008 0.57003730536 0.75401997566
          3.4282515049 0.33187240362 0.97428900003 3.4926049709 0.5762001276 0.76709657907
          -2.9204330444 -0.13243819773 -0.19507199526 -3.0590620041 0.043446499854 -0.27457588911
          -3.1080467701 -0.29268443584 -0.24082820117 -2.9648208618 -0.08248540014 -0.41598600149
          5.1319189072 0.18058879673 1.488049984 4.9073309898 0.060586899519 1.514449954
          5.1013798714 -0.05546059832 1.560379982 4.9596247673 0.084158137441 1.2836079597
          -0.14045800269 -0.19142946601 -0.79101097584 -0.32380700111 -0.29127669334 -0.87523800135
          -0.29308599234 -0.22735399008 -1.0733640194 -0.31712800264 -0.025899430737 -0.85415101051
          -3.6205406189 -0.31749200821 0.12511700392 -3.6042940617 -0.28407350183 0.332062006
          -3.5214090347 -0.040553983301 0.31633499265 -3.4821026325 -0.046573873609 0.11716599017
          4.2366080284 0.27729278803 1.4644019604 4.33537817 0.096284002066 1.4644019604
          4.5082879066 0.20863980055 1.4644019604 4.4337921143 0.1125216037 1.254134059
          3.4389131069 -0.21940618753 0.24159599841 3.4964818954 -0.10279240459 0.43279200792
          3.6210319996 -0.40883889794 0.49147000909 3.3867809772 -0.23781871796 0.5709104538
          -0.18545199931 0.22996643186 -0.47609320283 -0.40303009748 0.49246281385 -0.4396699965
          -0.45164808631 0.18338213861 -0.40235000849 -0.35219299793 0.31618493795 -0.60427820683
          -3.5458295345 0.1751678884 -0.0069859996438 -3.71869874 0.25738021731 -0.13884219527
          -3.5492799282 0.4825848937 -0.0015599994222 -3.5273160934 0.29413831234 0.15600700676
          2.8261909485 0.28350150585 0.9414550066 2.5544810295 0.1293092072 0.82531297207
          2.6809933186 0.045304298401 0.64524197578 2.7912619114 0.22470119596 0.5612180233
          3.1758000851 0.57594889402 0.29714500904 3.1963329315 0.58174359798 -0.046583991498
          3.3937470913 0.42309600115 0.025817999616 3.5310690403 0.59044080973 0.18322899938
          -1.4055235386 0.16061809659 -0.77410399914 -1.5627611876 0.064892105758 -1.05468297
          -1.2481642962 0.04549119994 -0.89113599062 -1.2635279894 0.19011539221 -1.0803289413
          -1.2323629856 0.48578119278 -0.53944307566 -1.5147645473 0.48376119137 -0.53487837315
          -1.4487729073 0.26224949956 -0.55564618111 -1.3714095354 0.48100718856 -0.68255013227
          -3.687541008 0.43435680866 -0.67268902063 -3.4724879265 0.27005422115 -0.50610899925
          -3.6580049992 0.19486609101 -0.67846798897 -3.7273154259 0.27898979187 -0.49260097742
          -0.96485602856 0.047094900161 -0.10023099929 -1.1158839464 0.17156629264 -0.093520998955
          -1.0361119509 0.21812960505 -0.37398898602 -0.85646498203 0.17925000191 -0.10178700089
          -4.1448526382 0.14308868349 -0.26994079351 -4.1721348763 0.28047949076 -0.053690198809
          -3.9548974037 0.23137070239 -0.10864424706 -4.2057743073 0.083515927196 -0.063847601414
          3.7448599339 0.30333548784 0.49451100826 3.9646220207 0.41419330239 0.50147998333
          4.0052309036 0.2497472018 0.67321902514 3.8135120869 0.40065589547 0.74336141348
          -3.1758265495 0.071973100305 -0.7731680274 -3.1901597977 0.0029790997505 -0.4238820076
          -3.0660376549 -0.035237099975 -0.601772964 -3.3833937645 -0.032667398453 -0.48868498206
          -3.5523664951 0.0045121996664 -0.18042999506 -3.5503668785 -0.17767935991 -0.019175993279
          -3.3023517132 0.0064315996133 -0.24028472602 -3.3609697819 -0.25755804777 -0.25123178959
          2.7275784016 0.56002151966 0.53235000372 2.4725689888 0.38891109824 0.53518199921
          2.5151159763 0.5552688241 0.37893998623 2.5429031849 0.55357050896 0.69124501944
          2.3748869896 0.069039702415 0.16169330478 2.5194039345 0.221833691 0.014336997643
          2.2439339161 0.21964900196 0.058875899762 2.4686999321 0.064002029598 -0.14970698953
          -2.8009653091 0.022092198953 -0.32149419188 -2.7821593285 0.30021998286 -0.44675600529
          -2.9400956631 0.27705860138 -0.27815890312 -2.9424054623 0.1131972 -0.47736001015
          -0.38844299316 0.49596226215 -0.19252300262 -0.54038512707 0.49495917559 -0.25420597196
          -0.30593618751 0.24488276243 -0.24136300385 -0.40303009748 0.49246281385 -0.4396699965
          4.9800801277 0.31590399146 0.82129001617 5.250415802 0.44116699696 0.96342402697
          5.2841758728 0.46887099743 0.8069050312 5.2609939575 0.27832901478 0.92522102594
          -2.2434971333 -0.063827201724 -0.95553797483 -2.1139371395 -0.28715011477 -0.97770702839
          -2.3067228794 -0.32880795002 -0.94539600611 -2.2304649353 -0.22556725144 -0.77245599031
          4.7789177895 0.14037750661 0.96490341425 4.7970080376 0.40450099111 0.99685043097
          4.8725390434 0.29623439908 1.2086399794 4.6513729095 0.13981750607 1.2424490452
          -4.0561761856 -0.22405919433 -0.60680097342 -3.8867964745 -0.18341259658 -0.63530302048
          -3.9332222939 -0.36795258522 -0.62505298853 -3.9158587456 -0.22345404327 -0.33129701018
          1.3544540405 0.20737339556 0.028903007507 1.5727180243 0.33926710486 -0.070410497487
          1.2022919655 0.33101278543 -0.21015967429 1.40358603 0.24286289513 -0.3494130075
          -0.95145201683 0.22650431097 -1.0941970348 -1.1157516241 0.10669529438 -1.088037014
          -1.075802207 0.17113420367 -0.81510698795 -0.94496697187 0.078266300261 -1.0942200422
          4.6475157738 0.38701429963 1.2527079582 4.7883992195 0.58720839024 1.4859639406
          4.7051949501 0.60293000937 1.1564450264 4.9485001564 0.60167902708 1.3511019945
          4.4079709053 -0.40386489034 0.85058301687 4.5794639587 -0.095555409789 0.80211597681
          4.6259679794 -0.40398031473 0.7512139678 4.5186548233 -0.2072378099 0.99021959305
          0.12283880264 0.27401307225 -0.19243100286 -0.020758699626 0.49720421433 -0.34290099144
          0.10719139874 0.28679504991 -0.54870027304 0.17703129351 0.49817833304 -0.43983438611
          -4.6259469986 0.16757617891 -0.22007699311 -4.792386055 0.26623538136 -0.51841771603
          -4.6036734581 0.038398779929 -0.53355240822 -4.6022672653 0.31213206053 -0.53499019146
          -4.3847136497 -0.10933701694 -0.55893617868 -4.4642100334 -0.19895298779 -0.3199582994
          -4.6010689735 -0.032954148948 -0.34019801021 -4.4088745117 0.030903441831 -0.32176870108
          0.10719139874 0.28679504991 -0.54870027304 0.17703129351 0.49817833304 -0.43983438611
          0.014425000176 0.49165633321 -0.66029900312 0.22630690038 0.49578845501 -0.65596997738
          -2.0592620373 -0.25566390157 -0.23402400315 -2.1776151657 -0.33875748515 -0.37888690829
          -2.2283110619 -0.34106051922 -0.12456599623 -2.1493499279 -0.51199901104 -0.23114798963
          1.1396989822 0.51905441284 -0.65952801704 1.0754319429 0.25025811791 -0.42730200291
          1.323251009 0.38888579607 -0.71256399155 1.1091860533 0.2945098877 -0.77885699272
          -3.2429180145 0.19009520113 -0.47103300691 -2.9424054623 0.1131972 -0.47736001015
          -3.1901597977 0.0029790997505 -0.4238820076 -3.0590620041 0.043446499854 -0.27457588911
          1.8784749508 -0.24840208888 0.010538879782 1.7291409969 -0.28722119331 -0.28180330992
          1.9479429722 -0.26660808921 -0.33822989464 1.9164220095 -0.13674210012 -0.17615103722
          -3.8043015003 -0.00087310036179 -0.39245098829 -3.8867964745 -0.18341259658 -0.63530302048
          -4.0446949005 -0.034010000527 -0.39543700218 -3.9158587456 -0.22345404327 -0.33129701018
          -4.3753385544 0.16644324362 -0.56169492006 -4.6036734581 0.038398779929 -0.53355240822
          -4.4088745117 0.030903441831 -0.32176870108 -4.3847136497 -0.10933701694 -0.55893617868
          -1.5961900949 -0.24007625878 -0.77421802282 -1.2655464411 -0.30120876431 -0.88210499287
          -1.4535621405 -0.08741620183 -0.88498598337 -1.3467004299 -0.27448686957 -1.0782300234
          -3.5273160934 0.29413831234 0.15600700676 -3.5950241089 0.48102658987 0.19185300171
          -3.4292929173 0.39982169867 0.30081498623 -3.6309099197 0.31252777576 0.33574199677
          -2.5705890656 -0.0096552502364 -0.37767747045 -2.8155953884 -0.19327259064 -0.5224930048
          -2.5529778004 -0.19498869777 -0.48805639148 -2.6087565422 -0.063813298941 -0.63231498003
          2.5832331181 0.56287848949 -0.20339798927 2.7448999882 0.34383347631 0.0055840001442
          2.8233048916 0.56940752268 -0.11903401464 2.7383420467 0.41610860825 -0.23452399671
          2.5151159763 0.5552688241 0.37893998623 2.3807709217 0.34840109944 0.17629000545
          2.6138679981 0.31076711416 0.28303608298 2.4791090488 0.55759829283 0.014952993952
          -1.4041509628 -0.13285940886 -0.071116998792 -1.6200009584 -0.10922949761 -0.042343001813
          -1.5760400295 -0.030635099858 -0.29671400785 -1.5091439486 0.10905019939 -0.055601000786
          1.1952601671 -0.29477098584 0.064541012049 1.3097800016 -0.27519398928 -0.1584803015
          1.1713650227 -0.47730788589 -0.15520529449 1.178434968 -0.4816032052 0.03579299897
          -0.33674499393 -0.49515008926 -0.82062500715 -0.41128501296 -0.48971751332 -0.99034798145
          -0.64104998112 -0.30240130424 -0.9189350009 -0.47170200944 -0.50193786621 -0.68685621023
          1.5734430552 0.53300869465 -0.47562000155 1.40358603 0.24286289513 -0.3494130075
          1.6285569668 0.23750409484 -0.61983597279 1.5337500572 0.41599822044 -0.64482402802
          -1.4155100584 -0.21666789055 -0.40096598864 -1.3984810114 0.086329601705 -0.26900598407
          -1.4041509628 -0.13285940886 -0.071116998792 -1.5760400295 -0.030635099858 -0.29671400785
          3.7608931065 -0.4066208899 0.33188599348 3.5797228813 -0.13064749539 0.085768997669
          3.5444030762 -0.40834650397 0.28405502439 3.5423920155 -0.34106731415 0.063364997506
          -4.6692109108 -0.16517569125 -0.19817639887 -4.5914802551 -0.50413167477 -0.23168960214
          -4.6158905029 -0.49994170666 -0.083305798471 -4.4301371574 -0.28078189492 -0.098592102528
          1.6362780333 -0.19434309006 -0.1196873039 1.6559460163 -0.46090990305 -0.083716340363
          1.4299919605 -0.4650863111 -0.25022679567 1.4941439629 -0.30191999674 -0.0081950007007
          5.0496749878 0.39370700717 0.54334002733 4.9800801277 0.31590399146 0.82129001617
          4.7657809258 0.38576200604 0.78052300215 5.0679278374 0.61340600252 0.65205299854
          -3.5096030235 -0.50470131636 -0.15045179427 -3.5503668785 -0.17767935991 -0.019175993279
          -3.5462591648 -0.3417108953 -0.29696801305 -3.3609697819 -0.25755804777 -0.25123178959
          2.4682879448 0.38555598259 -0.10436999053 2.4791090488 0.55759829283 0.014952993952
          2.5832331181 0.56287848949 -0.20339798927 2.7448999882 0.34383347631 0.0055840001442
          2.5151159763 0.5552688241 0.37893998623 2.8252680302 0.56484931707 0.31118530035
          2.8127799034 0.36863431334 0.39534589648 2.7275784016 0.56002151966 0.53235000372
          0.43729901314 0.24008713663 -0.95277100801 0.31418091059 0.094848684967 -0.98210698366
          0.073762997985 0.35499945283 -1.0218420029 0.15515929461 0.27147474885 -0.81783097982
          -0.65379941463 -0.29078039527 -0.10148400068 -0.85025602579 -0.29496991634 -0.10682400316
          -0.70222002268 -0.52214252949 -0.27207800746 -0.76909697056 -0.29619181156 -0.33838999271
          3.0461831093 0.56736302376 0.63019996881 2.7275784016 0.56002151966 0.53235000372
          2.9040269852 0.39754191041 0.64887100458 2.8127799034 0.36863431334 0.39534589648
          3.0793170929 -0.24457119405 0.11937200278 2.9301850796 -0.41978639364 0.12177300453
          2.9632070065 -0.41506269574 -0.063951998949 2.7572391033 -0.22472290695 -0.032116010785
          -0.70222002268 -0.52214252949 -0.27207800746 -0.76909697056 -0.29619181156 -0.33838999271
          -0.56078988314 -0.3168579042 -0.30044898391 -0.65379941463 -0.29078039527 -0.10148400068
          4.5186548233 -0.2072378099 0.99021959305 4.7351660728 -0.16101920605 0.98147392273
          4.7853469849 -0.40575119853 0.83861100674 4.7013711929 -0.40805020928 1.0405980349
          -1.3103187084 -0.16647019982 -0.72021299601 -1.5043648481 -0.50604504347 -0.71901899576
          -1.2879470587 -0.50460076332 -0.71951198578 -1.2655464411 -0.30120876431 -0.88210499287
          -3.1450257301 -0.19032800198 -0.44944301248 -3.1707112789 -0.50821882486 -0.61334198713
          -3.3306560516 -0.50790274143 -0.51511698961 -3.1325054169 -0.50747013092 -0.43627199531
          -2.0836164951 0.47975090146 -0.66095596552 -2.3831152916 0.479411304 -0.7015529871
          -2.2193543911 0.4817315042 -0.46778970957 -2.1485760212 0.26226508617 -0.74843597412
          0.76200997829 0.19809819758 -0.53690600395 0.49993100762 0.0054506729357 -0.41626721621
          0.7164170146 -0.01385910064 -0.332908988 0.6582840085 -0.086143799126 -0.53992497921
          2.2007000446 -0.030069796368 -0.17213380337 2.3845460415 0.082077801228 -0.37291699648
          2.1437630653 0.14836460352 -0.25723919272 2.1178569794 0.093814596534 -0.4642611146
          0.68674623966 -0.13471266627 0.16325600445 0.81067937613 -0.037577752024 -0.03468298912
          0.97589570284 -0.18196713924 0.2518529892 0.807526052 0.036346398294 0.20567299426
          1.914431572 0.53861421347 0.26570081711 1.7791023254 0.53241348267 0.52594411373
          1.8545037508 0.351865381 0.36945268512 1.6495490074 0.52970409393 0.32440179586
          -0.28265699744 -0.012162780389 -0.58007609844 -0.14045800269 -0.19142946601 -0.79101097584
          -0.49614500999 -0.18467617035 -0.78485298157 -0.29999598861 -0.31015944481 -0.61351531744
          -4.5090827942 0.30276152492 -0.34050369263 -4.6036734581 0.038398779929 -0.53355240822
          -4.6259469986 0.16757617891 -0.22007699311 -4.6010689735 -0.032954148948 -0.34019801021
          4.372276783 -0.18564900756 1.2451930046 4.531235218 -0.23131799698 1.462864995
          4.6312479973 -0.18212139606 1.2574429512 4.4911990166 -0.39900299907 1.2523469925
          -0.4785284996 -0.28558018804 -0.089541003108 -0.27925050259 -0.14596910775 -0.065104998648
          -0.20980919898 -0.34469109774 -0.28026798368 -0.22414989769 -0.31539151073 -0.059500001371
          4.2914719582 -0.39629501104 1.270524025 4.372276783 -0.18564900756 1.2451930046
          4.4186382294 -0.39407101274 1.4219969511 4.1478528976 -0.20111000538 1.3932329416
          -0.51817697287 -0.33874639869 -0.53937000036 -0.37324941158 -0.23546770215 -0.36768600345
          -0.26617699862 -0.50942438841 -0.44230300188 -0.39079099894 -0.51813417673 -0.27170100808
          4.8283820152 0.36398798227 0.50014001131 4.9800801277 0.31590399146 0.82129001617
          4.7657809258 0.38576200604 0.78052300215 5.0496749878 0.39370700717 0.54334002733
          -4.1721348763 0.28047949076 -0.053690198809 -4.0971708298 0.14169080555 0.095920503139
          -3.9548974037 0.23137070239 -0.10864424706 -4.2057743073 0.083515927196 -0.063847601414
          -2.9465870857 -0.28584861755 -0.81910002232 -3.2359466553 -0.42429992557 -0.7593640089
          -3.0045845509 -0.31262481213 -0.59387999773 -2.9944975376 -0.5079087019 -0.71235400438
          0.52244597673 0.28034487367 -0.58197897673 0.49993100762 0.0054506729357 -0.41626721621
          0.30108499527 0.17071788013 -0.6524900198 0.32533699274 0.30109125376 -0.45768621564
          2.2007000446 -0.030069796368 -0.17213380337 2.1437630653 0.14836460352 -0.25723919272
          1.9164220095 -0.13674210012 -0.17615103722 1.8510379791 0.076726302505 -0.29504978657
          1.5734430552 0.53300869465 -0.47562000155 1.7200000286 0.27868279815 -0.33277949691
          1.562005043 0.53115862608 -0.25408700109 1.7981909513 0.54004788399 -0.43759217858
          -0.50009101629 0.076063752174 -0.91057896614 -0.81324702501 0.26146668196 -0.86965799332
          -0.62419199944 0.12591390312 -0.73094600439 -0.65971499681 -0.068506918848 -0.89710998535
          2.5194039345 0.221833691 0.014336997643 2.3748869896 0.069039702415 0.16169330478
          2.7066569328 0.013594998047 0.026080995798 2.4399039745 -0.10959740728 -0.0052800015546
          4.0778617859 0.38755699992 0.83571088314 4.0205068588 0.28315189481 1.0268609524
          4.065433979 0.57982081175 1.038596034 4.2772049904 0.36336359382 0.94083797932
          -2.4908249378 0.11884979904 -0.11749400944 -2.4349720478 0.31375589967 -0.069557994604
          -2.2799999714 0.29279088974 0.072902999818 -2.5005450249 0.17306339741 0.11759500206
          -3.0553820133 0.29404971004 0.22911499441 -3.1628189087 0.48208609223 0.07378398627
          -2.9876549244 0.48245361447 0.20254100859 -3.2128009796 0.42603981495 0.26003301144
          5.2039008141 -0.31573709846 1.1745685339 5.1611480713 -0.11739530414 1.3518660069
          5.1458821297 -0.319552809 1.3943560123 4.9568657875 -0.20041409135 1.3308819532
          -4.7891550064 0.016387579963 -0.29043120146 -4.7578840256 0.28817969561 -0.030578099191
          -5 0.1004910022 -0.10199099779 -4.7826919556 0.30165764689 -0.29666978121
          -3.71869874 0.25738021731 -0.13884219527 -3.6243565083 0.17590141296 -0.3374350071
          -3.8971295357 0.23590660095 -0.36395600438 -3.8473057747 -0.00070657959441 -0.13606338203
          1.562005043 0.53115862608 -0.25408700109 1.3614029884 0.52470320463 -0.1519087255
          1.40358603 0.24286289513 -0.3494130075 1.23584795 0.52147328854 -0.44651499391
          -0.2450055927 0.36689928174 -0.052769999951 -0.30593618751 0.24488276243 -0.24136300385
          -0.080558300018 0.23630402982 -0.025882000104 -0.092815898359 0.28653284907 -0.26267999411
          -2.3400249481 -0.19343669713 -0.23309500515 -2.5705890656 -0.0096552502364 -0.37767747045
          -2.5937309265 -0.094380997121 -0.091197997332 -2.6131467819 -0.26515978575 -0.30168119073
          -1.2323629856 0.48578119278 -0.53944307566 -1.1287009716 0.49046784639 -0.31941500306
          -1.2542339563 0.29450172186 -0.30690699816 -1.3793640137 0.48962751031 -0.2810100019
          4.1932888031 -0.10509669781 1.111093998 4.372276783 -0.18564900756 1.2451930046
          4.5119929314 -0.044536296278 1.1272319555 4.5186548233 -0.2072378099 0.99021959305
          -4.3568739891 -0.16453392804 0.20460030437 -4.1561627388 -0.30235728621 0.4173707962
          -4.0265545845 -0.28167268634 0.21848671138 -4.2297291756 -0.32805991173 0.13521359861
          1.1442159414 -0.0049022994936 -0.49735999107 0.95586800575 0.071381397545 -0.33720040321
          0.93168497086 0.052144400775 -0.6099550128 1.0754319429 0.25025811791 -0.42730200291
          -4.1034150124 -0.18890102208 0.022778199986 -3.9542860985 -0.041209600866 0.17256499827
          -3.8215641975 -0.23188085854 0.091413997114 -4.0265545845 -0.28167268634 0.21848671138
          -4.4548616409 -0.039748691022 0.44836860895 -4.6952867508 -0.18051728606 0.4779253006
          -4.4945139885 -0.24172013998 0.45762220025 -4.5753359795 -0.14313571155 0.30882889032
          2.4399039745 -0.10959740728 -0.0052800015546 2.4038360119 -0.2405732125 0.18867635727
          2.5325028896 -0.2637206018 -0.12680798769 2.2454249859 -0.24175401032 -0.0085900025442
          -3.2531692982 0.48335590959 -0.6420429945 -2.923997879 0.48139628768 -0.67437797785
          -3.0509493351 0.29688620567 -0.58453899622 -2.9112796783 0.48190781474 -0.45949801803
          -4.6692109108 -0.16517569125 -0.19817639887 -4.6158905029 -0.49994170666 -0.083305798471
          -4.752243042 -0.50364774466 -0.24244779348 -4.7949709892 -0.27444934845 -0.028330069035
          -4.0446949005 -0.034010000527 -0.39543700218 -3.9158587456 -0.22345404327 -0.33129701018
          -4.1002011299 -0.31287899613 -0.40952581167 -4.2235832214 -0.18397390842 -0.2816118896
          3.5444030762 -0.40834650397 0.28405502439 3.4389131069 -0.21940618753 0.24159599841
          3.3867809772 -0.23781871796 0.5709104538 3.3344159126 -0.41385099292 0.43574500084
          -4.2235832214 -0.18397390842 -0.2816118896 -4.0808696747 -0.048765938729 -0.15966640413
          -4.394712925 -0.0063827331178 -0.052065320313 -4.2057743073 0.083515927196 -0.063847601414
          2.4686999321 0.064002029598 -0.14970698953 2.3845460415 0.082077801228 -0.37291699648
          2.6444098949 0.20465949178 -0.2766700089 2.533821106 0.36376240849 -0.31047001481
          0.30108499527 0.17071788013 -0.6524900198 0.14842510223 0.040421258658 -0.80009198189
          0.15515929461 0.27147474885 -0.81783097982 -0.04301200062 0.17476075888 -0.718306005
          -4.1448526382 0.14308868349 -0.26994079351 -4.0446949005 -0.034010000527 -0.39543700218
          -4.2235832214 -0.18397390842 -0.2816118896 -4.0808696747 -0.048765938729 -0.15966640413
          3.9359619617 0.090236805379 1.1565029621 4.0558829308 0.27783259749 1.3923959732
          4.2345128059 0.15581940114 1.1804380417 4.0751972198 0.034389801323 1.3754040003
          -1.5091439486 0.10905019939 -0.055601000786 -1.684795022 0.12831169367 -0.21073399484
          -1.6200009584 -0.10922949761 -0.042343001813 -1.5760400295 -0.030635099858 -0.29671400785
          -4.2460803986 0.48600909114 -0.044718399644 -4.3946790695 0.48465889692 0.11185610294
          -4.5292730331 0.2915058732 0.031001500785 -4.4985280037 0.48879349232 -0.082372002304
          -1.8414185047 -0.36941739917 -1.0222549438 -1.9412852526 -0.50214797258 -0.90207898617
          -1.7870930433 -0.33796232939 -0.8220590353 -1.6650289297 -0.48398628831 -1.047039032
          -2.3289134502 -0.0023192001972 -0.42081850767 -2.5529778004 -0.19498869777 -0.48805639148
          -2.6087565422 -0.063813298941 -0.63231498003 -2.5705890656 -0.0096552502364 -0.37767747045
          2.900462389 -0.18088708818 0.95662897825 2.8574714661 -0.22937789559 0.73542100191
          3.0500233173 -0.10988160223 0.76281303167 2.7863173485 0.018803799525 0.9157999754
          -1.545979023 0.22976130247 -0.33403101563 -1.5615320206 0.44849410653 -0.052519001067
          -1.3188999891 0.28086179495 -0.079112000763 -1.5091439486 0.10905019939 -0.055601000786
          3.3609991074 0.066775999963 0.55516642332 3.4329230785 0.25877740979 0.41826298833
          3.2744851112 0.38130360842 0.56395947933 3.2137260437 0.23683209717 0.35793501139
          2.7275784016 0.56002151966 0.53235000372 2.6725535393 0.38265278935 0.65312898159
          2.4725689888 0.38891109824 0.53518199921 2.5429031849 0.55357050896 0.69124501944
          1.1370209455 -0.2310988009 -0.34101459384 0.87983602285 -0.093330197036 -0.22511909902
          0.95586800575 0.071381397545 -0.33720040321 1.1638020277 0.033433400095 -0.21218000352
          -4.6692109108 -0.16517569125 -0.19817639887 -4.7889413834 -0.29244363308 -0.33276119828
          -4.5914802551 -0.50413167477 -0.23168960214 -4.4642100334 -0.19895298779 -0.3199582994
          4.3505711555 0.60127097368 0.76294797659 4.2772049904 0.36336359382 0.94083797932
          4.4798941612 0.42885500193 0.6264359951 4.2886710167 0.33758100867 0.66382801533
          -3.4071218967 -0.27582120895 -0.49657699466 -3.1707112789 -0.50821882486 -0.61334198713
          -3.3306560516 -0.50790274143 -0.51511698961 -3.1450257301 -0.19032800198 -0.44944301248
          -4.2235832214 -0.18397390842 -0.2816118896 -4.0808696747 -0.048765938729 -0.15966640413
          -4.2057743073 0.083515927196 -0.063847601414 -4.4088745117 0.030903441831 -0.32176870108
          -2.819904089 0.037339199334 -0.66302698851 -2.8155953884 -0.19327259064 -0.5224930048
          -2.9648208618 -0.08248540014 -0.41598600149 -2.8009653091 0.022092198953 -0.32149419188
          -2.4518558979 0.48177570105 -0.4138597846 -2.6924591064 0.48232129216 -0.35847869515
          -2.3905160427 0.48403820395 -0.18478998542 -2.5502791405 0.25031089783 -0.30732250214
          2.1437630653 0.14836460352 -0.25723919272 1.9772109985 0.2443075031 -0.15706959367
          1.8809980154 0.037144001573 -0.0096619697288 1.8510379791 0.076726302505 -0.29504978657
          3.0206739902 0.45230871439 -0.12432000041 3.1256771088 0.35985979438 0.17385299504
          3.1546220779 0.28414210677 -0.077771998942 2.8881449699 0.23836348951 0.18792100251
          -0.28265699744 -0.012162780389 -0.58007609844 -0.29999598861 -0.31015944481 -0.61351531744
          -0.37324941158 -0.23546770215 -0.36768600345 -0.081785798073 -0.18698275089 -0.35594800115
          5.2330021858 0.14374749362 1.0523743629 5.1940898895 0.12840040028 1.2278339863
          5.2391929626 -0.046786397696 1.0306526423 4.9991178513 0.039471499622 1.0460796356
          3.1393265724 -0.19575251639 1.0545070171 3.0500233173 -0.10988160223 0.76281303167
          3.0447850227 0.06147922948 1.0241279602 2.900462389 -0.18088708818 0.95662897825
          1.3844920397 0.52349030972 0.14648000896 1.1881120205 0.31921857595 0.10735101253
          1.2129423618 0.51908618212 0.16832698882 1.2691779137 0.37699308991 0.36733099818
          -2.5529778004 -0.19498869777 -0.48805639148 -2.3289134502 -0.0023192001972 -0.42081850767
          -2.3835964203 -0.32359841466 -0.41965642571 -2.3400249481 -0.19343669713 -0.23309500515
          -4.8250303268 -0.49250531197 0.14701525867 -4.7839722633 -0.32270756364 0.2961961925
          -4.5711774826 -0.48988559842 0.24580539763 -4.6849908829 -0.4852682054 0.41684499383
          1.8266550303 0.23588789999 -0.55572861433 1.9153610468 0.36894521117 -0.30883604288
          1.932314992 0.39315280318 -0.51564007998 2.0239698887 0.24268069863 -0.49068275094
          -0.04301200062 0.17476075888 -0.718306005 -0.18545199931 0.22996643186 -0.47609320283
          -0.28265699744 -0.012162780389 -0.58007609844 -0.33919200301 0.20730000734 -0.79884600639
          4.4331560135 0.52280199528 0.42006701231 4.4798941612 0.42885500193 0.6264359951
          4.5893030167 0.61060297489 0.61573702097 4.6223192215 0.42864599824 0.46175301075
          -1.8874305487 -0.20946229994 -0.68173897266 -2.1267375946 -0.28440442681 -0.5801320076
          -1.9710366726 -0.33433938026 -0.42893758416 -1.9995814562 -0.50839465857 -0.5625320673
          -1.7352849245 0.25046640635 -1.035277009 -1.8121285439 0.26642638445 -0.82310700417
          -1.5809962749 0.26638999581 -0.86372798681 -1.6661914587 0.0097754001617 -0.81471097469
          -4.4813494682 0.022646209225 0.2389934808 -4.4532856941 0.16817709804 0.44724240899
          -4.2245573997 -0.0047437800094 0.42267590761 -4.4548616409 -0.039748691022 0.44836860895
          -3.0065186024 0.11188069731 -0.80747801065 -3.0660376549 -0.035237099975 -0.601772964
          -2.9699292183 -0.052413102239 -0.81482702494 -3.1758265495 0.071973100305 -0.7731680274
          4.1978611946 0.12986010313 0.5741019845 4.2261519432 -0.095267094672 0.65937298536
          4.4424939156 0.089347399771 0.64447599649 4.2723498344 0.019195003435 0.35912799835
          -4.2165794373 -0.29792863131 -0.10957739502 -4.0808696747 -0.048765938729 -0.15966640413
          -4.2235832214 -0.18397390842 -0.2816118896 -3.9980287552 -0.32266074419 -0.13652320206
          3.8757009506 -0.27522069216 0.20697000623 4.0834741592 -0.21439018846 0.53021103144
          3.9752399921 -0.40516790748 0.36332198977 3.7570819855 -0.18195958436 0.41518300772
          -1.5252443552 0.33827269077 -1.0592859983 -1.7826962471 0.45563310385 -1.0317989588
          -1.5809962749 0.26638999581 -0.86372798681 -1.7352849245 0.25046640635 -1.035277009
          0.44702979922 0.50523287058 -0.018845997751 0.51253330708 0.2876406908 -0.10298900306
          0.66463452578 0.50741457939 -0.17443799973 0.36727958918 0.50212621689 -0.31630799174
          0.4496409893 -0.20598120987 -0.64667701721 0.36064499617 -0.039502311498 -0.75520098209
          0.35398098826 -0.14804252982 -0.47525811195 0.13293649256 -0.12217481434 -0.6249139905
          3.5705780983 -0.40920200944 0.84491300583 3.2812619209 -0.41720849276 0.63608801365
          3.49279809 -0.41079649329 0.65922492743 3.3624682426 -0.19947208464 0.94604200125
          2.8574714661 -0.22937789559 0.73542100191 3.0756709576 -0.422498703 0.57748502493
          3.0500233173 -0.10988160223 0.76281303167 3.1153120995 -0.17042639852 0.52375102043
          3.8676540852 -0.40032818913 1.1280800104 3.6017444134 -0.40726909041 1.038525939
          3.7870020866 -0.19021171331 1.074723959 3.6797263622 -0.37727758288 1.2562580109
          1.912476182 -0.21805660427 0.34040221572 1.6243675947 -0.24140480161 0.4665620923
          1.7636737823 0.046389199793 0.32517156005 1.8082741499 -0.041739497334 0.53896141052
          4.8725390434 0.29623439908 1.2086399794 5.0302901268 0.43874397874 1.1967389584
          5.1688809395 0.37849900126 1.3310799599 4.9263429642 0.33198681474 1.4921859503
          1.4434380531 -0.14066420496 -0.32838499546 1.3804830313 -0.0036427995656 -0.4926970005
          1.1638020277 0.033433400095 -0.21218000352 1.1442159414 -0.0049022994936 -0.49735999107
          -1.0252319574 -0.25830030441 -0.10159199685 -1.224069953 -0.31939327717 -0.31514698267
          -1.1190869808 -0.42417049408 -0.10118299723 -1.0108540058 -0.22747680545 -0.36507099867
          -5 -0.004447159823 0.13623799384 -5 0.15884299576 0.21330599487
          -4.7917890549 -0.033734429628 0.26267528534 -5 0.07584580034 0.38386198878
          4.9471430779 0.61130398512 0.85095900297 4.7970080376 0.40450099111 0.99685043097
          5.0476732254 0.61224198341 1.0092389584 4.9800801277 0.31590399146 0.82129001617
          4.5119929314 -0.044536296278 1.1272319555 4.5186548233 -0.2072378099 0.99021959305
          4.5335330963 0.11206749827 0.92334389687 4.3321962357 -0.16034509242 0.88920331001
          3.3097200394 -0.10290320963 0.73021501303 3.1101438999 0.080181010067 0.45569860935
          3.0184175968 0.12345609814 0.73364597559 3.0500233173 -0.10988160223 0.76281303167
          1.1638020277 0.033433400095 -0.21218000352 1.4434380531 -0.14066420496 -0.32838499546
          1.1842939854 -0.12854279578 -0.092633001506 1.4162900448 0.058589901775 -0.19647470117
          -4.2742209435 0.42202806473 -0.57460540533 -4.2976675034 0.29178825021 -0.37512549758
          -4.1157817841 0.48770108819 -0.3238914907 -4.0919904709 0.29906708002 -0.39470338821
          -3.1060006618 0.44208559394 -0.78849500418 -2.923997879 0.48139628768 -0.67437797785
          -3.0509493351 0.29688620567 -0.58453899622 -3.2531692982 0.48335590959 -0.6420429945
          -3.5462591648 -0.3417108953 -0.29696801305 -3.5503668785 -0.17767935991 -0.019175993279
          -3.5914151669 -0.15871548653 -0.36829999089 -3.3609697819 -0.25755804777 -0.25123178959
          -1.8079010248 -0.20703689754 -0.34597599506 -2.0975265503 -0.075285196304 -0.43518251181
          -2.0592620373 -0.25566390157 -0.23402400315 -1.9710366726 -0.33433938026 -0.42893758416
          4.9471430779 0.61130398512 0.85095900297 4.9800801277 0.31590399146 0.82129001617
          5.250415802 0.44116699696 0.96342402697 5.2841758728 0.46887099743 0.8069050312
          0.474378407 -0.11557681859 -0.24810600281 0.31893050671 -0.015289099887 -0.15932199359
          0.53519868851 0.048687562346 -0.13842900097 0.48138740659 -0.12545976043 0.10301499814
          4.6259679794 -0.40398031473 0.7512139678 4.5186548233 -0.2072378099 0.99021959305
          4.7853469849 -0.40575119853 0.83861100674 4.7013711929 -0.40805020928 1.0405980349
          1.3826347589 0.0027236009482 0.39376598597 1.6081655025 0.1408970952 0.47529900074
          1.359737277 0.23038239777 0.39317399263 1.5601570606 0.064071901143 0.17068810761
          -4.0446949005 -0.034010000527 -0.39543700218 -3.9158587456 -0.22345404327 -0.33129701018
          -4.0561761856 -0.22405919433 -0.60680097342 -4.1002011299 -0.31287899613 -0.40952581167
          -3.3095912933 0.2773117125 -0.21319679916 -3.5458295345 0.1751678884 -0.0069859996438
          -3.5198493004 0.28535220027 -0.20457419753 -3.2902696133 0.27174562216 0.025448989123
          0.4496409893 -0.20598120987 -0.64667701721 0.35398098826 -0.14804252982 -0.47525811195
          0.49290901423 -0.27051791549 -0.38118758798 0.23998099566 -0.31517469883 -0.51127868891
          -1.2560925484 0.27916309237 -0.88956099749 -1.5809962749 0.26638999581 -0.86372798681
          -1.3401434422 0.47775200009 -0.87771999836 -1.4055235386 0.16061809659 -0.77410399914
          -2.7577950954 0.15421199799 -0.14046099782 -2.761079073 0.3002846241 0.17035700381
          -2.7196071148 0.012619300745 0.16217699647 -2.8941919804 0.276453197 -0.0076509867795
          0.24357970059 -0.27066677809 0.034074999392 0.48138740659 -0.12545976043 0.10301499814
          0.44537511468 -0.27799990773 -0.12429698557 0.54733449221 -0.32747480273 0.11482799798
          4.0860438347 -0.014925898984 0.46736100316 4.0827860832 0.11810979992 0.29750001431
          4.1978611946 0.12986010313 0.5741019845 3.9250519276 0.16208969057 0.46795699
          1.133603096 0.5178232789 0.011582996696 0.85454148054 0.51173609495 -0.11017200351
          1.0401221514 0.23939830065 -0.032525006682 0.98131197691 0.51418298483 -0.26199400425
          2.4399039745 -0.10959740728 -0.0052800015546 2.2454249859 -0.24175401032 -0.0085900025442
          2.5325028896 -0.2637206018 -0.12680798769 2.3959000111 -0.2165030092 -0.38119700551
          -3.3609697819 -0.25755804777 -0.25123178959 -3.3482511044 -0.50422972441 -0.021191004664
          -3.1989395618 -0.20423613489 -0.036946997046 -3.251019001 -0.50599706173 -0.25622180104
          -1.4744634628 -0.41700416803 -1.0684100389 -1.2899454832 -0.49320724607 -1.0851969719
          -1.3901776075 -0.50089198351 -0.8744109869 -1.2655464411 -0.30120876431 -0.88210499287
          -2.3604021072 -0.51019489765 -0.16444499791 -2.2283110619 -0.34106051922 -0.12456599623
          -2.3538520336 -0.5108473897 0.052726007998 -2.4840130806 -0.30007189512 -0.074917010963
          -3.8043015003 -0.00087310036179 -0.39245098829 -3.8068175316 -0.027711499482 -0.64996302128
          -3.5914151669 -0.15871548653 -0.36829999089 -3.5941543579 0.02097989805 -0.47818499804
          0.97589570284 -0.18196713924 0.2518529892 0.807526052 0.036346398294 0.20567299426
          0.81067937613 -0.037577752024 -0.03468298912 1.1398986578 -0.010146999732 0.071502000093
          4.9263429642 0.33198681474 1.4921859503 4.9485001564 0.60167902708 1.3511019945
          5.0761318207 0.58431607485 1.5149459839 4.7883992195 0.58720839024 1.4859639406
          -0.8307570219 -0.058059498668 -0.35817700624 -1.0315690041 0.001321600168 -0.39257600904
          -1.0108540058 -0.22747680545 -0.36507099867 -0.96610802412 -0.023699499667 -0.59952700138
          -3.6591205597 -0.502214849 -0.015271005221 -3.6205406189 -0.31749200821 0.12511700392
          -3.5096030235 -0.50470131636 -0.15045179427 -3.3824651241 -0.30312857032 0.073741987348
          -4.4515519142 -0.45291829109 0.45512139797 -4.4945139885 -0.24172013998 0.45762220025
          -4.6849908829 -0.4852682054 0.41684499383 -4.5711774826 -0.48988559842 0.24580539763
          1.8098720312 0.33792459965 -0.017415300012 1.5727180243 0.33926710486 -0.070410497487
          1.8019828796 0.22406680882 0.18662501872 1.655272007 0.093524098396 -0.11352000386
          3.1400530338 -0.41660821438 0.24456399679 3.0323710442 -0.2302993089 0.32912188768
          3.0756709576 -0.422498703 0.57748502493 2.9719080925 -0.42173939943 0.30924770236
          3.1546220779 0.28414210677 -0.077771998942 2.8881449699 0.23836348951 0.18792100251
          2.9649469852 0.070412486792 0.048234000802 2.8420228958 0.24354210496 -0.20201000571
          3.1393265724 -0.19575251639 1.0545070171 3.3624682426 -0.19947208464 0.94604200125
          3.0500233173 -0.10988160223 0.76281303167 3.167424202 -0.4212833941 0.82355499268
          -1.596382618 -0.17736847699 -1.051363945 -1.8654859066 -0.17263565958 -1.0173939466
          -1.7870930433 -0.33796232939 -0.8220590353 -1.8414185047 -0.36941739917 -1.0222549438
          1.1442159414 -0.0049022994936 -0.49735999107 1.0520069599 -0.24730080366 -0.58848804235
          0.87655997276 -0.11350530386 -0.45971497893 1.1370209455 -0.2310988009 -0.34101459384
          0.54733449221 -0.32747480273 0.11482799798 0.28973901272 -0.46788781881 0.039062999189
          0.44537511468 -0.27799990773 -0.12429698557 0.24357970059 -0.27066677809 0.034074999392
          1.8098720312 0.33792459965 -0.017415300012 1.8019828796 0.22406680882 0.18662501872
          1.8837449551 0.53903061152 0.06517650187 2.0875871181 0.32275497913 0.17387519777
          -0.75858801603 0.17240820825 -0.42690300941 -0.51164197922 0.025980791077 -0.55774062872
          -0.45164808631 0.18338213861 -0.40235000849 -0.5779209733 0.28877097368 -0.57027238607
          3.9133279324 -0.075963594019 0.57894998789 3.8355340958 -0.40645951033 0.54560798407
          3.6680510044 -0.16187010705 0.64812618494 3.8193171024 -0.21124768257 0.82013428211
          1.6362780333 -0.19434309006 -0.1196873039 1.4299919605 -0.4650863111 -0.25022679567
          1.5643210411 -0.27857810259 -0.44123601913 1.4434380531 -0.14066420496 -0.32838499546
          -4.5035572052 0.34405878186 0.45431670547 -4.5572566986 0.23751859367 0.2899813056
          -4.6333608627 0.15650126338 0.46339869499 -4.4532856941 0.16817709804 0.44724240899
          3.5548529625 0.58682149649 0.44130200148 3.7101740837 0.59498238564 0.34702202678
          3.5936889648 0.39519989491 0.35134500265 3.7727000713 0.59062451124 0.58069598675
          5.0587530136 0.088731199503 0.75192797184 4.7792887688 0.17319969833 0.70396101475
          4.7766752243 -0.0062490031123 0.81723797321 4.86105299 0.0081822015345 0.50044000149
          -3.5273160934 0.29413831234 0.15600700676 -3.6565101147 0.11428040266 0.33922699094
          -3.4652879238 0.12876489758 0.30643999577 -3.6940450668 -0.011909330264 0.12301498652
          0.20165160298 -0.28208371997 -0.78509497643 0.066189996898 -0.13907346129 -0.85989201069
          -0.14045800269 -0.19142946601 -0.79101097584 0.084794998169 -0.48656210303 -0.82398599386
          4.7792887688 0.17319969833 0.70396101475 4.548661232 0.31044599414 0.7846570015
          4.5335330963 0.11206749827 0.92334389687 4.6400561333 0.033197704703 0.65296798944
          -3.687541008 0.43435680866 -0.67268902063 -3.4454441071 0.45380440354 -0.71922898293
          -3.4724879265 0.27005422115 -0.50610899925 -3.5693891048 0.4848459959 -0.46422702074
          -3.8971295357 0.23590660095 -0.36395600438 -4.0919904709 0.29906708002 -0.39470338821
          -3.9854476452 0.48504701257 -0.10422489792 -3.9548974037 0.23137070239 -0.10864424706
          -3.9883553982 0.47970271111 0.36896401644 -4.2010884285 0.48155650496 0.20740970969
          -4.373114109 0.48056659102 0.41136088967 -4.1795921326 0.26754778624 0.41782468557
          0.7164170146 -0.01385910064 -0.332908988 0.53519868851 0.048687562346 -0.13842900097
          0.49993100762 0.0054506729357 -0.41626721621 0.58373397589 0.27239969373 -0.33771339059
          -4.0971708298 0.14169080555 0.095920503139 -4.0514550209 0.30707678199 0.23333111405
          -3.8654940128 0.059473201632 0.37344399095 -4.0624485016 0.11422649771 0.40121608973
          -0.85025602579 -0.29496991634 -0.10682400316 -1.0108540058 -0.22747680545 -0.36507099867
          -0.76909697056 -0.29619181156 -0.33838999271 -0.8307570219 -0.058059498668 -0.35817700624
          3.9250519276 0.16208969057 0.46795699 3.9133279324 -0.075963594019 0.57894998789
          4.0860438347 -0.014925898984 0.46736100316 3.8754689693 -0.016982000321 0.21258999407
          0.76200997829 0.19809819758 -0.53690600395 0.49993100762 0.0054506729357 -0.41626721621
          0.6582840085 -0.086143799126 -0.53992497921 0.56008797884 0.052585806698 -0.68334698677
          -3.2531692982 0.48335590959 -0.6420429945 -2.9112796783 0.48190781474 -0.45949801803
          -3.0509493351 0.29688620567 -0.58453899622 -3.2644114494 0.48313009739 -0.43453800678
          -1.224069953 -0.31939327717 -0.31514698267 -1.2913279533 -0.31723329425 -0.56081938744
          -1.1271990538 -0.51521211863 -0.40683698654 -1.0780789852 -0.26223245263 -0.61954492331
          -3.5693891048 0.4848459959 -0.46422702074 -3.4724879265 0.27005422115 -0.50610899925
          -3.5198493004 0.28535220027 -0.20457419753 -3.4978125095 0.48323321342 -0.19416743517
          -3.7788000107 -0.49894934893 0.14450898767 -4.0447149277 -0.49747499824 0.14612358809
          -3.8215641975 -0.23188085854 0.091413997114 -4.0265545845 -0.28167268634 0.21848671138
          4.7657809258 0.38576200604 0.78052300215 4.5828242302 0.39658501744 0.96988636255
          4.5438528061 0.60426002741 0.8030000329 4.7377829552 0.60829901695 0.77481901646
          -3.5458295345 0.1751678884 -0.0069859996438 -3.8129053116 0.21391560137 0.11131499708
          -3.6940450668 -0.011909330264 0.12301498652 -3.8473057747 -0.00070657959441 -0.13606338203
          2.5429031849 0.55357050896 0.69124501944 2.810836792 0.55920171738 0.76666796207
          2.7275784016 0.56002151966 0.53235000372 2.6725535393 0.38265278935 0.65312898159
          0.096351802349 -0.10763604939 -0.42178741097 0.23998099566 -0.31517469883 -0.51127868891
          0.0696529001 -0.32972794771 -0.23890098929 0.24777440727 -0.18341463804 -0.29771098495
          -1.0108540058 -0.22747680545 -0.36507099867 -1.1190869808 -0.42417049408 -0.10118299723
          -0.888019979 -0.52109897137 -0.27666097879 -1.1271990538 -0.51521211863 -0.40683698654
          1.9479429722 -0.26660808921 -0.33822989464 1.7291409969 -0.28722119331 -0.28180330992
          1.90753901 -0.28872641921 -0.54777610302 1.7244919538 -0.11605580151 -0.38782680035
          5.2740988731 0.079818502069 0.87786698341 5.2609939575 0.27832901478 0.92522102594
          5.2214250565 0.24645899236 0.57607001066 5.3150639534 0.048920102417 0.68501400948
          2.4682879448 0.38555598259 -0.10436999053 2.533821106 0.36376240849 -0.31047001481
          2.2763319016 0.28125241399 -0.14818999171 2.4686999321 0.064002029598 -0.14970698953
          -0.29999598861 -0.31015944481 -0.61351531744 -0.14834499359 -0.49472266436 -0.76049399376
          -0.47170200944 -0.50193786621 -0.68685621023 -0.26617699862 -0.50942438841 -0.44230300188
          -3.2997620106 0.21736480296 0.27584698796 -3.2902696133 0.27174562216 0.025448989123
          -3.4292929173 0.39982169867 0.30081498623 -3.5273160934 0.29413831234 0.15600700676
          -0.2450055927 0.36689928174 -0.052769999951 -0.080558300018 0.23630402982 -0.025882000104
          -0.04318710044 0.49930903316 -0.083802998066 -0.092815898359 0.28653284907 -0.26267999411
          -2.7577950954 0.15421199799 -0.14046099782 -2.761079073 0.3002846241 0.17035700381
          -2.5005450249 0.17306339741 0.11759500206 -2.7196071148 0.012619300745 0.16217699647
          3.2137260437 0.23683209717 0.35793501139 3.3498690128 0.38853508234 0.25040599704
          3.1981549263 0.12413520366 0.16969101131 3.4166619778 0.065547503531 0.28209301829
          -5 -0.004447159823 0.13623799384 -5 -0.26007699966 0.21836000681
          -5 -0.12896800041 0.37591099739 -4.7917890549 -0.033734429628 0.26267528534
          4.8283820152 0.36398798227 0.50014001131 4.5893030167 0.61060297489 0.61573702097
          4.8564839363 0.61346799135 0.55668997765 4.7657809258 0.38576200604 0.78052300215
          4.6259679794 -0.40398031473 0.7512139678 4.7351660728 -0.16101920605 0.98147392273
          4.7853469849 -0.40575119853 0.83861100674 4.5186548233 -0.2072378099 0.99021959305
          -3.9332222939 -0.36795258522 -0.62505298853 -3.7473104 -0.28769311309 -0.66039299965
          -3.8566205502 -0.50966030359 -0.52288502455 -3.733959198 -0.32337343693 -0.43397399783
          -4.7780652046 -0.0085761295632 -0.01886684075 -4.5877504349 0.083796218038 -0.033795300871
          -4.6583003998 -0.19147884846 0.13825491071 -4.6630234718 0.13930633664 0.15250210464
          -1.2275027037 0.26585769653 -0.64385217428 -1.2560925484 0.27916309237 -0.88956099749
          -1.3714095354 0.48100718856 -0.68255013227 -1.4055235386 0.16061809659 -0.77410399914
          4.2261519432 -0.095267094672 0.65937298536 4.0834741592 -0.21439018846 0.53021103144
          4.0860438347 -0.014925898984 0.46736100316 3.9133279324 -0.075963594019 0.57894998789
          -3.5458295345 0.1751678884 -0.0069859996438 -3.71869874 0.25738021731 -0.13884219527
          -3.5273160934 0.29413831234 0.15600700676 -3.8129053116 0.21391560137 0.11131499708
          4.4951000214 -0.40278640389 0.62707102299 4.6102437973 -0.26420500875 0.44404000044
          4.6259679794 -0.40398031473 0.7512139678 4.4464259148 -0.17551660538 0.63643395901
          -0.30593618751 0.24488276243 -0.24136300385 -0.46809598804 0.17155979574 -0.082805998623
          -0.45164808631 0.18338213861 -0.40235000849 -0.6164612174 0.29320520163 -0.31236797571
          -4.6010689735 -0.032954148948 -0.34019801021 -4.6692109108 -0.16517569125 -0.19817639887
          -4.7891550064 0.016387579963 -0.29043120146 -4.6259469986 0.16757617891 -0.22007699311
          3.4166619778 0.065547503531 0.28209301829 3.2239820957 -0.14030811191 0.26961100101
          3.3609991074 0.066775999963 0.55516642332 3.4964818954 -0.10279240459 0.43279200792
          2.5194039345 0.221833691 0.014336997643 2.4791090488 0.55759829283 0.014952993952
          2.4682879448 0.38555598259 -0.10436999053 2.7448999882 0.34383347631 0.0055840001442
          2.5194039345 0.221833691 0.014336997643 2.6444098949 0.20465949178 -0.2766700089
          2.4682879448 0.38555598259 -0.10436999053 2.4686999321 0.064002029598 -0.14970698953
          1.3544540405 0.20737339556 0.028903007507 1.2022919655 0.33101278543 -0.21015967429
          1.0401221514 0.23939830065 -0.032525006682 1.1638020277 0.033433400095 -0.21218000352
          3.0461831093 0.56736302376 0.63019996881 3.0462920666 0.35370859504 0.42864450812
          3.0947101116 0.28387919068 0.62956798077 3.2744851112 0.38130360842 0.56395947933
          2.9183690548 -0.10514099896 0.18946899474 2.8575510979 0.064445592463 0.36333754659
          3.0323710442 -0.2302993089 0.32912188768 2.8154499531 -0.22758620977 0.35329309106
          -3.2997620106 0.21736480296 0.27584698796 -3.3706200123 0.48187199235 0.10127900541
          -3.4292929173 0.39982169867 0.30081498623 -3.2902696133 0.27174562216 0.025448989123
          1.5727180243 0.33926710486 -0.070410497487 1.562005043 0.53115862608 -0.25408700109
          1.3614029884 0.52470320463 -0.1519087255 1.40358603 0.24286289513 -0.3494130075
          2.0660989285 -0.22966709733 0.14300569892 2.2508289814 -0.099022090435 0.14436070621
          2.2780179977 -0.12498279661 0.35640898347 1.9838659763 -0.058840800077 0.22020068765
          -4.8499131203 0.16269566119 0.48204991221 -4.6333608627 0.15650126338 0.46339869499
          -4.7025990486 0.30048549175 0.47185480595 -4.745464325 0.3263682127 0.25227379799
          -1.5252443552 0.33827269077 -1.0592859983 -1.2560925484 0.27916309237 -0.88956099749
          -1.2635279894 0.19011539221 -1.0803289413 -1.5809962749 0.26638999581 -0.86372798681
          -4.0446949005 -0.034010000527 -0.39543700218 -3.8043015003 -0.00087310036179 -0.39245098829
          -3.9158587456 -0.22345404327 -0.33129701018 -3.8473057747 -0.00070657959441 -0.13606338203
          4.5119929314 -0.044536296278 1.1272319555 4.7789177895 0.14037750661 0.96490341425
          4.7351660728 -0.16101920605 0.98147392273 4.8456058502 -0.1037119925 1.1854159832
          4.9700870514 -0.40666720271 0.87981498241 4.9587922096 -0.11951480061 0.84872800112
          5.1633911133 -0.40683791041 0.92723697424 5.0362038612 -0.1984565109 1.0518586636
          1.3544540405 0.20737339556 0.028903007507 1.40358603 0.24286289513 -0.3494130075
          1.2022919655 0.33101278543 -0.21015967429 1.4162900448 0.058589901775 -0.19647470117
          -2.6084048748 0.48110160232 -0.5615530014 -2.9112796783 0.48190781474 -0.45949801803
          -2.8207395077 0.30260008574 -0.65172201395 -2.923997879 0.48139628768 -0.67437797785
          2.5194039345 0.221833691 0.014336997643 2.6444098949 0.20465949178 -0.2766700089
          2.7066569328 0.013594998047 0.026080995798 2.8420228958 0.24354210496 -0.20201000571
          -4.394712925 -0.0063827331178 -0.052065320313 -4.2165794373 -0.29792863131 -0.10957739502
          -4.2235832214 -0.18397390842 -0.2816118896 -4.4301371574 -0.28078189492 -0.098592102528
          3.1758000851 0.57594889402 0.29714500904 3.0462920666 0.35370859504 0.42864450812
          3.3498690128 0.38853508234 0.25040599704 3.1256771088 0.35985979438 0.17385299504
          -1.3714095354 0.48100718856 -0.68255013227 -1.6599514484 0.24216479063 -0.65762501955
          -1.4487729073 0.26224949956 -0.55564618111 -1.5809962749 0.26638999581 -0.86372798681
          -4.2873783112 -0.33291450143 -0.56937742233 -4.1405329704 -0.51005542278 -0.4925802052
          -4.4325690269 -0.50963848829 -0.48281699419 -4.2843179703 -0.50610029697 -0.3169965148
          -2.9013741016 -0.1873832345 0.19913700223 -3.0159440041 -0.32825475931 -0.049925994128
          -2.8014369011 -0.27421984076 -0.022419007495 -3.0187089443 -0.037960600108 0.018444009125
          3.3624682426 -0.19947208464 0.94604200125 3.3097200394 -0.10290320963 0.73021501303
          3.599364996 -0.13409550488 0.90844702721 3.4896070957 0.099841497838 0.92870599031
          0.97589570284 -0.18196713924 0.2518529892 0.9749379158 0.10632624477 0.26197698712
          1.1398986578 -0.010146999732 0.071502000093 1.1546875238 0.13383899629 0.32170900702
          2.0875871181 0.32275497913 0.17387519777 2.0810952187 0.34367528558 0.4289650023
          2.2926232815 0.21838380396 0.36620301008 2.0134241581 0.082406297326 0.37211599946
          -1.2275027037 0.26585769653 -0.64385217428 -1.4487729073 0.26224949956 -0.55564618111
          -1.4055235386 0.16061809659 -0.77410399914 -1.3714095354 0.48100718856 -0.68255013227
          0.87655997276 -0.11350530386 -0.45971497893 0.73838502169 -0.23838828504 -0.67500901222
          1.0520069599 -0.24730080366 -0.58848804235 0.93168497086 0.052144400775 -0.6099550128
          -3.0590620041 0.043446499854 -0.27457588911 -2.7996120453 -0.02800030075 -0.034934002906
          -2.9204330444 -0.13243819773 -0.19507199526 -3.0187089443 -0.037960600108 0.018444009125
          -1.5961900949 -0.24007625878 -0.77421802282 -1.3901776075 -0.50089198351 -0.8744109869
          -1.2655464411 -0.30120876431 -0.88210499287 -1.4744634628 -0.41700416803 -1.0684100389
          3.8676540852 -0.40032818913 1.1280800104 3.7870020866 -0.19021171331 1.074723959
          3.8999164104 -0.26179867983 1.3262170553 3.6797263622 -0.37727758288 1.2562580109
          1.1370209455 -0.2310988009 -0.34101459384 1.1842939854 -0.12854279578 -0.092633001506
          0.87983602285 -0.093330197036 -0.22511909902 1.1638020277 0.033433400095 -0.21218000352
          -1.6200009584 -0.10922949761 -0.042343001813 -1.8008160591 -0.23927970231 -0.014976000413
          -1.4899309874 -0.36410149932 -0.064006000757 -1.5985989571 -0.27739399672 -0.2576969862
          1.5581665039 -0.242820099 0.18669840693 1.7837769985 -0.11298939586 0.15795660019
          1.7383420467 -0.46321061254 0.15311719477 1.912476182 -0.21805660427 0.34040221572
          5.0496749878 0.39370700717 0.54334002733 5.2841758728 0.46887099743 0.8069050312
          4.9800801277 0.31590399146 0.82129001617 5.0679278374 0.61340600252 0.65205299854
          -1.6305606365 -0.29367351532 -0.52340888977 -1.5760400295 -0.030635099858 -0.29671400785
          -1.4155100584 -0.21666789055 -0.40096598864 -1.5985989571 -0.27739399672 -0.2576969862
          2.8574714661 -0.22937789559 0.73542100191 3.0500233173 -0.10988160223 0.76281303167
          3.167424202 -0.4212833941 0.82355499268 2.900462389 -0.18088708818 0.95662897825
          -1.1938619614 0.03204099834 -0.66020560265 -1.2481642962 0.04549119994 -0.89113599062
          -1.0723729134 -0.088602088392 -0.8404250145 -1.075802207 0.17113420367 -0.81510698795
          -2.4843699932 0.064298801124 -0.91173398495 -2.6087565422 -0.063813298941 -0.63231498003
          -2.6686131954 0.11487980187 -0.87576198578 -2.6538431644 0.18475399911 -0.59675198793
          -2.3400249481 -0.19343669713 -0.23309500515 -2.3289134502 -0.0023192001972 -0.42081850767
          -2.2999050617 -0.0097464201972 -0.11074100435 -2.5705890656 -0.0096552502364 -0.37767747045
          0.31266918778 0.50222033262 -0.13974998891 0.15476429462 0.49982050061 -0.22475299239
          0.33304131031 0.20393286645 -0.24557299912 0.36727958918 0.50212621689 -0.31630799174
          -3.3997917175 0.20229819417 -0.72843700647 -3.2075111866 0.26916709542 -0.76702600718
          -3.1758265495 0.071973100305 -0.7731680274 -3.2429180145 0.19009520113 -0.47103300691
          -4.7891550064 0.016387579963 -0.29043120146 -4.6010689735 -0.032954148948 -0.34019801021
          -4.8238286972 -0.16162951291 -0.51467502117 -4.7889413834 -0.29244363308 -0.33276119828
          -2.9424054623 0.1131972 -0.47736001015 -2.8207395077 0.30260008574 -0.65172201395
          -2.819904089 0.037339199334 -0.66302698851 -2.6538431644 0.18475399911 -0.59675198793
          0.15515929461 0.27147474885 -0.81783097982 0.10719139874 0.28679504991 -0.54870027304
          0.014425000176 0.49165633321 -0.66029900312 0.22630690038 0.49578845501 -0.65596997738
          0.32351368666 -0.50792455673 -0.14887700975 0.44537511468 -0.27799990773 -0.12429698557
          0.34409999847 -0.50164806843 -0.32478198409 0.4930306077 -0.50028795004 -0.18466299772
          1.5581665039 -0.242820099 0.18669840693 1.3826347589 0.0027236009482 0.39376598597
          1.5601570606 0.064071901143 0.17068810761 1.5706268549 -0.052340894938 0.45530718565
          4.2772049904 0.36336359382 0.94083797932 4.2345128059 0.15581940114 1.1804380417
          4.285888195 0.099320337176 0.90528231859 4.0205068588 0.28315189481 1.0268609524
          0.15515929461 0.27147474885 -0.81783097982 -0.091403998435 0.28790903091 -0.89287102222
          -0.10962300003 0.48779779673 -0.82918798923 0.014425000176 0.49165633321 -0.66029900312
          1.1091860533 0.2945098877 -0.77885699272 1.0754319429 0.25025811791 -0.42730200291
          1.323251009 0.38888579607 -0.71256399155 1.2660080194 0.1764563024 -0.51763701439
          -1.0108540058 -0.22747680545 -0.36507099867 -1.1271990538 -0.51521211863 -0.40683698654
          -0.888019979 -0.52109897137 -0.27666097879 -0.99892598391 -0.51049762964 -0.55400800705
          -1.8008160591 -0.23927970231 -0.014976000413 -1.8710329533 -0.32551139593 -0.18849799037
          -1.9509960413 -0.51507622004 -0.028830006719 -1.8229030371 -0.51682400703 -0.13109901547
          0.58373397589 0.27239969373 -0.33771339059 0.52244597673 0.28034487367 -0.58197897673
          0.41060099006 0.50051188469 -0.52816462517 0.32533699274 0.30109125376 -0.45768621564
          -3.0590620041 0.043446499854 -0.27457588911 -3.2429180145 0.19009520113 -0.47103300691
          -3.3023517132 0.0064315996133 -0.24028472602 -3.1901597977 0.0029790997505 -0.4238820076
          -2.8796532154 -0.32189744711 -0.3305183053 -2.9204330444 -0.13243819773 -0.19507199526
          -2.9648208618 -0.08248540014 -0.41598600149 -2.8155953884 -0.19327259064 -0.5224930048
          -2.3224203587 0.14642329514 -0.60301297903 -2.3340997696 0.29154390097 -0.43325453997
          -2.4924480915 0.1497296989 -0.4765163064 -2.4720232487 0.27283710241 -0.72016400099
          -2.0529088974 0.052241001278 -0.20910900831 -2.0933618546 0.23922790587 -0.44598591328
          -1.8419760466 0.17466241121 -0.33885499835 -2.0947520733 0.29650449753 -0.21109998226
          -2.741081953 0.32292592525 -0.24629439414 -2.7821593285 0.30021998286 -0.44675600529
          -2.9400956631 0.27705860138 -0.27815890312 -2.8009653091 0.022092198953 -0.32149419188
          4.7013711929 -0.40805020928 1.0405980349 4.9225811958 -0.41055479646 1.0575927496
          4.7351660728 -0.16101920605 0.98147392273 4.7853469849 -0.40575119853 0.83861100674
          3.9061729908 0.52652400732 0.245728001 3.7727000713 0.59062451124 0.58069598675
          4.1101632118 0.60391497612 0.52134698629 3.9646220207 0.41419330239 0.50147998333
          -2.4720232487 0.27283710241 -0.72016400099 -2.6686131954 0.11487980187 -0.87576198578
          -2.6538431644 0.18475399911 -0.59675198793 -2.4843699932 0.064298801124 -0.91173398495
          -0.27925050259 -0.14596910775 -0.065104998648 -0.37324941158 -0.23546770215 -0.36768600345
          -0.264005512 0.0059295003302 -0.30922400951 -0.43998798728 -0.035619899631 -0.082337997854
          -1.5961900949 -0.24007625878 -0.77421802282 -1.6305606365 -0.29367351532 -0.52340888977
          -1.5043648481 -0.50604504347 -0.71901899576 -1.6989388466 -0.50504058599 -0.72892701626
          -3.5941543579 0.02097989805 -0.47818499804 -3.5914151669 -0.15871548653 -0.36829999089
          -3.5523664951 0.0045121996664 -0.18042999506 -3.3833937645 -0.032667398453 -0.48868498206
          1.1638020277 0.033433400095 -0.21218000352 1.1398986578 -0.010146999732 0.071502000093
          1.4162900448 0.058589901775 -0.19647470117 1.1842939854 -0.12854279578 -0.092633001506
          3.9359619617 0.090236805379 1.1565029621 4.0558829308 0.27783259749 1.3923959732
          4.0751972198 0.034389801323 1.3754040003 3.8712925911 0.060066998005 1.3235830069
          -0.25258800387 0.48134300113 -1.0479999781 -0.3020440042 0.48588180542 -0.73787802458
          -0.33919200301 0.20730000734 -0.79884600639 -0.47368499637 0.48183679581 -0.90071099997
          -2.0836164951 0.47975090146 -0.66095596552 -2.1449475288 0.47599279881 -0.93732100725
          -2.1485760212 0.26226508617 -0.74843597412 -1.8841609955 0.47777590156 -0.81263101101
          -4.6259469986 0.16757617891 -0.22007699311 -4.7780652046 -0.0085761295632 -0.01886684075
          -4.5877504349 0.083796218038 -0.033795300871 -4.7891550064 0.016387579963 -0.29043120146
          1.4301359653 -0.33039590716 0.39710000157 1.4743545055 -0.47509750724 0.23366600275
          1.2453129292 -0.22395838797 0.33866900206 1.2560261488 -0.45418319106 0.33257600665
          -0.63126498461 -0.15162830055 -0.47663301229 -0.66083502769 -0.29501193762 -0.69995200634
          -0.51817697287 -0.33874639869 -0.53937000036 -0.42318299413 -0.15868732333 -0.55037420988
          -2.5937309265 -0.094380997121 -0.091197997332 -2.8009653091 0.022092198953 -0.32149419188
          -2.9204330444 -0.13243819773 -0.19507199526 -2.6131467819 -0.26515978575 -0.30168119073
          3.8757009506 -0.27522069216 0.20697000623 3.5797228813 -0.13064749539 0.085768997669
          3.7608931065 -0.4066208899 0.33188599348 3.5423920155 -0.34106731415 0.063364997506
          -2.3477945328 -0.017081549391 -0.75131797791 -2.4353275299 -0.11288639903 -0.92088502645
          -2.6087565422 -0.063813298941 -0.63231498003 -2.3716421127 -0.18197050691 -0.6025840044
          1.914431572 0.53861421347 0.26570081711 2.0875871181 0.32275497913 0.17387519777
          2.1985135078 0.54629540443 0.35489299893 2.2603468895 0.54986870289 0.12335199863
          -0.080558300018 0.23630402982 -0.025882000104 0.12283880264 0.27401307225 -0.19243100286
          -0.092815898359 0.28653284907 -0.26267999411 -0.088332302868 0.076261751354 -0.21729001403
          1.8266550303 0.23588789999 -0.55572861433 1.8998550177 0.038344699889 -0.53832769394
          1.6285569668 0.23750409484 -0.61983597279 1.5854810476 0.084593199193 -0.4168010056
          1.7200000286 0.27868279815 -0.33277949691 1.8266550303 0.23588789999 -0.55572861433
          1.6285569668 0.23750409484 -0.61983597279 1.5854810476 0.084593199193 -0.4168010056
          -2.6084048748 0.48110160232 -0.5615530014 -2.923997879 0.48139628768 -0.67437797785
          -2.8207395077 0.30260008574 -0.65172201395 -2.7109742165 0.4802801013 -0.74906599522
          0.79302960634 -0.29305431247 -0.039216998965 0.87983602285 -0.093330197036 -0.22511909902
          0.67708927393 -0.18054930866 -0.18623100221 0.91907000542 -0.28306537867 -0.28310790658
          3.4191789627 0.57933980227 0.56054317951 3.2744851112 0.38130360842 0.56395947933
          3.3910770416 0.58322429657 0.34406098723 3.1758000851 0.57594889402 0.29714500904
          -2.3905160427 0.48403820395 -0.18478998542 -2.5093328953 0.4845136106 0.027746003121
          -2.1859169006 0.48576170206 -0.060932002962 -2.4349720478 0.31375589967 -0.069557994604
          -3.0849509239 0.17763519287 -0.079053997993 -2.7996120453 -0.02800030075 -0.034934002906
          -3.0590620041 0.043446499854 -0.27457588911 -3.0187089443 -0.037960600108 0.018444009125
          -4.6960554123 0.49519553781 -0.24164129794 -4.7578840256 0.28817969561 -0.030578099191
          -4.6259469986 0.16757617891 -0.22007699311 -4.7826919556 0.30165764689 -0.29666978121
          -1.075802207 0.17113420367 -0.81510698795 -1.1938619614 0.03204099834 -0.66020560265
          -0.90989202261 0.24085079134 -0.62744837999 -0.96610802412 -0.023699499667 -0.59952700138
          4.0632171631 0.57045120001 1.2416960001 4.0298194885 0.42154958844 1.3837649822
          4.2064089775 0.54333531857 1.4228320122 4.2713618279 0.37677168846 1.2242929935
          0.89502197504 0.51158940792 -0.54344600439 0.98131197691 0.51418298483 -0.26199400425
          1.23584795 0.52147328854 -0.44651499391 1.0754319429 0.25025811791 -0.42730200291
          0.08132699877 -0.24986088276 -1.0299509764 -0.11249899864 -0.48702061176 -0.93265897036
          -0.14045800269 -0.19142946601 -0.79101097584 0.084794998169 -0.48656210303 -0.82398599386
          -2.5705890656 -0.0096552502364 -0.37767747045 -2.7577950954 0.15421199799 -0.14046099782
          -2.4908249378 0.11884979904 -0.11749400944 -2.5937309265 -0.094380997121 -0.091197997332
          0.8415030241 0.30299159884 -0.85388797522 0.94843697548 0.30960980058 -0.61462700367
          1.1091860533 0.2945098877 -0.77885699272 0.94738799334 0.12911939621 -0.82793599367
          -3.5941543579 0.02097989805 -0.47818499804 -3.8043015003 -0.00087310036179 -0.39245098829
          -3.5523664951 0.0045121996664 -0.18042999506 -3.5914151669 -0.15871548653 -0.36829999089
          -1.3984810114 0.086329601705 -0.26900598407 -1.5091439486 0.10905019939 -0.055601000786
          -1.684795022 0.12831169367 -0.21073399484 -1.545979023 0.22976130247 -0.33403101563
          2.5507669449 -0.059395201504 0.81727099419 2.3686749935 -0.11354149133 0.74313497543
          2.5117163658 0.16574789584 0.5378869772 2.3105502129 0.12302970141 0.72935801744
          4.3321962357 -0.16034509242 0.88920331001 4.4079709053 -0.40386489034 0.85058301687
          4.2745900154 -0.40359979868 0.66799497604 4.1675348282 -0.40187141299 0.870411098
          3.6210319996 -0.40883889794 0.49147000909 3.3867809772 -0.23781871796 0.5709104538
          3.49279809 -0.41079649329 0.65922492743 3.3344159126 -0.41385099292 0.43574500084
          4.9800801277 0.31590399146 0.82129001617 5.0286197662 0.27560698986 1.0374772549
          5.0476732254 0.61224198341 1.0092389584 5.250415802 0.44116699696 0.96342402697
          -4.4882779121 -0.32354712486 0.15183719993 -4.3568739891 -0.16453392804 0.20460030437
          -4.4301371574 -0.28078189492 -0.098592102528 -4.2297291756 -0.32805991173 0.13521359861
          -2.2999050617 -0.0097464201972 -0.11074100435 -2.0529088974 0.052241001278 -0.20910900831
          -2.3400249481 -0.19343669713 -0.23309500515 -2.0592620373 -0.25566390157 -0.23402400315
          -1.7352849245 0.25046640635 -1.035277009 -1.825833559 0.060503903776 -1.0222599506
          -1.6661914587 0.0097754001617 -0.81471097469 -1.5627611876 0.064892105758 -1.05468297
          1.8784749508 -0.24840208888 0.010538879782 1.9479429722 -0.26660808921 -0.33822989464
          2.0085380077 -0.44803181291 -0.051146503538 1.9164220095 -0.13674210012 -0.17615103722
          -2.0245499611 0.48440909386 -0.34754398465 -2.1859169006 0.48576170206 -0.060932002962
          -2.0947520733 0.29650449753 -0.21109998226 -2.3905160427 0.48403820395 -0.18478998542
          -1.2323629856 0.48578119278 -0.53944307566 -1.4487729073 0.26224949956 -0.55564618111
          -1.5147645473 0.48376119137 -0.53487837315 -1.3793640137 0.48962751031 -0.2810100019
          -2.1485760212 0.26226508617 -0.74843597412 -2.3831439018 0.30391207337 -0.93155002594
          -2.188603878 0.16068729758 -0.96540898085 -2.1449475288 0.47599279881 -0.93732100725
          -4.4301371574 -0.28078189492 -0.098592102528 -4.5914802551 -0.50413167477 -0.23168960214
          -4.6158905029 -0.49994170666 -0.083305798471 -4.4304690361 -0.50256663561 -0.13597680628
          -2.1485760212 0.26226508617 -0.74843597412 -2.3831152916 0.479411304 -0.7015529871
          -2.3340997696 0.29154390097 -0.43325453997 -2.3224203587 0.14642329514 -0.60301297903
          4.7970080376 0.40450099111 0.99685043097 5.0302901268 0.43874397874 1.1967389584
          5.0286197662 0.27560698986 1.0374772549 4.8725390434 0.29623439908 1.2086399794
          -0.61225312948 -0.48133009672 -0.10661300272 -0.65379941463 -0.29078039527 -0.10148400068
          -0.56078988314 -0.3168579042 -0.30044898391 -0.4785284996 -0.28558018804 -0.089541003108
          -1.4055235386 0.16061809659 -0.77410399914 -1.4535621405 -0.08741620183 -0.88498598337
          -1.4074389935 -0.049107201397 -0.5518643856 -1.3103187084 -0.16647019982 -0.72021299601
          1.3097800016 -0.27519398928 -0.1584803015 1.4299919605 -0.4650863111 -0.25022679567
          1.1713650227 -0.47730788589 -0.15520529449 1.3789390326 -0.47327530384 -0.003226995701
          -2.5005450249 0.17306339741 0.11759500206 -2.2999050617 -0.0097464201972 -0.11074100435
          -2.3502340317 -0.11054370552 0.087472997606 -2.1283559799 0.094898201525 0.043953001499
          -3.2429180145 0.19009520113 -0.47103300691 -3.0509493351 0.29688620567 -0.58453899622
          -3.1758265495 0.071973100305 -0.7731680274 -3.0660376549 -0.035237099975 -0.601772964
          1.4162900448 0.058589901775 -0.19647470117 1.5727180243 0.33926710486 -0.070410497487
          1.3544540405 0.20737339556 0.028903007507 1.40358603 0.24286289513 -0.3494130075
          -3.9980287552 -0.32266074419 -0.13652320206 -4.1002011299 -0.31287899613 -0.40952581167
          -4.2165794373 -0.29792863131 -0.10957739502 -4.0492649078 -0.50518339872 -0.26489710808
          -4.0561761856 -0.22405919433 -0.60680097342 -3.9332222939 -0.36795258522 -0.62505298853
          -4.1002011299 -0.31287899613 -0.40952581167 -3.9158587456 -0.22345404327 -0.33129701018
          4.7351660728 -0.16101920605 0.98147392273 4.9991178513 0.039471499622 1.0460796356
          5.0362038612 -0.1984565109 1.0518586636 4.8456058502 -0.1037119925 1.1854159832
          0.4496409893 -0.20598120987 -0.64667701721 0.54373598099 -0.25898191333 -0.94053697586
          0.73838502169 -0.23838828504 -0.67500901222 0.6468949914 -0.072852902114 -0.91035401821
          -3.1700980663 0.079973198473 0.25145700574 -3.2902696133 0.27174562216 0.025448989123
          -3.0553820133 0.29404971004 0.22911499441 -3.2997620106 0.21736480296 0.27584698796
          -4.6145296097 0.48269069195 0.36654379964 -4.4874916077 0.48258560896 0.25255030394
          -4.745464325 0.3263682127 0.25227379799 -4.5572566986 0.23751859367 0.2899813056
          0.23998099566 -0.31517469883 -0.51127868891 0.34409999847 -0.50164806843 -0.32478198409
          0.49290901423 -0.27051791549 -0.38118758798 0.41597700119 -0.49056598544 -0.53072541952
          3.1256771088 0.35985979438 0.17385299504 2.9649469852 0.070412486792 0.048234000802
          2.8881449699 0.23836348951 0.18792100251 3.1981549263 0.12413520366 0.16969101131
          2.4849748611 -0.2620677948 0.78334200382 2.3686749935 -0.11354149133 0.74313497543
          2.5335454941 -0.19222688675 0.50451397896 2.5507669449 -0.059395201504 0.81727099419
          0.58373397589 0.27239969373 -0.33771339059 0.33304131031 0.20393286645 -0.24557299912
          0.32533699274 0.30109125376 -0.45768621564 0.36727958918 0.50212621689 -0.31630799174
          -3.5503668785 -0.17767935991 -0.019175993279 -3.6205406189 -0.31749200821 0.12511700392
          -3.4821026325 -0.046573873609 0.11716599017 -3.3824651241 -0.30312857032 0.073741987348
          -1.0361119509 0.21812960505 -0.37398898602 -1.293176055 0.1205618009 -0.45924699306
          -1.1750420332 0.11218670756 -0.27856901288 -1.0315690041 0.001321600168 -0.39257600904
          -3.2075111866 0.26916709542 -0.76702600718 -2.8732545376 0.220630005 -0.8351380229
          -3.0065186024 0.11188069731 -0.80747801065 -3.0509493351 0.29688620567 -0.58453899622
          -0.80718201399 -0.50908124447 -0.54855680466 -0.55649799109 -0.51590490341 -0.39866101742
          -0.51817697287 -0.33874639869 -0.53937000036 -0.67207598686 -0.50358366966 -0.68930828571
          -1.3917900324 -0.51799577475 -0.23380000889 -1.224069953 -0.31939327717 -0.31514698267
          -1.2214440107 -0.234099105 -0.087950997055 -1.4899309874 -0.36410149932 -0.064006000757
          0.34409999847 -0.50164806843 -0.32478198409 0.082827799022 -0.50211364031 -0.4565897882
          0.41597700119 -0.49056598544 -0.53072541952 0.23998099566 -0.31517469883 -0.51127868891
          -0.62074798346 -0.15536004305 -1.0920000076 -0.64104998112 -0.30240130424 -0.9189350009
          -0.87940299511 -0.1013680622 -1.096660018 -0.65971499681 -0.068506918848 -0.89710998535
          -2.3716421127 -0.18197050691 -0.6025840044 -2.4961392879 -0.28663662076 -0.90913802385
          -2.6172776222 -0.17857418954 -0.88542699814 -2.5882301331 -0.30685323477 -0.65421998501
          -4.7891550064 0.016387579963 -0.29043120146 -4.6010689735 -0.032954148948 -0.34019801021
          -4.6036734581 0.038398779929 -0.53355240822 -4.6480989456 -0.13892398775 -0.52972179651
          1.1952601671 -0.29477098584 0.064541012049 0.95090967417 -0.35872739553 0.2368170023
          0.98700541258 -0.19875110686 -0.078704997897 0.97589570284 -0.18196713924 0.2518529892
          3.3097200394 -0.10290320963 0.73021501303 3.2812619209 -0.41720849276 0.63608801365
          3.3867809772 -0.23781871796 0.5709104538 3.1153120995 -0.17042639852 0.52375102043
          3.8910729885 -0.40569660068 0.7535443902 3.8355340958 -0.40645951033 0.54560798407
          3.8193171024 -0.21124768257 0.82013428211 3.7057540417 -0.40722391009 0.7109375596
          2.6536407471 0.42629250884 0.87590301037 2.810836792 0.55920171738 0.76666796207
          2.9040269852 0.39754191041 0.64887100458 2.8261909485 0.28350150585 0.9414550066
          -5 0.1004910022 -0.10199099779 -5 -0.16616299748 -0.067754097283
          -5 -0.004447159823 0.13623799384 -4.7780652046 -0.0085761295632 -0.01886684075
          4.5119929314 -0.044536296278 1.1272319555 4.6312479973 -0.18212139606 1.2574429512
          4.372276783 -0.18564900756 1.2451930046 4.4053249359 -0.07816299051 1.462864995
          2.9183690548 -0.10514099896 0.18946899474 3.0323710442 -0.2302993089 0.32912188768
          3.0793170929 -0.24457119405 0.11937200278 2.9301850796 -0.41978639364 0.12177300453
          5.0476732254 0.61224198341 1.0092389584 5.1848549843 0.61228102446 1.2231149673
          5.2397999763 0.61484199762 0.9742590189 5.2164421082 0.40284201503 1.1155520678
          0.70296800137 0.32958817482 -0.69135397673 0.76200997829 0.19809819758 -0.53690600395
          0.76892197132 0.11045709997 -0.87638199329 0.56008797884 0.052585806698 -0.68334698677
          2.4244749546 -0.42912569642 -0.22337199748 2.1323330402 -0.24952030182 -0.2159884125
          2.1658439636 -0.43505328894 -0.3575527072 2.3959000111 -0.2165030092 -0.38119700551
          -0.49614500999 -0.18467617035 -0.78485298157 -0.42318299413 -0.15868732333 -0.55037420988
          -0.28265699744 -0.012162780389 -0.58007609844 -0.29999598861 -0.31015944481 -0.61351531744
          2.6138679981 0.31076711416 0.28303608298 2.2926232815 0.21838380396 0.36620301008
          2.5975399017 0.036539699882 0.30856120586 2.3748869896 0.069039702415 0.16169330478
          -1.7037880421 -0.51201498508 -0.40343299508 -1.8079010248 -0.20703689754 -0.34597599506
          -1.9083119631 -0.51320451498 -0.2680529952 -1.9710366726 -0.33433938026 -0.42893758416
          -3.7273154259 0.27898979187 -0.49260097742 -3.4724879265 0.27005422115 -0.50610899925
          -3.6580049992 0.19486609101 -0.67846798897 -3.5941543579 0.02097989805 -0.47818499804
          -2.3604021072 -0.51019489765 -0.16444499791 -2.4840130806 -0.30007189512 -0.074917010963
          -2.3538520336 -0.5108473897 0.052726007998 -2.5874330997 -0.50843310356 -0.077546991408
          -2.3224203587 0.14642329514 -0.60301297903 -2.1201012135 -0.050273101777 -0.70986998081
          -2.1330692768 0.078793898225 -0.55708521605 -2.1485760212 0.26226508617 -0.74843597412
          3.550276041 0.36652091146 0.69562649727 3.7448599339 0.30333548784 0.49451100826
          3.5548529625 0.58682149649 0.44130200148 3.5936889648 0.39519989491 0.35134500265
          1.2453129292 -0.22395838797 0.33866900206 1.2560261488 -0.45418319106 0.33257600665
          1.1952601671 -0.29477098584 0.064541012049 1.0654981136 -0.48984488845 0.18946000934
          -3.5458295345 0.1751678884 -0.0069859996438 -3.6940450668 -0.011909330264 0.12301498652
          -3.5523664951 0.0045121996664 -0.18042999506 -3.8473057747 -0.00070657959441 -0.13606338203
          3.1256771088 0.35985979438 0.17385299504 3.2137260437 0.23683209717 0.35793501139
          2.8881449699 0.23836348951 0.18792100251 3.0462920666 0.35370859504 0.42864450812
          0.18558773398 0.49153119326 -0.87829899788 0.073762997985 0.35499945283 -1.0218420029
          -0.091403998435 0.28790903091 -0.89287102222 0.15515929461 0.27147474885 -0.81783097982
          0.66463452578 0.50741457939 -0.17443799973 0.84688097239 0.325525105 -0.34160640836
          0.70016598701 0.50710338354 -0.40990638733 0.58373397589 0.27239969373 -0.33771339059
          -4.3568739891 -0.16453392804 0.20460030437 -4.1561627388 -0.30235728621 0.4173707962
          -4.2297291756 -0.32805991173 0.13521359861 -4.3543543816 -0.49132984877 0.25861698389
          -0.83420801163 -0.058261297643 -0.10190299898 -0.6087269187 0.024860799313 -0.30977600813
          -0.8307570219 -0.058059498668 -0.35817700624 -0.62142932415 -0.09965570271 -0.097244001925
          2.8127799034 0.36863431334 0.39534589648 2.6138679981 0.31076711416 0.28303608298
          2.5151159763 0.5552688241 0.37893998623 2.4725689888 0.38891109824 0.53518199921
          -4.2297291756 -0.32805991173 0.13521359861 -4.1561627388 -0.30235728621 0.4173707962
          -4.0673441887 -0.49335995317 0.36177811027 -4.3543543816 -0.49132984877 0.25861698389
          -0.055491000414 -0.26846665144 -0.58021008968 -0.045155998319 0.014279329218 -0.54846435785
          0.13293649256 -0.12217481434 -0.6249139905 0.096351802349 -0.10763604939 -0.42178741097
          -0.2487116009 0.11720266938 -0.055061001331 -0.088332302868 0.076261751354 -0.21729001403
          -0.092815898359 0.28653284907 -0.26267999411 -0.30593618751 0.24488276243 -0.24136300385
          3.2744851112 0.38130360842 0.56395947933 3.550276041 0.36652091146 0.69562649727
          3.4191789627 0.57933980227 0.56054317951 3.4329230785 0.25877740979 0.41826298833
          -2.4720232487 0.27283710241 -0.72016400099 -2.6349360943 0.29374942183 -0.88281100988
          -2.6538431644 0.18475399911 -0.59675198793 -2.6686131954 0.11487980187 -0.87576198578
          -2.4843699932 0.064298801124 -0.91173398495 -2.6087565422 -0.063813298941 -0.63231498003
          -2.7248899937 -0.058732099831 -0.86423897743 -2.6686131954 0.11487980187 -0.87576198578
          1.1881120205 0.31921857595 0.10735101253 1.1094706059 0.31878361106 0.31281399727
          0.9749379158 0.10632624477 0.26197698712 0.92705971003 0.28618240356 0.2508969903
          -2.5882301331 -0.30685323477 -0.65421998501 -2.8155953884 -0.19327259064 -0.5224930048
          -2.6578717232 -0.50742650032 -0.52386301756 -2.8126263618 -0.50702655315 -0.63701498508
          -4.0265545845 -0.28167268634 0.21848671138 -4.1840386391 -0.02179926075 0.21181380749
          -4.2297291756 -0.32805991173 0.13521359861 -4.1034150124 -0.18890102208 0.022778199986
          2.3686749935 -0.11354149133 0.74313497543 2.1238291264 -0.18699400127 0.64728599787
          2.2356448174 -0.32073310018 0.68389499187 2.3304371834 -0.26972290874 0.49684798717
          4.9596247673 0.084158137441 1.2836079597 5.1940898895 0.12840040028 1.2278339863
          4.9991178513 0.039471499622 1.0460796356 5.1611480713 -0.11739530414 1.3518660069
          1.7244919538 -0.11605580151 -0.38782680035 1.5975199938 -0.11391670257 -0.6415219903
          1.6978210211 -0.28733319044 -0.61622899771 1.8998550177 0.038344699889 -0.53832769394
          0.18558773398 0.49153119326 -0.87829899788 0.15515929461 0.27147474885 -0.81783097982
          -0.10962300003 0.48779779673 -0.82918798923 0.014425000176 0.49165633321 -0.66029900312
          -4.4088745117 0.030903441831 -0.32176870108 -4.6010689735 -0.032954148948 -0.34019801021
          -4.5877504349 0.083796218038 -0.033795300871 -4.394712925 -0.0063827331178 -0.052065320313
          -4.2421140671 -0.50075817108 -0.098954796791 -4.3444986343 -0.49644988775 0.069615103304
          -4.4301371574 -0.28078189492 -0.098592102528 -4.2165794373 -0.29792863131 -0.10957739502
          -1.8772009611 0.48616209626 -0.20101100206 -1.7097920179 0.31207630038 -0.45334500074
          -1.8419760466 0.17466241121 -0.33885499835 -1.7018979788 0.48639988899 -0.31914901733
          -4.6010689735 -0.032954148948 -0.34019801021 -4.7891550064 0.016387579963 -0.29043120146
          -4.6036734581 0.038398779929 -0.53355240822 -4.6259469986 0.16757617891 -0.22007699311
          3.1758000851 0.57594889402 0.29714500904 3.1963329315 0.58174359798 -0.046583991498
          3.1256771088 0.35985979438 0.17385299504 3.3937470913 0.42309600115 0.025817999616
          3.0206739902 0.45230871439 -0.12432000041 3.1256771088 0.35985979438 0.17385299504
          3.1963329315 0.58174359798 -0.046583991498 3.1546220779 0.28414210677 -0.077771998942
          -2.5005450249 0.17306339741 0.11759500206 -2.4908249378 0.11884979904 -0.11749400944
          -2.3502340317 -0.11054370552 0.087472997606 -2.2999050617 -0.0097464201972 -0.11074100435
          -3.7853329182 0.48204940557 0.059275992215 -3.7645668983 0.47991481423 0.33562999964
          -3.8129053116 0.21391560137 0.11131499708 -4.0514550209 0.30707678199 0.23333111405
          4.6259679794 -0.40398031473 0.7512139678 4.7822642326 -0.20231451094 0.72078299522
          4.736287117 -0.4010592103 0.59583199024 4.7853469849 -0.40575119853 0.83861100674
          0.81067937613 -0.037577752024 -0.03468298912 0.53519868851 0.048687562346 -0.13842900097
          0.85527962446 0.15694072843 0.023737987503 0.5864264369 0.083424940705 0.13992400467
          -4.1004319191 0.30029353499 -0.60041797161 -3.8699226379 0.21788460016 -0.63997101784
          -3.8971295357 0.23590660095 -0.36395600438 -3.9273982048 0.42422729731 -0.62899297476
          0.34905490279 0.20103774965 0.07488899678 0.1771903038 0.016279280186 0.027272000909
          0.30940818787 -0.10097020119 0.057927999645 0.31893050671 -0.015289099887 -0.15932199359
          -2.5005450249 0.17306339741 0.11759500206 -2.7196071148 0.012619300745 0.16217699647
          -2.5937309265 -0.094380997121 -0.091197997332 -2.4908249378 0.11884979904 -0.11749400944
          -0.012552999891 -0.06247812137 -1.0391819477 0.08132699877 -0.24986088276 -1.0299509764
          0.066189996898 -0.13907346129 -0.85989201069 0.20461019874 -0.067686937749 -1.0017780066
          3.8910729885 -0.40569660068 0.7535443902 4.0511579514 -0.20270109177 0.7991797924
          3.9133279324 -0.075963594019 0.57894998789 4.0834741592 -0.21439018846 0.53021103144
          1.7636737823 0.046389199793 0.32517156005 1.6243675947 -0.24140480161 0.4665620923
          1.5706268549 -0.052340894938 0.45530718565 1.8082741499 -0.041739497334 0.53896141052
          3.2744851112 0.38130360842 0.56395947933 3.0462920666 0.35370859504 0.42864450812
          3.2137260437 0.23683209717 0.35793501139 3.3498690128 0.38853508234 0.25040599704
          -0.64104998112 -0.30240130424 -0.9189350009 -1.0344099998 -0.31266370416 -0.88067400455
          -0.82459098101 -0.20698645711 -0.80915498734 -0.74040699005 -0.49768507481 -0.86798501015
          2.6725535393 0.38265278935 0.65312898159 2.810836792 0.55920171738 0.76666796207
          2.7275784016 0.56002151966 0.53235000372 2.9040269852 0.39754191041 0.64887100458
          4.2263350487 -0.055008299649 1.4182280302 4.4337921143 0.1125216037 1.254134059
          4.4053249359 -0.07816299051 1.462864995 4.33537817 0.096284002066 1.4644019604
          0.0696529001 -0.32972794771 -0.23890098929 -0.081785798073 -0.18698275089 -0.35594800115
          0.096351802349 -0.10763604939 -0.42178741097 0.098207399249 -0.032019931823 -0.19597899914
          -2.5005450249 0.17306339741 0.11759500206 -2.7196071148 0.012619300745 0.16217699647
          -2.3502340317 -0.11054370552 0.087472997606 -2.5937309265 -0.094380997121 -0.091197997332
          -1.293176055 0.1205618009 -0.45924699306 -1.1938619614 0.03204099834 -0.66020560265
          -1.2111840248 -0.1263563931 -0.52467823029 -1.0315690041 0.001321600168 -0.39257600904
          -1.9710366726 -0.33433938026 -0.42893758416 -2.0975265503 -0.075285196304 -0.43518251181
          -2.0592620373 -0.25566390157 -0.23402400315 -2.1776151657 -0.33875748515 -0.37888690829
          -4.0265545845 -0.28167268634 0.21848671138 -4.1840386391 -0.02179926075 0.21181380749
          -4.3568739891 -0.16453392804 0.20460030437 -4.2297291756 -0.32805991173 0.13521359861
          3.4926049709 0.5762001276 0.76709657907 3.4191789627 0.57933980227 0.56054317951
          3.2744851112 0.38130360842 0.56395947933 3.550276041 0.36652091146 0.69562649727
          4.5119929314 -0.044536296278 1.1272319555 4.6513729095 0.13981750607 1.2424490452
          4.7789177895 0.14037750661 0.96490341425 4.8456058502 -0.1037119925 1.1854159832
          -1.3917900324 -0.51799577475 -0.23380000889 -1.5197509527 -0.51312232018 -0.42337998748
          -1.5985989571 -0.27739399672 -0.2576969862 -1.5839049816 -0.51631599665 -0.24902200699
          -3.0849509239 0.17763519287 -0.079053997993 -2.7577950954 0.15421199799 -0.14046099782
          -3.0590620041 0.043446499854 -0.27457588911 -2.7996120453 -0.02800030075 -0.034934002906
          0.073527999222 0.1395072788 -1.023146987 -0.22330099344 0.23585693538 -1.0619950294
          -0.091403998435 0.28790903091 -0.89287102222 -0.18109099567 0.051842641085 -1.0570659637
          -1.6305606365 -0.29367351532 -0.52340888977 -1.5197509527 -0.51312232018 -0.42337998748
          -1.5043648481 -0.50604504347 -0.71901899576 -1.6989388466 -0.50504058599 -0.72892701626
          2.5151159763 0.5552688241 0.37893998623 2.1985135078 0.54629540443 0.35489299893
          2.4725689888 0.38891109824 0.53518199921 2.3807709217 0.34840109944 0.17629000545
          -1.6200009584 -0.10922949761 -0.042343001813 -1.7572649717 0.069237500429 -0.019905999303
          -1.8348480463 -0.01922108978 -0.21806798875 -1.684795022 0.12831169367 -0.21073399484
          -1.2655464411 -0.30120876431 -0.88210499287 -1.3901776075 -0.50089198351 -0.8744109869
          -1.2879470587 -0.50460076332 -0.71951198578 -1.1810113192 -0.49926784635 -0.8929489851
          -0.6087269187 0.024860799313 -0.30977600813 -0.76909697056 -0.29619181156 -0.33838999271
          -0.56078988314 -0.3168579042 -0.30044898391 -0.63126498461 -0.15162830055 -0.47663301229
          0.34409999847 -0.50164806843 -0.32478198409 0.49290901423 -0.27051791549 -0.38118758798
          0.4930306077 -0.50028795004 -0.18466299772 0.44537511468 -0.27799990773 -0.12429698557
          0.69000768661 -0.50142276287 0.050528015941 0.48393589258 -0.50734382868 0.013009998947
          0.68045121431 -0.49612438679 -0.13406600058 0.54733449221 -0.32747480273 0.11482799798
          0.86059832573 -0.49077758193 -0.080404996872 0.69000768661 -0.50142276287 0.050528015941
          0.68045121431 -0.49612438679 -0.13406600058 0.79302960634 -0.29305431247 -0.039216998965
          -0.83050501347 -0.26468807459 -0.57061237097 -0.88709700108 -0.50346982479 -0.72862702608
          -0.80718201399 -0.50908124447 -0.54855680466 -0.67207598686 -0.50358366966 -0.68930828571
          -0.95145201683 0.22650431097 -1.0941970348 -1.075802207 0.17113420367 -0.81510698795
          -0.81324702501 0.26146668196 -0.86965799332 -0.94496697187 0.078266300261 -1.0942200422
          -3.6205406189 -0.31749200821 0.12511700392 -3.6042940617 -0.28407350183 0.332062006
          -3.4821026325 -0.046573873609 0.11716599017 -3.3787970543 -0.14233914018 0.29122000933
          0.70016598701 0.50710338354 -0.40990638733 0.58373397589 0.27239969373 -0.33771339059
          0.41060099006 0.50051188469 -0.52816462517 0.36727958918 0.50212621689 -0.31630799174
          -0.33919200301 0.20730000734 -0.79884600639 -0.50065600872 0.48602038622 -0.66250771284
          -0.35219299793 0.31618493795 -0.60427820683 -0.55084097385 0.27224868536 -0.88415497541
          -1.5252443552 0.33827269077 -1.0592859983 -1.5809962749 0.26638999581 -0.86372798681
          -1.3401434422 0.47775200009 -0.87771999836 -1.2560925484 0.27916309237 -0.88956099749
          -0.096773996949 -0.50181341171 -0.56035459042 -0.14834499359 -0.49472266436 -0.76049399376
          -0.29999598861 -0.31015944481 -0.61351531744 -0.26617699862 -0.50942438841 -0.44230300188
          0.64910101891 0.50723767281 0.064737014472 0.51253330708 0.2876406908 -0.10298900306
          0.44702979922 0.50523287058 -0.018845997751 0.56493777037 0.3193680346 0.1386000067
          -3.5939254761 -0.0081771295518 -0.69047999382 -3.7473104 -0.28769311309 -0.66039299965
          -3.8068175316 -0.027711499482 -0.64996302128 -3.5941543579 0.02097989805 -0.47818499804
          -5 -0.49631300569 0.38468599319 -4.6849908829 -0.4852682054 0.41684499383
          -4.7839722633 -0.32270756364 0.2961961925 -4.8250303268 -0.49250531197 0.14701525867
          0.0033680000342 -0.49371635914 -0.68691200018 -0.055491000414 -0.26846665144 -0.58021008968
          0.23998099566 -0.31517469883 -0.51127868891 0.082827799022 -0.50211364031 -0.4565897882
          3.5158138275 0.52084130049 1.2258909941 3.4009900093 0.56842762232 0.97544896603
          3.4282515049 0.33187240362 0.97428900003 3.6068017483 0.56949651241 1.0521490574
          2.5117163658 0.16574789584 0.5378869772 2.2661983967 0.044934421778 0.50948798656
          2.3105502129 0.12302970141 0.72935801744 2.3686749935 -0.11354149133 0.74313497543
          -3.9980287552 -0.32266074419 -0.13652320206 -3.8562464714 -0.50317251682 -0.11210159957
          -3.7167961597 -0.29400056601 -0.18038730323 -3.8035757542 -0.50670826435 -0.31858798862
          -0.4785284996 -0.28558018804 -0.089541003108 -0.22414989769 -0.31539151073 -0.059500001371
          -0.20980919898 -0.34469109774 -0.28026798368 -0.32340180874 -0.46025699377 -0.078377000988
          4.7789177895 0.14037750661 0.96490341425 4.5828242302 0.39658501744 0.96988636255
          4.4793419838 0.2869952023 1.1247149706 4.5335330963 0.11206749827 0.92334389687
          -3.5693891048 0.4848459959 -0.46422702074 -3.2644114494 0.48313009739 -0.43453800678
          -3.4724879265 0.27005422115 -0.50610899925 -3.4978125095 0.48323321342 -0.19416743517
          0.34905490279 0.20103774965 0.07488899678 0.10837440193 0.15965628624 0.013736000285
          0.1771903038 0.016279280186 0.027272000909 0.31893050671 -0.015289099887 -0.15932199359
          -1.2214440107 -0.234099105 -0.087950997055 -1.2152099609 -0.081209897995 -0.31830999255
          -1.0252319574 -0.25830030441 -0.10159199685 -1.0854450464 -0.072821497917 -0.097055003047
          -1.0252319574 -0.25830030441 -0.10159199685 -1.2152099609 -0.081209897995 -0.31830999255
          -1.0108540058 -0.22747680545 -0.36507099867 -1.0854450464 -0.072821497917 -0.097055003047
          -2.5502791405 0.25031089783 -0.30732250214 -2.5705890656 -0.0096552502364 -0.37767747045
          -2.4924480915 0.1497296989 -0.4765163064 -2.8009653091 0.022092198953 -0.32149419188
          -4.2976675034 0.29178825021 -0.37512549758 -4.2742209435 0.42202806473 -0.57460540533
          -4.1157817841 0.48770108819 -0.3238914907 -4.4126858711 0.49212142825 -0.31948131323
          0.92705971003 0.28618240356 0.2508969903 0.72277122736 0.1972938925 0.1844419986
          0.85527962446 0.15694072843 0.023737987503 0.75077849627 0.37738004327 0.19743099809
          -1.8079010248 -0.20703689754 -0.34597599506 -1.8747121096 0.0029144007713 -0.49748280644
          -1.9710366726 -0.33433938026 -0.42893758416 -1.8874305487 -0.20946229994 -0.68173897266
          -1.6865179539 0.27380079031 -0.033339001238 -1.8772009611 0.48616209626 -0.20101100206
          -1.5615320206 0.44849410653 -0.052519001067 -1.8519480228 0.40634250641 -0.0071279997937
          0.48899298906 -0.47851881385 -0.81525802612 0.54373598099 -0.25898191333 -0.94053697586
          0.73838502169 -0.23838828504 -0.67500901222 0.4496409893 -0.20598120987 -0.64667701721
          4.7792887688 0.17319969833 0.70396101475 4.9800801277 0.31590399146 0.82129001617
          5.0587530136 0.088731199503 0.75192797184 4.7789177895 0.14037750661 0.96490341425
          0.066189996898 -0.13907346129 -0.85989201069 0.20461019874 -0.067686937749 -1.0017780066
          0.31595930457 -0.22976750135 -0.98769599199 0.20165160298 -0.28208371997 -0.78509497643
          2.5117163658 0.16574789584 0.5378869772 2.6809933186 0.045304298401 0.64524197578
          2.5507669449 -0.059395201504 0.81727099419 2.5544810295 0.1293092072 0.82531297207
          0.08132699877 -0.24986088276 -1.0299509764 -0.29308599234 -0.22735399008 -1.0733640194
          -0.012552999891 -0.06247812137 -1.0391819477 -0.14045800269 -0.19142946601 -0.79101097584
          3.7946639061 -0.40322849154 0.91091799736 3.6017444134 -0.40726909041 1.038525939
          3.599364996 -0.13409550488 0.90844702721 3.7870020866 -0.19021171331 1.074723959
          -0.61225312948 -0.48133009672 -0.10661300272 -0.4785284996 -0.28558018804 -0.089541003108
          -0.39079099894 -0.51813417673 -0.27170100808 -0.32340180874 -0.46025699377 -0.078377000988
          4.7013711929 -0.40805020928 1.0405980349 4.4911990166 -0.39900299907 1.2523469925
          4.4776749611 -0.40230458975 1.0684930086 4.6312479973 -0.18212139606 1.2574429512
          3.599364996 -0.13409550488 0.90844702721 3.5705780983 -0.40920200944 0.84491300583
          3.6680510044 -0.16187010705 0.64812618494 3.49279809 -0.41079649329 0.65922492743
          -0.6164612174 0.29320520163 -0.31236797571 -0.65999889374 0.24785794318 -0.095564998686
          -0.75858801603 0.17240820825 -0.42690300941 -0.81611001492 0.30783483386 -0.27051800489
          -1.224069953 -0.31939327717 -0.31514698267 -1.4011659622 -0.51028960943 -0.56537860632
          -1.1271990538 -0.51521211863 -0.40683698654 -1.2913279533 -0.31723329425 -0.56081938744
          1.8317303658 -0.34591260552 0.53505861759 1.9232388735 -0.45981270075 0.32396870852
          1.912476182 -0.21805660427 0.34040221572 1.6749150753 -0.47052338719 0.39508730173
          4.5119929314 -0.044536296278 1.1272319555 4.6513729095 0.13981750607 1.2424490452
          4.4337921143 0.1125216037 1.254134059 4.4793419838 0.2869952023 1.1247149706
          3.4854989052 0.014852097258 0.049800999463 3.4166619778 0.065547503531 0.28209301829
          3.4389131069 -0.21940618753 0.24159599841 3.3469219208 -0.1246156022 -0.013377999887
          -0.6087269187 0.024860799313 -0.30977600813 -0.85646498203 0.17925000191 -0.10178700089
          -0.81611001492 0.30783483386 -0.27051800489 -0.65999889374 0.24785794318 -0.095564998686
          -4.1843628883 -0.059714950621 -0.58763289452 -4.0446949005 -0.034010000527 -0.39543700218
          -4.2235832214 -0.18397390842 -0.2816118896 -4.4088745117 0.030903441831 -0.32176870108
          4.2366080284 0.27729278803 1.4644019604 4.33537817 0.096284002066 1.4644019604
          4.4337921143 0.1125216037 1.254134059 4.2345128059 0.15581940114 1.1804380417
          4.2772049904 0.36336359382 0.94083797932 4.065433979 0.57982081175 1.038596034
          4.0778617859 0.38755699992 0.83571088314 4.2130708694 0.59228688478 0.90869247913
          4.4798941612 0.42885500193 0.6264359951 4.4424939156 0.089347399771 0.64447599649
          4.6309452057 0.20724229515 0.45776200294 4.4729690552 0.34756699204 0.42458799481
          -4.2460803986 0.48600909114 -0.044718399644 -4.1721348763 0.28047949076 -0.053690198809
          -4.3738183975 0.24991054833 -0.14364899695 -4.5292730331 0.2915058732 0.031001500785
          -1.224069953 -0.31939327717 -0.31514698267 -1.4041509628 -0.13285940886 -0.071116998792
          -1.2214440107 -0.234099105 -0.087950997055 -1.4899309874 -0.36410149932 -0.064006000757
          -1.293176055 0.1205618009 -0.45924699306 -1.545979023 0.22976130247 -0.33403101563
          -1.4074389935 -0.049107201397 -0.5518643856 -1.4487729073 0.26224949956 -0.55564618111
          -2.3716421127 -0.18197050691 -0.6025840044 -2.6172776222 -0.17857418954 -0.88542699814
          -2.6087565422 -0.063813298941 -0.63231498003 -2.5882301331 -0.30685323477 -0.65421998501
          1.4743545055 -0.47509750724 0.23366600275 1.1952601671 -0.29477098584 0.064541012049
          1.3789390326 -0.47327530384 -0.003226995701 1.4941439629 -0.30191999674 -0.0081950007007
          -4.0971708298 0.14169080555 0.095920503139 -4.1795921326 0.26754778624 0.41782468557
          -4.0514550209 0.30707678199 0.23333111405 -4.0624485016 0.11422649771 0.40121608973
          -0.30593618751 0.24488276243 -0.24136300385 -0.46809598804 0.17155979574 -0.082805998623
          -0.6164612174 0.29320520163 -0.31236797571 -0.38844299316 0.49596226215 -0.19252300262
          0.0546566993 0.13170881569 -0.364466995 0.12283880264 0.27401307225 -0.19243100286
          -0.092815898359 0.28653284907 -0.26267999411 0.10719139874 0.28679504991 -0.54870027304
          -0.81324702501 0.26146668196 -0.86965799332 -0.85043102503 0.031999699771 -0.80896800756
          -0.65971499681 -0.068506918848 -0.89710998535 -0.78103899956 0.039071749896 -1.0954949856
          -2.4353275299 -0.11288639903 -0.92088502645 -2.3067228794 -0.32880795002 -0.94539600611
          -2.4961392879 -0.28663662076 -0.90913802385 -2.2304649353 -0.22556725144 -0.77245599031
          -0.48082599044 -0.31821736693 -1.0916539431 -0.41128501296 -0.48971751332 -0.99034798145
          -0.64104998112 -0.30240130424 -0.9189350009 -0.32380700111 -0.29127669334 -0.87523800135
          4.2261519432 -0.095267094672 0.65937298536 4.2858800888 -0.1588639915 0.36022999883
          4.4468998909 -0.11275999993 0.40511700511 4.2723498344 0.019195003435 0.35912799835
          -0.62074798346 -0.15536004305 -1.0920000076 -0.64104998112 -0.30240130424 -0.9189350009
          -0.65971499681 -0.068506918848 -0.89710998535 -0.43940600753 -0.13465237617 -1.0850310326
          0.43230000138 -0.066396504641 -0.95820701122 0.31418091059 0.094848684967 -0.98210698366
          0.36064499617 -0.039502311498 -0.75520098209 0.20461019874 -0.067686937749 -1.0017780066
          0.15515929461 0.27147474885 -0.81783097982 0.073527999222 0.1395072788 -1.023146987
          -0.091403998435 0.28790903091 -0.89287102222 -0.04301200062 0.17476075888 -0.718306005
          -3.4454441071 0.45380440354 -0.71922898293 -3.2531692982 0.48335590959 -0.6420429945
          -3.3997917175 0.20229819417 -0.72843700647 -3.4724879265 0.27005422115 -0.50610899925
          -3.4724879265 0.27005422115 -0.50610899925 -3.2644114494 0.48313009739 -0.43453800678
          -3.2429180145 0.19009520113 -0.47103300691 -3.3095912933 0.2773117125 -0.21319679916
          1.914431572 0.53861421347 0.26570081711 2.0810952187 0.34367528558 0.4289650023
          2.1985135078 0.54629540443 0.35489299893 2.0875871181 0.32275497913 0.17387519777
          -1.7037880421 -0.51201498508 -0.40343299508 -1.9710366726 -0.33433938026 -0.42893758416
          -1.9083119631 -0.51320451498 -0.2680529952 -1.8019082546 -0.50858289003 -0.56323200464
          -1.901250124 -0.024264600128 -0.80353200436 -2.0371425152 -0.34191715717 -0.78012096882
          -1.8874305487 -0.20946229994 -0.68173897266 -1.8654859066 -0.17263565958 -1.0173939466
          -0.14045800269 -0.19142946601 -0.79101097584 -0.49614500999 -0.18467617035 -0.78485298157
          -0.32380700111 -0.29127669334 -0.87523800135 -0.31712800264 -0.025899430737 -0.85415101051
          3.4389131069 -0.21940618753 0.24159599841 3.4166619778 0.065547503531 0.28209301829
          3.4964818954 -0.10279240459 0.43279200792 3.2239820957 -0.14030811191 0.26961100101
          -0.66083502769 -0.29501193762 -0.69995200634 -0.88709700108 -0.50346982479 -0.72862702608
          -0.83050501347 -0.26468807459 -0.57061237097 -0.67207598686 -0.50358366966 -0.68930828571
          3.1393265724 -0.19575251639 1.0545070171 3.0500233173 -0.10988160223 0.76281303167
          2.900462389 -0.18088708818 0.95662897825 3.167424202 -0.4212833941 0.82355499268
          3.7727000713 0.59062451124 0.58069598675 3.550276041 0.36652091146 0.69562649727
          3.4926049709 0.5762001276 0.76709657907 3.6906139851 0.57666391134 0.86979299784
          4.6223192215 0.42864599824 0.46175301075 4.548661232 0.31044599414 0.7846570015
          4.4798941612 0.42885500193 0.6264359951 4.7657809258 0.38576200604 0.78052300215
          1.2022919655 0.33101278543 -0.21015967429 0.84688097239 0.325525105 -0.34160640836
          1.0754319429 0.25025811791 -0.42730200291 0.98131197691 0.51418298483 -0.26199400425
          -1.075802207 0.17113420367 -0.81510698795 -0.96610802412 -0.023699499667 -0.59952700138
          -0.85043102503 0.031999699771 -0.80896800756 -1.0723729134 -0.088602088392 -0.8404250145
          0.073527999222 0.1395072788 -1.023146987 -0.091403998435 0.28790903091 -0.89287102222
          -0.084298998117 0.0080306082964 -0.84863698483 -0.18109099567 0.051842641085 -1.0570659637
          3.7448599339 0.30333548784 0.49451100826 3.6066539288 0.1872664988 0.30272099376
          3.7211930752 0.051226999611 0.43084198236 3.7907569408 0.2246016115 0.18572899699
          4.4358549118 0.59034252167 1.1339720488 4.3038268089 0.57868987322 1.2739549875
          4.2713618279 0.37677168846 1.2242929935 4.2535729408 0.58250921965 1.0972069502
          -2.741081953 0.32292592525 -0.24629439414 -2.5502791405 0.25031089783 -0.30732250214
          -2.7821593285 0.30021998286 -0.44675600529 -2.8009653091 0.022092198953 -0.32149419188
          -3.1325054169 -0.50747013092 -0.43627199531 -3.1450257301 -0.19032800198 -0.44944301248
          -3.4071218967 -0.27582120895 -0.49657699466 -3.3306560516 -0.50790274143 -0.51511698961
          3.7448599339 0.30333548784 0.49451100826 3.6307458878 0.097795702517 0.69470512867
          3.9250519276 0.16208969057 0.46795699 3.7211930752 0.051226999611 0.43084198236
          -3.7273154259 0.27898979187 -0.49260097742 -3.8068175316 -0.027711499482 -0.64996302128
          -3.6580049992 0.19486609101 -0.67846798897 -3.8699226379 0.21788460016 -0.63997101784
          3.8472468853 0.14682120085 0.8287910223 3.9359619617 0.090236805379 1.1565029621
          3.9209868908 -0.049528494477 0.94006299973 3.7040190697 0.031617399305 1.0519629717
          -3.2902696133 0.27174562216 0.025448989123 -3.3706200123 0.48187199235 0.10127900541
          -3.2128009796 0.42603981495 0.26003301144 -3.2997620106 0.21736480296 0.27584698796
          1.1842939854 -0.12854279578 -0.092633001506 1.1398986578 -0.010146999732 0.071502000093
          1.4162900448 0.058589901775 -0.19647470117 1.3978904486 -0.12460799515 0.020671008155
          -4.0919904709 0.29906708002 -0.39470338821 -4.1157817841 0.48770108819 -0.3238914907
          -3.9854476452 0.48504701257 -0.10422489792 -3.9548974037 0.23137070239 -0.10864424706
          -3.4724879265 0.27005422115 -0.50610899925 -3.6580049992 0.19486609101 -0.67846798897
          -3.5941543579 0.02097989805 -0.47818499804 -3.5939254761 -0.0081771295518 -0.69047999382
          -2.7347252369 -0.50761651993 -0.30021220446 -2.8796532154 -0.32189744711 -0.3305183053
          -2.6578717232 -0.50742650032 -0.52386301756 -2.6131467819 -0.26515978575 -0.30168119073
          -4.6145296097 0.48269069195 0.36654379964 -4.8927183151 0.49172759056 0.30637028813
          -4.745464325 0.3263682127 0.25227379799 -4.6132879257 0.48546689749 0.14135861397
          -0.95145201683 0.22650431097 -1.0941970348 -1.1206613779 0.30866101384 -1.0912829638
          -1.075802207 0.17113420367 -0.81510698795 -1.1157516241 0.10669529438 -1.088037014
          3.599364996 -0.13409550488 0.90844702721 3.6307458878 0.097795702517 0.69470512867
          3.6680510044 -0.16187010705 0.64812618494 3.8193171024 -0.21124768257 0.82013428211
          -2.7996120453 -0.02800030075 -0.034934002906 -2.8941919804 0.276453197 -0.0076509867795
          -2.7196071148 0.012619300745 0.16217699647 -2.9779620171 0.1083374992 0.21390299499
          -3.0187089443 -0.037960600108 0.018444009125 -2.8941919804 0.276453197 -0.0076509867795
          -2.7996120453 -0.02800030075 -0.034934002906 -2.9779620171 0.1083374992 0.21390299499
          2.9040269852 0.39754191041 0.64887100458 2.7275784016 0.56002151966 0.53235000372
          2.6725535393 0.38265278935 0.65312898159 2.8127799034 0.36863431334 0.39534589648
          0.24777440727 -0.18341463804 -0.29771098495 0.35398098826 -0.14804252982 -0.47525811195
          0.49290901423 -0.27051791549 -0.38118758798 0.474378407 -0.11557681859 -0.24810600281
          -0.89977502823 -0.26588141918 -1.0985300541 -1.0406808853 -0.49340972304 -1.0401200056
          -0.74040699005 -0.49768507481 -0.86798501015 -0.66408002377 -0.41804593801 -1.1008930206
          0.56493777037 0.3193680346 0.1386000067 0.74646031857 0.32201400399 -0.03702198714
          0.5864264369 0.083424940705 0.13992400467 0.72277122736 0.1972938925 0.1844419986
          1.1952601671 -0.29477098584 0.064541012049 0.98700541258 -0.19875110686 -0.078704997897
          1.3097800016 -0.27519398928 -0.1584803015 1.1842939854 -0.12854279578 -0.092633001506
          2.7232918739 -0.43851751089 0.85738897324 2.5104129314 -0.4431695044 0.58892899752
          2.7102086544 -0.435593009 0.59967702627 2.4849748611 -0.2620677948 0.78334200382
          3.7907569408 0.2246016115 0.18572899699 3.7448599339 0.30333548784 0.49451100826
          3.9765019417 0.28852498531 0.26302400231 3.9250519276 0.16208969057 0.46795699
          0.39167898893 0.41524764895 -0.96190798283 0.43729901314 0.24008713663 -0.95277100801
          0.073762997985 0.35499945283 -1.0218420029 0.15515929461 0.27147474885 -0.81783097982
          4.6400561333 0.033197704703 0.65296798944 4.5335330963 0.11206749827 0.92334389687
          4.5794639587 -0.095555409789 0.80211597681 4.4424939156 0.089347399771 0.64447599649
          -3.2644114494 0.48313009739 -0.43453800678 -3.3095912933 0.2773117125 -0.21319679916
          -3.4978125095 0.48323321342 -0.19416743517 -3.133988142 0.48230528831 -0.1387040019
          2.7232918739 -0.43851751089 0.85738897324 2.3794255257 -0.41916438937 0.73524999619
          2.5104129314 -0.4431695044 0.58892899752 2.4849748611 -0.2620677948 0.78334200382
          4.2507781982 -0.39692500234 1.0791150331 4.5186548233 -0.2072378099 0.99021959305
          4.372276783 -0.18564900756 1.2451930046 4.3321962357 -0.16034509242 0.88920331001
          -4.0561761856 -0.22405919433 -0.60680097342 -3.9332222939 -0.36795258522 -0.62505298853
          -4.1405329704 -0.51005542278 -0.4925802052 -4.1002011299 -0.31287899613 -0.40952581167
          1.1713650227 -0.47730788589 -0.15520529449 0.98700541258 -0.19875110686 -0.078704997897
          0.86059832573 -0.49077758193 -0.080404996872 0.91907000542 -0.28306537867 -0.28310790658
          3.1853451729 0.33565509319 1.0903539658 3.3044917583 0.12322919816 1.1306680441
          3.245980978 0.052640799433 0.88878798485 3.0447850227 0.06147922948 1.0241279602
          2.5544810295 0.1293092072 0.82531297207 2.5507669449 -0.059395201504 0.81727099419
          2.5117163658 0.16574789584 0.5378869772 2.3105502129 0.12302970141 0.72935801744
          -0.28265699744 -0.012162780389 -0.58007609844 -0.055491000414 -0.26846665144 -0.58021008968
          -0.29999598861 -0.31015944481 -0.61351531744 -0.081785798073 -0.18698275089 -0.35594800115
          -3.0159440041 -0.32825475931 -0.049925994128 -2.9204330444 -0.13243819773 -0.19507199526
          -3.1080467701 -0.29268443584 -0.24082820117 -2.8796532154 -0.32189744711 -0.3305183053
          -1.4744634628 -0.41700416803 -1.0684100389 -1.596382618 -0.17736847699 -1.051363945
          -1.5869110823 -0.50118023157 -0.88304901123 -1.6650289297 -0.48398628831 -1.047039032
          -0.85043102503 0.031999699771 -0.80896800756 -0.96610802412 -0.023699499667 -0.59952700138
          -0.70339399576 -0.074503429234 -0.67528831959 -0.82459098101 -0.20698645711 -0.80915498734
          1.3815850019 -0.12085030228 -0.70849198103 1.1442159414 -0.0049022994936 -0.49735999107
          1.1848659515 -0.12604640424 -0.76831799746 1.3034750223 0.047147899866 -0.72722101212
          -4.7891550064 0.016387579963 -0.29043120146 -4.6692109108 -0.16517569125 -0.19817639887
          -4.6010689735 -0.032954148948 -0.34019801021 -4.7889413834 -0.29244363308 -0.33276119828
          0.56493777037 0.3193680346 0.1386000067 0.34905490279 0.20103774965 0.07488899678
          0.51253330708 0.2876406908 -0.10298900306 0.44702979922 0.50523287058 -0.018845997751
          -2.6131467819 -0.26515978575 -0.30168119073 -2.5874330997 -0.50843310356 -0.077546991408
          -2.4840130806 -0.30007189512 -0.074917010963 -2.4960739613 -0.50847524405 -0.33113560081
          4.995156765 0.16772520542 0.52926999331 4.9800801277 0.31590399146 0.82129001617
          5.0587530136 0.088731199503 0.75192797184 4.7792887688 0.17319969833 0.70396101475
          -3.71869874 0.25738021731 -0.13884219527 -3.9548974037 0.23137070239 -0.10864424706
          -3.7853329182 0.48204940557 0.059275992215 -3.8129053116 0.21391560137 0.11131499708
          -0.04318710044 0.49930903316 -0.083802998066 -0.22821579874 0.49608099461 -0.32180100679
          -0.2450055927 0.36689928174 -0.052769999951 -0.092815898359 0.28653284907 -0.26267999411
          -1.3103187084 -0.16647019982 -0.72021299601 -1.5961900949 -0.24007625878 -0.77421802282
          -1.5043648481 -0.50604504347 -0.71901899576 -1.2655464411 -0.30120876431 -0.88210499287
          -3.7788000107 -0.49894934893 0.14450898767 -4.0447149277 -0.49747499824 0.14612358809
          -4.0265545845 -0.28167268634 0.21848671138 -3.8431739807 -0.42423200607 0.37291398644
          4.6223192215 0.42864599824 0.46175301075 4.548661232 0.31044599414 0.7846570015
          4.7657809258 0.38576200604 0.78052300215 4.8283820152 0.36398798227 0.50014001131
          2.2007000446 -0.030069796368 -0.17213380337 2.1437630653 0.14836460352 -0.25723919272
          1.8510379791 0.076726302505 -0.29504978657 2.1178569794 0.093814596534 -0.4642611146
          -1.8419760466 0.17466241121 -0.33885499835 -1.8747121096 0.0029144007713 -0.49748280644
          -1.6368409395 -0.014472581446 -0.55414676666 -1.7097920179 0.31207630038 -0.45334500074
          4.0790348053 0.052158098668 0.78453868628 3.8472468853 0.14682120085 0.8287910223
          4.1026678085 0.059743199497 1.0158569813 3.9209868908 -0.049528494477 0.94006299973
          3.3577077389 -0.41411450505 1.0120899677 3.167424202 -0.4212833941 0.82355499268
          3.3624682426 -0.19947208464 0.94604200125 3.1393265724 -0.19575251639 1.0545070171
          -2.6131467819 -0.26515978575 -0.30168119073 -2.9204330444 -0.13243819773 -0.19507199526
          -2.8014369011 -0.27421984076 -0.022419007495 -2.8796532154 -0.32189744711 -0.3305183053
          -1.4055235386 0.16061809659 -0.77410399914 -1.6599514484 0.24216479063 -0.65762501955
          -1.6368409395 -0.014472581446 -0.55414676666 -1.6661914587 0.0097754001617 -0.81471097469
          4.1932888031 -0.10509669781 1.111093998 4.0172262192 -0.24458359182 1.074458003
          4.2507781982 -0.39692500234 1.0791150331 4.3321962357 -0.16034509242 0.88920331001
          0.81067937613 -0.037577752024 -0.03468298912 0.7164170146 -0.01385910064 -0.332908988
          0.78821092844 0.14894378185 -0.18848800659 0.53519868851 0.048687562346 -0.13842900097
          0.93168497086 0.052144400775 -0.6099550128 0.87655997276 -0.11350530386 -0.45971497893
          0.73838502169 -0.23838828504 -0.67500901222 0.6582840085 -0.086143799126 -0.53992497921
          4.0827860832 0.11810979992 0.29750001431 4.1978611946 0.12986010313 0.5741019845
          4.1377820969 0.39951202273 0.32685101032 4.344326973 0.23196899891 0.38592201471
          0.76892197132 0.11045709997 -0.87638199329 0.93168497086 0.052144400775 -0.6099550128
          0.84875500202 -0.035446301103 -0.85831201077 0.56008797884 0.052585806698 -0.68334698677
          -2.819904089 0.037339199334 -0.66302698851 -2.9648208618 -0.08248540014 -0.41598600149
          -3.0660376549 -0.035237099975 -0.601772964 -2.9424054623 0.1131972 -0.47736001015
          -0.27925050259 -0.14596910775 -0.065104998648 -0.062883600593 -0.026130199432 -0.024199999869
          -0.2487116009 0.11720266938 -0.055061001331 -0.088332302868 0.076261751354 -0.21729001403
          3.5548529625 0.58682149649 0.44130200148 3.5936889648 0.39519989491 0.35134500265
          3.7448599339 0.30333548784 0.49451100826 3.7727000713 0.59062451124 0.58069598675
          -1.1938619614 0.03204099834 -0.66020560265 -1.3103187084 -0.16647019982 -0.72021299601
          -1.0780789852 -0.26223245263 -0.61954492331 -1.0723729134 -0.088602088392 -0.8404250145
          2.5975399017 0.036539699882 0.30856120586 2.2926232815 0.21838380396 0.36620301008
          2.5117163658 0.16574789584 0.5378869772 2.2661983967 0.044934421778 0.50948798656
          -4.6692109108 -0.16517569125 -0.19817639887 -4.6480989456 -0.13892398775 -0.52972179651
          -4.7889413834 -0.29244363308 -0.33276119828 -4.4642100334 -0.19895298779 -0.3199582994
          -2.9400956631 0.27705860138 -0.27815890312 -2.9112796783 0.48190781474 -0.45949801803
          -3.0837988853 0.48263069987 -0.33776900172 -3.0509493351 0.29688620567 -0.58453899622
          4.4798941612 0.42885500193 0.6264359951 4.548661232 0.31044599414 0.7846570015
          4.5438528061 0.60426002741 0.8030000329 4.7657809258 0.38576200604 0.78052300215
          3.8757009506 -0.27522069216 0.20697000623 3.7570819855 -0.18195958436 0.41518300772
          3.7608931065 -0.4066208899 0.33188599348 3.5797228813 -0.13064749539 0.085768997669
          3.3003060818 0.23398950696 0.76375299692 3.4896070957 0.099841497838 0.92870599031
          3.6307458878 0.097795702517 0.69470512867 3.3609991074 0.066775999963 0.55516642332
          3.3609991074 0.066775999963 0.55516642332 3.4329230785 0.25877740979 0.41826298833
          3.3003060818 0.23398950696 0.76375299692 3.2744851112 0.38130360842 0.56395947933
          2.0636451244 -0.34763351083 0.61844497919 1.8317303658 -0.34591260552 0.53505861759
          2.1206483841 -0.27323719859 0.41196197271 1.9537478685 -0.17958140373 0.5853844285
          4.2535729408 0.58250921965 1.0972069502 4.0632171631 0.57045120001 1.2416960001
          4.3038268089 0.57868987322 1.2739549875 4.2713618279 0.37677168846 1.2242929935
          4.527215004 0.58946532011 1.2835580111 4.3038268089 0.57868987322 1.2739549875
          4.2713618279 0.37677168846 1.2242929935 4.4358549118 0.59034252167 1.1339720488
          3.5423920155 -0.34106731415 0.063364997506 3.4389131069 -0.21940618753 0.24159599841
          3.3469219208 -0.1246156022 -0.013377999887 3.5797228813 -0.13064749539 0.085768997669
          -2.8941919804 0.276453197 -0.0076509867795 -2.761079073 0.3002846241 0.17035700381
          -2.7196071148 0.012619300745 0.16217699647 -2.9779620171 0.1083374992 0.21390299499
          -2.8941919804 0.276453197 -0.0076509867795 -2.9699950218 0.48249959946 -0.0066279866733
          -2.7288138866 0.4837333858 0.065889015794 -2.761079073 0.3002846241 0.17035700381
          -2.9013741016 -0.1873832345 0.19913700223 -2.9620211124 -0.34429514408 0.21156999469
          -2.8371300697 -0.46261897683 0.18645299971 -2.8014369011 -0.27421984076 -0.022419007495
          5.1940898895 0.12840040028 1.2278339863 4.9596247673 0.084158137441 1.2836079597
          5.1319189072 0.18058879673 1.488049984 5.1611480713 -0.11739530414 1.3518660069
          -2.8796532154 -0.32189744711 -0.3305183053 -2.8155953884 -0.19327259064 -0.5224930048
          -2.9167158604 -0.50708723068 -0.47135400772 -2.6578717232 -0.50742650032 -0.52386301756
          -1.901250124 -0.024264600128 -0.80353200436 -2.1139371395 -0.28715011477 -0.97770702839
          -2.0371425152 -0.34191715717 -0.78012096882 -1.8654859066 -0.17263565958 -1.0173939466
          -4.4813494682 0.022646209225 0.2389934808 -4.6333608627 0.15650126338 0.46339869499
          -4.7917890549 -0.033734429628 0.26267528534 -4.6630234718 0.13930633664 0.15250210464
          -2.6131467819 -0.26515978575 -0.30168119073 -2.5705890656 -0.0096552502364 -0.37767747045
          -2.8009653091 0.022092198953 -0.32149419188 -2.8155953884 -0.19327259064 -0.5224930048
          -1.3917900324 -0.51799577475 -0.23380000889 -1.2214440107 -0.234099105 -0.087950997055
          -1.1190869808 -0.42417049408 -0.10118299723 -1.4899309874 -0.36410149932 -0.064006000757
          -3.1758265495 0.071973100305 -0.7731680274 -3.4343647957 -0.1506202966 -0.72061800957
          -3.3833937645 -0.032667398453 -0.48868498206 -3.1794657707 -0.17824740708 -0.77178901434
          -4.6630234718 0.13930633664 0.15250210464 -4.7780652046 -0.0085761295632 -0.01886684075
          -5 0.15884299576 0.21330599487 -5 -0.004447159823 0.13623799384
          2.4791090488 0.55759829283 0.014952993952 2.3807709217 0.34840109944 0.17629000545
          2.7448999882 0.34383347631 0.0055840001442 2.5194039345 0.221833691 0.014336997643
          4.3321962357 -0.16034509242 0.88920331001 4.0511579514 -0.20270109177 0.7991797924
          4.0790348053 0.052158098668 0.78453868628 4.1026678085 0.059743199497 1.0158569813
          4.4331560135 0.52280199528 0.42006701231 4.309071064 0.60760998726 0.56352597475
          4.5893030167 0.61060297489 0.61573702097 4.4798941612 0.42885500193 0.6264359951
          0.5864264369 0.083424940705 0.13992400467 0.34905490279 0.20103774965 0.07488899678
          0.48138740659 -0.12545976043 0.10301499814 0.53519868851 0.048687562346 -0.13842900097
          4.6513729095 0.13981750607 1.2424490452 4.5082879066 0.20863980055 1.4644019604
          4.7225232124 0.21502579749 1.4921859503 4.6576151848 0.017758300528 1.462864995
          -4.3847136497 -0.10933701694 -0.55893617868 -4.6480989456 -0.13892398775 -0.52972179651
          -4.6010689735 -0.032954148948 -0.34019801021 -4.4642100334 -0.19895298779 -0.3199582994
          -4.7891550064 0.016387579963 -0.29043120146 -4.6480989456 -0.13892398775 -0.52972179651
          -4.8238286972 -0.16162951291 -0.51467502117 -4.6010689735 -0.032954148948 -0.34019801021
          2.900462389 -0.18088708818 0.95662897825 2.8574714661 -0.22937789559 0.73542100191
          2.7863173485 0.018803799525 0.9157999754 2.6677677631 -0.20719739795 0.85902500153
          -0.82459098101 -0.20698645711 -0.80915498734 -0.88709700108 -0.50346982479 -0.72862702608
          -0.83050501347 -0.26468807459 -0.57061237097 -0.66083502769 -0.29501193762 -0.69995200634
          -3.6205406189 -0.31749200821 0.12511700392 -3.7788000107 -0.49894934893 0.14450898767
          -3.6591205597 -0.502214849 -0.015271005221 -3.8215641975 -0.23188085854 0.091413997114
          3.1963329315 0.58174359798 -0.046583991498 2.977586031 0.57245218754 0.10077200085
          3.1758000851 0.57594889402 0.29714500904 3.1256771088 0.35985979438 0.17385299504
          -2.3477945328 -0.017081549391 -0.75131797791 -2.2304649353 -0.22556725144 -0.77245599031
          -2.3716421127 -0.18197050691 -0.6025840044 -2.1201012135 -0.050273101777 -0.70986998081
          -4.4088745117 0.030903441831 -0.32176870108 -4.6010689735 -0.032954148948 -0.34019801021
          -4.6259469986 0.16757617891 -0.22007699311 -4.5877504349 0.083796218038 -0.033795300871
          -3.3833937645 -0.032667398453 -0.48868498206 -3.3206231594 -0.27725860476 -0.74263799191
          -3.1450257301 -0.19032800198 -0.44944301248 -3.1794657707 -0.17824740708 -0.77178901434
          3.3910770416 0.58322429657 0.34406098723 3.1758000851 0.57594889402 0.29714500904
          3.3937470913 0.42309600115 0.025817999616 3.5310690403 0.59044080973 0.18322899938
          -0.51817697287 -0.33874639869 -0.53937000036 -0.63126498461 -0.15162830055 -0.47663301229
          -0.42318299413 -0.15868732333 -0.55037420988 -0.37324941158 -0.23546770215 -0.36768600345
          1.6362780333 -0.19434309006 -0.1196873039 1.3097800016 -0.27519398928 -0.1584803015
          1.4434380531 -0.14066420496 -0.32838499546 1.3978904486 -0.12460799515 0.020671008155
          4.6576151848 0.017758300528 1.462864995 4.7225232124 0.21502579749 1.4921859503
          4.6513729095 0.13981750607 1.2424490452 4.9596247673 0.084158137441 1.2836079597
          0.86059832573 -0.49077758193 -0.080404996872 0.98700541258 -0.19875110686 -0.078704997897
          0.79302960634 -0.29305431247 -0.039216998965 0.91907000542 -0.28306537867 -0.28310790658
          -4.2057743073 0.083515927196 -0.063847601414 -4.0971708298 0.14169080555 0.095920503139
          -3.9548974037 0.23137070239 -0.10864424706 -4.0808696747 -0.048765938729 -0.15966640413
          5.0476732254 0.61224198341 1.0092389584 5.250415802 0.44116699696 0.96342402697
          5.2397999763 0.61484199762 0.9742590189 5.2841758728 0.46887099743 0.8069050312
          0.44537511468 -0.27799990773 -0.12429698557 0.49290901423 -0.27051791549 -0.38118758798
          0.67708927393 -0.18054930866 -0.18623100221 0.474378407 -0.11557681859 -0.24810600281
          -4.1843628883 -0.059714950621 -0.58763289452 -4.2148256302 0.11070713401 -0.5839381218
          -4.4088745117 0.030903441831 -0.32176870108 -4.3847136497 -0.10933701694 -0.55893617868
          -3.5523664951 0.0045121996664 -0.18042999506 -3.3095912933 0.2773117125 -0.21319679916
          -3.3023517132 0.0064315996133 -0.24028472602 -3.5458295345 0.1751678884 -0.0069859996438
          1.0401221514 0.23939830065 -0.032525006682 1.2022919655 0.33101278543 -0.21015967429
          1.0754319429 0.25025811791 -0.42730200291 0.95586800575 0.071381397545 -0.33720040321
          4.6576151848 0.017758300528 1.462864995 4.531235218 -0.23131799698 1.462864995
          4.6312479973 -0.18212139606 1.2574429512 4.4053249359 -0.07816299051 1.462864995
          -3.1080467701 -0.29268443584 -0.24082820117 -3.1450257301 -0.19032800198 -0.44944301248
          -3.1325054169 -0.50747013092 -0.43627199531 -2.8796532154 -0.32189744711 -0.3305183053
          0.43230000138 -0.066396504641 -0.95820701122 0.36064499617 -0.039502311498 -0.75520098209
          0.54373598099 -0.25898191333 -0.94053697586 0.31595930457 -0.22976750135 -0.98769599199
          -1.3467004299 -0.27448686957 -1.0782300234 -1.2899454832 -0.49320724607 -1.0851969719
          -1.4744634628 -0.41700416803 -1.0684100389 -1.2655464411 -0.30120876431 -0.88210499287
          2.9075191021 0.029458599165 -0.18439200521 2.9649469852 0.070412486792 0.048234000802
          3.1375620365 -0.015359799378 -0.09573700279 2.9599170685 -0.19250740111 -0.1730210036
          -2.8796532154 -0.32189744711 -0.3305183053 -2.9204330444 -0.13243819773 -0.19507199526
          -3.1080467701 -0.29268443584 -0.24082820117 -2.9648208618 -0.08248540014 -0.41598600149
          -3.3023517132 0.0064315996133 -0.24028472602 -3.1901597977 0.0029790997505 -0.4238820076
          -3.3609697819 -0.25755804777 -0.25123178959 -3.1450257301 -0.19032800198 -0.44944301248
          -2.5705890656 -0.0096552502364 -0.37767747045 -2.3289134502 -0.0023192001972 -0.42081850767
          -2.5529778004 -0.19498869777 -0.48805639148 -2.3400249481 -0.19343669713 -0.23309500515
          -3.8562464714 -0.50317251682 -0.11210159957 -3.6591205597 -0.502214849 -0.015271005221
          -3.8215641975 -0.23188085854 0.091413997114 -3.7167961597 -0.29400056601 -0.18038730323
          -2.8207395077 0.30260008574 -0.65172201395 -2.9112796783 0.48190781474 -0.45949801803
          -3.0509493351 0.29688620567 -0.58453899622 -2.923997879 0.48139628768 -0.67437797785
          -0.59120500088 0.45415121317 -1.0933190584 -0.68241202831 0.47980180383 -0.89547097683
          -0.62441599369 0.23691308498 -1.0922019482 -0.83175802231 0.47526419163 -1.0315499306
          3.4964818954 -0.10279240459 0.43279200792 3.6680510044 -0.16187010705 0.64812618494
          3.3867809772 -0.23781871796 0.5709104538 3.3097200394 -0.10290320963 0.73021501303
          -2.6084048748 0.48110160232 -0.5615530014 -2.9112796783 0.48190781474 -0.45949801803
          -2.7821593285 0.30021998286 -0.44675600529 -2.8207395077 0.30260008574 -0.65172201395
          -2.819904089 0.037339199334 -0.66302698851 -2.9648208618 -0.08248540014 -0.41598600149
          -2.9424054623 0.1131972 -0.47736001015 -2.8009653091 0.022092198953 -0.32149419188
          -0.76909697056 -0.29619181156 -0.33838999271 -1.0108540058 -0.22747680545 -0.36507099867
          -0.888019979 -0.52109897137 -0.27666097879 -0.99892598391 -0.51049762964 -0.55400800705
          -0.45164808631 0.18338213861 -0.40235000849 -0.46809598804 0.17155979574 -0.082805998623
          -0.6087269187 0.024860799313 -0.30977600813 -0.6164612174 0.29320520163 -0.31236797571
          4.7351660728 -0.16101920605 0.98147392273 4.5119929314 -0.044536296278 1.1272319555
          4.6312479973 -0.18212139606 1.2574429512 4.5186548233 -0.2072378099 0.99021959305
          1.4434380531 -0.14066420496 -0.32838499546 1.5854810476 0.084593199193 -0.4168010056
          1.4162900448 0.058589901775 -0.19647470117 1.3804830313 -0.0036427995656 -0.4926970005
          -0.75858801603 0.17240820825 -0.42690300941 -0.45164808631 0.18338213861 -0.40235000849
          -0.6087269187 0.024860799313 -0.30977600813 -0.6164612174 0.29320520163 -0.31236797571
          -2.5005450249 0.17306339741 0.11759500206 -2.5937309265 -0.094380997121 -0.091197997332
          -2.3502340317 -0.11054370552 0.087472997606 -2.4908249378 0.11884979904 -0.11749400944
          -1.6200009584 -0.10922949761 -0.042343001813 -1.8348480463 -0.01922108978 -0.21806798875
          -1.8008160591 -0.23927970231 -0.014976000413 -1.8079010248 -0.20703689754 -0.34597599506
          -2.7347252369 -0.50761651993 -0.30021220446 -2.6131467819 -0.26515978575 -0.30168119073
          -2.6578717232 -0.50742650032 -0.52386301756 -2.4960739613 -0.50847524405 -0.33113560081
          4.995156765 0.16772520542 0.52926999331 4.7792887688 0.17319969833 0.70396101475
          5.0587530136 0.088731199503 0.75192797184 4.86105299 0.0081822015345 0.50044000149
          -2.4249818325 -0.50633567572 -0.6508589983 -2.5882301331 -0.30685323477 -0.65421998501
          -2.6578717232 -0.50742650032 -0.52386301756 -2.715783596 -0.50627452135 -0.80598902702
          -1.3103187084 -0.16647019982 -0.72021299601 -1.5961900949 -0.24007625878 -0.77421802282
          -1.2913279533 -0.31723329425 -0.56081938744 -1.5043648481 -0.50604504347 -0.71901899576
          0.95586800575 0.071381397545 -0.33720040321 0.7164170146 -0.01385910064 -0.332908988
          0.87655997276 -0.11350530386 -0.45971497893 0.76200997829 0.19809819758 -0.53690600395
          -0.83420801163 -0.058261297643 -0.10190299898 -0.76909697056 -0.29619181156 -0.33838999271
          -0.62142932415 -0.09965570271 -0.097244001925 -0.8307570219 -0.058059498668 -0.35817700624
          -3.8043015003 -0.00087310036179 -0.39245098829 -3.8068175316 -0.027711499482 -0.64996302128
          -4.0446949005 -0.034010000527 -0.39543700218 -3.8867964745 -0.18341259658 -0.63530302048
          4.8283820152 0.36398798227 0.50014001131 4.7657809258 0.38576200604 0.78052300215
          4.8564839363 0.61346799135 0.55668997765 5.0496749878 0.39370700717 0.54334002733
          -2.6084048748 0.48110160232 -0.5615530014 -2.7821593285 0.30021998286 -0.44675600529
          -2.6538431644 0.18475399911 -0.59675198793 -2.8207395077 0.30260008574 -0.65172201395
          4.6475157738 0.38701429963 1.2527079582 4.9485001564 0.60167902708 1.3511019945
          4.9242591858 0.60738301277 1.1569290161 4.8725390434 0.29623439908 1.2086399794
          -0.012552999891 -0.06247812137 -1.0391819477 0.066189996898 -0.13907346129 -0.85989201069
          0.14842510223 0.040421258658 -0.80009198189 0.20461019874 -0.067686937749 -1.0017780066
          0.073762997985 0.35499945283 -1.0218420029 -0.10962300003 0.48779779673 -0.82918798923
          -0.091403998435 0.28790903091 -0.89287102222 -0.25258800387 0.48134300113 -1.0479999781
          2.6714880466 0.016336200759 -0.27357900143 2.4399039745 -0.10959740728 -0.0052800015546
          2.5325028896 -0.2637206018 -0.12680798769 2.5682160854 -0.13655368984 -0.3176009953
          2.9599170685 -0.19250740111 -0.1730210036 2.9183690548 -0.10514099896 0.18946899474
          3.0793170929 -0.24457119405 0.11937200278 2.7572391033 -0.22472290695 -0.032116010785
          -2.5705890656 -0.0096552502364 -0.37767747045 -2.5502791405 0.25031089783 -0.30732250214
          -2.2913610935 0.16144010425 -0.25700899959 -2.4908249378 0.11884979904 -0.11749400944
          3.4964818954 -0.10279240459 0.43279200792 3.6680510044 -0.16187010705 0.64812618494
          3.6210319996 -0.40883889794 0.49147000909 3.3867809772 -0.23781871796 0.5709104538
          0.51253330708 0.2876406908 -0.10298900306 0.78821092844 0.14894378185 -0.18848800659
          0.58373397589 0.27239969373 -0.33771339059 0.53519868851 0.048687562346 -0.13842900097
          2.5975399017 0.036539699882 0.30856120586 2.8575510979 0.064445592463 0.36333754659
          2.8154499531 -0.22758620977 0.35329309106 2.824450016 -0.10761829466 0.55310499668
          -3.4724879265 0.27005422115 -0.50610899925 -3.2531692982 0.48335590959 -0.6420429945
          -3.3997917175 0.20229819417 -0.72843700647 -3.2429180145 0.19009520113 -0.47103300691
          4.9800801277 0.31590399146 0.82129001617 4.7970080376 0.40450099111 0.99685043097
          5.0286197662 0.27560698986 1.0374772549 4.7789177895 0.14037750661 0.96490341425
          -2.6131467819 -0.26515978575 -0.30168119073 -2.8796532154 -0.32189744711 -0.3305183053
          -2.8014369011 -0.27421984076 -0.022419007495 -2.7347252369 -0.50761651993 -0.30021220446
          -4.0438446999 0.094188794494 -0.60962402821 -3.8068175316 -0.027711499482 -0.64996302128
          -3.8867964745 -0.18341259658 -0.63530302048 -4.0446949005 -0.034010000527 -0.39543700218
          -0.89977502823 -0.26588141918 -1.0985300541 -1.1241190434 -0.31656226516 -1.0943260193
          -1.0344099998 -0.31266370416 -0.88067400455 -1.0406808853 -0.49340972304 -1.0401200056
          2.1151509285 0.051999751478 0.097855910659 1.9772109985 0.2443075031 -0.15706959367
          1.8809980154 0.037144001573 -0.0096619697288 2.1437630653 0.14836460352 -0.25723919272
          4.372276783 -0.18564900756 1.2451930046 4.1932888031 -0.10509669781 1.111093998
          4.2914719582 -0.39629501104 1.270524025 4.2507781982 -0.39692500234 1.0791150331
          -4.3568739891 -0.16453392804 0.20460030437 -4.4813494682 0.022646209225 0.2389934808
          -4.2245573997 -0.0047437800094 0.42267590761 -4.4548616409 -0.039748691022 0.44836860895
          1.3930920362 0.21471090615 -0.69503098726 1.5854810476 0.084593199193 -0.4168010056
          1.6285569668 0.23750409484 -0.61983597279 1.5145740509 0.068407997489 -0.66118901968
          -1.8419760466 0.17466241121 -0.33885499835 -1.9025046825 0.29032579064 -0.52002221346
          -1.8747121096 0.0029144007713 -0.49748280644 -1.7097920179 0.31207630038 -0.45334500074
          0.20165160298 -0.28208371997 -0.78509497643 -0.055491000414 -0.26846665144 -0.58021008968
          0.13293649256 -0.12217481434 -0.6249139905 0.23998099566 -0.31517469883 -0.51127868891
          3.0206739902 0.45230871439 -0.12432000041 2.8881449699 0.23836348951 0.18792100251
          3.1546220779 0.28414210677 -0.077771998942 2.7448999882 0.34383347631 0.0055840001442
          -0.63126498461 -0.15162830055 -0.47663301229 -0.83050501347 -0.26468807459 -0.57061237097
          -0.66083502769 -0.29501193762 -0.69995200634 -0.70339399576 -0.074503429234 -0.67528831959
          -2.0529088974 0.052241001278 -0.20910900831 -2.1283559799 0.094898201525 0.043953001499
          -1.9377369881 0.14763340354 0.0093440003693 -1.9761929512 -0.084401905537 0.01688499935
          3.3097200394 -0.10290320963 0.73021501303 3.1101438999 0.080181010067 0.45569860935
          3.0500233173 -0.10988160223 0.76281303167 3.1153120995 -0.17042639852 0.52375102043
          -1.5760400295 -0.030635099858 -0.29671400785 -1.684795022 0.12831169367 -0.21073399484
          -1.8348480463 -0.01922108978 -0.21806798875 -1.8419760466 0.17466241121 -0.33885499835
          -4.6960554123 0.49519553781 -0.24164129794 -4.67258358 0.49731987715 -0.45437440276
          -4.5090827942 0.30276152492 -0.34050369263 -4.4126858711 0.49212142825 -0.31948131323
          1.3844920397 0.52349030972 0.14648000896 1.2129423618 0.51908618212 0.16832698882
          1.1881120205 0.31921857595 0.10735101253 1.133603096 0.5178232789 0.011582996696
          4.7822642326 -0.20231451094 0.72078299522 5.1017589569 -0.19658398628 0.71833097935
          4.9794502258 -0.39840599895 0.61955702305 4.9700870514 -0.40666720271 0.87981498241
          2.9585413933 -0.41264221072 0.97368997335 3.167424202 -0.4212833941 0.82355499268
          3.1393265724 -0.19575251639 1.0545070171 2.900462389 -0.18088708818 0.95662897825
          -3.7167961597 -0.29400056601 -0.18038730323 -3.8035757542 -0.50670826435 -0.31858798862
          -3.5096030235 -0.50470131636 -0.15045179427 -3.5462591648 -0.3417108953 -0.29696801305
          -1.0507317781 -0.037540301681 -1.0923370123 -1.2013354301 -0.1661592871 -1.0883820057
          -1.0344099998 -0.31266370416 -0.88067400455 -0.89977502823 -0.26588141918 -1.0985300541
          -2.0933618546 0.23922790587 -0.44598591328 -1.8747121096 0.0029144007713 -0.49748280644
          -2.0529088974 0.052241001278 -0.20910900831 -1.8419760466 0.17466241121 -0.33885499835
          -4.4882779121 -0.32354712486 0.15183719993 -4.7949709892 -0.27444934845 -0.028330069035
          -4.6583003998 -0.19147884846 0.13825491071 -4.5417332649 -0.49570846558 0.045956496149
          -2.0245499611 0.48440909386 -0.34754398465 -2.3905160427 0.48403820395 -0.18478998542
          -2.0947520733 0.29650449753 -0.21109998226 -2.2193543911 0.4817315042 -0.46778970957
          -1.5760400295 -0.030635099858 -0.29671400785 -1.6200009584 -0.10922949761 -0.042343001813
          -1.5985989571 -0.27739399672 -0.2576969862 -1.8348480463 -0.01922108978 -0.21806798875
          3.3469219208 -0.1246156022 -0.013377999887 3.3039441109 0.08869034797 -0.023718999699
          3.1981549263 0.12413520366 0.16969101131 3.1375620365 -0.015359799378 -0.09573700279
          1.9601919651 -0.45431318879 0.13470560312 1.7383420467 -0.46321061254 0.15311719477
          1.8268829584 -0.45585429668 -0.0072320010513 1.8784749508 -0.24840208888 0.010538879782
          4.5794639587 -0.095555409789 0.80211597681 4.7766752243 -0.0062490031123 0.81723797321
          4.7822642326 -0.20231451094 0.72078299522 4.7351660728 -0.16101920605 0.98147392273
          3.8319048882 0.3724052906 1.1257870197 3.807289362 0.56469881535 1.2195600271
          4.0298194885 0.42154958844 1.3837649822 3.8741321564 0.28035160899 1.3299449682
          -0.55649799109 -0.51590490341 -0.39866101742 -0.56078988314 -0.3168579042 -0.30044898391
          -0.37324941158 -0.23546770215 -0.36768600345 -0.39079099894 -0.51813417673 -0.27170100808
          -3.3787970543 -0.14233914018 0.29122000933 -3.0995531082 -0.23698805273 0.23871299624
          -3.2058420181 -0.10112692416 0.25872200727 -3.3824651241 -0.30312857032 0.073741987348
          2.7448999882 0.34383347631 0.0055840001442 2.977586031 0.57245218754 0.10077200085
          3.1256771088 0.35985979438 0.17385299504 2.8881449699 0.23836348951 0.18792100251
          -1.293176055 0.1205618009 -0.45924699306 -1.2542339563 0.29450172186 -0.30690699816
          -1.1750420332 0.11218670756 -0.27856901288 -1.3984810114 0.086329601705 -0.26900598407
          -1.8959770203 0.26786220074 -0.15826401114 -1.684795022 0.12831169367 -0.21073399484
          -1.7572649717 0.069237500429 -0.019905999303 -1.6865179539 0.27380079031 -0.033339001238
          -0.20980919898 -0.34469109774 -0.28026798368 -0.27925050259 -0.14596910775 -0.065104998648
          -0.081785798073 -0.18698275089 -0.35594800115 -0.22414989769 -0.31539151073 -0.059500001371
          4.7351660728 -0.16101920605 0.98147392273 4.6312479973 -0.18212139606 1.2574429512
          4.7013711929 -0.40805020928 1.0405980349 4.5186548233 -0.2072378099 0.99021959305
          0.18558773398 0.49153119326 -0.87829899788 0.15515929461 0.27147474885 -0.81783097982
          0.014425000176 0.49165633321 -0.66029900312 0.22630690038 0.49578845501 -0.65596997738
          2.9692933559 0.5583781004 0.99691599607 3.0665662289 0.3753657043 0.82187402248
          2.8261909485 0.28350150585 0.9414550066 3.1853451729 0.33565509319 1.0903539658
          -3.3997917175 0.20229819417 -0.72843700647 -3.4724879265 0.27005422115 -0.50610899925
          -3.2429180145 0.19009520113 -0.47103300691 -3.3833937645 -0.032667398453 -0.48868498206
          5.0362038612 -0.1984565109 1.0518586636 4.8456058502 -0.1037119925 1.1854159832
          5.1611480713 -0.11739530414 1.3518660069 4.9568657875 -0.20041409135 1.3308819532
          -2.9400956631 0.27705860138 -0.27815890312 -3.2429180145 0.19009520113 -0.47103300691
          -3.3095912933 0.2773117125 -0.21319679916 -3.0590620041 0.043446499854 -0.27457588911
          4.1542201042 0.59776520729 0.72164899111 4.2886710167 0.33758100867 0.66382801533
          4.2772049904 0.36336359382 0.94083797932 4.3505711555 0.60127097368 0.76294797659
          -1.2655464411 -0.30120876431 -0.88210499287 -1.5961900949 -0.24007625878 -0.77421802282
          -1.5043648481 -0.50604504347 -0.71901899576 -1.3901776075 -0.50089198351 -0.8744109869
          -0.055491000414 -0.26846665144 -0.58021008968 -0.28265699744 -0.012162780389 -0.58007609844
          -0.045155998319 0.014279329218 -0.54846435785 -0.081785798073 -0.18698275089 -0.35594800115
          3.5444030762 -0.40834650397 0.28405502439 3.4389131069 -0.21940618753 0.24159599841
          3.6210319996 -0.40883889794 0.49147000909 3.3867809772 -0.23781871796 0.5709104538
          -3.133988142 0.48230528831 -0.1387040019 -3.3095912933 0.2773117125 -0.21319679916
          -3.4978125095 0.48323321342 -0.19416743517 -3.3706200123 0.48187199235 0.10127900541
          -2.1485760212 0.26226508617 -0.74843597412 -2.3340997696 0.29154390097 -0.43325453997
          -2.2193543911 0.4817315042 -0.46778970957 -2.0933618546 0.23922790587 -0.44598591328
          2.6725535393 0.38265278935 0.65312898159 2.7912619114 0.22470119596 0.5612180233
          2.5544810295 0.1293092072 0.82531297207 2.8261909485 0.28350150585 0.9414550066
          -1.2214440107 -0.234099105 -0.087950997055 -1.2152099609 -0.081209897995 -0.31830999255
          -1.224069953 -0.31939327717 -0.31514698267 -1.0252319574 -0.25830030441 -0.10159199685
          -4.0971708298 0.14169080555 0.095920503139 -4.1840386391 -0.02179926075 0.21181380749
          -4.0624485016 0.11422649771 0.40121608973 -3.9542860985 -0.041209600866 0.17256499827
          -0.64104998112 -0.30240130424 -0.9189350009 -0.43940600753 -0.13465237617 -1.0850310326
          -0.62074798346 -0.15536004305 -1.0920000076 -0.48082599044 -0.31821736693 -1.0916539431
          -4.2421140671 -0.50075817108 -0.098954796791 -4.2297291756 -0.32805991173 0.13521359861
          -4.0447149277 -0.49747499824 0.14612358809 -4.3444986343 -0.49644988775 0.069615103304
          4.0511579514 -0.20270109177 0.7991797924 3.9209868908 -0.049528494477 0.94006299973
          3.8193171024 -0.21124768257 0.82013428211 3.9133279324 -0.075963594019 0.57894998789
          1.40358603 0.24286289513 -0.3494130075 1.5727180243 0.33926710486 -0.070410497487
          1.562005043 0.53115862608 -0.25408700109 1.7200000286 0.27868279815 -0.33277949691
          0.19005160034 0.5024972558 -0.0085250083357 0.12283880264 0.27401307225 -0.19243100286
          0.31266918778 0.50222033262 -0.13974998891 0.15476429462 0.49982050061 -0.22475299239
          1.1398986578 -0.010146999732 0.071502000093 1.1546875238 0.13383899629 0.32170900702
          1.1881120205 0.31921857595 0.10735101253 1.3329657316 0.04662720114 0.17705599964
          -2.0371425152 -0.34191715717 -0.78012096882 -2.1830513477 -0.50529420376 -0.71057498455
          -1.9995814562 -0.50839465857 -0.5625320673 -1.9412852526 -0.50214797258 -0.90207898617
          -3.1060006618 0.44208559394 -0.78849500418 -2.8732545376 0.220630005 -0.8351380229
          -3.0509493351 0.29688620567 -0.58453899622 -2.923997879 0.48139628768 -0.67437797785
          0.0696529001 -0.32972794771 -0.23890098929 0.098207399249 -0.032019931823 -0.19597899914
          0.24777440727 -0.18341463804 -0.29771098495 0.071282997727 -0.17594109476 -0.0039079999551
          -4.0038924217 0.48269051313 0.10539000481 -4.0514550209 0.30707678199 0.23333111405
          -3.7853329182 0.48204940557 0.059275992215 -3.8129053116 0.21391560137 0.11131499708
          1.9232388735 -0.45981270075 0.32396870852 1.9601919651 -0.45431318879 0.13470560312
          2.1862559319 -0.44939181209 0.30064499378 2.0660989285 -0.22966709733 0.14300569892
          2.0636451244 -0.34763351083 0.61844497919 1.8317303658 -0.34591260552 0.53505861759
          1.9232388735 -0.45981270075 0.32396870852 2.1206483841 -0.27323719859 0.41196197271
          -1.8772009611 0.48616209626 -0.20101100206 -2.0245499611 0.48440909386 -0.34754398465
          -1.9025046825 0.29032579064 -0.52002221346 -1.7097920179 0.31207630038 -0.45334500074
          4.6309452057 0.20724229515 0.45776200294 4.86105299 0.0081822015345 0.50044000149
          4.6600642204 -0.03085799329 0.45767199993 4.6400561333 0.033197704703 0.65296798944
          1.3544540405 0.20737339556 0.028903007507 1.359737277 0.23038239777 0.39317399263
          1.543838501 0.32068037987 0.19921569526 1.3329657316 0.04662720114 0.17705599964
          0.31595930457 -0.22976750135 -0.98769599199 0.08132699877 -0.24986088276 -1.0299509764
          0.20165160298 -0.28208371997 -0.78509497643 0.37125998735 -0.47539919615 -0.97635698318
          -3.4724879265 0.27005422115 -0.50610899925 -3.2531692982 0.48335590959 -0.6420429945
          -3.2429180145 0.19009520113 -0.47103300691 -3.2644114494 0.48313009739 -0.43453800678
          2.6536407471 0.42629250884 0.87590301037 2.810836792 0.55920171738 0.76666796207
          2.8261909485 0.28350150585 0.9414550066 2.9692933559 0.5583781004 0.99691599607
          -0.056981399655 -0.33009880781 -0.03277400136 -0.062883600593 -0.026130199432 -0.024199999869
          -0.081785798073 -0.18698275089 -0.35594800115 0.071282997727 -0.17594109476 -0.0039079999551
          -3.5914151669 -0.15871548653 -0.36829999089 -3.5462591648 -0.3417108953 -0.29696801305
          -3.3609697819 -0.25755804777 -0.25123178959 -3.4071218967 -0.27582120895 -0.49657699466
          1.7636737823 0.046389199793 0.32517156005 1.8545037508 0.351865381 0.36945268512
          1.9014420509 0.24749788642 0.58212649822 1.6081655025 0.1408970952 0.47529900074
          -4.4874916077 0.48258560896 0.25255030394 -4.374229908 0.21605139971 0.18340799212
          -4.5572566986 0.23751859367 0.2899813056 -4.5035572052 0.34405878186 0.45431670547
          3.7570819855 -0.18195958436 0.41518300772 4.0834741592 -0.21439018846 0.53021103144
          3.9752399921 -0.40516790748 0.36332198977 3.8355340958 -0.40645951033 0.54560798407
          0.98131197691 0.51418298483 -0.26199400425 0.84688097239 0.325525105 -0.34160640836
          1.0754319429 0.25025811791 -0.42730200291 0.89502197504 0.51158940792 -0.54344600439
          2.4682879448 0.38555598259 -0.10436999053 2.5194039345 0.221833691 0.014336997643
          2.7448999882 0.34383347631 0.0055840001442 2.6444098949 0.20465949178 -0.2766700089
          1.2691779137 0.37699308991 0.36733099818 1.359737277 0.23038239777 0.39317399263
          1.4660654068 0.43263700604 0.43621888757 1.543838501 0.32068037987 0.19921569526
          -3.9980287552 -0.32266074419 -0.13652320206 -3.9158587456 -0.22345404327 -0.33129701018
          -4.2235832214 -0.18397390842 -0.2816118896 -4.1002011299 -0.31287899613 -0.40952581167
          -2.0836164951 0.47975090146 -0.66095596552 -2.1485760212 0.26226508617 -0.74843597412
          -2.2193543911 0.4817315042 -0.46778970957 -2.0933618546 0.23922790587 -0.44598591328
          4.5119929314 -0.044536296278 1.1272319555 4.5335330963 0.11206749827 0.92334389687
          4.5794639587 -0.095555409789 0.80211597681 4.7351660728 -0.16101920605 0.98147392273
          0.56008797884 0.052585806698 -0.68334698677 0.36064499617 -0.039502311498 -0.75520098209
          0.49993100762 0.0054506729357 -0.41626721621 0.35398098826 -0.14804252982 -0.47525811195
          -0.30593618751 0.24488276243 -0.24136300385 -0.264005512 0.0059295003302 -0.30922400951
          -0.18545199931 0.22996643186 -0.47609320283 -0.45164808631 0.18338213861 -0.40235000849
          -0.83420801163 -0.058261297643 -0.10190299898 -0.85025602579 -0.29496991634 -0.10682400316
          -0.76909697056 -0.29619181156 -0.33838999271 -0.8307570219 -0.058059498668 -0.35817700624
          4.7657809258 0.38576200604 0.78052300215 4.5828242302 0.39658501744 0.96988636255
          4.548661232 0.31044599414 0.7846570015 4.5438528061 0.60426002741 0.8030000329
          1.4301359653 -0.33039590716 0.39710000157 1.2453129292 -0.22395838797 0.33866900206
          1.5581665039 -0.242820099 0.18669840693 1.3826347589 0.0027236009482 0.39376598597
          3.7570819855 -0.18195958436 0.41518300772 3.8355340958 -0.40645951033 0.54560798407
          3.7608931065 -0.4066208899 0.33188599348 3.6210319996 -0.40883889794 0.49147000909
          -0.42215698957 0.32589438558 -1.0801579952 -0.33919200301 0.20730000734 -0.79884600639
          -0.55084097385 0.27224868536 -0.88415497541 -0.47368499637 0.48183679581 -0.90071099997
          -0.81611001492 0.30783483386 -0.27051800489 -0.75858801603 0.17240820825 -0.42690300941
          -1.0361119509 0.21812960505 -0.37398898602 -0.85646498203 0.17925000191 -0.10178700089
          0.73383498192 -0.30438300967 -0.4254899919 0.6582840085 -0.086143799126 -0.53992497921
          0.87655997276 -0.11350530386 -0.45971497893 0.7164170146 -0.01385910064 -0.332908988
          0.6468949914 -0.072852902114 -0.91035401821 0.43230000138 -0.066396504641 -0.95820701122
          0.56008797884 0.052585806698 -0.68334698677 0.36064499617 -0.039502311498 -0.75520098209
          -4.2297291756 -0.32805991173 0.13521359861 -4.3568739891 -0.16453392804 0.20460030437
          -4.4301371574 -0.28078189492 -0.098592102528 -4.2165794373 -0.29792863131 -0.10957739502
          0.44702979922 0.50523287058 -0.018845997751 0.31266918778 0.50222033262 -0.13974998891
          0.51253330708 0.2876406908 -0.10298900306 0.36727958918 0.50212621689 -0.31630799174
          0.94738799334 0.12911939621 -0.82793599367 0.76200997829 0.19809819758 -0.53690600395
          0.94843697548 0.30960980058 -0.61462700367 0.93168497086 0.052144400775 -0.6099550128
          -2.6578717232 -0.50742650032 -0.52386301756 -2.8155953884 -0.19327259064 -0.5224930048
          -2.9167158604 -0.50708723068 -0.47135400772 -2.8126263618 -0.50702655315 -0.63701498508
          -4.3847136497 -0.10933701694 -0.55893617868 -4.4689326286 -0.28248617053 -0.54752629995
          -4.6480989456 -0.13892398775 -0.52972179651 -4.4642100334 -0.19895298779 -0.3199582994
          1.8019828796 0.22406680882 0.18662501872 1.8545037508 0.351865381 0.36945268512
          1.7636737823 0.046389199793 0.32517156005 1.6081655025 0.1408970952 0.47529900074
          -4.6259469986 0.16757617891 -0.22007699311 -4.6960554123 0.49519553781 -0.24164129794
          -4.5090827942 0.30276152492 -0.34050369263 -4.4985280037 0.48879349232 -0.082372002304
          1.2600870132 -0.46586328745 -0.47155499458 0.9440330267 -0.47934010625 -0.38176751137
          1.0520069599 -0.24730080366 -0.58848804235 1.1370209455 -0.2310988009 -0.34101459384
          1.4743545055 -0.47509750724 0.23366600275 1.1952601671 -0.29477098584 0.064541012049
          1.4941439629 -0.30191999674 -0.0081950007007 1.5581665039 -0.242820099 0.18669840693
          -0.49614500999 -0.18467617035 -0.78485298157 -0.70339399576 -0.074503429234 -0.67528831959
          -0.65971499681 -0.068506918848 -0.89710998535 -0.62419199944 0.12591390312 -0.73094600439
          4.2507781982 -0.39692500234 1.0791150331 4.1932888031 -0.10509669781 1.111093998
          4.2914719582 -0.39629501104 1.270524025 4.0831799507 -0.39639300108 1.2308779955
          -3.5145463943 -0.50127327442 0.11511399597 -3.7788000107 -0.49894934893 0.14450898767
          -3.6591205597 -0.502214849 -0.015271005221 -3.6205406189 -0.31749200821 0.12511700392
          -0.14045800269 -0.19142946601 -0.79101097584 -0.11249899864 -0.48702061176 -0.93265897036
          -0.14834499359 -0.49472266436 -0.76049399376 0.084794998169 -0.48656210303 -0.82398599386
          4.8725390434 0.29623439908 1.2086399794 4.9485001564 0.60167902708 1.3511019945
          5.0302901268 0.43874397874 1.1967389584 4.9263429642 0.33198681474 1.4921859503
          2.7102086544 -0.435593009 0.59967702627 2.5104129314 -0.4431695044 0.58892899752
          2.6416110992 -0.43433389068 0.39271500707 2.5335454941 -0.19222688675 0.50451397896
          2.1151509285 0.051999751478 0.097855910659 1.8809980154 0.037144001573 -0.0096619697288
          1.8019828796 0.22406680882 0.18662501872 1.9838659763 -0.058840800077 0.22020068765
          3.197124958 0.55400508642 1.1030919552 3.4282515049 0.33187240362 0.97428900003
          3.1853451729 0.33565509319 1.0903539658 3.5158138275 0.52084130049 1.2258909941
          1.359737277 0.23038239777 0.39317399263 1.6081655025 0.1408970952 0.47529900074
          1.4660654068 0.43263700604 0.43621888757 1.543838501 0.32068037987 0.19921569526
          1.8784749508 -0.24840208888 0.010538879782 1.85224998 -0.44815999269 -0.31117022038
          2.0085380077 -0.44803181291 -0.051146503538 1.9479429722 -0.26660808921 -0.33822989464
          3.0206739902 0.45230871439 -0.12432000041 2.977586031 0.57245218754 0.10077200085
          3.1256771088 0.35985979438 0.17385299504 2.7448999882 0.34383347631 0.0055840001442
          2.8154499531 -0.22758620977 0.35329309106 2.7957570553 -0.42637899518 0.25317001343
          2.9719080925 -0.42173939943 0.30924770236 2.9301850796 -0.41978639364 0.12177300453
          -3.7167961597 -0.29400056601 -0.18038730323 -3.8215641975 -0.23188085854 0.091413997114
          -3.8562464714 -0.50317251682 -0.11210159957 -3.9980287552 -0.32266074419 -0.13652320206
          3.0665662289 0.3753657043 0.82187402248 3.0184175968 0.12345609814 0.73364597559
          3.0947101116 0.28387919068 0.62956798077 2.9040269852 0.39754191041 0.64887100458
          -2.8014369011 -0.27421984076 -0.022419007495 -2.8371300697 -0.46261897683 0.18645299971
          -2.6173989773 -0.49825462699 0.14134299755 -2.8594679832 -0.50669443607 -0.096579000354
          -4.1795921326 0.26754778624 0.41782468557 -3.9883553982 0.47970271111 0.36896401644
          -4.0514550209 0.30707678199 0.23333111405 -3.8718869686 0.28284701705 0.37479698658
          -1.7037880421 -0.51201498508 -0.40343299508 -1.6305606365 -0.29367351532 -0.52340888977
          -1.8079010248 -0.20703689754 -0.34597599506 -1.9710366726 -0.33433938026 -0.42893758416
          -2.1201012135 -0.050273101777 -0.70986998081 -2.0371425152 -0.34191715717 -0.78012096882
          -1.8874305487 -0.20946229994 -0.68173897266 -1.901250124 -0.024264600128 -0.80353200436
          -0.29999598861 -0.31015944481 -0.61351531744 -0.51817697287 -0.33874639869 -0.53937000036
          -0.37324941158 -0.23546770215 -0.36768600345 -0.26617699862 -0.50942438841 -0.44230300188
          -1.0723729134 -0.088602088392 -0.8404250145 -0.96610802412 -0.023699499667 -0.59952700138
          -0.85043102503 0.031999699771 -0.80896800756 -0.82459098101 -0.20698645711 -0.80915498734
          2.4399039745 -0.10959740728 -0.0052800015546 2.5325028896 -0.2637206018 -0.12680798769
          2.6479671001 -0.18968589604 0.18436330557 2.7572391033 -0.22472290695 -0.032116010785
          -0.33674499393 -0.49515008926 -0.82062500715 -0.41128501296 -0.48971751332 -0.99034798145
          -0.32380700111 -0.29127669334 -0.87523800135 -0.64104998112 -0.30240130424 -0.9189350009
          -4.6145296097 0.48269069195 0.36654379964 -4.745464325 0.3263682127 0.25227379799
          -4.7025990486 0.30048549175 0.47185480595 -4.5572566986 0.23751859367 0.2899813056
          -2.9424054623 0.1131972 -0.47736001015 -3.0509493351 0.29688620567 -0.58453899622
          -2.819904089 0.037339199334 -0.66302698851 -2.8207395077 0.30260008574 -0.65172201395
          0.08132699877 -0.24986088276 -1.0299509764 0.034777998924 -0.452539891 -1.0440080166
          -0.11249899864 -0.48702061176 -0.93265897036 0.084794998169 -0.48656210303 -0.82398599386
          -3.0065186024 0.11188069731 -0.80747801065 -2.819904089 0.037339199334 -0.66302698851
          -3.0660376549 -0.035237099975 -0.601772964 -2.9424054623 0.1131972 -0.47736001015
          0.36064499617 -0.039502311498 -0.75520098209 0.30108499527 0.17071788013 -0.6524900198
          0.41305398941 0.29973137379 -0.76187801361 0.56008797884 0.052585806698 -0.68334698677
          -4.7917890549 -0.033734429628 0.26267528534 -5 -0.12896800041 0.37591099739
          -5 0.07584580034 0.38386198878 -4.6800694466 0.0018985598581 0.46689039469
          4.4793419838 0.2869952023 1.1247149706 4.2345128059 0.15581940114 1.1804380417
          4.2772049904 0.36336359382 0.94083797932 4.2713618279 0.37677168846 1.2242929935
          -3.9158587456 -0.22345404327 -0.33129701018 -3.7167961597 -0.29400056601 -0.18038730323
          -3.733959198 -0.32337343693 -0.43397399783 -3.8035757542 -0.50670826435 -0.31858798862
          -2.1330692768 0.078793898225 -0.55708521605 -2.0975265503 -0.075285196304 -0.43518251181
          -2.0933618546 0.23922790587 -0.44598591328 -1.8747121096 0.0029144007713 -0.49748280644
          4.2263350487 -0.055008299649 1.4182280302 4.2345128059 0.15581940114 1.1804380417
          4.4337921143 0.1125216037 1.254134059 4.33537817 0.096284002066 1.4644019604
          2.9692933559 0.5583781004 0.99691599607 3.2735610008 0.57003730536 0.75401997566
          3.0665662289 0.3753657043 0.82187402248 3.197124958 0.55400508642 1.1030919552
          4.7657809258 0.38576200604 0.78052300215 4.5893030167 0.61060297489 0.61573702097
          4.8564839363 0.61346799135 0.55668997765 4.7377829552 0.60829901695 0.77481901646
          2.9183690548 -0.10514099896 0.18946899474 3.1101438999 0.080181010067 0.45569860935
          3.0323710442 -0.2302993089 0.32912188768 2.8575510979 0.064445592463 0.36333754659
          3.7570819855 -0.18195958436 0.41518300772 3.4389131069 -0.21940618753 0.24159599841
          3.5444030762 -0.40834650397 0.28405502439 3.5797228813 -0.13064749539 0.085768997669
          2.6714880466 0.016336200759 -0.27357900143 2.6444098949 0.20465949178 -0.2766700089
          2.7066569328 0.013594998047 0.026080995798 2.4686999321 0.064002029598 -0.14970698953
          1.9772109985 0.2443075031 -0.15706959367 1.8098720312 0.33792459965 -0.017415300012
          2.0875871181 0.32275497913 0.17387519777 1.8809980154 0.037144001573 -0.0096619697288
          -0.64104998112 -0.30240130424 -0.9189350009 -0.89977502823 -0.26588141918 -1.0985300541
          -0.74040699005 -0.49768507481 -0.86798501015 -0.66408002377 -0.41804593801 -1.1008930206
          2.2007000446 -0.030069796368 -0.17213380337 2.1296679974 -0.11873139441 -0.46822568774
          2.3959000111 -0.2165030092 -0.38119700551 2.3845460415 0.082077801228 -0.37291699648
          -3.5458295345 0.1751678884 -0.0069859996438 -3.5198493004 0.28535220027 -0.20457419753
          -3.71869874 0.25738021731 -0.13884219527 -3.5523664951 0.0045121996664 -0.18042999506
          -2.1485760212 0.26226508617 -0.74843597412 -2.3831152916 0.479411304 -0.7015529871
          -2.2193543911 0.4817315042 -0.46778970957 -2.3340997696 0.29154390097 -0.43325453997
          5.0362038612 -0.1984565109 1.0518586636 4.9225811958 -0.41055479646 1.0575927496
          4.8456058502 -0.1037119925 1.1854159832 4.9568657875 -0.20041409135 1.3308819532
          4.309071064 0.60760998726 0.56352597475 4.3505711555 0.60127097368 0.76294797659
          4.5893030167 0.61060297489 0.61573702097 4.4798941612 0.42885500193 0.6264359951
          4.5119929314 -0.044536296278 1.1272319555 4.7351660728 -0.16101920605 0.98147392273
          4.5794639587 -0.095555409789 0.80211597681 4.5186548233 -0.2072378099 0.99021959305
          -2.8009653091 0.022092198953 -0.32149419188 -2.9204330444 -0.13243819773 -0.19507199526
          -2.7996120453 -0.02800030075 -0.034934002906 -2.5937309265 -0.094380997121 -0.091197997332
          -3.0660376549 -0.035237099975 -0.601772964 -2.8155953884 -0.19327259064 -0.5224930048
          -3.0045845509 -0.31262481213 -0.59387999773 -2.9648208618 -0.08248540014 -0.41598600149
          3.0665662289 0.3753657043 0.82187402248 2.9040269852 0.39754191041 0.64887100458
          2.8261909485 0.28350150585 0.9414550066 3.0184175968 0.12345609814 0.73364597559
          3.1153120995 -0.17042639852 0.52375102043 3.2812619209 -0.41720849276 0.63608801365
          3.167424202 -0.4212833941 0.82355499268 3.3097200394 -0.10290320963 0.73021501303
          -0.90989202261 0.24085079134 -0.62744837999 -1.2275027037 0.26585769653 -0.64385217428
          -1.0361119509 0.21812960505 -0.37398898602 -1.1938619614 0.03204099834 -0.66020560265
          0.68674623966 -0.13471266627 0.16325600445 0.48138740659 -0.12545976043 0.10301499814
          0.81067937613 -0.037577752024 -0.03468298912 0.53519868851 0.048687562346 -0.13842900097
          0.81067937613 -0.037577752024 -0.03468298912 0.48138740659 -0.12545976043 0.10301499814
          0.67708927393 -0.18054930866 -0.18623100221 0.53519868851 0.048687562346 -0.13842900097
          4.2772049904 0.36336359382 0.94083797932 4.1542201042 0.59776520729 0.72164899111
          4.0778617859 0.38755699992 0.83571088314 4.2886710167 0.33758100867 0.66382801533
          0.39167898893 0.41524764895 -0.96190798283 0.41305398941 0.29973137379 -0.76187801361
          0.67563098669 0.48699307442 -0.89504599571 0.63849902153 0.22250783443 -0.90636301041
          3.4191789627 0.57933980227 0.56054317951 3.2744851112 0.38130360842 0.56395947933
          3.4329230785 0.25877740979 0.41826298833 3.3910770416 0.58322429657 0.34406098723
          0.073527999222 0.1395072788 -1.023146987 -0.18109099567 0.051842641085 -1.0570659637
          -0.084298998117 0.0080306082964 -0.84863698483 -0.012552999891 -0.06247812137 -1.0391819477
          -0.45164808631 0.18338213861 -0.40235000849 -0.18545199931 0.22996643186 -0.47609320283
          -0.30593618751 0.24488276243 -0.24136300385 -0.40303009748 0.49246281385 -0.4396699965
          1.40358603 0.24286289513 -0.3494130075 1.7200000286 0.27868279815 -0.33277949691
          1.6285569668 0.23750409484 -0.61983597279 1.5854810476 0.084593199193 -0.4168010056
          3.7211930752 0.051226999611 0.43084198236 3.6307458878 0.097795702517 0.69470512867
          3.9250519276 0.16208969057 0.46795699 3.9133279324 -0.075963594019 0.57894998789
          -4.2235832214 -0.18397390842 -0.2816118896 -4.2165794373 -0.29792863131 -0.10957739502
          -4.1002011299 -0.31287899613 -0.40952581167 -4.2843179703 -0.50610029697 -0.3169965148
          3.6909389496 0.12423589826 1.2709879875 3.7040190697 0.031617399305 1.0519629717
          3.3044917583 0.12322919816 1.1306680441 3.4149284363 -0.092121005058 1.167222023
          0.24777440727 -0.18341463804 -0.29771098495 0.25168299675 0.024994578212 -0.46399909258
          0.35398098826 -0.14804252982 -0.47525811195 0.474378407 -0.11557681859 -0.24810600281
          -4.5417332649 -0.49570846558 0.045956496149 -4.5711774826 -0.48988559842 0.24580539763
          -4.4882779121 -0.32354712486 0.15183719993 -4.3444986343 -0.49644988775 0.069615103304
          3.5797228813 -0.13064749539 0.085768997669 3.4854989052 0.014852097258 0.049800999463
          3.6490149498 0.068853497505 0.12046000361 3.4166619778 0.065547503531 0.28209301829
          3.5936889648 0.39519989491 0.35134500265 3.5310690403 0.59044080973 0.18322899938
          3.6242129803 0.38442382216 0.12190700322 3.7101740837 0.59498238564 0.34702202678
          -2.1485760212 0.26226508617 -0.74843597412 -2.1201012135 -0.050273101777 -0.70986998081
          -2.0292806625 0.11994799972 -0.99204802513 -2.188603878 0.16068729758 -0.96540898085
          -3.8043015003 -0.00087310036179 -0.39245098829 -3.733959198 -0.32337343693 -0.43397399783
          -3.9158587456 -0.22345404327 -0.33129701018 -3.5914151669 -0.15871548653 -0.36829999089
          1.3815850019 -0.12085030228 -0.70849198103 1.5145740509 0.068407997489 -0.66118901968
          1.3804830313 -0.0036427995656 -0.4926970005 1.3034750223 0.047147899866 -0.72722101212
          4.372276783 -0.18564900756 1.2451930046 4.2263350487 -0.055008299649 1.4182280302
          4.4053249359 -0.07816299051 1.462864995 4.1478528976 -0.20111000538 1.3932329416
          3.9133279324 -0.075963594019 0.57894998789 3.9250519276 0.16208969057 0.46795699
          4.0790348053 0.052158098668 0.78453868628 4.0052309036 0.2497472018 0.67321902514
          1.8510379791 0.076726302505 -0.29504978657 1.8998550177 0.038344699889 -0.53832769394
          1.5854810476 0.084593199193 -0.4168010056 1.7244919538 -0.11605580151 -0.38782680035
          -1.596382618 -0.17736847699 -1.051363945 -1.5961900949 -0.24007625878 -0.77421802282
          -1.4535621405 -0.08741620183 -0.88498598337 -1.3467004299 -0.27448686957 -1.0782300234
          4.9800801277 0.31590399146 0.82129001617 5.2841758728 0.46887099743 0.8069050312
          4.9471430779 0.61130398512 0.85095900297 5.0679278374 0.61340600252 0.65205299854
          -3.1758265495 0.071973100305 -0.7731680274 -3.3997917175 0.20229819417 -0.72843700647
          -3.3833937645 -0.032667398453 -0.48868498206 -3.4343647957 -0.1506202966 -0.72061800957
          4.6259679794 -0.40398031473 0.7512139678 4.5186548233 -0.2072378099 0.99021959305
          4.7013711929 -0.40805020928 1.0405980349 4.4776749611 -0.40230458975 1.0684930086
          4.3505711555 0.60127097368 0.76294797659 4.5438528061 0.60426002741 0.8030000329
          4.4798941612 0.42885500193 0.6264359951 4.548661232 0.31044599414 0.7846570015
          -1.8419760466 0.17466241121 -0.33885499835 -1.7018979788 0.48639988899 -0.31914901733
          -1.684795022 0.12831169367 -0.21073399484 -1.8959770203 0.26786220074 -0.15826401114
          0.31418091059 0.094848684967 -0.98210698366 0.30108499527 0.17071788013 -0.6524900198
          0.41305398941 0.29973137379 -0.76187801361 0.36064499617 -0.039502311498 -0.75520098209
          4.0860438347 -0.014925898984 0.46736100316 4.1978611946 0.12986010313 0.5741019845
          4.2261519432 -0.095267094672 0.65937298536 4.0790348053 0.052158098668 0.78453868628
          -3.7656788826 0.48673638701 -0.49626898766 -3.6321229935 0.48460400105 -0.30110099912
          -3.7273154259 0.27898979187 -0.49260097742 -3.8077201843 0.48553070426 -0.30209600925
          0.08132699877 -0.24986088276 -1.0299509764 0.20461019874 -0.067686937749 -1.0017780066
          0.31595930457 -0.22976750135 -0.98769599199 0.066189996898 -0.13907346129 -0.85989201069
          3.4166619778 0.065547503531 0.28209301829 3.6066539288 0.1872664988 0.30272099376
          3.6490149498 0.068853497505 0.12046000361 3.7211930752 0.051226999611 0.43084198236
          3.1758000851 0.57594889402 0.29714500904 3.0461831093 0.56736302376 0.63019996881
          3.0462920666 0.35370859504 0.42864450812 2.8252680302 0.56484931707 0.31118530035
          3.0462920666 0.35370859504 0.42864450812 2.9040269852 0.39754191041 0.64887100458
          2.7912619114 0.22470119596 0.5612180233 2.8127799034 0.36863431334 0.39534589648
          1.8268829584 -0.45585429668 -0.0072320010513 1.7383420467 -0.46321061254 0.15311719477
          1.6559460163 -0.46090990305 -0.083716340363 1.8784749508 -0.24840208888 0.010538879782
          2.0085380077 -0.44803181291 -0.051146503538 1.9164220095 -0.13674210012 -0.17615103722
          2.1323330402 -0.24952030182 -0.2159884125 1.8784749508 -0.24840208888 0.010538879782
          -3.5939254761 -0.0081771295518 -0.69047999382 -3.5941543579 0.02097989805 -0.47818499804
          -3.3833937645 -0.032667398453 -0.48868498206 -3.4343647957 -0.1506202966 -0.72061800957
          -0.055491000414 -0.26846665144 -0.58021008968 -0.14834499359 -0.49472266436 -0.76049399376
          -0.14045800269 -0.19142946601 -0.79101097584 -0.29999598861 -0.31015944481 -0.61351531744
          -1.8841609955 0.47777590156 -0.81263101101 -2.1485760212 0.26226508617 -0.74843597412
          -1.8121285439 0.26642638445 -0.82310700417 -1.9643406868 0.25973030925 -1.0027730465
          1.8317303658 -0.34591260552 0.53505861759 1.6243675947 -0.24140480161 0.4665620923
          1.912476182 -0.21805660427 0.34040221572 1.8082741499 -0.041739497334 0.53896141052
          -1.4155100584 -0.21666789055 -0.40096598864 -1.5985989571 -0.27739399672 -0.2576969862
          -1.5197509527 -0.51312232018 -0.42337998748 -1.6305606365 -0.29367351532 -0.52340888977
          -0.33919200301 0.20730000734 -0.79884600639 -0.5779209733 0.28877097368 -0.57027238607
          -0.35219299793 0.31618493795 -0.60427820683 -0.62419199944 0.12591390312 -0.73094600439
          0.76892197132 0.11045709997 -0.87638199329 0.76200997829 0.19809819758 -0.53690600395
          0.93168497086 0.052144400775 -0.6099550128 0.56008797884 0.052585806698 -0.68334698677
          -1.8419760466 0.17466241121 -0.33885499835 -1.8959770203 0.26786220074 -0.15826401114
          -1.684795022 0.12831169367 -0.21073399484 -1.8348480463 -0.01922108978 -0.21806798875
          0.32351368666 -0.50792455673 -0.14887700975 0.24357970059 -0.27066677809 0.034074999392
          0.44537511468 -0.27799990773 -0.12429698557 0.28973901272 -0.46788781881 0.039062999189
          2.9599170685 -0.19250740111 -0.1730210036 3.0793170929 -0.24457119405 0.11937200278
          3.1675219536 -0.22371681035 -0.091278001666 2.9632070065 -0.41506269574 -0.063951998949
          -4.1157817841 0.48770108819 -0.3238914907 -4.1721348763 0.28047949076 -0.053690198809
          -3.9854476452 0.48504701257 -0.10422489792 -3.9548974037 0.23137070239 -0.10864424706
          -1.8959770203 0.26786220074 -0.15826401114 -1.9377369881 0.14763340354 0.0093440003693
          -1.7572649717 0.069237500429 -0.019905999303 -1.8348480463 -0.01922108978 -0.21806798875
          3.550276041 0.36652091146 0.69562649727 3.7448599339 0.30333548784 0.49451100826
          3.5936889648 0.39519989491 0.35134500265 3.4329230785 0.25877740979 0.41826298833
          3.0665662289 0.3753657043 0.82187402248 3.3003060818 0.23398950696 0.76375299692
          3.2744851112 0.38130360842 0.56395947933 3.0947101116 0.28387919068 0.62956798077
          2.0672409534 0.54569250345 -0.02698210068 1.9772109985 0.2443075031 -0.15706959367
          2.111946106 0.35183390975 -0.033053901047 1.9153610468 0.36894521117 -0.30883604288
          4.1763081551 -0.404874295 0.45419001579 4.0834741592 -0.21439018846 0.53021103144
          4.2745900154 -0.40359979868 0.66799497604 4.0488052368 -0.40442740917 0.66158497334
          -4.2421140671 -0.50075817108 -0.098954796791 -4.4304690361 -0.50256663561 -0.13597680628
          -4.4301371574 -0.28078189492 -0.098592102528 -4.3444986343 -0.49644988775 0.069615103304
          -1.596382618 -0.17736847699 -1.051363945 -1.8414185047 -0.36941739917 -1.0222549438
          -1.7870930433 -0.33796232939 -0.8220590353 -1.6650289297 -0.48398628831 -1.047039032
          2.4307379723 -0.44270971417 0.40620398521 2.5335454941 -0.19222688675 0.50451397896
          2.4038360119 -0.2405732125 0.18867635727 2.6416110992 -0.43433389068 0.39271500707
          2.4038360119 -0.2405732125 0.18867635727 2.6416110992 -0.43433389068 0.39271500707
          2.6479671001 -0.18968589604 0.18436330557 2.5536410809 -0.43353191018 0.20064629614
          2.4038360119 -0.2405732125 0.18867635727 2.5335454941 -0.19222688675 0.50451397896
          2.6479671001 -0.18968589604 0.18436330557 2.6416110992 -0.43433389068 0.39271500707
          -3.5458295345 0.1751678884 -0.0069859996438 -3.6940450668 -0.011909330264 0.12301498652
          -3.4652879238 0.12876489758 0.30643999577 -3.4821026325 -0.046573873609 0.11716599017
          1.8510379791 0.076726302505 -0.29504978657 1.8998550177 0.038344699889 -0.53832769394
          2.1296679974 -0.11873139441 -0.46822568774 2.1178569794 0.093814596534 -0.4642611146
          -3.7273154259 0.27898979187 -0.49260097742 -3.4724879265 0.27005422115 -0.50610899925
          -3.5941543579 0.02097989805 -0.47818499804 -3.6243565083 0.17590141296 -0.3374350071
          2.4307379723 -0.44270971417 0.40620398521 2.6416110992 -0.43433389068 0.39271500707
          2.4038360119 -0.2405732125 0.18867635727 2.5536410809 -0.43353191018 0.20064629614
          -3.5914151669 -0.15871548653 -0.36829999089 -3.5503668785 -0.17767935991 -0.019175993279
          -3.5523664951 0.0045121996664 -0.18042999506 -3.3609697819 -0.25755804777 -0.25123178959
          1.0754319429 0.25025811791 -0.42730200291 1.23584795 0.52147328854 -0.44651499391
          1.2660080194 0.1764563024 -0.51763701439 1.40358603 0.24286289513 -0.3494130075
          1.1713650227 -0.47730788589 -0.15520529449 0.91907000542 -0.28306537867 -0.28310790658
          0.86059832573 -0.49077758193 -0.080404996872 0.9440330267 -0.47934010625 -0.38176751137
          4.4331560135 0.52280199528 0.42006701231 4.4729690552 0.34756699204 0.42458799481
          4.4798941612 0.42885500193 0.6264359951 4.6223192215 0.42864599824 0.46175301075
          -3.1325054169 -0.50747013092 -0.43627199531 -3.4071218967 -0.27582120895 -0.49657699466
          -3.251019001 -0.50599706173 -0.25622180104 -3.3306560516 -0.50790274143 -0.51511698961
          2.9244709015 -0.4294475019 0.74562698603 3.0756709576 -0.422498703 0.57748502493
          3.167424202 -0.4212833941 0.82355499268 3.0500233173 -0.10988160223 0.76281303167
          -3.0065186024 0.11188069731 -0.80747801065 -3.0509493351 0.29688620567 -0.58453899622
          -2.8732545376 0.220630005 -0.8351380229 -2.8207395077 0.30260008574 -0.65172201395
          -4.7826919556 0.30165764689 -0.29666978121 -4.792386055 0.26623538136 -0.51841771603
          -4.6259469986 0.16757617891 -0.22007699311 -4.6022672653 0.31213206053 -0.53499019146
          3.7448599339 0.30333548784 0.49451100826 3.7727000713 0.59062451124 0.58069598675
          3.9646220207 0.41419330239 0.50147998333 3.8135120869 0.40065589547 0.74336141348
          1.5975199938 -0.11391670257 -0.6415219903 1.3804830313 -0.0036427995656 -0.4926970005
          1.3132139444 -0.24616961181 -0.5035700202 1.3815850019 -0.12085030228 -0.70849198103
          -5 -0.16616299748 -0.067754097283 -5 -0.33370301127 -0.29875099659
          -5 -0.39700898528 0.035171099007 -4.9758749008 -0.49966689944 -0.16735000908
          -1.4487729073 0.26224949956 -0.55564618111 -1.7097920179 0.31207630038 -0.45334500074
          -1.545979023 0.22976130247 -0.33403101563 -1.6599514484 0.24216479063 -0.65762501955
          -4.0447149277 -0.49747499824 0.14612358809 -4.0265545845 -0.28167268634 0.21848671138
          -3.8431739807 -0.42423200607 0.37291398644 -4.0673441887 -0.49335995317 0.36177811027
          -4.5090827942 0.30276152492 -0.34050369263 -4.6036734581 0.038398779929 -0.53355240822
          -4.6010689735 -0.032954148948 -0.34019801021 -4.4088745117 0.030903441831 -0.32176870108
          0.15807649493 -0.51398259401 -0.10896699131 0.32351368666 -0.50792455673 -0.14887700975
          0.0696529001 -0.32972794771 -0.23890098929 0.34409999847 -0.50164806843 -0.32478198409
          -1.0344099998 -0.31266370416 -0.88067400455 -1.2655464411 -0.30120876431 -0.88210499287
          -1.0943470001 -0.50438934565 -0.71723198891 -1.1810113192 -0.49926784635 -0.8929489851
          -3.687541008 0.43435680866 -0.67268902063 -3.4454441071 0.45380440354 -0.71922898293
          -3.6580049992 0.19486609101 -0.67846798897 -3.4724879265 0.27005422115 -0.50610899925
          4.7789177895 0.14037750661 0.96490341425 4.7970080376 0.40450099111 0.99685043097
          4.4793419838 0.2869952023 1.1247149706 4.5828242302 0.39658501744 0.96988636255
          3.6307458878 0.097795702517 0.69470512867 3.4896070957 0.099841497838 0.92870599031
          3.7040190697 0.031617399305 1.0519629717 3.599364996 -0.13409550488 0.90844702721
          5.0286197662 0.27560698986 1.0374772549 5.2164421082 0.40284201503 1.1155520678
          5.250415802 0.44116699696 0.96342402697 5.2609939575 0.27832901478 0.92522102594
          1.655272007 0.093524098396 -0.11352000386 1.8809980154 0.037144001573 -0.0096619697288
          1.7837769985 -0.11298939586 0.15795660019 1.5601570606 0.064071901143 0.17068810761
          -1.545979023 0.22976130247 -0.33403101563 -1.684795022 0.12831169367 -0.21073399484
          -1.5760400295 -0.030635099858 -0.29671400785 -1.6368409395 -0.014472581446 -0.55414676666
          -4.0624485016 0.11422649771 0.40121608973 -3.8718869686 0.28284701705 0.37479698658
          -4.0514550209 0.30707678199 0.23333111405 -3.8654940128 0.059473201632 0.37344399095
          1.1952601671 -0.29477098584 0.064541012049 1.2453129292 -0.22395838797 0.33866900206
          1.3978904486 -0.12460799515 0.020671008155 1.5581665039 -0.242820099 0.18669840693
          0.52244597673 0.28034487367 -0.58197897673 0.41305398941 0.29973137379 -0.76187801361
          0.32533699274 0.30109125376 -0.45768621564 0.30108499527 0.17071788013 -0.6524900198
          -0.29999598861 -0.31015944481 -0.61351531744 -0.33674499393 -0.49515008926 -0.82062500715
          -0.32380700111 -0.29127669334 -0.87523800135 -0.47170200944 -0.50193786621 -0.68685621023
          2.6714880466 0.016336200759 -0.27357900143 2.7572391033 -0.22472290695 -0.032116010785
          2.9075191021 0.029458599165 -0.18439200521 2.7099030018 -0.25898209214 -0.27057000995
          -4.0808696747 -0.048765938729 -0.15966640413 -4.0971708298 0.14169080555 0.095920503139
          -3.9548974037 0.23137070239 -0.10864424706 -3.8473057747 -0.00070657959441 -0.13606338203
          2.6479671001 -0.18968589604 0.18436330557 2.7066569328 0.013594998047 0.026080995798
          2.5975399017 0.036539699882 0.30856120586 2.4399039745 -0.10959740728 -0.0052800015546
          -4.6259469986 0.16757617891 -0.22007699311 -4.4985280037 0.48879349232 -0.082372002304
          -4.5292730331 0.2915058732 0.031001500785 -4.7578840256 0.28817969561 -0.030578099191
          3.9133279324 -0.075963594019 0.57894998789 3.8355340958 -0.40645951033 0.54560798407
          3.8193171024 -0.21124768257 0.82013428211 3.8910729885 -0.40569660068 0.7535443902
          3.1153120995 -0.17042639852 0.52375102043 2.8574714661 -0.22937789559 0.73542100191
          3.0756709576 -0.422498703 0.57748502493 2.8791120052 -0.42745420337 0.46121960878
          -1.293176055 0.1205618009 -0.45924699306 -1.1750420332 0.11218670756 -0.27856901288
          -1.2152099609 -0.081209897995 -0.31830999255 -1.3984810114 0.086329601705 -0.26900598407
          3.5936889648 0.39519989491 0.35134500265 3.6242129803 0.38442382216 0.12190700322
          3.6066539288 0.1872664988 0.30272099376 3.7907569408 0.2246016115 0.18572899699
          -3.5458295345 0.1751678884 -0.0069859996438 -3.5273160934 0.29413831234 0.15600700676
          -3.4652879238 0.12876489758 0.30643999577 -3.6940450668 -0.011909330264 0.12301498652
          3.3577077389 -0.41411450505 1.0120899677 3.3624682426 -0.19947208464 0.94604200125
          3.465408802 -0.29649040103 1.1825380325 3.1393265724 -0.19575251639 1.0545070171
          -4.6158905029 -0.49994170666 -0.083305798471 -4.7671570778 -0.49938252568 -0.076874218881
          -4.7949709892 -0.27444934845 -0.028330069035 -4.5417332649 -0.49570846558 0.045956496149
          -4.2460803986 0.48600909114 -0.044718399644 -4.5292730331 0.2915058732 0.031001500785
          -4.3738183975 0.24991054833 -0.14364899695 -4.4985280037 0.48879349232 -0.082372002304
          -0.20478600264 -0.4216414988 -1.0713649988 -0.41128501296 -0.48971751332 -0.99034798145
          -0.32380700111 -0.29127669334 -0.87523800135 -0.33674499393 -0.49515008926 -0.82062500715
          4.5438528061 0.60426002741 0.8030000329 4.7377829552 0.60829901695 0.77481901646
          4.5893030167 0.61060297489 0.61573702097 4.7657809258 0.38576200604 0.78052300215
          -3.2902696133 0.27174562216 0.025448989123 -3.5458295345 0.1751678884 -0.0069859996438
          -3.5492799282 0.4825848937 -0.0015599994222 -3.5273160934 0.29413831234 0.15600700676
          4.2507781982 -0.39692500234 1.0791150331 4.5186548233 -0.2072378099 0.99021959305
          4.3321962357 -0.16034509242 0.88920331001 4.4079709053 -0.40386489034 0.85058301687
          -2.7821593285 0.30021998286 -0.44675600529 -2.9112796783 0.48190781474 -0.45949801803
          -3.0509493351 0.29688620567 -0.58453899622 -2.8207395077 0.30260008574 -0.65172201395
          -0.43998798728 -0.035619899631 -0.082337997854 -0.2487116009 0.11720266938 -0.055061001331
          -0.46809598804 0.17155979574 -0.082805998623 -0.264005512 0.0059295003302 -0.30922400951
          -0.14834499359 -0.49472266436 -0.76049399376 -0.33674499393 -0.49515008926 -0.82062500715
          -0.32380700111 -0.29127669334 -0.87523800135 -0.29999598861 -0.31015944481 -0.61351531744
          3.0665662289 0.3753657043 0.82187402248 3.2744851112 0.38130360842 0.56395947933
          3.3003060818 0.23398950696 0.76375299692 3.2735610008 0.57003730536 0.75401997566
          -4.2235832214 -0.18397390842 -0.2816118896 -4.1448526382 0.14308868349 -0.26994079351
          -4.0808696747 -0.048765938729 -0.15966640413 -4.4088745117 0.030903441831 -0.32176870108
          -3.8562464714 -0.50317251682 -0.11210159957 -4.0447149277 -0.49747499824 0.14612358809
          -3.8215641975 -0.23188085854 0.091413997114 -3.7788000107 -0.49894934893 0.14450898767
          -2.0836164951 0.47975090146 -0.66095596552 -2.1485760212 0.26226508617 -0.74843597412
          -2.1449475288 0.47599279881 -0.93732100725 -2.3831152916 0.479411304 -0.7015529871
          -3.8068175316 -0.027711499482 -0.64996302128 -3.733959198 -0.32337343693 -0.43397399783
          -3.8043015003 -0.00087310036179 -0.39245098829 -3.5914151669 -0.15871548653 -0.36829999089
          4.7822642326 -0.20231451094 0.72078299522 5.0733251572 -0.094601005316 0.53920000792
          5.1017589569 -0.19658398628 0.71833097935 4.9587922096 -0.11951480061 0.84872800112
          -4.5090827942 0.30276152492 -0.34050369263 -4.4088745117 0.030903441831 -0.32176870108
          -4.2976675034 0.29178825021 -0.37512549758 -4.3753385544 0.16644324362 -0.56169492006
          0.84688097239 0.325525105 -0.34160640836 0.70016598701 0.50710338354 -0.40990638733
          0.58373397589 0.27239969373 -0.33771339059 0.76200997829 0.19809819758 -0.53690600395
          -4.8607320786 0.078173696995 -0.5131021142 -4.7891550064 0.016387579963 -0.29043120146
          -4.6036734581 0.038398779929 -0.53355240822 -4.6480989456 -0.13892398775 -0.52972179651
          3.3469219208 -0.1246156022 -0.013377999887 3.4854989052 0.014852097258 0.049800999463
          3.1981549263 0.12413520366 0.16969101131 3.3039441109 0.08869034797 -0.023718999699
          -0.055491000414 -0.26846665144 -0.58021008968 0.23998099566 -0.31517469883 -0.51127868891
          0.0696529001 -0.32972794771 -0.23890098929 0.096351802349 -0.10763604939 -0.42178741097
          -0.37324941158 -0.23546770215 -0.36768600345 -0.28265699744 -0.012162780389 -0.58007609844
          -0.264005512 0.0059295003302 -0.30922400951 -0.44009780884 -0.045463498682 -0.38387098908
          3.0462920666 0.35370859504 0.42864450812 3.0947101116 0.28387919068 0.62956798077
          3.1101438999 0.080181010067 0.45569860935 2.7912619114 0.22470119596 0.5612180233
          0.41876199841 0.49852332473 -0.76524400711 0.70296800137 0.32958817482 -0.69135397673
          0.67563098669 0.48699307442 -0.89504599571 0.41305398941 0.29973137379 -0.76187801361
          3.7040190697 0.031617399305 1.0519629717 3.6909389496 0.12423589826 1.2709879875
          3.7523159981 -0.085600093007 1.2815630436 3.4149284363 -0.092121005058 1.167222023
          3.7570819855 -0.18195958436 0.41518300772 3.4964818954 -0.10279240459 0.43279200792
          3.4389131069 -0.21940618753 0.24159599841 3.5797228813 -0.13064749539 0.085768997669
          2.6536407471 0.42629250884 0.87590301037 2.6725535393 0.38265278935 0.65312898159
          2.5544810295 0.1293092072 0.82531297207 2.8261909485 0.28350150585 0.9414550066
          1.3544540405 0.20737339556 0.028903007507 1.4162900448 0.058589901775 -0.19647470117
          1.2022919655 0.33101278543 -0.21015967429 1.1638020277 0.033433400095 -0.21218000352
          -3.0660376549 -0.035237099975 -0.601772964 -3.0045845509 -0.31262481213 -0.59387999773
          -3.1794657707 -0.17824740708 -0.77178901434 -3.1450257301 -0.19032800198 -0.44944301248
          -2.8014369011 -0.27421984076 -0.022419007495 -2.6173989773 -0.49825462699 0.14134299755
          -2.5874330997 -0.50843310356 -0.077546991408 -2.8594679832 -0.50669443607 -0.096579000354
          -4.1157817841 0.48770108819 -0.3238914907 -4.2976675034 0.29178825021 -0.37512549758
          -4.3738183975 0.24991054833 -0.14364899695 -4.1721348763 0.28047949076 -0.053690198809
          -2.5874330997 -0.50843310356 -0.077546991408 -2.6131467819 -0.26515978575 -0.30168119073
          -2.7347252369 -0.50761651993 -0.30021220446 -2.4960739613 -0.50847524405 -0.33113560081
          1.6362780333 -0.19434309006 -0.1196873039 1.4941439629 -0.30191999674 -0.0081950007007
          1.4299919605 -0.4650863111 -0.25022679567 1.3097800016 -0.27519398928 -0.1584803015
          4.4464259148 -0.17551660538 0.63643395901 4.7822642326 -0.20231451094 0.72078299522
          4.5794639587 -0.095555409789 0.80211597681 4.6400561333 0.033197704703 0.65296798944
          4.7766752243 -0.0062490031123 0.81723797321 4.7822642326 -0.20231451094 0.72078299522
          4.6400561333 0.033197704703 0.65296798944 4.5794639587 -0.095555409789 0.80211597681
          1.3097800016 -0.27519398928 -0.1584803015 1.1370209455 -0.2310988009 -0.34101459384
          1.3132139444 -0.24616961181 -0.5035700202 1.4434380531 -0.14066420496 -0.32838499546
          1.8019828796 0.22406680882 0.18662501872 1.8545037508 0.351865381 0.36945268512
          2.0875871181 0.32275497913 0.17387519777 2.0134241581 0.082406297326 0.37211599946
          4.0052309036 0.2497472018 0.67321902514 4.0778617859 0.38755699992 0.83571088314
          4.2886710167 0.33758100867 0.66382801533 4.0790348053 0.052158098668 0.78453868628
          5.0496749878 0.39370700717 0.54334002733 5.2841758728 0.46887099743 0.8069050312
          5.0679278374 0.61340600252 0.65205299854 5.2531318665 0.4864180088 0.58362001181
          -2.8941919804 0.276453197 -0.0076509867795 -3.0849509239 0.17763519287 -0.079053997993
          -3.0553820133 0.29404971004 0.22911499441 -2.9779620171 0.1083374992 0.21390299499
          1.0754319429 0.25025811791 -0.42730200291 0.84688097239 0.325525105 -0.34160640836
          0.94843697548 0.30960980058 -0.61462700367 0.89502197504 0.51158940792 -0.54344600439
          0.68045121431 -0.49612438679 -0.13406600058 0.4930306077 -0.50028795004 -0.18466299772
          0.63634902239 -0.49167880416 -0.31372991204 0.44537511468 -0.27799990773 -0.12429698557
          2.4447433949 0.34735611081 0.78896600008 2.1993765831 0.33982020617 0.69473302364
          2.4725689888 0.38891109824 0.53518199921 2.3064310551 0.54786038399 0.58645904064
          0.36064499617 -0.039502311498 -0.75520098209 0.20461019874 -0.067686937749 -1.0017780066
          0.066189996898 -0.13907346129 -0.85989201069 0.20165160298 -0.28208371997 -0.78509497643
          3.2812619209 -0.41720849276 0.63608801365 3.0756709576 -0.422498703 0.57748502493
          3.3344159126 -0.41385099292 0.43574500084 3.1153120995 -0.17042639852 0.52375102043
          -4.6513981819 -0.323874861 -0.5277801156 -4.7781114578 -0.50555992126 -0.40374428034
          -4.5914802551 -0.50413167477 -0.23168960214 -4.4325690269 -0.50963848829 -0.48281699419
          2.810836792 0.55920171738 0.76666796207 2.9040269852 0.39754191041 0.64887100458
          2.8261909485 0.28350150585 0.9414550066 3.0665662289 0.3753657043 0.82187402248
          3.1400530338 -0.41660821438 0.24456399679 3.3344159126 -0.41385099292 0.43574500084
          3.0756709576 -0.422498703 0.57748502493 3.0323710442 -0.2302993089 0.32912188768
          5.2039008141 -0.31573709846 1.1745685339 5.0362038612 -0.1984565109 1.0518586636
          5.1611480713 -0.11739530414 1.3518660069 4.9568657875 -0.20041409135 1.3308819532
          -2.3340997696 0.29154390097 -0.43325453997 -2.4924480915 0.1497296989 -0.4765163064
          -2.4720232487 0.27283710241 -0.72016400099 -2.6084048748 0.48110160232 -0.5615530014
          1.0401221514 0.23939830065 -0.032525006682 1.1881120205 0.31921857595 0.10735101253
          0.9749379158 0.10632624477 0.26197698712 0.92705971003 0.28618240356 0.2508969903
          -1.545979023 0.22976130247 -0.33403101563 -1.8419760466 0.17466241121 -0.33885499835
          -1.684795022 0.12831169367 -0.21073399484 -1.6368409395 -0.014472581446 -0.55414676666
          -1.8772009611 0.48616209626 -0.20101100206 -1.8959770203 0.26786220074 -0.15826401114
          -1.8419760466 0.17466241121 -0.33885499835 -2.0245499611 0.48440909386 -0.34754398465
          -4.1795921326 0.26754778624 0.41782468557 -4.0971708298 0.14169080555 0.095920503139
          -4.0514550209 0.30707678199 0.23333111405 -4.374229908 0.21605139971 0.18340799212
          3.4389131069 -0.21940618753 0.24159599841 3.4964818954 -0.10279240459 0.43279200792
          3.3867809772 -0.23781871796 0.5709104538 3.2239820957 -0.14030811191 0.26961100101
          -0.056981399655 -0.33009880781 -0.03277400136 0.0696529001 -0.32972794771 -0.23890098929
          0.15807649493 -0.51398259401 -0.10896699131 0.24357970059 -0.27066677809 0.034074999392
          -4.2460803986 0.48600909114 -0.044718399644 -4.3946790695 0.48465889692 0.11185610294
          -4.1721348763 0.28047949076 -0.053690198809 -4.5292730331 0.2915058732 0.031001500785
          -3.0154821873 -0.50680673122 -0.26073569059 -2.8796532154 -0.32189744711 -0.3305183053
          -3.1325054169 -0.50747013092 -0.43627199531 -2.9167158604 -0.50708723068 -0.47135400772
          3.7727000713 0.59062451124 0.58069598675 3.5548529625 0.58682149649 0.44130200148
          3.4926049709 0.5762001276 0.76709657907 3.550276041 0.36652091146 0.69562649727
          3.2239820957 -0.14030811191 0.26961100101 2.9183690548 -0.10514099896 0.18946899474
          3.0793170929 -0.24457119405 0.11937200278 2.9649469852 0.070412486792 0.048234000802
          4.6833701134 -0.40567740798 1.2680499554 4.9568657875 -0.20041409135 1.3308819532
          4.9736399651 -0.40930470824 1.310732007 4.8533592224 -0.39696198702 1.5024620295
          -0.59120500088 0.45415121317 -1.0933190584 -0.55084097385 0.27224868536 -0.88415497541
          -0.62441599369 0.23691308498 -1.0922019482 -0.68241202831 0.47980180383 -0.89547097683
          5.2886118889 -0.19004799426 0.81414800882 5.2391929626 -0.046786397696 1.0306526423
          5.1633911133 -0.40683791041 0.92723697424 5.0362038612 -0.1984565109 1.0518586636
          -4.3568739891 -0.16453392804 0.20460030437 -4.4301371574 -0.28078189492 -0.098592102528
          -4.394712925 -0.0063827331178 -0.052065320313 -4.5570960045 -0.13278326392 -0.03384745121
          -2.7248899937 -0.058732099831 -0.86423897743 -2.9465870857 -0.28584861755 -0.81910002232
          -2.9699292183 -0.052413102239 -0.81482702494 -2.8155953884 -0.19327259064 -0.5224930048
          4.1932888031 -0.10509669781 1.111093998 4.372276783 -0.18564900756 1.2451930046
          4.5186548233 -0.2072378099 0.99021959305 4.3321962357 -0.16034509242 0.88920331001
          4.2507781982 -0.39692500234 1.0791150331 4.4776749611 -0.40230458975 1.0684930086
          4.5186548233 -0.2072378099 0.99021959305 4.4079709053 -0.40386489034 0.85058301687
          4.9263429642 0.33198681474 1.4921859503 5.1688809395 0.37849900126 1.3310799599
          5.0761318207 0.58431607485 1.5149459839 4.9485001564 0.60167902708 1.3511019945
          -0.11249899864 -0.48702061176 -0.93265897036 -0.33674499393 -0.49515008926 -0.82062500715
          -0.32380700111 -0.29127669334 -0.87523800135 -0.14834499359 -0.49472266436 -0.76049399376
          -2.761079073 0.3002846241 0.17035700381 -2.8941919804 0.276453197 -0.0076509867795
          -3.0553820133 0.29404971004 0.22911499441 -2.9779620171 0.1083374992 0.21390299499
          -1.3917900324 -0.51799577475 -0.23380000889 -1.4155100584 -0.21666789055 -0.40096598864
          -1.224069953 -0.31939327717 -0.31514698267 -1.4899309874 -0.36410149932 -0.064006000757
          -4.1795921326 0.26754778624 0.41782468557 -3.9883553982 0.47970271111 0.36896401644
          -4.2010884285 0.48155650496 0.20740970969 -4.0514550209 0.30707678199 0.23333111405
          -1.6200009584 -0.10922949761 -0.042343001813 -1.8008160591 -0.23927970231 -0.014976000413
          -1.5985989571 -0.27739399672 -0.2576969862 -1.8079010248 -0.20703689754 -0.34597599506
          4.1377820969 0.39951202273 0.32685101032 3.9646220207 0.41419330239 0.50147998333
          4.1101632118 0.60391497612 0.52134698629 4.2886710167 0.33758100867 0.66382801533
          -1.4899309874 -0.36410149932 -0.064006000757 -1.8008160591 -0.23927970231 -0.014976000413
          -1.6751329899 -0.51861619949 -0.069551989436 -1.5985989571 -0.27739399672 -0.2576969862
          0.94738799334 0.12911939621 -0.82793599367 0.76200997829 0.19809819758 -0.53690600395
          0.93168497086 0.052144400775 -0.6099550128 0.76892197132 0.11045709997 -0.87638199329
          0.94738799334 0.12911939621 -0.82793599367 0.93168497086 0.052144400775 -0.6099550128
          0.84875500202 -0.035446301103 -0.85831201077 0.76892197132 0.11045709997 -0.87638199329
          0.76892197132 0.11045709997 -0.87638199329 0.56008797884 0.052585806698 -0.68334698677
          0.84875500202 -0.035446301103 -0.85831201077 0.6468949914 -0.072852902114 -0.91035401821
          2.5429031849 0.55357050896 0.69124501944 2.810836792 0.55920171738 0.76666796207
          2.6725535393 0.38265278935 0.65312898159 2.6536407471 0.42629250884 0.87590301037
          -4.0808696747 -0.048765938729 -0.15966640413 -4.1448526382 0.14308868349 -0.26994079351
          -4.2057743073 0.083515927196 -0.063847601414 -4.4088745117 0.030903441831 -0.32176870108
          -3.8129053116 0.21391560137 0.11131499708 -4.0971708298 0.14169080555 0.095920503139
          -3.8654940128 0.059473201632 0.37344399095 -3.9542860985 -0.041209600866 0.17256499827
          0.84688097239 0.325525105 -0.34160640836 0.78821092844 0.14894378185 -0.18848800659
          1.0401221514 0.23939830065 -0.032525006682 0.97177040577 0.064062602818 -0.1233580038
          4.9471430779 0.61130398512 0.85095900297 5.250415802 0.44116699696 0.96342402697
          5.0476732254 0.61224198341 1.0092389584 5.2841758728 0.46887099743 0.8069050312
          -2.1776151657 -0.33875748515 -0.37888690829 -2.1267375946 -0.28440442681 -0.5801320076
          -2.3716421127 -0.18197050691 -0.6025840044 -2.3835964203 -0.32359841466 -0.41965642571
          -1.0854450464 -0.072821497917 -0.097055003047 -1.0315690041 0.001321600168 -0.39257600904
          -1.0108540058 -0.22747680545 -0.36507099867 -0.8307570219 -0.058059498668 -0.35817700624
          2.8881449699 0.23836348951 0.18792100251 2.5194039345 0.221833691 0.014336997643
          2.7066569328 0.013594998047 0.026080995798 2.7448999882 0.34383347631 0.0055840001442
          -1.0723729134 -0.088602088392 -0.8404250145 -0.87940299511 -0.1013680622 -1.096660018
          -0.82459098101 -0.20698645711 -0.80915498734 -0.85043102503 0.031999699771 -0.80896800756
          -0.61225312948 -0.48133009672 -0.10661300272 -0.70222002268 -0.52214252949 -0.27207800746
          -0.56078988314 -0.3168579042 -0.30044898391 -0.65379941463 -0.29078039527 -0.10148400068
          -1.6661914587 0.0097754001617 -0.81471097469 -1.9367829561 0.15483479202 -0.66529297829
          -1.8747121096 0.0029144007713 -0.49748280644 -1.901250124 -0.024264600128 -0.80353200436
          2.9585413933 -0.41264221072 0.97368997335 3.167424202 -0.4212833941 0.82355499268
          3.3577077389 -0.41411450505 1.0120899677 3.1393265724 -0.19575251639 1.0545070171
          3.1546220779 0.28414210677 -0.077771998942 3.1981549263 0.12413520366 0.16969101131
          3.4725759029 0.18676179647 0.05072100088 3.3039441109 0.08869034797 -0.023718999699
          3.4329230785 0.25877740979 0.41826298833 3.4725759029 0.18676179647 0.05072100088
          3.3498690128 0.38853508234 0.25040599704 3.4166619778 0.065547503531 0.28209301829
          0.70296800137 0.32958817482 -0.69135397673 0.76200997829 0.19809819758 -0.53690600395
          0.94738799334 0.12911939621 -0.82793599367 0.76892197132 0.11045709997 -0.87638199329
          2.2007000446 -0.030069796368 -0.17213380337 2.1296679974 -0.11873139441 -0.46822568774
          2.1323330402 -0.24952030182 -0.2159884125 2.3959000111 -0.2165030092 -0.38119700551
          -1.8419760466 0.17466241121 -0.33885499835 -1.6368409395 -0.014472581446 -0.55414676666
          -1.545979023 0.22976130247 -0.33403101563 -1.7097920179 0.31207630038 -0.45334500074
          3.5797228813 -0.13064749539 0.085768997669 3.4854989052 0.014852097258 0.049800999463
          3.4166619778 0.065547503531 0.28209301829 3.4389131069 -0.21940618753 0.24159599841
          -1.8654859066 -0.17263565958 -1.0173939466 -2.0371425152 -0.34191715717 -0.78012096882
          -1.7870930433 -0.33796232939 -0.8220590353 -1.8414185047 -0.36941739917 -1.0222549438
          0.91907000542 -0.28306537867 -0.28310790658 0.87983602285 -0.093330197036 -0.22511909902
          0.67708927393 -0.18054930866 -0.18623100221 0.73383498192 -0.30438300967 -0.4254899919
          -1.8348480463 -0.01922108978 -0.21806798875 -1.8079010248 -0.20703689754 -0.34597599506
          -1.8747121096 0.0029144007713 -0.49748280644 -2.0975265503 -0.075285196304 -0.43518251181
          -2.7973310947 0.48305559158 -0.13842301071 -3.133988142 0.48230528831 -0.1387040019
          -2.9400956631 0.27705860138 -0.27815890312 -3.0837988853 0.48263069987 -0.33776900172
          2.2839529514 0.55297267437 -0.13702598214 2.4791090488 0.55759829283 0.014952993952
          2.5832331181 0.56287848949 -0.20339798927 2.4682879448 0.38555598259 -0.10436999053
          4.6312479973 -0.18212139606 1.2574429512 4.531235218 -0.23131799698 1.462864995
          4.372276783 -0.18564900756 1.2451930046 4.4053249359 -0.07816299051 1.462864995
          -2.8796532154 -0.32189744711 -0.3305183053 -2.8155953884 -0.19327259064 -0.5224930048
          -2.6578717232 -0.50742650032 -0.52386301756 -2.6131467819 -0.26515978575 -0.30168119073
          1.3614029884 0.52470320463 -0.1519087255 1.1881120205 0.31921857595 0.10735101253
          1.2022919655 0.33101278543 -0.21015967429 1.133603096 0.5178232789 0.011582996696
          -3.8867964745 -0.18341259658 -0.63530302048 -3.733959198 -0.32337343693 -0.43397399783
          -3.9158587456 -0.22345404327 -0.33129701018 -3.8043015003 -0.00087310036179 -0.39245098829
          -1.6305606365 -0.29367351532 -0.52340888977 -1.5760400295 -0.030635099858 -0.29671400785
          -1.5985989571 -0.27739399672 -0.2576969862 -1.8079010248 -0.20703689754 -0.34597599506
          0.0696529001 -0.32972794771 -0.23890098929 -0.056981399655 -0.33009880781 -0.03277400136
          -0.20980919898 -0.34469109774 -0.28026798368 -0.081785798073 -0.18698275089 -0.35594800115
          -4.6952867508 -0.18051728606 0.4779253006 -4.8936700821 -0.25269600749 0.5
          -4.7839722633 -0.32270756364 0.2961961925 -4.7917890549 -0.033734429628 0.26267528534
          3.5158138275 0.52084130049 1.2258909941 3.4282515049 0.33187240362 0.97428900003
          3.5123636723 0.27264100313 1.2129739523 3.6068017483 0.56949651241 1.0521490574
          -3.9273982048 0.42422729731 -0.62899297476 -3.687541008 0.43435680866 -0.67268902063
          -3.8699226379 0.21788460016 -0.63997101784 -3.7273154259 0.27898979187 -0.49260097742
          1.7200000286 0.27868279815 -0.33277949691 1.8098720312 0.33792459965 -0.017415300012
          1.9772109985 0.2443075031 -0.15706959367 1.655272007 0.093524098396 -0.11352000386
          2.7066569328 0.013594998047 0.026080995798 2.6714880466 0.016336200759 -0.27357900143
          2.9075191021 0.029458599165 -0.18439200521 2.8420228958 0.24354210496 -0.20201000571
          -0.82669299841 0.46579259634 -0.102669999 -0.81611001492 0.30783483386 -0.27051800489
          -1.0550040007 0.40813687444 -0.10020700097 -0.85646498203 0.17925000191 -0.10178700089
          0.81067937613 -0.037577752024 -0.03468298912 0.807526052 0.036346398294 0.20567299426
          0.68674623966 -0.13471266627 0.16325600445 0.5864264369 0.083424940705 0.13992400467
          2.1993765831 0.33982020617 0.69473302364 2.0865969658 0.17642100155 0.64691102505
          2.2926232815 0.21838380396 0.36620301008 2.0810952187 0.34367528558 0.4289650023
          -1.3984810114 0.086329601705 -0.26900598407 -1.5091439486 0.10905019939 -0.055601000786
          -1.5760400295 -0.030635099858 -0.29671400785 -1.684795022 0.12831169367 -0.21073399484
          -0.04301200062 0.17476075888 -0.718306005 -0.045155998319 0.014279329218 -0.54846435785
          0.30108499527 0.17071788013 -0.6524900198 0.14842510223 0.040421258658 -0.80009198189
          -3.2531692982 0.48335590959 -0.6420429945 -3.0509493351 0.29688620567 -0.58453899622
          -3.2075111866 0.26916709542 -0.76702600718 -3.2429180145 0.19009520113 -0.47103300691
          3.5423920155 -0.34106731415 0.063364997506 3.5444030762 -0.40834650397 0.28405502439
          3.4389131069 -0.21940618753 0.24159599841 3.5797228813 -0.13064749539 0.085768997669
          3.3867809772 -0.23781871796 0.5709104538 3.2812619209 -0.41720849276 0.63608801365
          3.49279809 -0.41079649329 0.65922492743 3.3344159126 -0.41385099292 0.43574500084
          -2.3835964203 -0.32359841466 -0.41965642571 -2.2481837273 -0.50829571486 -0.4661166966
          -2.4960739613 -0.50847524405 -0.33113560081 -2.3604021072 -0.51019489765 -0.16444499791
          4.4798941612 0.42885500193 0.6264359951 4.548661232 0.31044599414 0.7846570015
          4.6223192215 0.42864599824 0.46175301075 4.6309452057 0.20724229515 0.45776200294
          0.0696529001 -0.32972794771 -0.23890098929 0.24357970059 -0.27066677809 0.034074999392
          0.071282997727 -0.17594109476 -0.0039079999551 0.24777440727 -0.18341463804 -0.29771098495
          -0.37324941158 -0.23546770215 -0.36768600345 -0.081785798073 -0.18698275089 -0.35594800115
          -0.264005512 0.0059295003302 -0.30922400951 -0.28265699744 -0.012162780389 -0.58007609844
          4.9991178513 0.039471499622 1.0460796356 5.0286197662 0.27560698986 1.0374772549
          5.1940898895 0.12840040028 1.2278339863 4.9596247673 0.084158137441 1.2836079597
          2.9649469852 0.070412486792 0.048234000802 2.9183690548 -0.10514099896 0.18946899474
          3.1375620365 -0.015359799378 -0.09573700279 2.9599170685 -0.19250740111 -0.1730210036
          4.0511579514 -0.20270109177 0.7991797924 4.3321962357 -0.16034509242 0.88920331001
          4.2745900154 -0.40359979868 0.66799497604 4.1675348282 -0.40187141299 0.870411098
          -2.5502791405 0.25031089783 -0.30732250214 -2.7821593285 0.30021998286 -0.44675600529
          -2.6538431644 0.18475399911 -0.59675198793 -2.6084048748 0.48110160232 -0.5615530014
          -3.4821026325 -0.046573873609 0.11716599017 -3.6205406189 -0.31749200821 0.12511700392
          -3.3787970543 -0.14233914018 0.29122000933 -3.3824651241 -0.30312857032 0.073741987348
          -4.4787201881 0.49494040012 -0.53550213575 -4.5090827942 0.30276152492 -0.34050369263
          -4.2976675034 0.29178825021 -0.37512549758 -4.3753385544 0.16644324362 -0.56169492006
          2.9692933559 0.5583781004 0.99691599607 3.0665662289 0.3753657043 0.82187402248
          3.1853451729 0.33565509319 1.0903539658 3.197124958 0.55400508642 1.1030919552
          -2.6538431644 0.18475399911 -0.59675198793 -2.819904089 0.037339199334 -0.66302698851
          -2.9424054623 0.1131972 -0.47736001015 -2.8009653091 0.022092198953 -0.32149419188
          0.4496409893 -0.20598120987 -0.64667701721 0.36064499617 -0.039502311498 -0.75520098209
          0.13293649256 -0.12217481434 -0.6249139905 0.20165160298 -0.28208371997 -0.78509497643
          0.68674623966 -0.13471266627 0.16325600445 0.53519868851 0.048687562346 -0.13842900097
          0.81067937613 -0.037577752024 -0.03468298912 0.5864264369 0.083424940705 0.13992400467
          4.3038268089 0.57868987322 1.2739549875 4.0632171631 0.57045120001 1.2416960001
          4.2064089775 0.54333531857 1.4228320122 4.2713618279 0.37677168846 1.2242929935
          -4.6960554123 0.49519553781 -0.24164129794 -4.7826919556 0.30165764689 -0.29666978121
          -4.9270887375 0.4960334301 -0.082894615829 -4.7578840256 0.28817969561 -0.030578099191
          0.6468949914 -0.072852902114 -0.91035401821 0.4496409893 -0.20598120987 -0.64667701721
          0.54373598099 -0.25898191333 -0.94053697586 0.36064499617 -0.039502311498 -0.75520098209
          -0.83420801163 -0.058261297643 -0.10190299898 -0.85646498203 0.17925000191 -0.10178700089
          -0.8307570219 -0.058059498668 -0.35817700624 -0.6087269187 0.024860799313 -0.30977600813
          -3.0187089443 -0.037960600108 0.018444009125 -3.0995531082 -0.23698805273 0.23871299624
          -3.0159440041 -0.32825475931 -0.049925994128 -3.1989395618 -0.20423613489 -0.036946997046
          1.9164220095 -0.13674210012 -0.17615103722 1.7244919538 -0.11605580151 -0.38782680035
          1.9479429722 -0.26660808921 -0.33822989464 1.8510379791 0.076726302505 -0.29504978657
          2.6479671001 -0.18968589604 0.18436330557 2.6416110992 -0.43433389068 0.39271500707
          2.7957570553 -0.42637899518 0.25317001343 2.5536410809 -0.43353191018 0.20064629614
          -2.3340997696 0.29154390097 -0.43325453997 -2.2913610935 0.16144010425 -0.25700899959
          -2.4924480915 0.1497296989 -0.4765163064 -2.5502791405 0.25031089783 -0.30732250214
          -0.30593618751 0.24488276243 -0.24136300385 -0.6164612174 0.29320520163 -0.31236797571
          -0.54038512707 0.49495917559 -0.25420597196 -0.38844299316 0.49596226215 -0.19252300262
          -2.8207395077 0.30260008574 -0.65172201395 -2.8732545376 0.220630005 -0.8351380229
          -2.6349360943 0.29374942183 -0.88281100988 -2.7109742165 0.4802801013 -0.74906599522
          2.9075191021 0.029458599165 -0.18439200521 2.9649469852 0.070412486792 0.048234000802
          2.9599170685 -0.19250740111 -0.1730210036 2.7572391033 -0.22472290695 -0.032116010785
          -0.83420801163 -0.058261297643 -0.10190299898 -0.85025602579 -0.29496991634 -0.10682400316
          -0.65379941463 -0.29078039527 -0.10148400068 -0.76909697056 -0.29619181156 -0.33838999271
          -3.71869874 0.25738021731 -0.13884219527 -3.9548974037 0.23137070239 -0.10864424706
          -3.8129053116 0.21391560137 0.11131499708 -3.8473057747 -0.00070657959441 -0.13606338203
          4.5119929314 -0.044536296278 1.1272319555 4.7789177895 0.14037750661 0.96490341425
          4.5335330963 0.11206749827 0.92334389687 4.7351660728 -0.16101920605 0.98147392273
          -3.9158587456 -0.22345404327 -0.33129701018 -3.8035757542 -0.50670826435 -0.31858798862
          -4.1002011299 -0.31287899613 -0.40952581167 -4.0492649078 -0.50518339872 -0.26489710808
          4.4464259148 -0.17551660538 0.63643395901 4.2261519432 -0.095267094672 0.65937298536
          4.2745900154 -0.40359979868 0.66799497604 4.2858800888 -0.1588639915 0.36022999883
          -0.2450055927 0.36689928174 -0.052769999951 -0.2487116009 0.11720266938 -0.055061001331
          -0.080558300018 0.23630402982 -0.025882000104 -0.30593618751 0.24488276243 -0.24136300385
          -2.7225356102 -0.3007414341 -0.86474698782 -2.9465870857 -0.28584861755 -0.81910002232
          -2.8155953884 -0.19327259064 -0.5224930048 -2.8126263618 -0.50702655315 -0.63701498508
          -2.4349720478 0.31375589967 -0.069557994604 -2.0947520733 0.29650449753 -0.21109998226
          -2.2913610935 0.16144010425 -0.25700899959 -2.2799999714 0.29279088974 0.072902999818
          3.5797228813 -0.13064749539 0.085768997669 3.4166619778 0.065547503531 0.28209301829
          3.4964818954 -0.10279240459 0.43279200792 3.4389131069 -0.21940618753 0.24159599841
          1.1881120205 0.31921857595 0.10735101253 1.2129423618 0.51908618212 0.16832698882
          1.1094706059 0.31878361106 0.31281399727 1.027140975 0.51393949986 0.19080199301
          1.543838501 0.32068037987 0.19921569526 1.3544540405 0.20737339556 0.028903007507
          1.5601570606 0.064071901143 0.17068810761 1.5727180243 0.33926710486 -0.070410497487
          -3.0837988853 0.48263069987 -0.33776900172 -3.2644114494 0.48313009739 -0.43453800678
          -3.133988142 0.48230528831 -0.1387040019 -3.3095912933 0.2773117125 -0.21319679916
          -1.8019082546 -0.50858289003 -0.56323200464 -1.9710366726 -0.33433938026 -0.42893758416
          -1.9083119631 -0.51320451498 -0.2680529952 -1.9995814562 -0.50839465857 -0.5625320673
          -0.49614500999 -0.18467617035 -0.78485298157 -0.51164197922 0.025980791077 -0.55774062872
          -0.28265699744 -0.012162780389 -0.58007609844 -0.42318299413 -0.15868732333 -0.55037420988
          4.527215004 0.58946532011 1.2835580111 4.6475157738 0.38701429963 1.2527079582
          4.4793419838 0.2869952023 1.1247149706 4.2713618279 0.37677168846 1.2242929935
          4.7792887688 0.17319969833 0.70396101475 5.0587530136 0.088731199503 0.75192797184
          4.7766752243 -0.0062490031123 0.81723797321 4.7789177895 0.14037750661 0.96490341425
          -2.6131467819 -0.26515978575 -0.30168119073 -2.6578717232 -0.50742650032 -0.52386301756
          -2.4960739613 -0.50847524405 -0.33113560081 -2.3835964203 -0.32359841466 -0.41965642571
          -1.5961900949 -0.24007625878 -0.77421802282 -1.7870930433 -0.33796232939 -0.8220590353
          -1.6305606365 -0.29367351532 -0.52340888977 -1.6989388466 -0.50504058599 -0.72892701626
          3.2137260437 0.23683209717 0.35793501139 3.4166619778 0.065547503531 0.28209301829
          3.1101438999 0.080181010067 0.45569860935 3.3609991074 0.066775999963 0.55516642332
          -1.6661914587 0.0097754001617 -0.81471097469 -1.8654859066 -0.17263565958 -1.0173939466
          -1.7870930433 -0.33796232939 -0.8220590353 -1.5961900949 -0.24007625878 -0.77421802282
          -0.18109099567 0.051842641085 -1.0570659637 -0.33919200301 0.20730000734 -0.79884600639
          -0.31712800264 -0.025899430737 -0.85415101051 -0.3908880055 0.018037790433 -1.0773969889
          1.7200000286 0.27868279815 -0.33277949691 1.8266550303 0.23588789999 -0.55572861433
          1.5854810476 0.084593199193 -0.4168010056 1.8510379791 0.076726302505 -0.29504978657
          -3.8473057747 -0.00070657959441 -0.13606338203 -3.9542860985 -0.041209600866 0.17256499827
          -3.8215641975 -0.23188085854 0.091413997114 -4.1034150124 -0.18890102208 0.022778199986
          4.548661232 0.31044599414 0.7846570015 4.2772049904 0.36336359382 0.94083797932
          4.5828242302 0.39658501744 0.96988636255 4.5335330963 0.11206749827 0.92334389687
          -3.8077201843 0.48553070426 -0.30209600925 -3.71869874 0.25738021731 -0.13884219527
          -3.8971295357 0.23590660095 -0.36395600438 -3.9548974037 0.23137070239 -0.10864424706
          0.68045121431 -0.49612438679 -0.13406600058 0.44537511468 -0.27799990773 -0.12429698557
          0.63634902239 -0.49167880416 -0.31372991204 0.67708927393 -0.18054930866 -0.18623100221
          4.9991178513 0.039471499622 1.0460796356 4.8725390434 0.29623439908 1.2086399794
          5.0286197662 0.27560698986 1.0374772549 4.9596247673 0.084158137441 1.2836079597
          4.5828242302 0.39658501744 0.96988636255 4.6236991882 0.60261398554 0.97155320644
          4.5438528061 0.60426002741 0.8030000329 4.7377829552 0.60829901695 0.77481901646
          4.9596247673 0.084158137441 1.2836079597 4.9263429642 0.33198681474 1.4921859503
          5.1319189072 0.18058879673 1.488049984 4.9073309898 0.060586899519 1.514449954
          -0.82669299841 0.46579259634 -0.102669999 -0.59276729822 0.46036344767 -0.093910999596
          -0.70233458281 0.49317741394 -0.27365800738 -0.65999889374 0.24785794318 -0.095564998686
          -3.3997917175 0.20229819417 -0.72843700647 -3.4724879265 0.27005422115 -0.50610899925
          -3.3833937645 -0.032667398453 -0.48868498206 -3.5941543579 0.02097989805 -0.47818499804
          -1.4074389935 -0.049107201397 -0.5518643856 -1.6305606365 -0.29367351532 -0.52340888977
          -1.2913279533 -0.31723329425 -0.56081938744 -1.3103187084 -0.16647019982 -0.72021299601
          -1.1241190434 -0.31656226516 -1.0943260193 -1.3467004299 -0.27448686957 -1.0782300234
          -1.2013354301 -0.1661592871 -1.0883820057 -1.2655464411 -0.30120876431 -0.88210499287
          -0.42215698957 0.32589438558 -1.0801579952 -0.47368499637 0.48183679581 -0.90071099997
          -0.59120500088 0.45415121317 -1.0933190584 -0.25258800387 0.48134300113 -1.0479999781
          -0.264005512 0.0059295003302 -0.30922400951 -0.30593618751 0.24488276243 -0.24136300385
          -0.46809598804 0.17155979574 -0.082805998623 -0.45164808631 0.18338213861 -0.40235000849
          3.3609991074 0.066775999963 0.55516642332 3.2744851112 0.38130360842 0.56395947933
          3.3003060818 0.23398950696 0.76375299692 3.0947101116 0.28387919068 0.62956798077
          3.3577077389 -0.41411450505 1.0120899677 3.167424202 -0.4212833941 0.82355499268
          3.2812619209 -0.41720849276 0.63608801365 3.3624682426 -0.19947208464 0.94604200125
          0.84875500202 -0.035446301103 -0.85831201077 0.6582840085 -0.086143799126 -0.53992497921
          0.73838502169 -0.23838828504 -0.67500901222 0.56008797884 0.052585806698 -0.68334698677
          1.7900329828 0.53836679459 -0.22017219663 1.6795022488 0.53295719624 0.087283298373
          1.8098720312 0.33792459965 -0.017415300012 1.5727180243 0.33926710486 -0.070410497487
          4.2366080284 0.27729278803 1.4644019604 4.4337921143 0.1125216037 1.254134059
          4.2713618279 0.37677168846 1.2242929935 4.2345128059 0.15581940114 1.1804380417
          -0.012552999891 -0.06247812137 -1.0391819477 -0.084298998117 0.0080306082964 -0.84863698483
          -0.14045800269 -0.19142946601 -0.79101097584 -0.31712800264 -0.025899430737 -0.85415101051
          5.2214250565 0.24645899236 0.57607001066 5.2841758728 0.46887099743 0.8069050312
          5.0496749878 0.39370700717 0.54334002733 5.2531318665 0.4864180088 0.58362001181
          1.4743545055 -0.47509750724 0.23366600275 1.3789390326 -0.47327530384 -0.003226995701
          1.6559460163 -0.46090990305 -0.083716340363 1.4941439629 -0.30191999674 -0.0081950007007
          1.7837769985 -0.11298939586 0.15795660019 2.0688860416 -0.10810660571 -0.024964602664
          1.9838659763 -0.058840800077 0.22020068765 1.8809980154 0.037144001573 -0.0096619697288
          0.95090967417 -0.35872739553 0.2368170023 1.0654981136 -0.48984488845 0.18946000934
          0.98844081163 -0.48904711008 0.035179998726 0.86573559046 -0.49677124619 0.15245500207
          -0.29999598861 -0.31015944481 -0.61351531744 -0.096773996949 -0.50181341171 -0.56035459042
          -0.26617699862 -0.50942438841 -0.44230300188 -0.055491000414 -0.26846665144 -0.58021008968
          -0.4785284996 -0.28558018804 -0.089541003108 -0.20980919898 -0.34469109774 -0.28026798368
          -0.39079099894 -0.51813417673 -0.27170100808 -0.32340180874 -0.46025699377 -0.078377000988
          -3.4112770557 0.15064421296 -0.34156700969 -3.2429180145 0.19009520113 -0.47103300691
          -3.3023517132 0.0064315996133 -0.24028472602 -3.3095912933 0.2773117125 -0.21319679916
          2.4038360119 -0.2405732125 0.18867635727 2.6479671001 -0.18968589604 0.18436330557
          2.4399039745 -0.10959740728 -0.0052800015546 2.5325028896 -0.2637206018 -0.12680798769
          -1.596382618 -0.17736847699 -1.051363945 -1.8654859066 -0.17263565958 -1.0173939466
          -1.5961900949 -0.24007625878 -0.77421802282 -1.7870930433 -0.33796232939 -0.8220590353
          3.4964818954 -0.10279240459 0.43279200792 3.3609991074 0.066775999963 0.55516642332
          3.1153120995 -0.17042639852 0.52375102043 3.2239820957 -0.14030811191 0.26961100101
          -3.3833937645 -0.032667398453 -0.48868498206 -3.5914151669 -0.15871548653 -0.36829999089
          -3.3609697819 -0.25755804777 -0.25123178959 -3.4071218967 -0.27582120895 -0.49657699466
          3.5705780983 -0.40920200944 0.84491300583 3.7057540417 -0.40722391009 0.7109375596
          3.6680510044 -0.16187010705 0.64812618494 3.49279809 -0.41079649329 0.65922492743
          1.655272007 0.093524098396 -0.11352000386 1.8098720312 0.33792459965 -0.017415300012
          1.9772109985 0.2443075031 -0.15706959367 1.8809980154 0.037144001573 -0.0096619697288
          3.9646220207 0.41419330239 0.50147998333 3.997948885 0.58768248558 0.85406768322
          4.1101632118 0.60391497612 0.52134698629 4.1542201042 0.59776520729 0.72164899111
          4.065433979 0.57982081175 1.038596034 3.8319048882 0.3724052906 1.1257870197
          4.0632171631 0.57045120001 1.2416960001 4.0205068588 0.28315189481 1.0268609524
          1.1398986578 -0.010146999732 0.071502000093 1.0401221514 0.23939830065 -0.032525006682
          1.1638020277 0.033433400095 -0.21218000352 1.3544540405 0.20737339556 0.028903007507
          -0.37324941158 -0.23546770215 -0.36768600345 -0.44009780884 -0.045463498682 -0.38387098908
          -0.264005512 0.0059295003302 -0.30922400951 -0.43998798728 -0.035619899631 -0.082337997854
          4.9587922096 -0.11951480061 0.84872800112 5.2391929626 -0.046786397696 1.0306526423
          5.2740988731 0.079818502069 0.87786698341 5.2886118889 -0.19004799426 0.81414800882
          2.6677677631 -0.20719739795 0.85902500153 2.4849748611 -0.2620677948 0.78334200382
          2.7102086544 -0.435593009 0.59967702627 2.5335454941 -0.19222688675 0.50451397896
          4.548661232 0.31044599414 0.7846570015 4.7792887688 0.17319969833 0.70396101475
          4.5335330963 0.11206749827 0.92334389687 4.7789177895 0.14037750661 0.96490341425
          4.2261519432 -0.095267094672 0.65937298536 4.0860438347 -0.014925898984 0.46736100316
          4.2858800888 -0.1588639915 0.36022999883 4.2723498344 0.019195003435 0.35912799835
          2.6479671001 -0.18968589604 0.18436330557 2.9183690548 -0.10514099896 0.18946899474
          2.5975399017 0.036539699882 0.30856120586 2.7066569328 0.013594998047 0.026080995798
          0.58373397589 0.27239969373 -0.33771339059 0.49993100762 0.0054506729357 -0.41626721621
          0.32533699274 0.30109125376 -0.45768621564 0.33304131031 0.20393286645 -0.24557299912
          3.0500233173 -0.10988160223 0.76281303167 2.824450016 -0.10761829466 0.55310499668
          3.0184175968 0.12345609814 0.73364597559 2.7863173485 0.018803799525 0.9157999754
          1.8837449551 0.53903061152 0.06517650187 1.6795022488 0.53295719624 0.087283298373
          1.8019828796 0.22406680882 0.18662501872 1.8098720312 0.33792459965 -0.017415300012
          0.474378407 -0.11557681859 -0.24810600281 0.53519868851 0.048687562346 -0.13842900097
          0.67708927393 -0.18054930866 -0.18623100221 0.48138740659 -0.12545976043 0.10301499814
          3.8910729885 -0.40569660068 0.7535443902 3.9133279324 -0.075963594019 0.57894998789
          3.8355340958 -0.40645951033 0.54560798407 4.0834741592 -0.21439018846 0.53021103144
          -1.2152099609 -0.081209897995 -0.31830999255 -1.2111840248 -0.1263563931 -0.52467823029
          -1.4155100584 -0.21666789055 -0.40096598864 -1.224069953 -0.31939327717 -0.31514698267
          3.2744851112 0.38130360842 0.56395947933 3.0461831093 0.56736302376 0.63019996881
          3.0462920666 0.35370859504 0.42864450812 3.1758000851 0.57594889402 0.29714500904
          0.68674623966 -0.13471266627 0.16325600445 0.48138740659 -0.12545976043 0.10301499814
          0.67708927393 -0.18054930866 -0.18623100221 0.81067937613 -0.037577752024 -0.03468298912
          0.096351802349 -0.10763604939 -0.42178741097 0.13293649256 -0.12217481434 -0.6249139905
          0.23998099566 -0.31517469883 -0.51127868891 0.35398098826 -0.14804252982 -0.47525811195
          3.0500233173 -0.10988160223 0.76281303167 3.3097200394 -0.10290320963 0.73021501303
          3.245980978 0.052640799433 0.88878798485 3.0184175968 0.12345609814 0.73364597559
          -1.075802207 0.17113420367 -0.81510698795 -0.90989202261 0.24085079134 -0.62744837999
          -0.85043102503 0.031999699771 -0.80896800756 -0.96610802412 -0.023699499667 -0.59952700138
          2.7066569328 0.013594998047 0.026080995798 2.5975399017 0.036539699882 0.30856120586
          2.8575510979 0.064445592463 0.36333754659 2.9183690548 -0.10514099896 0.18946899474
          -3.5939254761 -0.0081771295518 -0.69047999382 -3.7473104 -0.28769311309 -0.66039299965
          -3.5941543579 0.02097989805 -0.47818499804 -3.5914151669 -0.15871548653 -0.36829999089
          -1.3917900324 -0.51799577475 -0.23380000889 -1.5985989571 -0.27739399672 -0.2576969862
          -1.4899309874 -0.36410149932 -0.064006000757 -1.5839049816 -0.51631599665 -0.24902200699
          -3.302652359 0.038016501814 0.04223600775 -3.1989395618 -0.20423613489 -0.036946997046
          -3.4821026325 -0.046573873609 0.11716599017 -3.2058420181 -0.10112692416 0.25872200727
          2.5682160854 -0.13655368984 -0.3176009953 2.5325028896 -0.2637206018 -0.12680798769
          2.7572391033 -0.22472290695 -0.032116010785 2.7099030018 -0.25898209214 -0.27057000995
          -1.8959770203 0.26786220074 -0.15826401114 -1.8772009611 0.48616209626 -0.20101100206
          -1.8419760466 0.17466241121 -0.33885499835 -1.7018979788 0.48639988899 -0.31914901733
          -3.0849509239 0.17763519287 -0.079053997993 -2.7996120453 -0.02800030075 -0.034934002906
          -3.0187089443 -0.037960600108 0.018444009125 -2.8941919804 0.276453197 -0.0076509867795
          -2.6084048748 0.48110160232 -0.5615530014 -2.8207395077 0.30260008574 -0.65172201395
          -2.6538431644 0.18475399911 -0.59675198793 -2.7109742165 0.4802801013 -0.74906599522
          1.85224998 -0.44815999269 -0.31117022038 1.7291409969 -0.28722119331 -0.28180330992
          1.90753901 -0.28872641921 -0.54777610302 1.9479429722 -0.26660808921 -0.33822989464
          4.5119929314 -0.044536296278 1.1272319555 4.2345128059 0.15581940114 1.1804380417
          4.285888195 0.099320337176 0.90528231859 4.4337921143 0.1125216037 1.254134059
          -3.0154821873 -0.50680673122 -0.26073569059 -2.8796532154 -0.32189744711 -0.3305183053
          -2.9167158604 -0.50708723068 -0.47135400772 -2.7347252369 -0.50761651993 -0.30021220446
          -0.68241202831 0.47980180383 -0.89547097683 -0.55084097385 0.27224868536 -0.88415497541
          -0.62441599369 0.23691308498 -1.0922019482 -0.81324702501 0.26146668196 -0.86965799332
          -0.68241202831 0.47980180383 -0.89547097683 -0.81324702501 0.26146668196 -0.86965799332
          -0.62441599369 0.23691308498 -1.0922019482 -0.83175802231 0.47526419163 -1.0315499306
          -0.55084097385 0.27224868536 -0.88415497541 -0.785762012 0.48228681087 -0.72692197561
          -0.81324702501 0.26146668196 -0.86965799332 -0.68241202831 0.47980180383 -0.89547097683
          -2.4843699932 0.064298801124 -0.91173398495 -2.4353275299 -0.11288639903 -0.92088502645
          -2.6172776222 -0.17857418954 -0.88542699814 -2.6087565422 -0.063813298941 -0.63231498003
          -2.4843699932 0.064298801124 -0.91173398495 -2.3477945328 -0.017081549391 -0.75131797791
          -2.4353275299 -0.11288639903 -0.92088502645 -2.6087565422 -0.063813298941 -0.63231498003
          -2.3477945328 -0.017081549391 -0.75131797791 -2.2304649353 -0.22556725144 -0.77245599031
          -2.4353275299 -0.11288639903 -0.92088502645 -2.3716421127 -0.18197050691 -0.6025840044
          -4.3568739891 -0.16453392804 0.20460030437 -4.4813494682 0.022646209225 0.2389934808
          -4.6583003998 -0.19147884846 0.13825491071 -4.5570960045 -0.13278326392 -0.03384745121
          1.6559460163 -0.46090990305 -0.083716340363 1.8784749508 -0.24840208888 0.010538879782
          1.7291409969 -0.28722119331 -0.28180330992 1.8268829584 -0.45585429668 -0.0072320010513
          3.7870020866 -0.19021171331 1.074723959 4.0172262192 -0.24458359182 1.074458003
          3.8999164104 -0.26179867983 1.3262170553 3.947902441 -0.095926292241 1.3428709507
          4.3038268089 0.57868987322 1.2739549875 4.2064089775 0.54333531857 1.4228320122
          4.3783740997 0.40928810835 1.4540369511 4.2713618279 0.37677168846 1.2242929935
          0.56008797884 0.052585806698 -0.68334698677 0.4496409893 -0.20598120987 -0.64667701721
          0.73838502169 -0.23838828504 -0.67500901222 0.6468949914 -0.072852902114 -0.91035401821
          -3.8473057747 -0.00070657959441 -0.13606338203 -3.9542860985 -0.041209600866 0.17256499827
          -3.6940450668 -0.011909330264 0.12301498652 -3.8215641975 -0.23188085854 0.091413997114
          2.0239698887 0.24268069863 -0.49068275094 1.8266550303 0.23588789999 -0.55572861433
          1.8510379791 0.076726302505 -0.29504978657 1.8998550177 0.038344699889 -0.53832769394
          -1.1287009716 0.49046784639 -0.31941500306 -1.0550040007 0.40813687444 -0.10020700097
          -1.2542339563 0.29450172186 -0.30690699816 -1.2492990494 0.49424445629 -0.10197599977
          -4.6259469986 0.16757617891 -0.22007699311 -4.5877504349 0.083796218038 -0.033795300871
          -4.6692109108 -0.16517569125 -0.19817639887 -4.7891550064 0.016387579963 -0.29043120146
          3.9646220207 0.41419330239 0.50147998333 4.1542201042 0.59776520729 0.72164899111
          4.1101632118 0.60391497612 0.52134698629 4.2886710167 0.33758100867 0.66382801533
          -4.6333608627 0.15650126338 0.46339869499 -4.6630234718 0.13930633664 0.15250210464
          -4.8499131203 0.16269566119 0.48204991221 -4.7917890549 -0.033734429628 0.26267528534
          4.7013711929 -0.40805020928 1.0405980349 4.6312479973 -0.18212139606 1.2574429512
          4.7351660728 -0.16101920605 0.98147392273 4.8456058502 -0.1037119925 1.1854159832
          2.2439339161 0.21964900196 0.058875899762 2.4686999321 0.064002029598 -0.14970698953
          2.2763319016 0.28125241399 -0.14818999171 2.2007000446 -0.030069796368 -0.17213380337
          -2.4518558979 0.48177570105 -0.4138597846 -2.3340997696 0.29154390097 -0.43325453997
          -2.3831152916 0.479411304 -0.7015529871 -2.4720232487 0.27283710241 -0.72016400099
          -2.7973310947 0.48305559158 -0.13842301071 -2.8941919804 0.276453197 -0.0076509867795
          -2.638958931 0.48359829187 -0.078652016819 -2.741081953 0.32292592525 -0.24629439414
          1.912476182 -0.21805660427 0.34040221572 1.7383420467 -0.46321061254 0.15311719477
          1.8784749508 -0.24840208888 0.010538879782 1.7837769985 -0.11298939586 0.15795660019
          1.1952601671 -0.29477098584 0.064541012049 1.1842939854 -0.12854279578 -0.092633001506
          1.3978904486 -0.12460799515 0.020671008155 1.1398986578 -0.010146999732 0.071502000093
          4.7051949501 0.60293000937 1.1564450264 4.9485001564 0.60167902708 1.3511019945
          4.9242591858 0.60738301277 1.1569290161 4.6475157738 0.38701429963 1.2527079582
          -3.0159440041 -0.32825475931 -0.049925994128 -3.1343755722 -0.50439548492 -0.0088849952444
          -3.1080467701 -0.29268443584 -0.24082820117 -3.1989395618 -0.20423613489 -0.036946997046
          -2.5502791405 0.25031089783 -0.30732250214 -2.4924480915 0.1497296989 -0.4765163064
          -2.7821593285 0.30021998286 -0.44675600529 -2.8009653091 0.022092198953 -0.32149419188
          -3.0553820133 0.29404971004 0.22911499441 -3.2902696133 0.27174562216 0.025448989123
          -3.2128009796 0.42603981495 0.26003301144 -3.2997620106 0.21736480296 0.27584698796
          -1.9367829561 0.15483479202 -0.66529297829 -2.1330692768 0.078793898225 -0.55708521605
          -2.0933618546 0.23922790587 -0.44598591328 -1.8747121096 0.0029144007713 -0.49748280644
          2.7448999882 0.34383347631 0.0055840001442 2.8252680302 0.56484931707 0.31118530035
          2.977586031 0.57245218754 0.10077200085 2.8881449699 0.23836348951 0.18792100251
          -4.6010689735 -0.032954148948 -0.34019801021 -4.6692109108 -0.16517569125 -0.19817639887
          -4.6259469986 0.16757617891 -0.22007699311 -4.5877504349 0.083796218038 -0.033795300871
          2.9301850796 -0.41978639364 0.12177300453 2.7957570553 -0.42637899518 0.25317001343
          2.7572391033 -0.22472290695 -0.032116010785 2.6479671001 -0.18968589604 0.18436330557
          -3.2997620106 0.21736480296 0.27584698796 -3.5273160934 0.29413831234 0.15600700676
          -3.4292929173 0.39982169867 0.30081498623 -3.4652879238 0.12876489758 0.30643999577
          -2.8014369011 -0.27421984076 -0.022419007495 -2.9204330444 -0.13243819773 -0.19507199526
          -3.0159440041 -0.32825475931 -0.049925994128 -2.8796532154 -0.32189744711 -0.3305183053
          -0.83420801163 -0.058261297643 -0.10190299898 -1.0252319574 -0.25830030441 -0.10159199685
          -0.85025602579 -0.29496991634 -0.10682400316 -1.0108540058 -0.22747680545 -0.36507099867
          -1.224069953 -0.31939327717 -0.31514698267 -1.1271990538 -0.51521211863 -0.40683698654
          -1.1190869808 -0.42417049408 -0.10118299723 -1.0108540058 -0.22747680545 -0.36507099867
          4.0827860832 0.11810979992 0.29750001431 4.1978611946 0.12986010313 0.5741019845
          4.344326973 0.23196899891 0.38592201471 4.2723498344 0.019195003435 0.35912799835
          -3.133988142 0.48230528831 -0.1387040019 -3.0849509239 0.17763519287 -0.079053997993
          -3.3095912933 0.2773117125 -0.21319679916 -3.2902696133 0.27174562216 0.025448989123
          1.655272007 0.093524098396 -0.11352000386 1.7200000286 0.27868279815 -0.33277949691
          1.8510379791 0.076726302505 -0.29504978657 1.9772109985 0.2443075031 -0.15706959367
          -2.6087565422 -0.063813298941 -0.63231498003 -2.6172776222 -0.17857418954 -0.88542699814
          -2.7248899937 -0.058732099831 -0.86423897743 -2.7225356102 -0.3007414341 -0.86474698782
          4.0205068588 0.28315189481 1.0268609524 3.8741321564 0.28035160899 1.3299449682
          4.0558829308 0.27783259749 1.3923959732 3.9359619617 0.090236805379 1.1565029621
          -3.2429180145 0.19009520113 -0.47103300691 -3.3023517132 0.0064315996133 -0.24028472602
          -3.3095912933 0.2773117125 -0.21319679916 -3.0590620041 0.043446499854 -0.27457588911
          -2.9013741016 -0.1873832345 0.19913700223 -3.0159440041 -0.32825475931 -0.049925994128
          -2.9620211124 -0.34429514408 0.21156999469 -2.8014369011 -0.27421984076 -0.022419007495
          1.4743545055 -0.47509750724 0.23366600275 1.4941439629 -0.30191999674 -0.0081950007007
          1.6559460163 -0.46090990305 -0.083716340363 1.7383420467 -0.46321061254 0.15311719477
          -4.2460803986 0.48600909114 -0.044718399644 -4.0038924217 0.48269051313 0.10539000481
          -3.9854476452 0.48504701257 -0.10422489792 -4.1721348763 0.28047949076 -0.053690198809
          -0.5779209733 0.28877097368 -0.57027238607 -0.785762012 0.48228681087 -0.72692197561
          -0.50065600872 0.48602038622 -0.66250771284 -0.66691201925 0.49013388157 -0.48518800735
          1.2022919655 0.33101278543 -0.21015967429 1.5727180243 0.33926710486 -0.070410497487
          1.3614029884 0.52470320463 -0.1519087255 1.40358603 0.24286289513 -0.3494130075
          2.2626259327 0.55465871096 -0.37340500951 2.2839529514 0.55297267437 -0.13702598214
          2.5832331181 0.56287848949 -0.20339798927 2.533821106 0.36376240849 -0.31047001481
          -2.819904089 0.037339199334 -0.66302698851 -2.8155953884 -0.19327259064 -0.5224930048
          -3.0660376549 -0.035237099975 -0.601772964 -2.9648208618 -0.08248540014 -0.41598600149
          -1.6305606365 -0.29367351532 -0.52340888977 -1.5043648481 -0.50604504347 -0.71901899576
          -1.4011659622 -0.51028960943 -0.56537860632 -1.2913279533 -0.31723329425 -0.56081938744
          0.066189996898 -0.13907346129 -0.85989201069 -0.14045800269 -0.19142946601 -0.79101097584
          0.13293649256 -0.12217481434 -0.6249139905 -0.055491000414 -0.26846665144 -0.58021008968
          -4.5035572052 0.34405878186 0.45431670547 -4.374229908 0.21605139971 0.18340799212
          -4.5572566986 0.23751859367 0.2899813056 -4.4532856941 0.16817709804 0.44724240899
          3.5936889648 0.39519989491 0.35134500265 3.6242129803 0.38442382216 0.12190700322
          3.7907569408 0.2246016115 0.18572899699 3.9061729908 0.52652400732 0.245728001
          -2.3905160427 0.48403820395 -0.18478998542 -2.0947520733 0.29650449753 -0.21109998226
          -2.2913610935 0.16144010425 -0.25700899959 -2.4349720478 0.31375589967 -0.069557994604
          -0.045155998319 0.014279329218 -0.54846435785 0.25168299675 0.024994578212 -0.46399909258
          0.14842510223 0.040421258658 -0.80009198189 0.13293649256 -0.12217481434 -0.6249139905
          3.197124958 0.55400508642 1.1030919552 3.4009900093 0.56842762232 0.97544896603
          3.4282515049 0.33187240362 0.97428900003 3.5158138275 0.52084130049 1.2258909941
          0.78821092844 0.14894378185 -0.18848800659 0.53519868851 0.048687562346 -0.13842900097
          0.7164170146 -0.01385910064 -0.332908988 0.58373397589 0.27239969373 -0.33771339059
          -4.1448526382 0.14308868349 -0.26994079351 -3.8971295357 0.23590660095 -0.36395600438
          -4.0446949005 -0.034010000527 -0.39543700218 -3.8473057747 -0.00070657959441 -0.13606338203
          -4.1004319191 0.30029353499 -0.60041797161 -4.2742209435 0.42202806473 -0.57460540533
          -4.2976675034 0.29178825021 -0.37512549758 -4.2148256302 0.11070713401 -0.5839381218
          -3.5523664951 0.0045121996664 -0.18042999506 -3.7167961597 -0.29400056601 -0.18038730323
          -3.5503668785 -0.17767935991 -0.019175993279 -3.5914151669 -0.15871548653 -0.36829999089
          1.6362780333 -0.19434309006 -0.1196873039 1.4299919605 -0.4650863111 -0.25022679567
          1.4434380531 -0.14066420496 -0.32838499546 1.3097800016 -0.27519398928 -0.1584803015
          1.655272007 0.093524098396 -0.11352000386 1.5727180243 0.33926710486 -0.070410497487
          1.4162900448 0.058589901775 -0.19647470117 1.40358603 0.24286289513 -0.3494130075
          5.0362038612 -0.1984565109 1.0518586636 5.2391929626 -0.046786397696 1.0306526423
          4.9991178513 0.039471499622 1.0460796356 4.9587922096 -0.11951480061 0.84872800112
          4.9471430779 0.61130398512 0.85095900297 5.0476732254 0.61224198341 1.0092389584
          5.2397999763 0.61484199762 0.9742590189 5.2841758728 0.46887099743 0.8069050312
          4.3505711555 0.60127097368 0.76294797659 4.4149041176 0.59745812416 0.95439249277
          4.5438528061 0.60426002741 0.8030000329 4.548661232 0.31044599414 0.7846570015
          0.68045121431 -0.49612438679 -0.13406600058 0.48393589258 -0.50734382868 0.013009998947
          0.44537511468 -0.27799990773 -0.12429698557 0.54733449221 -0.32747480273 0.11482799798
          -0.092815898359 0.28653284907 -0.26267999411 0.12283880264 0.27401307225 -0.19243100286
          -0.04318710044 0.49930903316 -0.083802998066 -0.020758699626 0.49720421433 -0.34290099144
          -3.0509493351 0.29688620567 -0.58453899622 -2.9112796783 0.48190781474 -0.45949801803
          -3.0837988853 0.48263069987 -0.33776900172 -3.2644114494 0.48313009739 -0.43453800678
          0.30108499527 0.17071788013 -0.6524900198 0.56008797884 0.052585806698 -0.68334698677
          0.52244597673 0.28034487367 -0.58197897673 0.41305398941 0.29973137379 -0.76187801361
          3.3867809772 -0.23781871796 0.5709104538 3.3609991074 0.066775999963 0.55516642332
          3.3097200394 -0.10290320963 0.73021501303 3.1153120995 -0.17042639852 0.52375102043
          -0.28265699744 -0.012162780389 -0.58007609844 -0.14045800269 -0.19142946601 -0.79101097584
          -0.29999598861 -0.31015944481 -0.61351531744 -0.055491000414 -0.26846665144 -0.58021008968
          3.5123636723 0.27264100313 1.2129739523 3.690030098 0.28598979115 0.94812899828
          3.4896070957 0.099841497838 0.92870599031 3.7040190697 0.031617399305 1.0519629717
          -4.3568739891 -0.16453392804 0.20460030437 -4.4882779121 -0.32354712486 0.15183719993
          -4.5570960045 -0.13278326392 -0.03384745121 -4.6583003998 -0.19147884846 0.13825491071
          -0.80718201399 -0.50908124447 -0.54855680466 -0.51817697287 -0.33874639869 -0.53937000036
          -0.83050501347 -0.26468807459 -0.57061237097 -0.66083502769 -0.29501193762 -0.69995200634
          0.61904597282 -0.48145249486 -0.62268102169 0.65387302637 -0.44024658203 -0.92117100954
          0.73838502169 -0.23838828504 -0.67500901222 0.48899298906 -0.47851881385 -0.81525802612
          -4.5090827942 0.30276152492 -0.34050369263 -4.7826919556 0.30165764689 -0.29666978121
          -4.6259469986 0.16757617891 -0.22007699311 -4.6022672653 0.31213206053 -0.53499019146
          3.5548529625 0.58682149649 0.44130200148 3.5310690403 0.59044080973 0.18322899938
          3.5936889648 0.39519989491 0.35134500265 3.7101740837 0.59498238564 0.34702202678
          -4.8607320786 0.078173696995 -0.5131021142 -4.7826919556 0.30165764689 -0.29666978121
          -4.7891550064 0.016387579963 -0.29043120146 -5 0.09418129921 -0.34129801393
          1.4941439629 -0.30191999674 -0.0081950007007 1.3097800016 -0.27519398928 -0.1584803015
          1.1952601671 -0.29477098584 0.064541012049 1.3789390326 -0.47327530384 -0.003226995701
          -1.7097920179 0.31207630038 -0.45334500074 -1.6368409395 -0.014472581446 -0.55414676666
          -1.545979023 0.22976130247 -0.33403101563 -1.6599514484 0.24216479063 -0.65762501955
          1.3844920397 0.52349030972 0.14648000896 1.2691779137 0.37699308991 0.36733099818
          1.4660654068 0.43263700604 0.43621888757 1.543838501 0.32068037987 0.19921569526
          2.900462389 -0.18088708818 0.95662897825 3.0500233173 -0.10988160223 0.76281303167
          3.0447850227 0.06147922948 1.0241279602 2.7863173485 0.018803799525 0.9157999754
          4.7657809258 0.38576200604 0.78052300215 4.7970080376 0.40450099111 0.99685043097
          4.9471430779 0.61130398512 0.85095900297 4.9800801277 0.31590399146 0.82129001617
          -1.2111840248 -0.1263563931 -0.52467823029 -1.4074389935 -0.049107201397 -0.5518643856
          -1.4155100584 -0.21666789055 -0.40096598864 -1.2913279533 -0.31723329425 -0.56081938744
          0.86059832573 -0.49077758193 -0.080404996872 0.68045121431 -0.49612438679 -0.13406600058
          0.81277400255 -0.48748779297 -0.2579177916 0.79302960634 -0.29305431247 -0.039216998965
          4.7377829552 0.60829901695 0.77481901646 4.7970080376 0.40450099111 0.99685043097
          4.9471430779 0.61130398512 0.85095900297 4.7657809258 0.38576200604 0.78052300215
          -2.8732545376 0.220630005 -0.8351380229 -2.819904089 0.037339199334 -0.66302698851
          -2.7248899937 -0.058732099831 -0.86423897743 -2.9699292183 -0.052413102239 -0.81482702494
          4.7377829552 0.60829901695 0.77481901646 4.9471430779 0.61130398512 0.85095900297
          4.8564839363 0.61346799135 0.55668997765 4.7657809258 0.38576200604 0.78052300215
          -0.61225312948 -0.48133009672 -0.10661300272 -0.56078988314 -0.3168579042 -0.30044898391
          -0.55649799109 -0.51590490341 -0.39866101742 -0.39079099894 -0.51813417673 -0.27170100808
          -4.7780652046 -0.0085761295632 -0.01886684075 -5 0.1004910022 -0.10199099779
          -5 0.28975299001 0.088944099844 -5 -0.004447159823 0.13623799384
          -1.3103187084 -0.16647019982 -0.72021299601 -1.5043648481 -0.50604504347 -0.71901899576
          -1.2913279533 -0.31723329425 -0.56081938744 -1.2879470587 -0.50460076332 -0.71951198578
          4.7822642326 -0.20231451094 0.72078299522 4.9700870514 -0.40666720271 0.87981498241
          4.9794502258 -0.39840599895 0.61955702305 4.7853469849 -0.40575119853 0.83861100674
          0.31418091059 0.094848684967 -0.98210698366 0.20461019874 -0.067686937749 -1.0017780066
          0.073527999222 0.1395072788 -1.023146987 0.14842510223 0.040421258658 -0.80009198189
          1.4743545055 -0.47509750724 0.23366600275 1.2453129292 -0.22395838797 0.33866900206
          1.5581665039 -0.242820099 0.18669840693 1.4301359653 -0.33039590716 0.39710000157
          -3.3997917175 0.20229819417 -0.72843700647 -3.5941543579 0.02097989805 -0.47818499804
          -3.3833937645 -0.032667398453 -0.48868498206 -3.5939254761 -0.0081771295518 -0.69047999382
          -2.3400249481 -0.19343669713 -0.23309500515 -2.2283110619 -0.34106051922 -0.12456599623
          -2.3604021072 -0.51019489765 -0.16444499791 -2.4840130806 -0.30007189512 -0.074917010963
          -1.4155100584 -0.21666789055 -0.40096598864 -1.4041509628 -0.13285940886 -0.071116998792
          -1.224069953 -0.31939327717 -0.31514698267 -1.4899309874 -0.36410149932 -0.064006000757
          -4.2297291756 -0.32805991173 0.13521359861 -4.0447149277 -0.49747499824 0.14612358809
          -4.2165794373 -0.29792863131 -0.10957739502 -4.2421140671 -0.50075817108 -0.098954796791
          2.0085380077 -0.44803181291 -0.051146503538 2.1323330402 -0.24952030182 -0.2159884125
          2.2454249859 -0.24175401032 -0.0085900025442 2.0688860416 -0.10810660571 -0.024964602664
          2.6138679981 0.31076711416 0.28303608298 2.8575510979 0.064445592463 0.36333754659
          2.5975399017 0.036539699882 0.30856120586 2.7912619114 0.22470119596 0.5612180233
          -4.4301371574 -0.28078189492 -0.098592102528 -4.5417332649 -0.49570846558 0.045956496149
          -4.4882779121 -0.32354712486 0.15183719993 -4.3444986343 -0.49644988775 0.069615103304
          1.7981909513 0.54004788399 -0.43759217858 1.9153610468 0.36894521117 -0.30883604288
          2.0072319508 0.54592597485 -0.34398621321 1.932314992 0.39315280318 -0.51564007998
          2.2839529514 0.55297267437 -0.13702598214 2.2763319016 0.28125241399 -0.14818999171
          2.2626259327 0.55465871096 -0.37340500951 2.1508929729 0.55003911257 -0.24668708444
          -0.82669299841 0.46579259634 -0.102669999 -0.89386701584 0.49129199982 -0.34832200408
          -1.0550040007 0.40813687444 -0.10020700097 -0.81611001492 0.30783483386 -0.27051800489
          1.4743545055 -0.47509750724 0.23366600275 1.2453129292 -0.22395838797 0.33866900206
          1.1952601671 -0.29477098584 0.064541012049 1.5581665039 -0.242820099 0.18669840693
          1.8266550303 0.23588789999 -0.55572861433 1.7200000286 0.27868279815 -0.33277949691
          1.932314992 0.39315280318 -0.51564007998 1.9153610468 0.36894521117 -0.30883604288
          3.0461831093 0.56736302376 0.63019996881 3.0947101116 0.28387919068 0.62956798077
          3.0665662289 0.3753657043 0.82187402248 3.2744851112 0.38130360842 0.56395947933
          4.2261519432 -0.095267094672 0.65937298536 4.0834741592 -0.21439018846 0.53021103144
          4.2858800888 -0.1588639915 0.36022999883 4.0860438347 -0.014925898984 0.46736100316
          4.0834741592 -0.21439018846 0.53021103144 4.1229319572 -0.1651879102 0.30276998878
          4.2858800888 -0.1588639915 0.36022999883 4.0860438347 -0.014925898984 0.46736100316
          0.36064499617 -0.039502311498 -0.75520098209 0.20461019874 -0.067686937749 -1.0017780066
          0.14842510223 0.040421258658 -0.80009198189 0.066189996898 -0.13907346129 -0.85989201069
          -0.080558300018 0.23630402982 -0.025882000104 -0.088332302868 0.076261751354 -0.21729001403
          0.10837440193 0.15965628624 0.013736000285 0.12283880264 0.27401307225 -0.19243100286
          1.5706268549 -0.052340894938 0.45530718565 1.3826347589 0.0027236009482 0.39376598597
          1.5601570606 0.064071901143 0.17068810761 1.6081655025 0.1408970952 0.47529900074
          2.0085380077 -0.44803181291 -0.051146503538 1.8784749508 -0.24840208888 0.010538879782
          2.0688860416 -0.10810660571 -0.024964602664 2.0660989285 -0.22966709733 0.14300569892
          -3.5458295345 0.1751678884 -0.0069859996438 -3.5523664951 0.0045121996664 -0.18042999506
          -3.4821026325 -0.046573873609 0.11716599017 -3.302652359 0.038016501814 0.04223600775
          -0.6087269187 0.024860799313 -0.30977600813 -0.51164197922 0.025980791077 -0.55774062872
          -0.44009780884 -0.045463498682 -0.38387098908 -0.45164808631 0.18338213861 -0.40235000849
          -1.2542339563 0.29450172186 -0.30690699816 -1.0550040007 0.40813687444 -0.10020700097
          -1.3188999891 0.28086179495 -0.079112000763 -1.2492990494 0.49424445629 -0.10197599977
          -0.080558300018 0.23630402982 -0.025882000104 0.10837440193 0.15965628624 0.013736000285
          0.19005160034 0.5024972558 -0.0085250083357 0.12283880264 0.27401307225 -0.19243100286
          0.67563098669 0.48699307442 -0.89504599571 0.70296800137 0.32958817482 -0.69135397673
          0.9641879797 0.46827450395 -0.81677001715 0.8415030241 0.30299159884 -0.85388797522
          4.7499132156 0.39788281918 1.4921859503 4.7883992195 0.58720839024 1.4859639406
          4.6475157738 0.38701429963 1.2527079582 4.9485001564 0.60167902708 1.3511019945
          4.7970080376 0.40450099111 0.99685043097 4.7789177895 0.14037750661 0.96490341425
          4.9800801277 0.31590399146 0.82129001617 4.7657809258 0.38576200604 0.78052300215
          -1.6305606365 -0.29367351532 -0.52340888977 -1.8019082546 -0.50858289003 -0.56323200464
          -1.7037880421 -0.51201498508 -0.40343299508 -1.5197509527 -0.51312232018 -0.42337998748
          -2.0947520733 0.29650449753 -0.21109998226 -2.0933618546 0.23922790587 -0.44598591328
          -1.8419760466 0.17466241121 -0.33885499835 -2.0245499611 0.48440909386 -0.34754398465
          -0.3020440042 0.48588180542 -0.73787802458 -0.40303009748 0.49246281385 -0.4396699965
          -0.35219299793 0.31618493795 -0.60427820683 -0.50065600872 0.48602038622 -0.66250771284
          1.6495490074 0.52970409393 0.32440179586 1.543838501 0.32068037987 0.19921569526
          1.8545037508 0.351865381 0.36945268512 1.8019828796 0.22406680882 0.18662501872
          3.3609991074 0.066775999963 0.55516642332 3.4329230785 0.25877740979 0.41826298833
          3.6066539288 0.1872664988 0.30272099376 3.7211930752 0.051226999611 0.43084198236
          0.68674623966 -0.13471266627 0.16325600445 0.48138740659 -0.12545976043 0.10301499814
          0.53519868851 0.048687562346 -0.13842900097 0.5864264369 0.083424940705 0.13992400467
          4.7789177895 0.14037750661 0.96490341425 4.4793419838 0.2869952023 1.1247149706
          4.7970080376 0.40450099111 0.99685043097 4.6513729095 0.13981750607 1.2424490452
          4.5186548233 -0.2072378099 0.99021959305 4.5794639587 -0.095555409789 0.80211597681
          4.5335330963 0.11206749827 0.92334389687 4.3321962357 -0.16034509242 0.88920331001
          4.1932888031 -0.10509669781 1.111093998 4.5186548233 -0.2072378099 0.99021959305
          4.5119929314 -0.044536296278 1.1272319555 4.3321962357 -0.16034509242 0.88920331001
          0.4930306077 -0.50028795004 -0.18466299772 0.49290901423 -0.27051791549 -0.38118758798
          0.63634902239 -0.49167880416 -0.31372991204 0.44537511468 -0.27799990773 -0.12429698557
          -0.18545199931 0.22996643186 -0.47609320283 -0.35219299793 0.31618493795 -0.60427820683
          -0.28265699744 -0.012162780389 -0.58007609844 -0.33919200301 0.20730000734 -0.79884600639
          -1.2214440107 -0.234099105 -0.087950997055 -1.224069953 -0.31939327717 -0.31514698267
          -1.1190869808 -0.42417049408 -0.10118299723 -1.0252319574 -0.25830030441 -0.10159199685
          4.7970080376 0.40450099111 0.99685043097 4.6236991882 0.60261398554 0.97155320644
          4.7657809258 0.38576200604 0.78052300215 4.7377829552 0.60829901695 0.77481901646
          -3.1901597977 0.0029790997505 -0.4238820076 -2.9424054623 0.1131972 -0.47736001015
          -2.9648208618 -0.08248540014 -0.41598600149 -3.0590620041 0.043446499854 -0.27457588911
          1.85224998 -0.44815999269 -0.31117022038 1.6978210211 -0.28733319044 -0.61622899771
          1.90753901 -0.28872641921 -0.54777610302 1.7291409969 -0.28722119331 -0.28180330992
          -2.2193543911 0.4817315042 -0.46778970957 -2.4518558979 0.48177570105 -0.4138597846
          -2.3340997696 0.29154390097 -0.43325453997 -2.3831152916 0.479411304 -0.7015529871
          -4.1157817841 0.48770108819 -0.3238914907 -4.2976675034 0.29178825021 -0.37512549758
          -4.1721348763 0.28047949076 -0.053690198809 -4.0919904709 0.29906708002 -0.39470338821
          2.3748869896 0.069039702415 0.16169330478 2.2661983967 0.044934421778 0.50948798656
          2.2926232815 0.21838380396 0.36620301008 2.5975399017 0.036539699882 0.30856120586
          -1.6865179539 0.27380079031 -0.033339001238 -1.8772009611 0.48616209626 -0.20101100206
          -1.8959770203 0.26786220074 -0.15826401114 -1.7018979788 0.48639988899 -0.31914901733
          -1.8121285439 0.26642638445 -0.82310700417 -1.9367829561 0.15483479202 -0.66529297829
          -1.6661914587 0.0097754001617 -0.81471097469 -1.901250124 -0.024264600128 -0.80353200436
          4.3321962357 -0.16034509242 0.88920331001 4.1675348282 -0.40187141299 0.870411098
          4.2507781982 -0.39692500234 1.0791150331 4.4079709053 -0.40386489034 0.85058301687
          -2.3400249481 -0.19343669713 -0.23309500515 -2.0592620373 -0.25566390157 -0.23402400315
          -2.0529088974 0.052241001278 -0.20910900831 -2.0975265503 -0.075285196304 -0.43518251181
          -3.0849509239 0.17763519287 -0.079053997993 -3.3023517132 0.0064315996133 -0.24028472602
          -3.302652359 0.038016501814 0.04223600775 -3.0187089443 -0.037960600108 0.018444009125
          3.8637049198 0.57652932405 1.0168390274 3.8319048882 0.3724052906 1.1257870197
          3.690030098 0.28598979115 0.94812899828 3.6906139851 0.57666391134 0.86979299784
          -2.1201012135 -0.050273101777 -0.70986998081 -1.8874305487 -0.20946229994 -0.68173897266
          -2.1267375946 -0.28440442681 -0.5801320076 -2.0975265503 -0.075285196304 -0.43518251181
          -0.091403998435 0.28790903091 -0.89287102222 -0.17038999498 0.33329957724 -0.6997410059
          -0.33919200301 0.20730000734 -0.79884600639 -0.3020440042 0.48588180542 -0.73787802458
          -0.081785798073 -0.18698275089 -0.35594800115 -0.062883600593 -0.026130199432 -0.024199999869
          -0.088332302868 0.076261751354 -0.21729001403 0.098207399249 -0.032019931823 -0.19597899914
          3.8135120869 0.40065589547 0.74336141348 3.6906139851 0.57666391134 0.86979299784
          3.8637049198 0.57652932405 1.0168390274 3.690030098 0.28598979115 0.94812899828
          -4.394712925 -0.0063827331178 -0.052065320313 -4.4088745117 0.030903441831 -0.32176870108
          -4.4642100334 -0.19895298779 -0.3199582994 -4.2235832214 -0.18397390842 -0.2816118896
          -4.0446949005 -0.034010000527 -0.39543700218 -3.8867964745 -0.18341259658 -0.63530302048
          -4.0561761856 -0.22405919433 -0.60680097342 -3.9158587456 -0.22345404327 -0.33129701018
          2.4038360119 -0.2405732125 0.18867635727 2.2508289814 -0.099022090435 0.14436070621
          2.0660989285 -0.22966709733 0.14300569892 2.2454249859 -0.24175401032 -0.0085900025442
          3.6307458878 0.097795702517 0.69470512867 3.3609991074 0.066775999963 0.55516642332
          3.4964818954 -0.10279240459 0.43279200792 3.7211930752 0.051226999611 0.43084198236
          -0.8307570219 -0.058059498668 -0.35817700624 -0.75858801603 0.17240820825 -0.42690300941
          -0.96610802412 -0.023699499667 -0.59952700138 -0.70339399576 -0.074503429234 -0.67528831959
          3.5797228813 -0.13064749539 0.085768997669 3.4166619778 0.065547503531 0.28209301829
          3.6490149498 0.068853497505 0.12046000361 3.4964818954 -0.10279240459 0.43279200792
          -2.5874330997 -0.50843310356 -0.077546991408 -2.6131467819 -0.26515978575 -0.30168119073
          -2.8014369011 -0.27421984076 -0.022419007495 -2.7347252369 -0.50761651993 -0.30021220446
          0.93168497086 0.052144400775 -0.6099550128 1.1442159414 -0.0049022994936 -0.49735999107
          1.2272870541 0.18516859412 -0.74592202902 1.1139479876 0.04362449795 -0.78375899792
          -0.4785284996 -0.28558018804 -0.089541003108 -0.37324941158 -0.23546770215 -0.36768600345
          -0.39079099894 -0.51813417673 -0.27170100808 -0.20980919898 -0.34469109774 -0.28026798368
          2.7448999882 0.34383347631 0.0055840001442 2.8881449699 0.23836348951 0.18792100251
          3.1546220779 0.28414210677 -0.077771998942 2.8420228958 0.24354210496 -0.20201000571
          -4.373114109 0.48056659102 0.41136088967 -4.4874916077 0.48258560896 0.25255030394
          -4.6145296097 0.48269069195 0.36654379964 -4.5035572052 0.34405878186 0.45431670547
          1.912476182 -0.21805660427 0.34040221572 2.0134241581 0.082406297326 0.37211599946
          1.9537478685 -0.17958140373 0.5853844285 1.8082741499 -0.041739497334 0.53896141052
          -2.2999050617 -0.0097464201972 -0.11074100435 -2.2799999714 0.29279088974 0.072902999818
          -2.1283559799 0.094898201525 0.043953001499 -2.5005450249 0.17306339741 0.11759500206
          2.2439339161 0.21964900196 0.058875899762 2.3807709217 0.34840109944 0.17629000545
          2.5194039345 0.221833691 0.014336997643 2.3748869896 0.069039702415 0.16169330478
          -1.0361119509 0.21812960505 -0.37398898602 -0.96485602856 0.047094900161 -0.10023099929
          -0.85646498203 0.17925000191 -0.10178700089 -0.8307570219 -0.058059498668 -0.35817700624
          -1.596382618 -0.17736847699 -1.051363945 -1.5869110823 -0.50118023157 -0.88304901123
          -1.5961900949 -0.24007625878 -0.77421802282 -1.4744634628 -0.41700416803 -1.0684100389
          2.4725689888 0.38891109824 0.53518199921 2.1993765831 0.33982020617 0.69473302364
          2.0810952187 0.34367528558 0.4289650023 2.3064310551 0.54786038399 0.58645904064
          2.7275784016 0.56002151966 0.53235000372 2.8127799034 0.36863431334 0.39534589648
          2.5151159763 0.5552688241 0.37893998623 2.4725689888 0.38891109824 0.53518199921
          -4.6145296097 0.48269069195 0.36654379964 -4.6132879257 0.48546689749 0.14135861397
          -4.745464325 0.3263682127 0.25227379799 -4.4874916077 0.48258560896 0.25255030394
          2.0239698887 0.24268069863 -0.49068275094 1.9772109985 0.2443075031 -0.15706959367
          2.1437630653 0.14836460352 -0.25723919272 1.8510379791 0.076726302505 -0.29504978657
          -1.0315690041 0.001321600168 -0.39257600904 -1.1750420332 0.11218670756 -0.27856901288
          -1.0854450464 -0.072821497917 -0.097055003047 -1.2152099609 -0.081209897995 -0.31830999255
          -1.0252319574 -0.25830030441 -0.10159199685 -1.2152099609 -0.081209897995 -0.31830999255
          -1.224069953 -0.31939327717 -0.31514698267 -1.0108540058 -0.22747680545 -0.36507099867
          -1.224069953 -0.31939327717 -0.31514698267 -1.2152099609 -0.081209897995 -0.31830999255
          -1.4041509628 -0.13285940886 -0.071116998792 -1.4155100584 -0.21666789055 -0.40096598864
          -0.96485602856 0.047094900161 -0.10023099929 -1.1158839464 0.17156629264 -0.093520998955
          -1.0854450464 -0.072821497917 -0.097055003047 -1.1750420332 0.11218670756 -0.27856901288
          2.3807709217 0.34840109944 0.17629000545 2.2926232815 0.21838380396 0.36620301008
          2.2439339161 0.21964900196 0.058875899762 2.0875871181 0.32275497913 0.17387519777
          2.3807709217 0.34840109944 0.17629000545 2.2926232815 0.21838380396 0.36620301008
          2.3748869896 0.069039702415 0.16169330478 2.2439339161 0.21964900196 0.058875899762
          -2.1330692768 0.078793898225 -0.55708521605 -2.1201012135 -0.050273101777 -0.70986998081
          -1.8747121096 0.0029144007713 -0.49748280644 -1.9367829561 0.15483479202 -0.66529297829
          4.2261519432 -0.095267094672 0.65937298536 4.0790348053 0.052158098668 0.78453868628
          4.285888195 0.099320337176 0.90528231859 4.3321962357 -0.16034509242 0.88920331001
          4.7013711929 -0.40805020928 1.0405980349 4.6833701134 -0.40567740798 1.2680499554
          4.6312479973 -0.18212139606 1.2574429512 4.8456058502 -0.1037119925 1.1854159832
          1.9164220095 -0.13674210012 -0.17615103722 1.9479429722 -0.26660808921 -0.33822989464
          2.1323330402 -0.24952030182 -0.2159884125 2.1296679974 -0.11873139441 -0.46822568774
          4.2476382256 0.56425100565 0.3695769906 4.1101632118 0.60391497612 0.52134698629
          4.309071064 0.60760998726 0.56352597475 4.2886710167 0.33758100867 0.66382801533
          0.15515929461 0.27147474885 -0.81783097982 -0.04301200062 0.17476075888 -0.718306005
          -0.17038999498 0.33329957724 -0.6997410059 0.014425000176 0.49165633321 -0.66029900312
          -1.684795022 0.12831169367 -0.21073399484 -1.8419760466 0.17466241121 -0.33885499835
          -1.5760400295 -0.030635099858 -0.29671400785 -1.6368409395 -0.014472581446 -0.55414676666
          -1.6121549606 0.47708061337 -0.83065801859 -1.7826962471 0.45563310385 -1.0317989588
          -1.8841609955 0.47777590156 -0.81263101101 -1.8121285439 0.26642638445 -0.82310700417
          -1.0723729134 -0.088602088392 -0.8404250145 -1.0507317781 -0.037540301681 -1.0923370123
          -0.87940299511 -0.1013680622 -1.096660018 -0.85043102503 0.031999699771 -0.80896800756
          -5 0.15884299576 0.21330599487 -4.7780652046 -0.0085761295632 -0.01886684075
          -5 0.28975299001 0.088944099844 -5 -0.004447159823 0.13623799384
          0.31418091059 0.094848684967 -0.98210698366 0.56008797884 0.052585806698 -0.68334698677
          0.43729901314 0.24008713663 -0.95277100801 0.43230000138 -0.066396504641 -0.95820701122
          3.2239820957 -0.14030811191 0.26961100101 2.9649469852 0.070412486792 0.048234000802
          3.1375620365 -0.015359799378 -0.09573700279 3.1981549263 0.12413520366 0.16969101131
          -4.0446949005 -0.034010000527 -0.39543700218 -4.0438446999 0.094188794494 -0.60962402821
          -3.8043015003 -0.00087310036179 -0.39245098829 -3.8971295357 0.23590660095 -0.36395600438
          -4.1843628883 -0.059714950621 -0.58763289452 -4.0561761856 -0.22405919433 -0.60680097342
          -4.2873783112 -0.33291450143 -0.56937742233 -4.1002011299 -0.31287899613 -0.40952581167
          -1.3793640137 0.48962751031 -0.2810100019 -1.3188999891 0.28086179495 -0.079112000763
          -1.2542339563 0.29450172186 -0.30690699816 -1.545979023 0.22976130247 -0.33403101563
          -1.4155100584 -0.21666789055 -0.40096598864 -1.3984810114 0.086329601705 -0.26900598407
          -1.5760400295 -0.030635099858 -0.29671400785 -1.4074389935 -0.049107201397 -0.5518643856
          -0.22330099344 0.23585693538 -1.0619950294 -0.33919200301 0.20730000734 -0.79884600639
          -0.42215698957 0.32589438558 -1.0801579952 -0.25258800387 0.48134300113 -1.0479999781
          0.15807649493 -0.51398259401 -0.10896699131 0.24357970059 -0.27066677809 0.034074999392
          0.32351368666 -0.50792455673 -0.14887700975 0.28973901272 -0.46788781881 0.039062999189
          4.0790348053 0.052158098668 0.78453868628 4.0205068588 0.28315189481 1.0268609524
          4.0052309036 0.2497472018 0.67321902514 4.0778617859 0.38755699992 0.83571088314
          -1.6865179539 0.27380079031 -0.033339001238 -1.7018979788 0.48639988899 -0.31914901733
          -1.5615320206 0.44849410653 -0.052519001067 -1.8772009611 0.48616209626 -0.20101100206
          0.79302960634 -0.29305431247 -0.039216998965 0.87983602285 -0.093330197036 -0.22511909902
          0.98700541258 -0.19875110686 -0.078704997897 0.81067937613 -0.037577752024 -0.03468298912
          -4.7578840256 0.28817969561 -0.030578099191 -4.9270887375 0.4960334301 -0.082894615829
          -4.8276562691 0.49022433162 0.10507963598 -5 0.28975299001 0.088944099844
          1.9772109985 0.2443075031 -0.15706959367 2.0875871181 0.32275497913 0.17387519777
          2.111946106 0.35183390975 -0.033053901047 2.1151509285 0.051999751478 0.097855910659
          -4.1002011299 -0.31287899613 -0.40952581167 -3.9332222939 -0.36795258522 -0.62505298853
          -3.8566205502 -0.50966030359 -0.52288502455 -3.9158587456 -0.22345404327 -0.33129701018
          3.947902441 -0.095926292241 1.3428709507 4.1932888031 -0.10509669781 1.111093998
          4.0172262192 -0.24458359182 1.074458003 4.1478528976 -0.20111000538 1.3932329416
          2.9040269852 0.39754191041 0.64887100458 2.7912619114 0.22470119596 0.5612180233
          2.8261909485 0.28350150585 0.9414550066 3.0184175968 0.12345609814 0.73364597559
          3.7727000713 0.59062451124 0.58069598675 3.997948885 0.58768248558 0.85406768322
          4.1101632118 0.60391497612 0.52134698629 3.9646220207 0.41419330239 0.50147998333
          3.3482620716 -0.41061788797 0.17992399633 3.2239820957 -0.14030811191 0.26961100101
          3.3344159126 -0.41385099292 0.43574500084 3.1400530338 -0.41660821438 0.24456399679
          3.7870020866 -0.19021171331 1.074723959 3.947902441 -0.095926292241 1.3428709507
          3.8999164104 -0.26179867983 1.3262170553 3.7523159981 -0.085600093007 1.2815630436
          1.3132139444 -0.24616961181 -0.5035700202 1.2600870132 -0.46586328745 -0.47155499458
          1.0520069599 -0.24730080366 -0.58848804235 1.1370209455 -0.2310988009 -0.34101459384
          -2.6538431644 0.18475399911 -0.59675198793 -2.8732545376 0.220630005 -0.8351380229
          -2.6686131954 0.11487980187 -0.87576198578 -2.8207395077 0.30260008574 -0.65172201395
          3.2735610008 0.57003730536 0.75401997566 3.4926049709 0.5762001276 0.76709657907
          3.2744851112 0.38130360842 0.56395947933 3.550276041 0.36652091146 0.69562649727
          -1.224069953 -0.31939327717 -0.31514698267 -1.4011659622 -0.51028960943 -0.56537860632
          -1.3917900324 -0.51799577475 -0.23380000889 -1.1271990538 -0.51521211863 -0.40683698654
          1.914431572 0.53861421347 0.26570081711 1.7791023254 0.53241348267 0.52594411373
          2.0509207249 0.54013729095 0.59274601936 1.8545037508 0.351865381 0.36945268512
          -0.31712800264 -0.025899430737 -0.85415101051 -0.51164197922 0.025980791077 -0.55774062872
          -0.33919200301 0.20730000734 -0.79884600639 -0.28265699744 -0.012162780389 -0.58007609844
          3.9359619617 0.090236805379 1.1565029621 3.7040190697 0.031617399305 1.0519629717
          3.7523159981 -0.085600093007 1.2815630436 3.7870020866 -0.19021171331 1.074723959
          1.1370209455 -0.2310988009 -0.34101459384 1.1713650227 -0.47730788589 -0.15520529449
          0.91907000542 -0.28306537867 -0.28310790658 0.98700541258 -0.19875110686 -0.078704997897
          0.68045121431 -0.49612438679 -0.13406600058 0.48393589258 -0.50734382868 0.013009998947
          0.4930306077 -0.50028795004 -0.18466299772 0.44537511468 -0.27799990773 -0.12429698557
          -0.22821579874 0.49608099461 -0.32180100679 -0.18545199931 0.22996643186 -0.47609320283
          -0.092815898359 0.28653284907 -0.26267999411 -0.020758699626 0.49720421433 -0.34290099144
          -0.14834499359 -0.49472266436 -0.76049399376 -0.32380700111 -0.29127669334 -0.87523800135
          -0.14045800269 -0.19142946601 -0.79101097584 -0.29999598861 -0.31015944481 -0.61351531744
          -3.6243565083 0.17590141296 -0.3374350071 -3.8043015003 -0.00087310036179 -0.39245098829
          -3.7273154259 0.27898979187 -0.49260097742 -3.8971295357 0.23590660095 -0.36395600438
          -2.8941919804 0.276453197 -0.0076509867795 -3.1628189087 0.48208609223 0.07378398627
          -3.0553820133 0.29404971004 0.22911499441 -3.0849509239 0.17763519287 -0.079053997993
          -2.3477945328 -0.017081549391 -0.75131797791 -2.1201012135 -0.050273101777 -0.70986998081
          -2.1485760212 0.26226508617 -0.74843597412 -2.188603878 0.16068729758 -0.96540898085
          -3.0159440041 -0.32825475931 -0.049925994128 -3.0154821873 -0.50680673122 -0.26073569059
          -2.8594679832 -0.50669443607 -0.096579000354 -2.8796532154 -0.32189744711 -0.3305183053
          4.4424939156 0.089347399771 0.64447599649 4.2723498344 0.019195003435 0.35912799835
          4.2261519432 -0.095267094672 0.65937298536 4.4468998909 -0.11275999993 0.40511700511
          4.4112458229 -0.36157390475 0.39370900393 4.2858800888 -0.1588639915 0.36022999883
          4.2745900154 -0.40359979868 0.66799497604 4.1763081551 -0.404874295 0.45419001579
          -2.9013741016 -0.1873832345 0.19913700223 -2.9779620171 0.1083374992 0.21390299499
          -3.0187089443 -0.037960600108 0.018444009125 -2.7196071148 0.012619300745 0.16217699647
          -1.2560925484 0.27916309237 -0.88956099749 -1.2635279894 0.19011539221 -1.0803289413
          -1.2481642962 0.04549119994 -0.89113599062 -1.1157516241 0.10669529438 -1.088037014
          -3.8043015003 -0.00087310036179 -0.39245098829 -3.8068175316 -0.027711499482 -0.64996302128
          -3.5941543579 0.02097989805 -0.47818499804 -3.7273154259 0.27898979187 -0.49260097742
          -5 -0.39700898528 0.035171099007 -5 -0.49631300569 0.38468599319
          -5 -0.26007699966 0.21836000681 -4.8250303268 -0.49250531197 0.14701525867
          -2.6924591064 0.48232129216 -0.35847869515 -2.9112796783 0.48190781474 -0.45949801803
          -2.741081953 0.32292592525 -0.24629439414 -2.7821593285 0.30021998286 -0.44675600529
          4.2772049904 0.36336359382 0.94083797932 4.2345128059 0.15581940114 1.1804380417
          4.0205068588 0.28315189481 1.0268609524 4.2713618279 0.37677168846 1.2242929935
          -3.7273154259 0.27898979187 -0.49260097742 -3.8043015003 -0.00087310036179 -0.39245098829
          -3.8699226379 0.21788460016 -0.63997101784 -3.8971295357 0.23590660095 -0.36395600438
          3.1256771088 0.35985979438 0.17385299504 3.2137260437 0.23683209717 0.35793501139
          3.3498690128 0.38853508234 0.25040599704 3.1981549263 0.12413520366 0.16969101131
          1.5854810476 0.084593199193 -0.4168010056 1.655272007 0.093524098396 -0.11352000386
          1.40358603 0.24286289513 -0.3494130075 1.7200000286 0.27868279815 -0.33277949691
          3.0462920666 0.35370859504 0.42864450812 2.8127799034 0.36863431334 0.39534589648
          2.8575510979 0.064445592463 0.36333754659 2.8881449699 0.23836348951 0.18792100251
          4.7013711929 -0.40805020928 1.0405980349 4.9225811958 -0.41055479646 1.0575927496
          4.8456058502 -0.1037119925 1.1854159832 4.7351660728 -0.16101920605 0.98147392273
          2.6444098949 0.20465949178 -0.2766700089 2.5194039345 0.221833691 0.014336997643
          2.7448999882 0.34383347631 0.0055840001442 2.8420228958 0.24354210496 -0.20201000571
          -4.0447149277 -0.49747499824 0.14612358809 -3.9980287552 -0.32266074419 -0.13652320206
          -4.0265545845 -0.28167268634 0.21848671138 -4.1034150124 -0.18890102208 0.022778199986
          -2.8009653091 0.022092198953 -0.32149419188 -2.9204330444 -0.13243819773 -0.19507199526
          -2.7577950954 0.15421199799 -0.14046099782 -2.7996120453 -0.02800030075 -0.034934002906
          1.9232388735 -0.45981270075 0.32396870852 2.1862559319 -0.44939181209 0.30064499378
          2.1206483841 -0.27323719859 0.41196197271 2.0660989285 -0.22966709733 0.14300569892
          2.1151509285 0.051999751478 0.097855910659 2.2439339161 0.21964900196 0.058875899762
          2.1437630653 0.14836460352 -0.25723919272 2.2007000446 -0.030069796368 -0.17213380337
          -3.4071218967 -0.27582120895 -0.49657699466 -3.5462591648 -0.3417108953 -0.29696801305
          -3.3609697819 -0.25755804777 -0.25123178959 -3.3306560516 -0.50790274143 -0.51511698961
          1.4941439629 -0.30191999674 -0.0081950007007 1.6362780333 -0.19434309006 -0.1196873039
          1.6559460163 -0.46090990305 -0.083716340363 1.8784749508 -0.24840208888 0.010538879782
          4.995156765 0.16772520542 0.52926999331 4.9800801277 0.31590399146 0.82129001617
          4.8283820152 0.36398798227 0.50014001131 5.0496749878 0.39370700717 0.54334002733
          -4.1157817841 0.48770108819 -0.3238914907 -4.0913190842 0.49074068666 -0.52665829659
          -4.0919904709 0.29906708002 -0.39470338821 -3.8077201843 0.48553070426 -0.30209600925
          2.5194039345 0.221833691 0.014336997643 2.6138679981 0.31076711416 0.28303608298
          2.8881449699 0.23836348951 0.18792100251 2.7066569328 0.013594998047 0.026080995798
          1.912476182 -0.21805660427 0.34040221572 1.8784749508 -0.24840208888 0.010538879782
          2.0660989285 -0.22966709733 0.14300569892 1.7837769985 -0.11298939586 0.15795660019
          -1.0507317781 -0.037540301681 -1.0923370123 -1.2013354301 -0.1661592871 -1.0883820057
          -1.0723729134 -0.088602088392 -0.8404250145 -1.0344099998 -0.31266370416 -0.88067400455
          -4.3847136497 -0.10933701694 -0.55893617868 -4.6480989456 -0.13892398775 -0.52972179651
          -4.6036734581 0.038398779929 -0.53355240822 -4.6010689735 -0.032954148948 -0.34019801021
          -4.6960554123 0.49519553781 -0.24164129794 -4.67258358 0.49731987715 -0.45437440276
          -4.7826919556 0.30165764689 -0.29666978121 -4.5090827942 0.30276152492 -0.34050369263
          4.5793409348 0.44828680158 1.4775110483 4.7883992195 0.58720839024 1.4859639406
          4.6475157738 0.38701429963 1.2527079582 4.7499132156 0.39788281918 1.4921859503
          -2.8207395077 0.30260008574 -0.65172201395 -2.7821593285 0.30021998286 -0.44675600529
          -2.9424054623 0.1131972 -0.47736001015 -3.0509493351 0.29688620567 -0.58453899622
          1.1546875238 0.13383899629 0.32170900702 1.3826347589 0.0027236009482 0.39376598597
          1.3329657316 0.04662720114 0.17705599964 1.2453129292 -0.22395838797 0.33866900206
          -2.2193543911 0.4817315042 -0.46778970957 -2.3905160427 0.48403820395 -0.18478998542
          -2.3340997696 0.29154390097 -0.43325453997 -2.4518558979 0.48177570105 -0.4138597846
          -2.6087565422 -0.063813298941 -0.63231498003 -2.8155953884 -0.19327259064 -0.5224930048
          -2.5529778004 -0.19498869777 -0.48805639148 -2.5882301331 -0.30685323477 -0.65421998501
          2.8575510979 0.064445592463 0.36333754659 2.9183690548 -0.10514099896 0.18946899474
          2.6479671001 -0.18968589604 0.18436330557 2.8154499531 -0.22758620977 0.35329309106
          -4.2148256302 0.11070713401 -0.5839381218 -4.1448526382 0.14308868349 -0.26994079351
          -4.0446949005 -0.034010000527 -0.39543700218 -4.4088745117 0.030903441831 -0.32176870108
          -4.1721348763 0.28047949076 -0.053690198809 -4.374229908 0.21605139971 0.18340799212
          -4.0971708298 0.14169080555 0.095920503139 -4.2057743073 0.083515927196 -0.063847601414
          -4.7839722633 -0.32270756364 0.2961961925 -4.8936700821 -0.25269600749 0.5
          -4.6952867508 -0.18051728606 0.4779253006 -4.6849908829 -0.4852682054 0.41684499383
          -4.1448526382 0.14308868349 -0.26994079351 -4.0446949005 -0.034010000527 -0.39543700218
          -4.0808696747 -0.048765938729 -0.15966640413 -3.8473057747 -0.00070657959441 -0.13606338203
          0.76200997829 0.19809819758 -0.53690600395 0.7164170146 -0.01385910064 -0.332908988
          0.87655997276 -0.11350530386 -0.45971497893 0.6582840085 -0.086143799126 -0.53992497921
          0.4496409893 -0.20598120987 -0.64667701721 0.41597700119 -0.49056598544 -0.53072541952
          0.31029599905 -0.48520949483 -0.72552001476 0.23998099566 -0.31517469883 -0.51127868891
          3.5797228813 -0.13064749539 0.085768997669 3.4854989052 0.014852097258 0.049800999463
          3.4389131069 -0.21940618753 0.24159599841 3.3469219208 -0.1246156022 -0.013377999887
          2.6725535393 0.38265278935 0.65312898159 2.9040269852 0.39754191041 0.64887100458
          2.7912619114 0.22470119596 0.5612180233 2.8261909485 0.28350150585 0.9414550066
          -4.1034150124 -0.18890102208 0.022778199986 -4.0447149277 -0.49747499824 0.14612358809
          -3.9980287552 -0.32266074419 -0.13652320206 -4.2297291756 -0.32805991173 0.13521359861
          1.8545037508 0.351865381 0.36945268512 1.543838501 0.32068037987 0.19921569526
          1.662907958 0.3483915925 0.50106751919 1.8019828796 0.22406680882 0.18662501872
          -1.8959770203 0.26786220074 -0.15826401114 -1.7018979788 0.48639988899 -0.31914901733
          -1.684795022 0.12831169367 -0.21073399484 -1.6865179539 0.27380079031 -0.033339001238
          -2.7248899937 -0.058732099831 -0.86423897743 -2.9465870857 -0.28584861755 -0.81910002232
          -2.8155953884 -0.19327259064 -0.5224930048 -2.7225356102 -0.3007414341 -0.86474698782
          1.3329657316 0.04662720114 0.17705599964 1.359737277 0.23038239777 0.39317399263
          1.543838501 0.32068037987 0.19921569526 1.5601570606 0.064071901143 0.17068810761
          -2.5005450249 0.17306339741 0.11759500206 -2.7196071148 0.012619300745 0.16217699647
          -2.4908249378 0.11884979904 -0.11749400944 -2.7577950954 0.15421199799 -0.14046099782
          -0.012552999891 -0.06247812137 -1.0391819477 -0.084298998117 0.0080306082964 -0.84863698483
          -0.31712800264 -0.025899430737 -0.85415101051 -0.18109099567 0.051842641085 -1.0570659637
          4.0511579514 -0.20270109177 0.7991797924 3.9209868908 -0.049528494477 0.94006299973
          3.9133279324 -0.075963594019 0.57894998789 4.0790348053 0.052158098668 0.78453868628
          3.6909389496 0.12423589826 1.2709879875 3.4896070957 0.099841497838 0.92870599031
          3.3044917583 0.12322919816 1.1306680441 3.7040190697 0.031617399305 1.0519629717
          -4.6145296097 0.48269069195 0.36654379964 -4.4874916077 0.48258560896 0.25255030394
          -4.5572566986 0.23751859367 0.2899813056 -4.5035572052 0.34405878186 0.45431670547
          -0.82459098101 -0.20698645711 -0.80915498734 -0.74040699005 -0.49768507481 -0.86798501015
          -0.88709700108 -0.50346982479 -0.72862702608 -0.66083502769 -0.29501193762 -0.69995200634
          4.372276783 -0.18564900756 1.2451930046 4.5186548233 -0.2072378099 0.99021959305
          4.4776749611 -0.40230458975 1.0684930086 4.6312479973 -0.18212139606 1.2574429512
          0.94738799334 0.12911939621 -0.82793599367 0.93168497086 0.052144400775 -0.6099550128
          1.1091860533 0.2945098877 -0.77885699272 1.1139479876 0.04362449795 -0.78375899792
          -1.5809962749 0.26638999581 -0.86372798681 -1.6121549606 0.47708061337 -0.83065801859
          -1.3401434422 0.47775200009 -0.87771999836 -1.3714095354 0.48100718856 -0.68255013227
          3.0206739902 0.45230871439 -0.12432000041 2.7448999882 0.34383347631 0.0055840001442
          3.1256771088 0.35985979438 0.17385299504 2.8881449699 0.23836348951 0.18792100251
          3.550276041 0.36652091146 0.69562649727 3.5936889648 0.39519989491 0.35134500265
          3.4191789627 0.57933980227 0.56054317951 3.4329230785 0.25877740979 0.41826298833
          0.31266918778 0.50222033262 -0.13974998891 0.12283880264 0.27401307225 -0.19243100286
          0.33304131031 0.20393286645 -0.24557299912 0.15476429462 0.49982050061 -0.22475299239
          -1.0361119509 0.21812960505 -0.37398898602 -1.2323629856 0.48578119278 -0.53944307566
          -0.98683398962 0.4838886857 -0.57747471333 -1.1287009716 0.49046784639 -0.31941500306
          -3.1758265495 0.071973100305 -0.7731680274 -3.2429180145 0.19009520113 -0.47103300691
          -3.0660376549 -0.035237099975 -0.601772964 -3.1901597977 0.0029790997505 -0.4238820076
          0.24357970059 -0.27066677809 0.034074999392 0.30940818787 -0.10097020119 0.057927999645
          0.44537511468 -0.27799990773 -0.12429698557 0.48138740659 -0.12545976043 0.10301499814
          0.91907000542 -0.28306537867 -0.28310790658 0.73383498192 -0.30438300967 -0.4254899919
          1.0520069599 -0.24730080366 -0.58848804235 0.87655997276 -0.11350530386 -0.45971497893
          4.2914719582 -0.39629501104 1.270524025 4.372276783 -0.18564900756 1.2451930046
          4.1478528976 -0.20111000538 1.3932329416 4.0831799507 -0.39639300108 1.2308779955
          -4.4548616409 -0.039748691022 0.44836860895 -4.4945139885 -0.24172013998 0.45762220025
          -4.3568739891 -0.16453392804 0.20460030437 -4.5753359795 -0.14313571155 0.30882889032
          0.63634902239 -0.49167880416 -0.31372991204 0.49290901423 -0.27051791549 -0.38118758798
          0.73383498192 -0.30438300967 -0.4254899919 0.67708927393 -0.18054930866 -0.18623100221
          2.4791090488 0.55759829283 0.014952993952 2.5151159763 0.5552688241 0.37893998623
          2.7146170139 0.56399077177 0.092618003488 2.6138679981 0.31076711416 0.28303608298
          0.92705971003 0.28618240356 0.2508969903 1.0401221514 0.23939830065 -0.032525006682
          0.86728978157 0.51141232252 0.092799015343 0.74646031857 0.32201400399 -0.03702198714
          2.0875871181 0.32275497913 0.17387519777 2.3807709217 0.34840109944 0.17629000545
          2.1985135078 0.54629540443 0.35489299893 2.2603468895 0.54986870289 0.12335199863
          -1.7352849245 0.25046640635 -1.035277009 -1.7826962471 0.45563310385 -1.0317989588
          -1.8121285439 0.26642638445 -0.82310700417 -1.9643406868 0.25973030925 -1.0027730465
          -4.8499131203 0.16269566119 0.48204991221 -4.6630234718 0.13930633664 0.15250210464
          -4.745464325 0.3263682127 0.25227379799 -4.7917890549 -0.033734429628 0.26267528534
          -3.7853329182 0.48204940557 0.059275992215 -4.0038924217 0.48269051313 0.10539000481
          -3.7645668983 0.47991481423 0.33562999964 -4.0514550209 0.30707678199 0.23333111405
          -0.51817697287 -0.33874639869 -0.53937000036 -0.76909697056 -0.29619181156 -0.33838999271
          -0.63126498461 -0.15162830055 -0.47663301229 -0.56078988314 -0.3168579042 -0.30044898391
          3.1256771088 0.35985979438 0.17385299504 3.1981549263 0.12413520366 0.16969101131
          3.3498690128 0.38853508234 0.25040599704 3.3937470913 0.42309600115 0.025817999616
          2.9599170685 -0.19250740111 -0.1730210036 2.7572391033 -0.22472290695 -0.032116010785
          2.9632070065 -0.41506269574 -0.063951998949 2.7099030018 -0.25898209214 -0.27057000995
          2.810836792 0.55920171738 0.76666796207 3.0461831093 0.56736302376 0.63019996881
          3.0665662289 0.3753657043 0.82187402248 2.9692933559 0.5583781004 0.99691599607
          -0.42215698957 0.32589438558 -1.0801579952 -0.50009101629 0.076063752174 -0.91057896614
          -0.62441599369 0.23691308498 -1.0922019482 -0.55084097385 0.27224868536 -0.88415497541
          -3.3997917175 0.20229819417 -0.72843700647 -3.5939254761 -0.0081771295518 -0.69047999382
          -3.3833937645 -0.032667398453 -0.48868498206 -3.4343647957 -0.1506202966 -0.72061800957
          3.6017444134 -0.40726909041 1.038525939 3.599364996 -0.13409550488 0.90844702721
          3.7870020866 -0.19021171331 1.074723959 3.465408802 -0.29649040103 1.1825380325
          -2.6538431644 0.18475399911 -0.59675198793 -2.7821593285 0.30021998286 -0.44675600529
          -2.9424054623 0.1131972 -0.47736001015 -2.8207395077 0.30260008574 -0.65172201395
          2.4686999321 0.064002029598 -0.14970698953 2.533821106 0.36376240849 -0.31047001481
          2.2763319016 0.28125241399 -0.14818999171 2.3845460415 0.082077801228 -0.37291699648
          -4.2297291756 -0.32805991173 0.13521359861 -4.0447149277 -0.49747499824 0.14612358809
          -3.9980287552 -0.32266074419 -0.13652320206 -4.2165794373 -0.29792863131 -0.10957739502
          -4.5572566986 0.23751859367 0.2899813056 -4.745464325 0.3263682127 0.25227379799
          -4.7025990486 0.30048549175 0.47185480595 -4.6333608627 0.15650126338 0.46339869499
          2.4682879448 0.38555598259 -0.10436999053 2.3807709217 0.34840109944 0.17629000545
          2.5194039345 0.221833691 0.014336997643 2.2439339161 0.21964900196 0.058875899762
          -0.61225312948 -0.48133009672 -0.10661300272 -0.70222002268 -0.52214252949 -0.27207800746
          -0.55649799109 -0.51590490341 -0.39866101742 -0.56078988314 -0.3168579042 -0.30044898391
          -4.2873783112 -0.33291450143 -0.56937742233 -4.0561761856 -0.22405919433 -0.60680097342
          -4.1405329704 -0.51005542278 -0.4925802052 -4.1002011299 -0.31287899613 -0.40952581167
          -0.18109099567 0.051842641085 -1.0570659637 -0.22330099344 0.23585693538 -1.0619950294
          -0.33919200301 0.20730000734 -0.79884600639 -0.3908880055 0.018037790433 -1.0773969889
          -1.3103187084 -0.16647019982 -0.72021299601 -1.2913279533 -0.31723329425 -0.56081938744
          -1.0780789852 -0.26223245263 -0.61954492331 -1.2655464411 -0.30120876431 -0.88210499287
          1.2129423618 0.51908618212 0.16832698882 1.1094706059 0.31878361106 0.31281399727
          1.1526219845 0.50362443924 0.33146899939 1.2691779137 0.37699308991 0.36733099818
          -2.3400249481 -0.19343669713 -0.23309500515 -2.4908249378 0.11884979904 -0.11749400944
          -2.2999050617 -0.0097464201972 -0.11074100435 -2.5937309265 -0.094380997121 -0.091197997332
          -1.8348480463 -0.01922108978 -0.21806798875 -1.9377369881 0.14763340354 0.0093440003693
          -1.7572649717 0.069237500429 -0.019905999303 -1.9761929512 -0.084401905537 0.01688499935
          -1.8841609955 0.47777590156 -0.81263101101 -2.1449475288 0.47599279881 -0.93732100725
          -1.9643406868 0.25973030925 -1.0027730465 -1.7826962471 0.45563310385 -1.0317989588
          -0.54038512707 0.49495917559 -0.25420597196 -0.45164808631 0.18338213861 -0.40235000849
          -0.30593618751 0.24488276243 -0.24136300385 -0.40303009748 0.49246281385 -0.4396699965
          -1.8121285439 0.26642638445 -0.82310700417 -2.1485760212 0.26226508617 -0.74843597412
          -2.0292806625 0.11994799972 -0.99204802513 -1.9643406868 0.25973030925 -1.0027730465
          -3.2902696133 0.27174562216 0.025448989123 -3.3706200123 0.48187199235 0.10127900541
          -3.4292929173 0.39982169867 0.30081498623 -3.5273160934 0.29413831234 0.15600700676
          1.7981909513 0.54004788399 -0.43759217858 1.7900329828 0.53836679459 -0.22017219663
          1.9153610468 0.36894521117 -0.30883604288 1.7200000286 0.27868279815 -0.33277949691
          -4.0971708298 0.14169080555 0.095920503139 -4.0514550209 0.30707678199 0.23333111405
          -3.8129053116 0.21391560137 0.11131499708 -3.8654940128 0.059473201632 0.37344399095
          0.54733449221 -0.32747480273 0.11482799798 0.48138740659 -0.12545976043 0.10301499814
          0.67708927393 -0.18054930866 -0.18623100221 0.68674623966 -0.13471266627 0.16325600445
          4.995156765 0.16772520542 0.52926999331 5.0587530136 0.088731199503 0.75192797184
          5.0733251572 -0.094601005316 0.53920000792 4.86105299 0.0081822015345 0.50044000149
          -2.2283110619 -0.34106051922 -0.12456599623 -2.3048820496 -0.31219279766 0.078204996884
          -2.3400249481 -0.19343669713 -0.23309500515 -2.3502340317 -0.11054370552 0.087472997606
          -2.3400249481 -0.19343669713 -0.23309500515 -2.3048820496 -0.31219279766 0.078204996884
          -2.2283110619 -0.34106051922 -0.12456599623 -2.4840130806 -0.30007189512 -0.074917010963
          -0.20478600264 -0.4216414988 -1.0713649988 -0.29308599234 -0.22735399008 -1.0733640194
          0.08132699877 -0.24986088276 -1.0299509764 -0.14045800269 -0.19142946601 -0.79101097584
          -4.3444986343 -0.49644988775 0.069615103304 -4.4882779121 -0.32354712486 0.15183719993
          -4.4301371574 -0.28078189492 -0.098592102528 -4.2297291756 -0.32805991173 0.13521359861
          4.5793409348 0.44828680158 1.4775110483 4.7499132156 0.39788281918 1.4921859503
          4.6475157738 0.38701429963 1.2527079582 4.7225232124 0.21502579749 1.4921859503
          4.3321962357 -0.16034509242 0.88920331001 4.5186548233 -0.2072378099 0.99021959305
          4.5794639587 -0.095555409789 0.80211597681 4.4079709053 -0.40386489034 0.85058301687
          5.2039008141 -0.31573709846 1.1745685339 4.9568657875 -0.20041409135 1.3308819532
          5.1458821297 -0.319552809 1.3943560123 4.9736399651 -0.40930470824 1.310732007
          -3.3095912933 0.2773117125 -0.21319679916 -3.2902696133 0.27174562216 0.025448989123
          -3.4978125095 0.48323321342 -0.19416743517 -3.3706200123 0.48187199235 0.10127900541
          -1.1717802286 0.47396370769 -1.0808559656 -1.5252443552 0.33827269077 -1.0592859983
          -1.2560925484 0.27916309237 -0.88956099749 -1.2635279894 0.19011539221 -1.0803289413
          3.7570819855 -0.18195958436 0.41518300772 3.9133279324 -0.075963594019 0.57894998789
          4.0834741592 -0.21439018846 0.53021103144 3.8355340958 -0.40645951033 0.54560798407
          -0.264005512 0.0059295003302 -0.30922400951 -0.28265699744 -0.012162780389 -0.58007609844
          -0.18545199931 0.22996643186 -0.47609320283 -0.45164808631 0.18338213861 -0.40235000849
          4.1377820969 0.39951202273 0.32685101032 3.9646220207 0.41419330239 0.50147998333
          4.2886710167 0.33758100867 0.66382801533 4.1978611946 0.12986010313 0.5741019845
          -1.1717802286 0.47396370769 -1.0808559656 -1.2560925484 0.27916309237 -0.88956099749
          -1.0845546722 0.4788222909 -0.80185699463 -1.1206613779 0.30866101384 -1.0912829638
          -2.1201012135 -0.050273101777 -0.70986998081 -2.1267375946 -0.28440442681 -0.5801320076
          -2.3716421127 -0.18197050691 -0.6025840044 -2.0975265503 -0.075285196304 -0.43518251181
          -2.1485760212 0.26226508617 -0.74843597412 -2.1330692768 0.078793898225 -0.55708521605
          -2.0933618546 0.23922790587 -0.44598591328 -1.9367829561 0.15483479202 -0.66529297829
          1.4319980145 -0.45352560282 -0.70679199696 1.2600870132 -0.46586328745 -0.47155499458
          1.2166980505 -0.46223008633 -0.67697501183 1.3132139444 -0.24616961181 -0.5035700202
          4.2261519432 -0.095267094672 0.65937298536 4.0511579514 -0.20270109177 0.7991797924
          4.0790348053 0.052158098668 0.78453868628 4.3321962357 -0.16034509242 0.88920331001
          5.1319189072 0.18058879673 1.488049984 4.9596247673 0.084158137441 1.2836079597
          5.1013798714 -0.05546059832 1.560379982 5.1611480713 -0.11739530414 1.3518660069
          5.2214250565 0.24645899236 0.57607001066 4.9800801277 0.31590399146 0.82129001617
          5.0496749878 0.39370700717 0.54334002733 5.2841758728 0.46887099743 0.8069050312
          1.7200000286 0.27868279815 -0.33277949691 1.5727180243 0.33926710486 -0.070410497487
          1.8098720312 0.33792459965 -0.017415300012 1.655272007 0.093524098396 -0.11352000386
          -2.9400956631 0.27705860138 -0.27815890312 -3.0590620041 0.043446499854 -0.27457588911
          -3.3095912933 0.2773117125 -0.21319679916 -3.0849509239 0.17763519287 -0.079053997993
          -2.1859169006 0.48576170206 -0.060932002962 -2.0947520733 0.29650449753 -0.21109998226
          -1.8772009611 0.48616209626 -0.20101100206 -2.0245499611 0.48440909386 -0.34754398465
          2.9599170685 -0.19250740111 -0.1730210036 3.0793170929 -0.24457119405 0.11937200278
          2.9632070065 -0.41506269574 -0.063951998949 2.7572391033 -0.22472290695 -0.032116010785
          0.20165160298 -0.28208371997 -0.78509497643 -0.14045800269 -0.19142946601 -0.79101097584
          0.066189996898 -0.13907346129 -0.85989201069 -0.055491000414 -0.26846665144 -0.58021008968
          -4.4813494682 0.022646209225 0.2389934808 -4.6800694466 0.0018985598581 0.46689039469
          -4.7917890549 -0.033734429628 0.26267528534 -4.6333608627 0.15650126338 0.46339869499
          4.4464259148 -0.17551660538 0.63643395901 4.6102437973 -0.26420500875 0.44404000044
          4.6259679794 -0.40398031473 0.7512139678 4.7822642326 -0.20231451094 0.72078299522
          0.41876199841 0.49852332473 -0.76524400711 0.41060099006 0.50051188469 -0.52816462517
          0.60414099693 0.50304430723 -0.62985301018 0.52244597673 0.28034487367 -0.58197897673
          0.67563098669 0.48699307442 -0.89504599571 0.70296800137 0.32958817482 -0.69135397673
          0.8415030241 0.30299159884 -0.85388797522 0.63849902153 0.22250783443 -0.90636301041
          -1.6305606365 -0.29367351532 -0.52340888977 -1.5985989571 -0.27739399672 -0.2576969862
          -1.5197509527 -0.51312232018 -0.42337998748 -1.7037880421 -0.51201498508 -0.40343299508
          -4.0447149277 -0.49747499824 0.14612358809 -4.2297291756 -0.32805991173 0.13521359861
          -4.0673441887 -0.49335995317 0.36177811027 -4.3543543816 -0.49132984877 0.25861698389
          3.4282515049 0.33187240362 0.97428900003 3.4896070957 0.099841497838 0.92870599031
          3.5123636723 0.27264100313 1.2129739523 3.690030098 0.28598979115 0.94812899828
          0.12283880264 0.27401307225 -0.19243100286 0.15476429462 0.49982050061 -0.22475299239
          -0.04318710044 0.49930903316 -0.083802998066 -0.020758699626 0.49720421433 -0.34290099144
          1.85224998 -0.44815999269 -0.31117022038 1.90753901 -0.28872641921 -0.54777610302
          2.1658439636 -0.43505328894 -0.3575527072 1.9479429722 -0.26660808921 -0.33822989464
          2.810836792 0.55920171738 0.76666796207 2.7275784016 0.56002151966 0.53235000372
          2.9040269852 0.39754191041 0.64887100458 3.0461831093 0.56736302376 0.63019996881
          -3.0187089443 -0.037960600108 0.018444009125 -3.1989395618 -0.20423613489 -0.036946997046
          -3.0159440041 -0.32825475931 -0.049925994128 -2.9204330444 -0.13243819773 -0.19507199526
          2.5194039345 0.221833691 0.014336997643 2.6138679981 0.31076711416 0.28303608298
          2.7066569328 0.013594998047 0.026080995798 2.5975399017 0.036539699882 0.30856120586
          -2.2999050617 -0.0097464201972 -0.11074100435 -2.2913610935 0.16144010425 -0.25700899959
          -2.4908249378 0.11884979904 -0.11749400944 -2.3289134502 -0.0023192001972 -0.42081850767
          0.35398098826 -0.14804252982 -0.47525811195 0.24777440727 -0.18341463804 -0.29771098495
          0.49290901423 -0.27051791549 -0.38118758798 0.23998099566 -0.31517469883 -0.51127868891
          4.6309452057 0.20724229515 0.45776200294 4.7792887688 0.17319969833 0.70396101475
          4.8283820152 0.36398798227 0.50014001131 4.86105299 0.0081822015345 0.50044000149
          2.1206483841 -0.27323719859 0.41196197271 2.2495288849 -0.45216780901 0.5471829772
          2.2356448174 -0.32073310018 0.68389499187 2.3304371834 -0.26972290874 0.49684798717
          -2.8009653091 0.022092198953 -0.32149419188 -2.9204330444 -0.13243819773 -0.19507199526
          -2.8155953884 -0.19327259064 -0.5224930048 -2.9648208618 -0.08248540014 -0.41598600149
          -4.6259469986 0.16757617891 -0.22007699311 -4.7780652046 -0.0085761295632 -0.01886684075
          -4.7578840256 0.28817969561 -0.030578099191 -4.5877504349 0.083796218038 -0.033795300871
          1.3844920397 0.52349030972 0.14648000896 1.5727180243 0.33926710486 -0.070410497487
          1.543838501 0.32068037987 0.19921569526 1.6795022488 0.53295719624 0.087283298373
          -3.9542860985 -0.041209600866 0.17256499827 -4.1840386391 -0.02179926075 0.21181380749
          -4.0624485016 0.11422649771 0.40121608973 -4.0000076294 -0.12829710543 0.39358600974
          4.372276783 -0.18564900756 1.2451930046 4.4053249359 -0.07816299051 1.462864995
          4.4186382294 -0.39407101274 1.4219969511 4.1478528976 -0.20111000538 1.3932329416
          4.8615598679 -0.11488699913 1.489552021 4.7135901451 -0.22733098269 1.489552021
          4.9993109703 -0.25089299679 1.5284099579 4.8533592224 -0.39696198702 1.5024620295
          -2.6538431644 0.18475399911 -0.59675198793 -2.6087565422 -0.063813298941 -0.63231498003
          -2.6686131954 0.11487980187 -0.87576198578 -2.819904089 0.037339199334 -0.66302698851
          1.655272007 0.093524098396 -0.11352000386 1.8019828796 0.22406680882 0.18662501872
          1.8098720312 0.33792459965 -0.017415300012 1.8809980154 0.037144001573 -0.0096619697288
          -2.9465870857 -0.28584861755 -0.81910002232 -2.9944975376 -0.5079087019 -0.71235400438
          -3.0045845509 -0.31262481213 -0.59387999773 -2.8126263618 -0.50702655315 -0.63701498508
          3.0184175968 0.12345609814 0.73364597559 2.824450016 -0.10761829466 0.55310499668
          2.8575510979 0.064445592463 0.36333754659 2.7912619114 0.22470119596 0.5612180233
          -0.14045800269 -0.19142946601 -0.79101097584 -0.28265699744 -0.012162780389 -0.58007609844
          -0.49614500999 -0.18467617035 -0.78485298157 -0.31712800264 -0.025899430737 -0.85415101051
          3.0793170929 -0.24457119405 0.11937200278 3.0323710442 -0.2302993089 0.32912188768
          2.9719080925 -0.42173939943 0.30924770236 2.9301850796 -0.41978639364 0.12177300453
          -4.2460803986 0.48600909114 -0.044718399644 -4.1721348763 0.28047949076 -0.053690198809
          -4.2010884285 0.48155650496 0.20740970969 -4.0038924217 0.48269051313 0.10539000481
          -0.29999598861 -0.31015944481 -0.61351531744 -0.32380700111 -0.29127669334 -0.87523800135
          -0.14045800269 -0.19142946601 -0.79101097584 -0.49614500999 -0.18467617035 -0.78485298157
          1.8019828796 0.22406680882 0.18662501872 1.7636737823 0.046389199793 0.32517156005
          1.8545037508 0.351865381 0.36945268512 2.0134241581 0.082406297326 0.37211599946
          -1.5961900949 -0.24007625878 -0.77421802282 -1.4744634628 -0.41700416803 -1.0684100389
          -1.2655464411 -0.30120876431 -0.88210499287 -1.3467004299 -0.27448686957 -1.0782300234
          3.9133279324 -0.075963594019 0.57894998789 4.0860438347 -0.014925898984 0.46736100316
          4.2261519432 -0.095267094672 0.65937298536 4.0790348053 0.052158098668 0.78453868628
          -1.3917900324 -0.51799577475 -0.23380000889 -1.4155100584 -0.21666789055 -0.40096598864
          -1.5985989571 -0.27739399672 -0.2576969862 -1.5197509527 -0.51312232018 -0.42337998748
          0.36064499617 -0.039502311498 -0.75520098209 0.14842510223 0.040421258658 -0.80009198189
          0.13293649256 -0.12217481434 -0.6249139905 0.066189996898 -0.13907346129 -0.85989201069
          -4.5090827942 0.30276152492 -0.34050369263 -4.6010689735 -0.032954148948 -0.34019801021
          -4.6259469986 0.16757617891 -0.22007699311 -4.4088745117 0.030903441831 -0.32176870108
          2.6536407471 0.42629250884 0.87590301037 2.810836792 0.55920171738 0.76666796207
          2.6725535393 0.38265278935 0.65312898159 2.9040269852 0.39754191041 0.64887100458
          1.7837769985 -0.11298939586 0.15795660019 1.5601570606 0.064071901143 0.17068810761
          1.8019828796 0.22406680882 0.18662501872 1.7636737823 0.046389199793 0.32517156005
          -0.83363598585 0.4878360033 -0.50646197796 -0.90989202261 0.24085079134 -0.62744837999
          -1.0361119509 0.21812960505 -0.37398898602 -0.81611001492 0.30783483386 -0.27051800489
          -0.3020440042 0.48588180542 -0.73787802458 -0.55084097385 0.27224868536 -0.88415497541
          -0.33919200301 0.20730000734 -0.79884600639 -0.47368499637 0.48183679581 -0.90071099997
          -0.3020440042 0.48588180542 -0.73787802458 -0.50065600872 0.48602038622 -0.66250771284
          -0.33919200301 0.20730000734 -0.79884600639 -0.55084097385 0.27224868536 -0.88415497541
          -0.2450055927 0.36689928174 -0.052769999951 -0.46809598804 0.17155979574 -0.082805998623
          -0.30593618751 0.24488276243 -0.24136300385 -0.38844299316 0.49596226215 -0.19252300262
          -2.1449475288 0.47599279881 -0.93732100725 -2.5130262375 0.47851529717 -0.88141399622
          -2.3831152916 0.479411304 -0.7015529871 -2.3831439018 0.30391207337 -0.93155002594
          -1.1938619614 0.03204099834 -0.66020560265 -1.4055235386 0.16061809659 -0.77410399914
          -1.4074389935 -0.049107201397 -0.5518643856 -1.3103187084 -0.16647019982 -0.72021299601
          0.41876199841 0.49852332473 -0.76524400711 0.41305398941 0.29973137379 -0.76187801361
          0.60414099693 0.50304430723 -0.62985301018 0.70296800137 0.32958817482 -0.69135397673
          -3.3997917175 0.20229819417 -0.72843700647 -3.4724879265 0.27005422115 -0.50610899925
          -3.5941543579 0.02097989805 -0.47818499804 -3.5939254761 -0.0081771295518 -0.69047999382
          2.5544810295 0.1293092072 0.82531297207 2.3105502129 0.12302970141 0.72935801744
          2.5117163658 0.16574789584 0.5378869772 2.4447433949 0.34735611081 0.78896600008
          -3.8215641975 -0.23188085854 0.091413997114 -3.6591205597 -0.502214849 -0.015271005221
          -3.6205406189 -0.31749200821 0.12511700392 -3.7167961597 -0.29400056601 -0.18038730323
          3.7907569408 0.2246016115 0.18572899699 3.7211930752 0.051226999611 0.43084198236
          3.9250519276 0.16208969057 0.46795699 3.8754689693 -0.016982000321 0.21258999407
          0.0696529001 -0.32972794771 -0.23890098929 -0.20980919898 -0.34469109774 -0.28026798368
          -0.082211501896 -0.51397901773 -0.23908998072 0.082827799022 -0.50211364031 -0.4565897882
          1.7837769985 -0.11298939586 0.15795660019 1.8784749508 -0.24840208888 0.010538879782
          2.0688860416 -0.10810660571 -0.024964602664 1.8809980154 0.037144001573 -0.0096619697288
          -0.76909697056 -0.29619181156 -0.33838999271 -0.99892598391 -0.51049762964 -0.55400800705
          -0.888019979 -0.52109897137 -0.27666097879 -0.80718201399 -0.50908124447 -0.54855680466
          -1.7352849245 0.25046640635 -1.035277009 -1.9643406868 0.25973030925 -1.0027730465
          -1.8121285439 0.26642638445 -0.82310700417 -1.825833559 0.060503903776 -1.0222599506
          3.7946639061 -0.40322849154 0.91091799736 3.8193171024 -0.21124768257 0.82013428211
          3.7057540417 -0.40722391009 0.7109375596 3.8910729885 -0.40569660068 0.7535443902
          1.2453129292 -0.22395838797 0.33866900206 1.4743545055 -0.47509750724 0.23366600275
          1.1952601671 -0.29477098584 0.064541012049 1.2560261488 -0.45418319106 0.33257600665
          0.79302960634 -0.29305431247 -0.039216998965 0.98700541258 -0.19875110686 -0.078704997897
          0.87983602285 -0.093330197036 -0.22511909902 0.91907000542 -0.28306537867 -0.28310790658
          -1.7018979788 0.48639988899 -0.31914901733 -1.9671391249 0.48218691349 -0.52298557758
          -1.7097920179 0.31207630038 -0.45334500074 -1.7930159569 0.48152941465 -0.59363406897
          0.4496409893 -0.20598120987 -0.64667701721 0.36064499617 -0.039502311498 -0.75520098209
          0.20165160298 -0.28208371997 -0.78509497643 0.31595930457 -0.22976750135 -0.98769599199
          0.64910101891 0.50723767281 0.064737014472 0.66463452578 0.50741457939 -0.17443799973
          0.44702979922 0.50523287058 -0.018845997751 0.51253330708 0.2876406908 -0.10298900306
          0.4496409893 -0.20598120987 -0.64667701721 0.23998099566 -0.31517469883 -0.51127868891
          0.49290901423 -0.27051791549 -0.38118758798 0.41597700119 -0.49056598544 -0.53072541952
          4.9991178513 0.039471499622 1.0460796356 5.0286197662 0.27560698986 1.0374772549
          5.2330021858 0.14374749362 1.0523743629 5.1940898895 0.12840040028 1.2278339863
          5.0286197662 0.27560698986 1.0374772549 5.2164421082 0.40284201503 1.1155520678
          5.2330021858 0.14374749362 1.0523743629 5.1940898895 0.12840040028 1.2278339863
          0.93168497086 0.052144400775 -0.6099550128 0.76200997829 0.19809819758 -0.53690600395
          0.94843697548 0.30960980058 -0.61462700367 1.0754319429 0.25025811791 -0.42730200291
          -1.4535621405 -0.08741620183 -0.88498598337 -1.5627611876 0.064892105758 -1.05468297
          -1.323502183 -0.038665849715 -1.075633049 -1.2481642962 0.04549119994 -0.89113599062
          -1.5869110823 -0.50118023157 -0.88304901123 -1.3901776075 -0.50089198351 -0.8744109869
          -1.5961900949 -0.24007625878 -0.77421802282 -1.4744634628 -0.41700416803 -1.0684100389
          0.0696529001 -0.32972794771 -0.23890098929 0.096351802349 -0.10763604939 -0.42178741097
          0.24777440727 -0.18341463804 -0.29771098495 0.098207399249 -0.032019931823 -0.19597899914
          1.7244919538 -0.11605580151 -0.38782680035 1.6978210211 -0.28733319044 -0.61622899771
          1.90753901 -0.28872641921 -0.54777610302 1.8998550177 0.038344699889 -0.53832769394
          -2.5529778004 -0.19498869777 -0.48805639148 -2.3835964203 -0.32359841466 -0.41965642571
          -2.6131467819 -0.26515978575 -0.30168119073 -2.3400249481 -0.19343669713 -0.23309500515
          2.5335454941 -0.19222688675 0.50451397896 2.2661983967 0.044934421778 0.50948798656
          2.5117163658 0.16574789584 0.5378869772 2.3686749935 -0.11354149133 0.74313497543
          1.6559460163 -0.46090990305 -0.083716340363 1.4299919605 -0.4650863111 -0.25022679567
          1.7291409969 -0.28722119331 -0.28180330992 1.6362780333 -0.19434309006 -0.1196873039
          3.6066539288 0.1872664988 0.30272099376 3.6242129803 0.38442382216 0.12190700322
          3.6490149498 0.068853497505 0.12046000361 3.7907569408 0.2246016115 0.18572899699
          -3.2429180145 0.19009520113 -0.47103300691 -3.0509493351 0.29688620567 -0.58453899622
          -3.0837988853 0.48263069987 -0.33776900172 -3.2644114494 0.48313009739 -0.43453800678
          3.4329230785 0.25877740979 0.41826298833 3.3498690128 0.38853508234 0.25040599704
          3.2137260437 0.23683209717 0.35793501139 3.4166619778 0.065547503531 0.28209301829
          -3.6940450668 -0.011909330264 0.12301498652 -3.6565101147 0.11428040266 0.33922699094
          -3.5214090347 -0.040553983301 0.31633499265 -3.7582271099 -0.17851629853 0.35762301087
          4.4079709053 -0.40386489034 0.85058301687 4.5186548233 -0.2072378099 0.99021959305
          4.6259679794 -0.40398031473 0.7512139678 4.4776749611 -0.40230458975 1.0684930086
          -2.9424054623 0.1131972 -0.47736001015 -2.9400956631 0.27705860138 -0.27815890312
          -3.0590620041 0.043446499854 -0.27457588911 -3.2429180145 0.19009520113 -0.47103300691
          0.69000768661 -0.50142276287 0.050528015941 0.68045121431 -0.49612438679 -0.13406600058
          0.79302960634 -0.29305431247 -0.039216998965 0.54733449221 -0.32747480273 0.11482799798
          -3.3095912933 0.2773117125 -0.21319679916 -3.302652359 0.038016501814 0.04223600775
          -3.5458295345 0.1751678884 -0.0069859996438 -3.2902696133 0.27174562216 0.025448989123
          -0.80718201399 -0.50908124447 -0.54855680466 -0.66083502769 -0.29501193762 -0.69995200634
          -0.83050501347 -0.26468807459 -0.57061237097 -0.67207598686 -0.50358366966 -0.68930828571
          2.5194039345 0.221833691 0.014336997643 2.5975399017 0.036539699882 0.30856120586
          2.7066569328 0.013594998047 0.026080995798 2.3748869896 0.069039702415 0.16169330478
          1.914431572 0.53861421347 0.26570081711 2.0875871181 0.32275497913 0.17387519777
          2.2603468895 0.54986870289 0.12335199863 2.0672409534 0.54569250345 -0.02698210068
          1.8837449551 0.53903061152 0.06517650187 2.0875871181 0.32275497913 0.17387519777
          1.914431572 0.53861421347 0.26570081711 2.0672409534 0.54569250345 -0.02698210068
          1.359737277 0.23038239777 0.39317399263 1.6081655025 0.1408970952 0.47529900074
          1.543838501 0.32068037987 0.19921569526 1.5601570606 0.064071901143 0.17068810761
          -0.18545199931 0.22996643186 -0.47609320283 -0.17106099427 0.49157705903 -0.57271128893
          -0.020758699626 0.49720421433 -0.34290099144 -0.22821579874 0.49608099461 -0.32180100679
          -3.8077201843 0.48553070426 -0.30209600925 -3.7007267475 0.4836808145 -0.12965320051
          -3.71869874 0.25738021731 -0.13884219527 -3.9854476452 0.48504701257 -0.10422489792
          1.1139479876 0.04362449795 -0.78375899792 1.1848659515 -0.12604640424 -0.76831799746
          0.93168497086 0.052144400775 -0.6099550128 1.1442159414 -0.0049022994936 -0.49735999107
          -3.5941543579 0.02097989805 -0.47818499804 -3.8068175316 -0.027711499482 -0.64996302128
          -3.6580049992 0.19486609101 -0.67846798897 -3.7273154259 0.27898979187 -0.49260097742
          1.8268829584 -0.45585429668 -0.0072320010513 1.85224998 -0.44815999269 -0.31117022038
          2.0085380077 -0.44803181291 -0.051146503538 1.8784749508 -0.24840208888 0.010538879782
          -2.3477945328 -0.017081549391 -0.75131797791 -2.3716421127 -0.18197050691 -0.6025840044
          -2.6087565422 -0.063813298941 -0.63231498003 -2.3289134502 -0.0023192001972 -0.42081850767
          1.3844920397 0.52349030972 0.14648000896 1.2129423618 0.51908618212 0.16832698882
          1.1526219845 0.50362443924 0.33146899939 1.2691779137 0.37699308991 0.36733099818
          4.4464259148 -0.17551660538 0.63643395901 4.4424939156 0.089347399771 0.64447599649
          4.6400561333 0.033197704703 0.65296798944 4.5794639587 -0.095555409789 0.80211597681
          -5 -0.49631300569 0.38468599319 -4.7839722633 -0.32270756364 0.2961961925
          -5 -0.26007699966 0.21836000681 -4.8250303268 -0.49250531197 0.14701525867
          -0.95145201683 0.22650431097 -1.0941970348 -0.83175802231 0.47526419163 -1.0315499306
          -0.81324702501 0.26146668196 -0.86965799332 -0.90296202898 0.47852620482 -0.86588096619
          3.7907569408 0.2246016115 0.18572899699 3.9250519276 0.16208969057 0.46795699
          3.9765019417 0.28852498531 0.26302400231 3.8754689693 -0.016982000321 0.21258999407
          4.8725390434 0.29623439908 1.2086399794 4.7499132156 0.39788281918 1.4921859503
          4.9485001564 0.60167902708 1.3511019945 4.9263429642 0.33198681474 1.4921859503
          -4.2165794373 -0.29792863131 -0.10957739502 -4.2843179703 -0.50610029697 -0.3169965148
          -4.4304690361 -0.50256663561 -0.13597680628 -4.2421140671 -0.50075817108 -0.098954796791
          -1.5197509527 -0.51312232018 -0.42337998748 -1.5985989571 -0.27739399672 -0.2576969862
          -1.5839049816 -0.51631599665 -0.24902200699 -1.7037880421 -0.51201498508 -0.40343299508
          -0.66083502769 -0.29501193762 -0.69995200634 -0.64104998112 -0.30240130424 -0.9189350009
          -0.67207598686 -0.50358366966 -0.68930828571 -0.47170200944 -0.50193786621 -0.68685621023
          1.8082741499 -0.041739497334 0.53896141052 2.0134241581 0.082406297326 0.37211599946
          2.0783751011 -0.022333201021 0.63662797213 1.9014420509 0.24749788642 0.58212649822
          3.9209868908 -0.049528494477 0.94006299973 3.8472468853 0.14682120085 0.8287910223
          3.9133279324 -0.075963594019 0.57894998789 4.0790348053 0.052158098668 0.78453868628
          -2.4518558979 0.48177570105 -0.4138597846 -2.5502791405 0.25031089783 -0.30732250214
          -2.3340997696 0.29154390097 -0.43325453997 -2.4924480915 0.1497296989 -0.4765163064
          -2.4249818325 -0.50633567572 -0.6508589983 -2.4871096611 -0.50503849983 -0.87453103065
          -2.4961392879 -0.28663662076 -0.90913802385 -2.5882301331 -0.30685323477 -0.65421998501
          -0.27925050259 -0.14596910775 -0.065104998648 -0.081785798073 -0.18698275089 -0.35594800115
          -0.264005512 0.0059295003302 -0.30922400951 -0.20980919898 -0.34469109774 -0.28026798368
          1.3544540405 0.20737339556 0.028903007507 1.1398986578 -0.010146999732 0.071502000093
          1.3329657316 0.04662720114 0.17705599964 1.3978904486 -0.12460799515 0.020671008155
          -3.1080467701 -0.29268443584 -0.24082820117 -3.1989395618 -0.20423613489 -0.036946997046
          -3.251019001 -0.50599706173 -0.25622180104 -3.3609697819 -0.25755804777 -0.25123178959
          2.977586031 0.57245218754 0.10077200085 2.8252680302 0.56484931707 0.31118530035
          3.1758000851 0.57594889402 0.29714500904 3.1256771088 0.35985979438 0.17385299504
          1.5894249678 -0.45208120346 -0.55978298187 1.2600870132 -0.46586328745 -0.47155499458
          1.4319980145 -0.45352560282 -0.70679199696 1.3132139444 -0.24616961181 -0.5035700202
          1.8784749508 -0.24840208888 0.010538879782 1.6362780333 -0.19434309006 -0.1196873039
          1.7291409969 -0.28722119331 -0.28180330992 1.9164220095 -0.13674210012 -0.17615103722
          -4.2148256302 0.11070713401 -0.5839381218 -4.2976675034 0.29178825021 -0.37512549758
          -4.4088745117 0.030903441831 -0.32176870108 -4.3753385544 0.16644324362 -0.56169492006
          -1.8079010248 -0.20703689754 -0.34597599506 -2.0592620373 -0.25566390157 -0.23402400315
          -1.8710329533 -0.32551139593 -0.18849799037 -1.9710366726 -0.33433938026 -0.42893758416
          -1.5961900949 -0.24007625878 -0.77421802282 -1.8874305487 -0.20946229994 -0.68173897266
          -1.6305606365 -0.29367351532 -0.52340888977 -1.7870930433 -0.33796232939 -0.8220590353
          1.23584795 0.52147328854 -0.44651499391 1.2022919655 0.33101278543 -0.21015967429
          1.40358603 0.24286289513 -0.3494130075 1.0754319429 0.25025811791 -0.42730200291
          -4.3946790695 0.48465889692 0.11185610294 -4.6132879257 0.48546689749 0.14135861397
          -4.5292730331 0.2915058732 0.031001500785 -4.4985280037 0.48879349232 -0.082372002304
          -2.1201012135 -0.050273101777 -0.70986998081 -2.2434971333 -0.063827201724 -0.95553797483
          -2.0257306099 -0.031649298966 -0.9920539856 -2.188603878 0.16068729758 -0.96540898085
          2.3105502129 0.12302970141 0.72935801744 2.0865969658 0.17642100155 0.64691102505
          2.2661983967 0.044934421778 0.50948798656 2.1993765831 0.33982020617 0.69473302364
          2.9301850796 -0.41978639364 0.12177300453 3.1400530338 -0.41660821438 0.24456399679
          3.0793170929 -0.24457119405 0.11937200278 2.9632070065 -0.41506269574 -0.063951998949
          -4.1843628883 -0.059714950621 -0.58763289452 -4.0438446999 0.094188794494 -0.60962402821
          -4.0561761856 -0.22405919433 -0.60680097342 -4.0446949005 -0.034010000527 -0.39543700218
          4.5119929314 -0.044536296278 1.1272319555 4.5794639587 -0.095555409789 0.80211597681
          4.5335330963 0.11206749827 0.92334389687 4.5186548233 -0.2072378099 0.99021959305
          4.2772049904 0.36336359382 0.94083797932 4.2130708694 0.59228688478 0.90869247913
          4.3505711555 0.60127097368 0.76294797659 4.4149041176 0.59745812416 0.95439249277
          3.8999164104 -0.26179867983 1.3262170553 3.947902441 -0.095926292241 1.3428709507
          4.0172262192 -0.24458359182 1.074458003 4.1478528976 -0.20111000538 1.3932329416
          0.15807649493 -0.51398259401 -0.10896699131 0.24357970059 -0.27066677809 0.034074999392
          0.0696529001 -0.32972794771 -0.23890098929 0.32351368666 -0.50792455673 -0.14887700975
          -4.2165794373 -0.29792863131 -0.10957739502 -4.0808696747 -0.048765938729 -0.15966640413
          -4.1034150124 -0.18890102208 0.022778199986 -4.394712925 -0.0063827331178 -0.052065320313
          2.0239698887 0.24268069863 -0.49068275094 2.1437630653 0.14836460352 -0.25723919272
          2.1178569794 0.093814596534 -0.4642611146 1.8510379791 0.076726302505 -0.29504978657
          2.1437630653 0.14836460352 -0.25723919272 1.8809980154 0.037144001573 -0.0096619697288
          1.9164220095 -0.13674210012 -0.17615103722 1.8510379791 0.076726302505 -0.29504978657
          -3.4454441071 0.45380440354 -0.71922898293 -3.2531692982 0.48335590959 -0.6420429945
          -3.4724879265 0.27005422115 -0.50610899925 -3.2644114494 0.48313009739 -0.43453800678
          2.2454249859 -0.24175401032 -0.0085900025442 2.2007000446 -0.030069796368 -0.17213380337
          2.3959000111 -0.2165030092 -0.38119700551 2.4399039745 -0.10959740728 -0.0052800015546
          -2.1005930901 -0.28334778547 0.038400001824 -1.9761929512 -0.084401905537 0.01688499935
          -2.1631000042 -0.090172797441 0.050840999931 -2.0592620373 -0.25566390157 -0.23402400315
          -1.8710329533 -0.32551139593 -0.18849799037 -2.0592620373 -0.25566390157 -0.23402400315
          -1.8079010248 -0.20703689754 -0.34597599506 -1.8348480463 -0.01922108978 -0.21806798875
          -3.1060006618 0.44208559394 -0.78849500418 -3.0509493351 0.29688620567 -0.58453899622
          -3.2075111866 0.26916709542 -0.76702600718 -3.2531692982 0.48335590959 -0.6420429945
          -3.1060006618 0.44208559394 -0.78849500418 -2.8732545376 0.220630005 -0.8351380229
          -3.2075111866 0.26916709542 -0.76702600718 -3.0509493351 0.29688620567 -0.58453899622
          -5 0.15884299576 0.21330599487 -4.745464325 0.3263682127 0.25227379799
          -5 0.32793700695 0.27663400769 -5 0.28975299001 0.088944099844
          -0.66691201925 0.49013388157 -0.48518800735 -0.6164612174 0.29320520163 -0.31236797571
          -0.5779209733 0.28877097368 -0.57027238607 -0.75858801603 0.17240820825 -0.42690300941
          4.3505711555 0.60127097368 0.76294797659 4.4149041176 0.59745812416 0.95439249277
          4.548661232 0.31044599414 0.7846570015 4.2772049904 0.36336359382 0.94083797932
          -4.6145296097 0.48269069195 0.36654379964 -4.7880673409 0.48487520218 0.48341411352
          -4.7025990486 0.30048549175 0.47185480595 -4.745464325 0.3263682127 0.25227379799
          -3.4112770557 0.15064421296 -0.34156700969 -3.4724879265 0.27005422115 -0.50610899925
          -3.6243565083 0.17590141296 -0.3374350071 -3.5941543579 0.02097989805 -0.47818499804
          -3.6205406189 -0.31749200821 0.12511700392 -3.6591205597 -0.502214849 -0.015271005221
          -3.5503668785 -0.17767935991 -0.019175993279 -3.7167961597 -0.29400056601 -0.18038730323
          3.1400530338 -0.41660821438 0.24456399679 3.0793170929 -0.24457119405 0.11937200278
          3.2239820957 -0.14030811191 0.26961100101 3.0323710442 -0.2302993089 0.32912188768
          -1.8121285439 0.26642638445 -0.82310700417 -1.6599514484 0.24216479063 -0.65762501955
          -1.5809962749 0.26638999581 -0.86372798681 -1.6661914587 0.0097754001617 -0.81471097469
          4.2772049904 0.36336359382 0.94083797932 4.2713618279 0.37677168846 1.2242929935
          4.065433979 0.57982081175 1.038596034 4.2535729408 0.58250921965 1.0972069502
          -2.4908249378 0.11884979904 -0.11749400944 -2.5757539272 0.34280958772 0.13254100084
          -2.4349720478 0.31375589967 -0.069557994604 -2.5005450249 0.17306339741 0.11759500206
          3.7448599339 0.30333548784 0.49451100826 3.5936889648 0.39519989491 0.35134500265
          3.7907569408 0.2246016115 0.18572899699 3.9061729908 0.52652400732 0.245728001
          2.4686999321 0.064002029598 -0.14970698953 2.3845460415 0.082077801228 -0.37291699648
          2.6714880466 0.016336200759 -0.27357900143 2.6444098949 0.20465949178 -0.2766700089
          -3.8215641975 -0.23188085854 0.091413997114 -4.0265545845 -0.28167268634 0.21848671138
          -3.9542860985 -0.041209600866 0.17256499827 -3.7582271099 -0.17851629853 0.35762301087
          3.0206739902 0.45230871439 -0.12432000041 2.977586031 0.57245218754 0.10077200085
          3.1963329315 0.58174359798 -0.046583991498 3.1256771088 0.35985979438 0.17385299504
          -0.17106099427 0.49157705903 -0.57271128893 -0.40303009748 0.49246281385 -0.4396699965
          -0.18545199931 0.22996643186 -0.47609320283 -0.35219299793 0.31618493795 -0.60427820683
          3.550276041 0.36652091146 0.69562649727 3.5548529625 0.58682149649 0.44130200148
          3.4191789627 0.57933980227 0.56054317951 3.5936889648 0.39519989491 0.35134500265
          1.8809980154 0.037144001573 -0.0096619697288 1.8019828796 0.22406680882 0.18662501872
          1.7837769985 -0.11298939586 0.15795660019 1.5601570606 0.064071901143 0.17068810761
          4.9800801277 0.31590399146 0.82129001617 5.2609939575 0.27832901478 0.92522102594
          5.2214250565 0.24645899236 0.57607001066 5.0587530136 0.088731199503 0.75192797184
          1.914431572 0.53861421347 0.26570081711 2.0509207249 0.54013729095 0.59274601936
          2.1985135078 0.54629540443 0.35489299893 2.0810952187 0.34367528558 0.4289650023
          -0.49614500999 -0.18467617035 -0.78485298157 -0.62419199944 0.12591390312 -0.73094600439
          -0.65971499681 -0.068506918848 -0.89710998535 -0.50009101629 0.076063752174 -0.91057896614
          3.7946639061 -0.40322849154 0.91091799736 3.6017444134 -0.40726909041 1.038525939
          3.7870020866 -0.19021171331 1.074723959 3.8676540852 -0.40032818913 1.1280800104
          -3.0660376549 -0.035237099975 -0.601772964 -2.9648208618 -0.08248540014 -0.41598600149
          -3.1450257301 -0.19032800198 -0.44944301248 -3.1901597977 0.0029790997505 -0.4238820076
          3.690030098 0.28598979115 0.94812899828 3.9359619617 0.090236805379 1.1565029621
          3.8472468853 0.14682120085 0.8287910223 3.7040190697 0.031617399305 1.0519629717
          0.93168497086 0.052144400775 -0.6099550128 0.73838502169 -0.23838828504 -0.67500901222
          1.0520069599 -0.24730080366 -0.58848804235 0.97156202793 -0.18440270424 -0.83044797182
          1.8809980154 0.037144001573 -0.0096619697288 1.8019828796 0.22406680882 0.18662501872
          2.0875871181 0.32275497913 0.17387519777 2.1151509285 0.051999751478 0.097855910659
          3.3469219208 -0.1246156022 -0.013377999887 3.4389131069 -0.21940618753 0.24159599841
          3.3262090683 -0.35399842262 -0.029642999172 3.2239820957 -0.14030811191 0.26961100101
          3.4389131069 -0.21940618753 0.24159599841 3.4166619778 0.065547503531 0.28209301829
          3.2239820957 -0.14030811191 0.26961100101 3.3469219208 -0.1246156022 -0.013377999887
          -1.2275027037 0.26585769653 -0.64385217428 -1.293176055 0.1205618009 -0.45924699306
          -1.0361119509 0.21812960505 -0.37398898602 -1.1938619614 0.03204099834 -0.66020560265
          4.7970080376 0.40450099111 0.99685043097 4.7051949501 0.60293000937 1.1564450264
          4.9242591858 0.60738301277 1.1569290161 4.8725390434 0.29623439908 1.2086399794
          -3.6591205597 -0.502214849 -0.015271005221 -3.5503668785 -0.17767935991 -0.019175993279
          -3.5096030235 -0.50470131636 -0.15045179427 -3.6205406189 -0.31749200821 0.12511700392
          -4.2165794373 -0.29792863131 -0.10957739502 -4.0447149277 -0.49747499824 0.14612358809
          -3.9980287552 -0.32266074419 -0.13652320206 -4.2421140671 -0.50075817108 -0.098954796791
          3.8712925911 0.060066998005 1.3235830069 3.6909389496 0.12423589826 1.2709879875
          3.7523159981 -0.085600093007 1.2815630436 3.7040190697 0.031617399305 1.0519629717
          1.9164220095 -0.13674210012 -0.17615103722 2.1296679974 -0.11873139441 -0.46822568774
          2.2007000446 -0.030069796368 -0.17213380337 1.8510379791 0.076726302505 -0.29504978657
          1.3129299879 -0.29227387905 -0.73667401075 1.2166980505 -0.46223008633 -0.67697501183
          0.97156202793 -0.18440270424 -0.83044797182 1.0520069599 -0.24730080366 -0.58848804235
          5.2841758728 0.46887099743 0.8069050312 5.2397999763 0.61484199762 0.9742590189
          4.9471430779 0.61130398512 0.85095900297 5.0679278374 0.61340600252 0.65205299854
          4.9242591858 0.60738301277 1.1569290161 4.9485001564 0.60167902708 1.3511019945
          5.0302901268 0.43874397874 1.1967389584 4.8725390434 0.29623439908 1.2086399794
          4.065433979 0.57982081175 1.038596034 4.0778617859 0.38755699992 0.83571088314
          3.8637049198 0.57652932405 1.0168390274 4.0205068588 0.28315189481 1.0268609524
          4.4793419838 0.2869952023 1.1247149706 4.2345128059 0.15581940114 1.1804380417
          4.285888195 0.099320337176 0.90528231859 4.2772049904 0.36336359382 0.94083797932
          5.0496749878 0.39370700717 0.54334002733 4.7657809258 0.38576200604 0.78052300215
          4.8564839363 0.61346799135 0.55668997765 5.0679278374 0.61340600252 0.65205299854
          -3.5145463943 -0.50127327442 0.11511399597 -3.7788000107 -0.49894934893 0.14450898767
          -3.6205406189 -0.31749200821 0.12511700392 -3.5967168808 -0.45885637403 0.3317900002
          3.6017444134 -0.40726909041 1.038525939 3.465408802 -0.29649040103 1.1825380325
          3.7870020866 -0.19021171331 1.074723959 3.6797263622 -0.37727758288 1.2562580109
          3.7870020866 -0.19021171331 1.074723959 3.465408802 -0.29649040103 1.1825380325
          3.7523159981 -0.085600093007 1.2815630436 3.6797263622 -0.37727758288 1.2562580109
          -1.3793640137 0.48962751031 -0.2810100019 -1.2492990494 0.49424445629 -0.10197599977
          -1.3188999891 0.28086179495 -0.079112000763 -1.5615320206 0.44849410653 -0.052519001067
          4.8456058502 -0.1037119925 1.1854159832 4.9568657875 -0.20041409135 1.3308819532
          4.9596247673 0.084158137441 1.2836079597 5.1611480713 -0.11739530414 1.3518660069
          -4.3847136497 -0.10933701694 -0.55893617868 -4.2235832214 -0.18397390842 -0.2816118896
          -4.4642100334 -0.19895298779 -0.3199582994 -4.4088745117 0.030903441831 -0.32176870108
          -2.1005930901 -0.28334778547 0.038400001824 -2.1452450752 -0.48567259312 0.046202000231
          -1.9509960413 -0.51507622004 -0.028830006719 -2.2283110619 -0.34106051922 -0.12456599623
          0.7164170146 -0.01385910064 -0.332908988 0.67708927393 -0.18054930866 -0.18623100221
          0.474378407 -0.11557681859 -0.24810600281 0.53519868851 0.048687562346 -0.13842900097
          -4.1448526382 0.14308868349 -0.26994079351 -4.3738183975 0.24991054833 -0.14364899695
          -4.2057743073 0.083515927196 -0.063847601414 -4.4088745117 0.030903441831 -0.32176870108
          -0.27925050259 -0.14596910775 -0.065104998648 -0.062883600593 -0.026130199432 -0.024199999869
          -0.088332302868 0.076261751354 -0.21729001403 -0.081785798073 -0.18698275089 -0.35594800115
          3.8135120869 0.40065589547 0.74336141348 3.690030098 0.28598979115 0.94812899828
          3.8637049198 0.57652932405 1.0168390274 3.8319048882 0.3724052906 1.1257870197
          -2.9465870857 -0.28584861755 -0.81910002232 -2.9944975376 -0.5079087019 -0.71235400438
          -2.8126263618 -0.50702655315 -0.63701498508 -2.715783596 -0.50627452135 -0.80598902702
          3.7570819855 -0.18195958436 0.41518300772 3.8754689693 -0.016982000321 0.21258999407
          4.0860438347 -0.014925898984 0.46736100316 3.9133279324 -0.075963594019 0.57894998789
          2.1151509285 0.051999751478 0.097855910659 1.8809980154 0.037144001573 -0.0096619697288
          2.0688860416 -0.10810660571 -0.024964602664 2.2007000446 -0.030069796368 -0.17213380337
          -0.51164197922 0.025980791077 -0.55774062872 -0.75858801603 0.17240820825 -0.42690300941
          -0.70339399576 -0.074503429234 -0.67528831959 -0.62419199944 0.12591390312 -0.73094600439
          -0.012552999891 -0.06247812137 -1.0391819477 -0.084298998117 0.0080306082964 -0.84863698483
          0.14842510223 0.040421258658 -0.80009198189 0.066189996898 -0.13907346129 -0.85989201069
          -0.096773996949 -0.50181341171 -0.56035459042 -0.055491000414 -0.26846665144 -0.58021008968
          0.082827799022 -0.50211364031 -0.4565897882 -0.081785798073 -0.18698275089 -0.35594800115
          0.071282997727 -0.17594109476 -0.0039079999551 -0.062883600593 -0.026130199432 -0.024199999869
          0.098207399249 -0.032019931823 -0.19597899914 0.1771903038 0.016279280186 0.027272000909
          0.87655997276 -0.11350530386 -0.45971497893 0.73383498192 -0.30438300967 -0.4254899919
          1.0520069599 -0.24730080366 -0.58848804235 0.73838502169 -0.23838828504 -0.67500901222
          -1.5252443552 0.33827269077 -1.0592859983 -1.6121549606 0.47708061337 -0.83065801859
          -1.3401434422 0.47775200009 -0.87771999836 -1.5809962749 0.26638999581 -0.86372798681
          2.4682879448 0.38555598259 -0.10436999053 2.6444098949 0.20465949178 -0.2766700089
          2.7448999882 0.34383347631 0.0055840001442 2.7383420467 0.41610860825 -0.23452399671
          -3.6205406189 -0.31749200821 0.12511700392 -3.5503668785 -0.17767935991 -0.019175993279
          -3.5096030235 -0.50470131636 -0.15045179427 -3.3824651241 -0.30312857032 0.073741987348
          -2.9779620171 0.1083374992 0.21390299499 -3.0849509239 0.17763519287 -0.079053997993
          -3.0553820133 0.29404971004 0.22911499441 -3.1700980663 0.079973198473 0.25145700574
          1.5975199938 -0.11391670257 -0.6415219903 1.5145740509 0.068407997489 -0.66118901968
          1.3804830313 -0.0036427995656 -0.4926970005 1.3815850019 -0.12085030228 -0.70849198103
          -3.7656788826 0.48673638701 -0.49626898766 -3.5693891048 0.4848459959 -0.46422702074
          -3.7273154259 0.27898979187 -0.49260097742 -3.6321229935 0.48460400105 -0.30110099912
          -4.1561627388 -0.30235728621 0.4173707962 -4.4945139885 -0.24172013998 0.45762220025
          -4.4515519142 -0.45291829109 0.45512139797 -4.3543543816 -0.49132984877 0.25861698389
          -4.3847136497 -0.10933701694 -0.55893617868 -4.6010689735 -0.032954148948 -0.34019801021
          -4.6036734581 0.038398779929 -0.53355240822 -4.4088745117 0.030903441831 -0.32176870108
          3.4166619778 0.065547503531 0.28209301829 3.4725759029 0.18676179647 0.05072100088
          3.6490149498 0.068853497505 0.12046000361 3.6066539288 0.1872664988 0.30272099376
          4.7351660728 -0.16101920605 0.98147392273 4.9225811958 -0.41055479646 1.0575927496
          4.8456058502 -0.1037119925 1.1854159832 5.0362038612 -0.1984565109 1.0518586636
          -0.055491000414 -0.26846665144 -0.58021008968 -0.045155998319 0.014279329218 -0.54846435785
          0.096351802349 -0.10763604939 -0.42178741097 -0.081785798073 -0.18698275089 -0.35594800115
          -0.2450055927 0.36689928174 -0.052769999951 -0.46809598804 0.17155979574 -0.082805998623
          -0.2487116009 0.11720266938 -0.055061001331 -0.30593618751 0.24488276243 -0.24136300385
          1.2022919655 0.33101278543 -0.21015967429 1.0401221514 0.23939830065 -0.032525006682
          1.0754319429 0.25025811791 -0.42730200291 0.84688097239 0.325525105 -0.34160640836
          -2.4871096611 -0.50503849983 -0.87453103065 -2.7225356102 -0.3007414341 -0.86474698782
          -2.4961392879 -0.28663662076 -0.90913802385 -2.5882301331 -0.30685323477 -0.65421998501
          -2.8796532154 -0.32189744711 -0.3305183053 -2.8009653091 0.022092198953 -0.32149419188
          -2.9204330444 -0.13243819773 -0.19507199526 -2.8155953884 -0.19327259064 -0.5224930048
          1.4162900448 0.058589901775 -0.19647470117 1.40358603 0.24286289513 -0.3494130075
          1.2660080194 0.1764563024 -0.51763701439 1.3804830313 -0.0036427995656 -0.4926970005
          -4.0808696747 -0.048765938729 -0.15966640413 -4.394712925 -0.0063827331178 -0.052065320313
          -4.2057743073 0.083515927196 -0.063847601414 -4.1034150124 -0.18890102208 0.022778199986
          0.31029599905 -0.48520949483 -0.72552001476 0.082827799022 -0.50211364031 -0.4565897882
          0.23998099566 -0.31517469883 -0.51127868891 0.41597700119 -0.49056598544 -0.53072541952
          1.85224998 -0.44815999269 -0.31117022038 1.9479429722 -0.26660808921 -0.33822989464
          2.1658439636 -0.43505328894 -0.3575527072 2.1323330402 -0.24952030182 -0.2159884125
          -0.8307570219 -0.058059498668 -0.35817700624 -0.85646498203 0.17925000191 -0.10178700089
          -0.75858801603 0.17240820825 -0.42690300941 -0.6087269187 0.024860799313 -0.30977600813
          4.9800801277 0.31590399146 0.82129001617 4.9471430779 0.61130398512 0.85095900297
          4.7657809258 0.38576200604 0.78052300215 5.0679278374 0.61340600252 0.65205299854
          -0.90989202261 0.24085079134 -0.62744837999 -1.0361119509 0.21812960505 -0.37398898602
          -0.75858801603 0.17240820825 -0.42690300941 -1.0315690041 0.001321600168 -0.39257600904
          -2.2999050617 -0.0097464201972 -0.11074100435 -2.3289134502 -0.0023192001972 -0.42081850767
          -2.4908249378 0.11884979904 -0.11749400944 -2.5705890656 -0.0096552502364 -0.37767747045
          -4.6630234718 0.13930633664 0.15250210464 -4.745464325 0.3263682127 0.25227379799
          -5 0.15884299576 0.21330599487 -5 0.28975299001 0.088944099844
          -4.2165794373 -0.29792863131 -0.10957739502 -4.0492649078 -0.50518339872 -0.26489710808
          -4.1002011299 -0.31287899613 -0.40952581167 -4.2843179703 -0.50610029697 -0.3169965148
          4.6223192215 0.42864599824 0.46175301075 4.5893030167 0.61060297489 0.61573702097
          4.8564839363 0.61346799135 0.55668997765 4.8283820152 0.36398798227 0.50014001131
          1.85224998 -0.44815999269 -0.31117022038 1.5894249678 -0.45208120346 -0.55978298187
          1.90753901 -0.28872641921 -0.54777610302 1.6978210211 -0.28733319044 -0.61622899771
          3.7211930752 0.051226999611 0.43084198236 3.9133279324 -0.075963594019 0.57894998789
          3.9250519276 0.16208969057 0.46795699 3.8754689693 -0.016982000321 0.21258999407
          -4.6145296097 0.48269069195 0.36654379964 -4.7880673409 0.48487520218 0.48341411352
          -4.745464325 0.3263682127 0.25227379799 -4.8927183151 0.49172759056 0.30637028813
          4.7013711929 -0.40805020928 1.0405980349 4.6833701134 -0.40567740798 1.2680499554
          4.4911990166 -0.39900299907 1.2523469925 4.6312479973 -0.18212139606 1.2574429512
          -4.8607320786 0.078173696995 -0.5131021142 -4.792386055 0.26623538136 -0.51841771603
          -4.7891550064 0.016387579963 -0.29043120146 -4.7826919556 0.30165764689 -0.29666978121
          -1.5760400295 -0.030635099858 -0.29671400785 -1.8348480463 -0.01922108978 -0.21806798875
          -1.8079010248 -0.20703689754 -0.34597599506 -1.8747121096 0.0029144007713 -0.49748280644
          0.073527999222 0.1395072788 -1.023146987 -0.091403998435 0.28790903091 -0.89287102222
          -0.04301200062 0.17476075888 -0.718306005 -0.084298998117 0.0080306082964 -0.84863698483
          -1.6865179539 0.27380079031 -0.033339001238 -1.7018979788 0.48639988899 -0.31914901733
          -1.545979023 0.22976130247 -0.33403101563 -1.5615320206 0.44849410653 -0.052519001067
          -2.2304649353 -0.22556725144 -0.77245599031 -2.3067228794 -0.32880795002 -0.94539600611
          -2.4961392879 -0.28663662076 -0.90913802385 -2.4249818325 -0.50633567572 -0.6508589983
          1.7900329828 0.53836679459 -0.22017219663 1.5727180243 0.33926710486 -0.070410497487
          1.8098720312 0.33792459965 -0.017415300012 1.7200000286 0.27868279815 -0.33277949691
          -0.080558300018 0.23630402982 -0.025882000104 0.12283880264 0.27401307225 -0.19243100286
          -0.04318710044 0.49930903316 -0.083802998066 -0.092815898359 0.28653284907 -0.26267999411
          -3.8215641975 -0.23188085854 0.091413997114 -4.0265545845 -0.28167268634 0.21848671138
          -3.7582271099 -0.17851629853 0.35762301087 -3.8431739807 -0.42423200607 0.37291398644
          -2.6924591064 0.48232129216 -0.35847869515 -2.638958931 0.48359829187 -0.078652016819
          -2.3905160427 0.48403820395 -0.18478998542 -2.5502791405 0.25031089783 -0.30732250214
          3.3624682426 -0.19947208464 0.94604200125 3.3097200394 -0.10290320963 0.73021501303
          3.0500233173 -0.10988160223 0.76281303167 3.167424202 -0.4212833941 0.82355499268
          0.31595930457 -0.22976750135 -0.98769599199 0.48899298906 -0.47851881385 -0.81525802612
          0.20165160298 -0.28208371997 -0.78509497643 0.54373598099 -0.25898191333 -0.94053697586
          4.4112458229 -0.36157390475 0.39370900393 4.4468998909 -0.11275999993 0.40511700511
          4.4464259148 -0.17551660538 0.63643395901 4.2858800888 -0.1588639915 0.36022999883
          3.3867809772 -0.23781871796 0.5709104538 3.3097200394 -0.10290320963 0.73021501303
          3.599364996 -0.13409550488 0.90844702721 3.3624682426 -0.19947208464 0.94604200125
          4.5828242302 0.39658501744 0.96988636255 4.5438528061 0.60426002741 0.8030000329
          4.4149041176 0.59745812416 0.95439249277 4.548661232 0.31044599414 0.7846570015
          4.5828242302 0.39658501744 0.96988636255 4.6236991882 0.60261398554 0.97155320644
          4.4149041176 0.59745812416 0.95439249277 4.5438528061 0.60426002741 0.8030000329
          -3.8043015003 -0.00087310036179 -0.39245098829 -3.8068175316 -0.027711499482 -0.64996302128
          -3.7273154259 0.27898979187 -0.49260097742 -3.8699226379 0.21788460016 -0.63997101784
          3.4964818954 -0.10279240459 0.43279200792 3.3609991074 0.066775999963 0.55516642332
          3.3097200394 -0.10290320963 0.73021501303 3.3867809772 -0.23781871796 0.5709104538
          3.5444030762 -0.40834650397 0.28405502439 3.3867809772 -0.23781871796 0.5709104538
          3.6210319996 -0.40883889794 0.49147000909 3.3344159126 -0.41385099292 0.43574500084
          3.3867809772 -0.23781871796 0.5709104538 3.6680510044 -0.16187010705 0.64812618494
          3.6210319996 -0.40883889794 0.49147000909 3.49279809 -0.41079649329 0.65922492743
          -0.51164197922 0.025980791077 -0.55774062872 -0.28265699744 -0.012162780389 -0.58007609844
          -0.44009780884 -0.045463498682 -0.38387098908 -0.45164808631 0.18338213861 -0.40235000849
          4.9485001564 0.60167902708 1.3511019945 5.0761318207 0.58431607485 1.5149459839
          5.1848549843 0.61228102446 1.2231149673 5.1688809395 0.37849900126 1.3310799599
          3.8193171024 -0.21124768257 0.82013428211 3.599364996 -0.13409550488 0.90844702721
          3.5705780983 -0.40920200944 0.84491300583 3.6680510044 -0.16187010705 0.64812618494
          1.23584795 0.52147328854 -0.44651499391 1.3614029884 0.52470320463 -0.1519087255
          1.40358603 0.24286289513 -0.3494130075 1.2022919655 0.33101278543 -0.21015967429
          2.3748869896 0.069039702415 0.16169330478 2.2926232815 0.21838380396 0.36620301008
          2.1151509285 0.051999751478 0.097855910659 2.2439339161 0.21964900196 0.058875899762
          2.7448999882 0.34383347631 0.0055840001442 2.5194039345 0.221833691 0.014336997643
          2.7066569328 0.013594998047 0.026080995798 2.8420228958 0.24354210496 -0.20201000571
          2.7448999882 0.34383347631 0.0055840001442 2.6138679981 0.31076711416 0.28303608298
          2.8881449699 0.23836348951 0.18792100251 2.5194039345 0.221833691 0.014336997643
          -2.9204330444 -0.13243819773 -0.19507199526 -2.8014369011 -0.27421984076 -0.022419007495
          -2.7996120453 -0.02800030075 -0.034934002906 -2.5937309265 -0.094380997121 -0.091197997332
          -4.6259469986 0.16757617891 -0.22007699311 -4.7578840256 0.28817969561 -0.030578099191
          -4.5292730331 0.2915058732 0.031001500785 -4.5877504349 0.083796218038 -0.033795300871
          -4.6259469986 0.16757617891 -0.22007699311 -4.3738183975 0.24991054833 -0.14364899695
          -4.5877504349 0.083796218038 -0.033795300871 -4.5292730331 0.2915058732 0.031001500785
          -3.8215641975 -0.23188085854 0.091413997114 -3.6205406189 -0.31749200821 0.12511700392
          -3.5503668785 -0.17767935991 -0.019175993279 -3.7167961597 -0.29400056601 -0.18038730323
          -2.5874330997 -0.50843310356 -0.077546991408 -2.4840130806 -0.30007189512 -0.074917010963
          -2.8014369011 -0.27421984076 -0.022419007495 -2.6131467819 -0.26515978575 -0.30168119073
          -3.0187089443 -0.037960600108 0.018444009125 -2.7996120453 -0.02800030075 -0.034934002906
          -2.7196071148 0.012619300745 0.16217699647 -2.9779620171 0.1083374992 0.21390299499
          3.8712925911 0.060066998005 1.3235830069 3.7523159981 -0.085600093007 1.2815630436
          3.947902441 -0.095926292241 1.3428709507 3.9359619617 0.090236805379 1.1565029621
          -2.9400956631 0.27705860138 -0.27815890312 -3.0509493351 0.29688620567 -0.58453899622
          -3.0837988853 0.48263069987 -0.33776900172 -3.2429180145 0.19009520113 -0.47103300691
          1.3132139444 -0.24616961181 -0.5035700202 1.1370209455 -0.2310988009 -0.34101459384
          1.1442159414 -0.0049022994936 -0.49735999107 1.3804830313 -0.0036427995656 -0.4926970005
          5.0587530136 0.088731199503 0.75192797184 5.2740988731 0.079818502069 0.87786698341
          4.9587922096 -0.11951480061 0.84872800112 4.9991178513 0.039471499622 1.0460796356
          1.5734430552 0.53300869465 -0.47562000155 1.23584795 0.52147328854 -0.44651499391
          1.40358603 0.24286289513 -0.3494130075 1.3801549673 0.52707129717 -0.58447301388
          -4.6692109108 -0.16517569125 -0.19817639887 -4.4642100334 -0.19895298779 -0.3199582994
          -4.5914802551 -0.50413167477 -0.23168960214 -4.4301371574 -0.28078189492 -0.098592102528
          1.655272007 0.093524098396 -0.11352000386 1.8019828796 0.22406680882 0.18662501872
          1.8809980154 0.037144001573 -0.0096619697288 1.5601570606 0.064071901143 0.17068810761
          3.3609991074 0.066775999963 0.55516642332 3.6307458878 0.097795702517 0.69470512867
          3.550276041 0.36652091146 0.69562649727 3.4329230785 0.25877740979 0.41826298833
          -0.62441599369 0.23691308498 -1.0922019482 -0.83175802231 0.47526419163 -1.0315499306
          -0.81324702501 0.26146668196 -0.86965799332 -0.95145201683 0.22650431097 -1.0941970348
          -2.6538431644 0.18475399911 -0.59675198793 -2.6087565422 -0.063813298941 -0.63231498003
          -2.8009653091 0.022092198953 -0.32149419188 -2.5705890656 -0.0096552502364 -0.37767747045
          -0.18109099567 0.051842641085 -1.0570659637 -0.091403998435 0.28790903091 -0.89287102222
          -0.084298998117 0.0080306082964 -0.84863698483 -0.33919200301 0.20730000734 -0.79884600639
          3.0500233173 -0.10988160223 0.76281303167 3.1101438999 0.080181010067 0.45569860935
          3.0184175968 0.12345609814 0.73364597559 2.824450016 -0.10761829466 0.55310499668
          -2.5705890656 -0.0096552502364 -0.37767747045 -2.7577950954 0.15421199799 -0.14046099782
          -2.5502791405 0.25031089783 -0.30732250214 -2.4908249378 0.11884979904 -0.11749400944
          -1.6661914587 0.0097754001617 -0.81471097469 -1.596382618 -0.17736847699 -1.051363945
          -1.5961900949 -0.24007625878 -0.77421802282 -1.4535621405 -0.08741620183 -0.88498598337
          0.15515929461 0.27147474885 -0.81783097982 -0.04301200062 0.17476075888 -0.718306005
          0.014425000176 0.49165633321 -0.66029900312 0.10719139874 0.28679504991 -0.54870027304
          3.3003060818 0.23398950696 0.76375299692 3.3609991074 0.066775999963 0.55516642332
          3.550276041 0.36652091146 0.69562649727 3.4329230785 0.25877740979 0.41826298833
          4.9568657875 -0.20041409135 1.3308819532 4.8456058502 -0.1037119925 1.1854159832
          4.6833701134 -0.40567740798 1.2680499554 4.9736399651 -0.40930470824 1.310732007
          -3.4454441071 0.45380440354 -0.71922898293 -3.2075111866 0.26916709542 -0.76702600718
          -3.3997917175 0.20229819417 -0.72843700647 -3.2531692982 0.48335590959 -0.6420429945
          -2.1485760212 0.26226508617 -0.74843597412 -2.3831152916 0.479411304 -0.7015529871
          -2.3224203587 0.14642329514 -0.60301297903 -2.4720232487 0.27283710241 -0.72016400099
          1.5734430552 0.53300869465 -0.47562000155 1.3801549673 0.52707129717 -0.58447301388
          1.40358603 0.24286289513 -0.3494130075 1.5337500572 0.41599822044 -0.64482402802
          4.736287117 -0.4010592103 0.59583199024 4.7822642326 -0.20231451094 0.72078299522
          4.9794502258 -0.39840599895 0.61955702305 4.7853469849 -0.40575119853 0.83861100674
          -0.62074798346 -0.15536004305 -1.0920000076 -0.78103899956 0.039071749896 -1.0954949856
          -0.58885598183 0.011368970387 -1.0877560377 -0.65971499681 -0.068506918848 -0.89710998535
          4.2914719582 -0.39629501104 1.270524025 4.372276783 -0.18564900756 1.2451930046
          4.4776749611 -0.40230458975 1.0684930086 4.4911990166 -0.39900299907 1.2523469925
          -3.7007267475 0.4836808145 -0.12965320051 -3.9854476452 0.48504701257 -0.10422489792
          -3.7853329182 0.48204940557 0.059275992215 -3.71869874 0.25738021731 -0.13884219527
          1.8019828796 0.22406680882 0.18662501872 2.0134241581 0.082406297326 0.37211599946
          2.0875871181 0.32275497913 0.17387519777 2.1151509285 0.051999751478 0.097855910659
          3.8193171024 -0.21124768257 0.82013428211 3.5705780983 -0.40920200944 0.84491300583
          3.7057540417 -0.40722391009 0.7109375596 3.6680510044 -0.16187010705 0.64812618494
          3.4149284363 -0.092121005058 1.167222023 3.3624682426 -0.19947208464 0.94604200125
          3.4896070957 0.099841497838 0.92870599031 3.245980978 0.052640799433 0.88878798485
          4.6576151848 0.017758300528 1.462864995 4.9596247673 0.084158137441 1.2836079597
          4.8615598679 -0.11488699913 1.489552021 4.9073309898 0.060586899519 1.514449954
          -1.1938619614 0.03204099834 -0.66020560265 -1.0315690041 0.001321600168 -0.39257600904
          -1.0361119509 0.21812960505 -0.37398898602 -0.96610802412 -0.023699499667 -0.59952700138
          -0.264005512 0.0059295003302 -0.30922400951 -0.2487116009 0.11720266938 -0.055061001331
          -0.46809598804 0.17155979574 -0.082805998623 -0.30593618751 0.24488276243 -0.24136300385
          4.2261519432 -0.095267094672 0.65937298536 4.4424939156 0.089347399771 0.64447599649
          4.3321962357 -0.16034509242 0.88920331001 4.285888195 0.099320337176 0.90528231859
          2.0875871181 0.32275497913 0.17387519777 2.0810952187 0.34367528558 0.4289650023
          2.1985135078 0.54629540443 0.35489299893 2.2926232815 0.21838380396 0.36620301008
          -4.2976675034 0.29178825021 -0.37512549758 -4.5090827942 0.30276152492 -0.34050369263
          -4.4126858711 0.49212142825 -0.31948131323 -4.3738183975 0.24991054833 -0.14364899695
          1.6749150753 -0.47052338719 0.39508730173 1.4743545055 -0.47509750724 0.23366600275
          1.7383420467 -0.46321061254 0.15311719477 1.5581665039 -0.242820099 0.18669840693
          -0.83050501347 -0.26468807459 -0.57061237097 -0.96610802412 -0.023699499667 -0.59952700138
          -1.0780789852 -0.26223245263 -0.61954492331 -0.82459098101 -0.20698645711 -0.80915498734
          4.0632171631 0.57045120001 1.2416960001 3.807289362 0.56469881535 1.2195600271
          4.0298194885 0.42154958844 1.3837649822 3.8319048882 0.3724052906 1.1257870197
          -0.33919200301 0.20730000734 -0.79884600639 -0.35219299793 0.31618493795 -0.60427820683
          -0.5779209733 0.28877097368 -0.57027238607 -0.55084097385 0.27224868536 -0.88415497541
          2.9183690548 -0.10514099896 0.18946899474 2.6479671001 -0.18968589604 0.18436330557
          2.7572391033 -0.22472290695 -0.032116010785 2.7066569328 0.013594998047 0.026080995798
          1.3826347589 0.0027236009482 0.39376598597 1.5601570606 0.064071901143 0.17068810761
          1.359737277 0.23038239777 0.39317399263 1.3329657316 0.04662720114 0.17705599964
          -1.8772009611 0.48616209626 -0.20101100206 -1.9025046825 0.29032579064 -0.52002221346
          -1.8419760466 0.17466241121 -0.33885499835 -1.7097920179 0.31207630038 -0.45334500074
          2.0134241581 0.082406297326 0.37211599946 2.2661983967 0.044934421778 0.50948798656
          2.2926232815 0.21838380396 0.36620301008 2.2780179977 -0.12498279661 0.35640898347
          -0.85043102503 0.031999699771 -0.80896800756 -0.94496697187 0.078266300261 -1.0942200422
          -0.87940299511 -0.1013680622 -1.096660018 -0.78103899956 0.039071749896 -1.0954949856
          3.5705780983 -0.40920200944 0.84491300583 3.599364996 -0.13409550488 0.90844702721
          3.7946639061 -0.40322849154 0.91091799736 3.6017444134 -0.40726909041 1.038525939
          2.1206483841 -0.27323719859 0.41196197271 1.8317303658 -0.34591260552 0.53505861759
          1.9232388735 -0.45981270075 0.32396870852 1.912476182 -0.21805660427 0.34040221572
          -1.2152099609 -0.081209897995 -0.31830999255 -1.2953740358 0.05793229863 -0.080146998167
          -1.4041509628 -0.13285940886 -0.071116998792 -1.3984810114 0.086329601705 -0.26900598407
          -0.4785284996 -0.28558018804 -0.089541003108 -0.27925050259 -0.14596910775 -0.065104998648
          -0.37324941158 -0.23546770215 -0.36768600345 -0.20980919898 -0.34469109774 -0.28026798368
          2.4725689888 0.38891109824 0.53518199921 2.3064310551 0.54786038399 0.58645904064
          2.5151159763 0.5552688241 0.37893998623 2.5429031849 0.55357050896 0.69124501944
          -1.3793640137 0.48962751031 -0.2810100019 -1.5615320206 0.44849410653 -0.052519001067
          -1.3188999891 0.28086179495 -0.079112000763 -1.545979023 0.22976130247 -0.33403101563
          -1.3793640137 0.48962751031 -0.2810100019 -1.5615320206 0.44849410653 -0.052519001067
          -1.545979023 0.22976130247 -0.33403101563 -1.7018979788 0.48639988899 -0.31914901733
          -0.95145201683 0.22650431097 -1.0941970348 -0.90296202898 0.47852620482 -0.86588096619
          -0.81324702501 0.26146668196 -0.86965799332 -1.1206613779 0.30866101384 -1.0912829638
          -1.8519480228 0.40634250641 -0.0071279997937 -2.0546720028 0.3103351891 0.029857000336
          -1.9377369881 0.14763340354 0.0093440003693 -1.8959770203 0.26786220074 -0.15826401114
          -1.293176055 0.1205618009 -0.45924699306 -1.545979023 0.22976130247 -0.33403101563
          -1.3984810114 0.086329601705 -0.26900598407 -1.4074389935 -0.049107201397 -0.5518643856
          -3.9158587456 -0.22345404327 -0.33129701018 -3.8035757542 -0.50670826435 -0.31858798862
          -4.0492649078 -0.50518339872 -0.26489710808 -3.9980287552 -0.32266074419 -0.13652320206
          2.7572391033 -0.22472290695 -0.032116010785 2.9301850796 -0.41978639364 0.12177300453
          2.9632070065 -0.41506269574 -0.063951998949 2.635833025 -0.42590990663 -0.026309985667
          -3.6243565083 0.17590141296 -0.3374350071 -3.8043015003 -0.00087310036179 -0.39245098829
          -3.5523664951 0.0045121996664 -0.18042999506 -3.5941543579 0.02097989805 -0.47818499804
          4.4331560135 0.52280199528 0.42006701231 4.309071064 0.60760998726 0.56352597475
          4.4798941612 0.42885500193 0.6264359951 4.2886710167 0.33758100867 0.66382801533
          1.85224998 -0.44815999269 -0.31117022038 1.5894249678 -0.45208120346 -0.55978298187
          1.6978210211 -0.28733319044 -0.61622899771 1.6287219524 -0.45572260022 -0.34583300352
          0.20165160298 -0.28208371997 -0.78509497643 0.08132699877 -0.24986088276 -1.0299509764
          0.066189996898 -0.13907346129 -0.85989201069 0.084794998169 -0.48656210303 -0.82398599386
          4.285888195 0.099320337176 0.90528231859 4.0205068588 0.28315189481 1.0268609524
          4.0790348053 0.052158098668 0.78453868628 4.0778617859 0.38755699992 0.83571088314
          -2.8732545376 0.220630005 -0.8351380229 -2.819904089 0.037339199334 -0.66302698851
          -2.9699292183 -0.052413102239 -0.81482702494 -3.0065186024 0.11188069731 -0.80747801065
          -3.0509493351 0.29688620567 -0.58453899622 -3.0065186024 0.11188069731 -0.80747801065
          -3.1758265495 0.071973100305 -0.7731680274 -3.0660376549 -0.035237099975 -0.601772964
          2.3748869896 0.069039702415 0.16169330478 2.2780179977 -0.12498279661 0.35640898347
          2.2926232815 0.21838380396 0.36620301008 2.2661983967 0.044934421778 0.50948798656
          4.4729690552 0.34756699204 0.42458799481 4.4798941612 0.42885500193 0.6264359951
          4.6223192215 0.42864599824 0.46175301075 4.6309452057 0.20724229515 0.45776200294
          -4.3847136497 -0.10933701694 -0.55893617868 -4.1843628883 -0.059714950621 -0.58763289452
          -4.2873783112 -0.33291450143 -0.56937742233 -4.2235832214 -0.18397390842 -0.2816118896
          3.3003060818 0.23398950696 0.76375299692 3.6307458878 0.097795702517 0.69470512867
          3.550276041 0.36652091146 0.69562649727 3.3609991074 0.066775999963 0.55516642332
          -3.9980287552 -0.32266074419 -0.13652320206 -3.9158587456 -0.22345404327 -0.33129701018
          -4.1002011299 -0.31287899613 -0.40952581167 -4.0492649078 -0.50518339872 -0.26489710808
          3.3624682426 -0.19947208464 0.94604200125 3.167424202 -0.4212833941 0.82355499268
          3.2812619209 -0.41720849276 0.63608801365 3.3097200394 -0.10290320963 0.73021501303
          3.7101740837 0.59498238564 0.34702202678 3.6242129803 0.38442382216 0.12190700322
          3.5936889648 0.39519989491 0.35134500265 3.9061729908 0.52652400732 0.245728001
          3.2735610008 0.57003730536 0.75401997566 3.2744851112 0.38130360842 0.56395947933
          3.3003060818 0.23398950696 0.76375299692 3.550276041 0.36652091146 0.69562649727
          1.6795022488 0.53295719624 0.087283298373 1.6495490074 0.52970409393 0.32440179586
          1.8545037508 0.351865381 0.36945268512 1.8019828796 0.22406680882 0.18662501872
          -1.8121285439 0.26642638445 -0.82310700417 -1.901250124 -0.024264600128 -0.80353200436
          -1.6661914587 0.0097754001617 -0.81471097469 -1.825833559 0.060503903776 -1.0222599506
          3.1101438999 0.080181010067 0.45569860935 2.9183690548 -0.10514099896 0.18946899474
          3.2239820957 -0.14030811191 0.26961100101 3.1981549263 0.12413520366 0.16969101131
          2.4307379723 -0.44270971417 0.40620398521 2.1862559319 -0.44939181209 0.30064499378
          2.4038360119 -0.2405732125 0.18867635727 2.3304371834 -0.26972290874 0.49684798717
          -2.2999050617 -0.0097464201972 -0.11074100435 -2.5937309265 -0.094380997121 -0.091197997332
          -2.4840130806 -0.30007189512 -0.074917010963 -2.3400249481 -0.19343669713 -0.23309500515
          -3.687541008 0.43435680866 -0.67268902063 -3.5693891048 0.4848459959 -0.46422702074
          -3.4724879265 0.27005422115 -0.50610899925 -3.7273154259 0.27898979187 -0.49260097742
          0.66463452578 0.50741457939 -0.17443799973 0.58373397589 0.27239969373 -0.33771339059
          0.70016598701 0.50710338354 -0.40990638733 0.36727958918 0.50212621689 -0.31630799174
          -3.4112770557 0.15064421296 -0.34156700969 -3.5523664951 0.0045121996664 -0.18042999506
          -3.3023517132 0.0064315996133 -0.24028472602 -3.3833937645 -0.032667398453 -0.48868498206
          -4.0808696747 -0.048765938729 -0.15966640413 -4.2057743073 0.083515927196 -0.063847601414
          -4.0971708298 0.14169080555 0.095920503139 -4.1034150124 -0.18890102208 0.022778199986
          -2.3835964203 -0.32359841466 -0.41965642571 -2.2481837273 -0.50829571486 -0.4661166966
          -2.3604021072 -0.51019489765 -0.16444499791 -2.1776151657 -0.33875748515 -0.37888690829
          4.7789177895 0.14037750661 0.96490341425 4.5335330963 0.11206749827 0.92334389687
          4.6513729095 0.13981750607 1.2424490452 4.5119929314 -0.044536296278 1.1272319555
          -2.8796532154 -0.32189744711 -0.3305183053 -3.0154821873 -0.50680673122 -0.26073569059
          -2.8594679832 -0.50669443607 -0.096579000354 -2.7347252369 -0.50761651993 -0.30021220446
          2.9183690548 -0.10514099896 0.18946899474 2.9301850796 -0.41978639364 0.12177300453
          3.0793170929 -0.24457119405 0.11937200278 2.7572391033 -0.22472290695 -0.032116010785
          2.6536407471 0.42629250884 0.87590301037 2.9040269852 0.39754191041 0.64887100458
          2.6725535393 0.38265278935 0.65312898159 2.8261909485 0.28350150585 0.9414550066
          -1.4535621405 -0.08741620183 -0.88498598337 -1.5627611876 0.064892105758 -1.05468297
          -1.2481642962 0.04549119994 -0.89113599062 -1.4055235386 0.16061809659 -0.77410399914
          -0.5779209733 0.28877097368 -0.57027238607 -0.90989202261 0.24085079134 -0.62744837999
          -0.62419199944 0.12591390312 -0.73094600439 -0.81324702501 0.26146668196 -0.86965799332
          -0.29999598861 -0.31015944481 -0.61351531744 -0.32380700111 -0.29127669334 -0.87523800135
          -0.49614500999 -0.18467617035 -0.78485298157 -0.47170200944 -0.50193786621 -0.68685621023
          4.527215004 0.58946532011 1.2835580111 4.7883992195 0.58720839024 1.4859639406
          4.6475157738 0.38701429963 1.2527079582 4.5793409348 0.44828680158 1.4775110483
          -0.59120500088 0.45415121317 -1.0933190584 -0.47368499637 0.48183679581 -0.90071099997
          -0.55084097385 0.27224868536 -0.88415497541 -0.68241202831 0.47980180383 -0.89547097683
          1.1842939854 -0.12854279578 -0.092633001506 1.4434380531 -0.14066420496 -0.32838499546
          1.1370209455 -0.2310988009 -0.34101459384 1.3097800016 -0.27519398928 -0.1584803015
          -1.8959770203 0.26786220074 -0.15826401114 -1.9377369881 0.14763340354 0.0093440003693
          -1.8348480463 -0.01922108978 -0.21806798875 -2.0529088974 0.052241001278 -0.20910900831
          0.15515929461 0.27147474885 -0.81783097982 -0.17038999498 0.33329957724 -0.6997410059
          -0.091403998435 0.28790903091 -0.89287102222 0.014425000176 0.49165633321 -0.66029900312
          4.7225232124 0.21502579749 1.4921859503 4.6475157738 0.38701429963 1.2527079582
          4.8725390434 0.29623439908 1.2086399794 4.7499132156 0.39788281918 1.4921859503
          -2.3048820496 -0.31219279766 0.078204996884 -2.5996620655 -0.2836445868 0.13820500672
          -2.3538520336 -0.5108473897 0.052726007998 -2.4840130806 -0.30007189512 -0.074917010963
          -2.4840130806 -0.30007189512 -0.074917010963 -2.6173989773 -0.49825462699 0.14134299755
          -2.3538520336 -0.5108473897 0.052726007998 -2.5874330997 -0.50843310356 -0.077546991408
          0.39167898893 0.41524764895 -0.96190798283 0.15515929461 0.27147474885 -0.81783097982
          0.073762997985 0.35499945283 -1.0218420029 0.18558773398 0.49153119326 -0.87829899788
          -4.374229908 0.21605139971 0.18340799212 -4.4874916077 0.48258560896 0.25255030394
          -4.5572566986 0.23751859367 0.2899813056 -4.5292730331 0.2915058732 0.031001500785
          -1.825833559 0.060503903776 -1.0222599506 -1.901250124 -0.024264600128 -0.80353200436
          -1.6661914587 0.0097754001617 -0.81471097469 -1.8654859066 -0.17263565958 -1.0173939466
          3.8319048882 0.3724052906 1.1257870197 3.5158138275 0.52084130049 1.2258909941
          3.5123636723 0.27264100313 1.2129739523 3.6068017483 0.56949651241 1.0521490574
          -0.85043102503 0.031999699771 -0.80896800756 -0.90989202261 0.24085079134 -0.62744837999
          -0.62419199944 0.12591390312 -0.73094600439 -0.70339399576 -0.074503429234 -0.67528831959
          -3.3095912933 0.2773117125 -0.21319679916 -3.5198493004 0.28535220027 -0.20457419753
          -3.4978125095 0.48323321342 -0.19416743517 -3.2902696133 0.27174562216 0.025448989123
          -1.3793640137 0.48962751031 -0.2810100019 -1.545979023 0.22976130247 -0.33403101563
          -1.5147645473 0.48376119137 -0.53487837315 -1.7018979788 0.48639988899 -0.31914901733
          -2.8155953884 -0.19327259064 -0.5224930048 -2.6087565422 -0.063813298941 -0.63231498003
          -2.7248899937 -0.058732099831 -0.86423897743 -2.7225356102 -0.3007414341 -0.86474698782
          -3.8971295357 0.23590660095 -0.36395600438 -3.7656788826 0.48673638701 -0.49626898766
          -3.7273154259 0.27898979187 -0.49260097742 -3.8077201843 0.48553070426 -0.30209600925
          4.6312479973 -0.18212139606 1.2574429512 4.7135901451 -0.22733098269 1.489552021
          4.6833701134 -0.40567740798 1.2680499554 4.531235218 -0.23131799698 1.462864995
          0.0033680000342 -0.49371635914 -0.68691200018 -0.14045800269 -0.19142946601 -0.79101097584
          0.20165160298 -0.28208371997 -0.78509497643 -0.055491000414 -0.26846665144 -0.58021008968
          -3.4343647957 -0.1506202966 -0.72061800957 -3.5914151669 -0.15871548653 -0.36829999089
          -3.4071218967 -0.27582120895 -0.49657699466 -3.5520818233 -0.30605709553 -0.697009027
          0.20165160298 -0.28208371997 -0.78509497643 0.084794998169 -0.48656210303 -0.82398599386
          0.31029599905 -0.48520949483 -0.72552001476 0.37125998735 -0.47539919615 -0.97635698318
          0.0033680000342 -0.49371635914 -0.68691200018 -0.14834499359 -0.49472266436 -0.76049399376
          -0.14045800269 -0.19142946601 -0.79101097584 -0.055491000414 -0.26846665144 -0.58021008968
          0.084794998169 -0.48656210303 -0.82398599386 -0.14045800269 -0.19142946601 -0.79101097584
          0.20165160298 -0.28208371997 -0.78509497643 0.0033680000342 -0.49371635914 -0.68691200018
          0.14842510223 0.040421258658 -0.80009198189 -0.084298998117 0.0080306082964 -0.84863698483
          0.13293649256 -0.12217481434 -0.6249139905 0.066189996898 -0.13907346129 -0.85989201069
          0.98131197691 0.51418298483 -0.26199400425 0.70016598701 0.50710338354 -0.40990638733
          0.84688097239 0.325525105 -0.34160640836 0.89502197504 0.51158940792 -0.54344600439
          2.4038360119 -0.2405732125 0.18867635727 2.3748869896 0.069039702415 0.16169330478
          2.4399039745 -0.10959740728 -0.0052800015546 2.6479671001 -0.18968589604 0.18436330557
          -0.85043102503 0.031999699771 -0.80896800756 -0.70339399576 -0.074503429234 -0.67528831959
          -0.62419199944 0.12591390312 -0.73094600439 -0.65971499681 -0.068506918848 -0.89710998535
          0.32351368666 -0.50792455673 -0.14887700975 0.44537511468 -0.27799990773 -0.12429698557
          0.24777440727 -0.18341463804 -0.29771098495 0.34409999847 -0.50164806843 -0.32478198409
          0.32351368666 -0.50792455673 -0.14887700975 0.24357970059 -0.27066677809 0.034074999392
          0.24777440727 -0.18341463804 -0.29771098495 0.44537511468 -0.27799990773 -0.12429698557
          0.84875500202 -0.035446301103 -0.85831201077 0.93168497086 0.052144400775 -0.6099550128
          0.6582840085 -0.086143799126 -0.53992497921 0.56008797884 0.052585806698 -0.68334698677
          -1.293176055 0.1205618009 -0.45924699306 -1.2542339563 0.29450172186 -0.30690699816
          -1.3984810114 0.086329601705 -0.26900598407 -1.545979023 0.22976130247 -0.33403101563
          4.9242591858 0.60738301277 1.1569290161 5.1848549843 0.61228102446 1.2231149673
          5.0476732254 0.61224198341 1.0092389584 5.0302901268 0.43874397874 1.1967389584
          1.1952601671 -0.29477098584 0.064541012049 0.98844081163 -0.48904711008 0.035179998726
          0.98700541258 -0.19875110686 -0.078704997897 0.95090967417 -0.35872739553 0.2368170023
          0.56008797884 0.052585806698 -0.68334698677 0.35398098826 -0.14804252982 -0.47525811195
          0.49993100762 0.0054506729357 -0.41626721621 0.4496409893 -0.20598120987 -0.64667701721
          -1.2913279533 -0.31723329425 -0.56081938744 -1.3103187084 -0.16647019982 -0.72021299601
          -1.0780789852 -0.26223245263 -0.61954492331 -1.2111840248 -0.1263563931 -0.52467823029
          0.93168497086 0.052144400775 -0.6099550128 0.84875500202 -0.035446301103 -0.85831201077
          0.97156202793 -0.18440270424 -0.83044797182 1.1139479876 0.04362449795 -0.78375899792
          -2.6538431644 0.18475399911 -0.59675198793 -2.6686131954 0.11487980187 -0.87576198578
          -2.6349360943 0.29374942183 -0.88281100988 -2.8207395077 0.30260008574 -0.65172201395
          3.1256771088 0.35985979438 0.17385299504 3.1546220779 0.28414210677 -0.077771998942
          2.9649469852 0.070412486792 0.048234000802 3.1981549263 0.12413520366 0.16969101131
          -4.6259469986 0.16757617891 -0.22007699311 -4.7578840256 0.28817969561 -0.030578099191
          -4.7891550064 0.016387579963 -0.29043120146 -4.7826919556 0.30165764689 -0.29666978121
          2.6714880466 0.016336200759 -0.27357900143 2.5682160854 -0.13655368984 -0.3176009953
          2.7572391033 -0.22472290695 -0.032116010785 2.7099030018 -0.25898209214 -0.27057000995
          -0.66083502769 -0.29501193762 -0.69995200634 -0.74040699005 -0.49768507481 -0.86798501015
          -0.88709700108 -0.50346982479 -0.72862702608 -0.67207598686 -0.50358366966 -0.68930828571
          -4.6960554123 0.49519553781 -0.24164129794 -4.4985280037 0.48879349232 -0.082372002304
          -4.6259469986 0.16757617891 -0.22007699311 -4.7578840256 0.28817969561 -0.030578099191
          4.527215004 0.58946532011 1.2835580111 4.5793409348 0.44828680158 1.4775110483
          4.6475157738 0.38701429963 1.2527079582 4.3783740997 0.40928810835 1.4540369511
          -4.373114109 0.48056659102 0.41136088967 -4.4874916077 0.48258560896 0.25255030394
          -4.5035572052 0.34405878186 0.45431670547 -4.374229908 0.21605139971 0.18340799212
          -0.56078988314 -0.3168579042 -0.30044898391 -0.4785284996 -0.28558018804 -0.089541003108
          -0.37324941158 -0.23546770215 -0.36768600345 -0.39079099894 -0.51813417673 -0.27170100808
          -3.0849509239 0.17763519287 -0.079053997993 -3.302652359 0.038016501814 0.04223600775
          -3.3095912933 0.2773117125 -0.21319679916 -3.2902696133 0.27174562216 0.025448989123
          1.9232388735 -0.45981270075 0.32396870852 1.9601919651 -0.45431318879 0.13470560312
          2.0660989285 -0.22966709733 0.14300569892 1.912476182 -0.21805660427 0.34040221572
          2.4682879448 0.38555598259 -0.10436999053 2.7448999882 0.34383347631 0.0055840001442
          2.5832331181 0.56287848949 -0.20339798927 2.7383420467 0.41610860825 -0.23452399671
          -1.075802207 0.17113420367 -0.81510698795 -0.90989202261 0.24085079134 -0.62744837999
          -0.81324702501 0.26146668196 -0.86965799332 -0.85043102503 0.031999699771 -0.80896800756
          1.3614029884 0.52470320463 -0.1519087255 1.3544540405 0.20737339556 0.028903007507
          1.3844920397 0.52349030972 0.14648000896 1.5727180243 0.33926710486 -0.070410497487
          -1.4041509628 -0.13285940886 -0.071116998792 -1.6200009584 -0.10922949761 -0.042343001813
          -1.5985989571 -0.27739399672 -0.2576969862 -1.5760400295 -0.030635099858 -0.29671400785
          -1.9377369881 0.14763340354 0.0093440003693 -1.8959770203 0.26786220074 -0.15826401114
          -1.7572649717 0.069237500429 -0.019905999303 -1.6865179539 0.27380079031 -0.033339001238
          2.2839529514 0.55297267437 -0.13702598214 2.4682879448 0.38555598259 -0.10436999053
          2.5832331181 0.56287848949 -0.20339798927 2.533821106 0.36376240849 -0.31047001481
          -4.6259469986 0.16757617891 -0.22007699311 -4.4985280037 0.48879349232 -0.082372002304
          -4.3738183975 0.24991054833 -0.14364899695 -4.5292730331 0.2915058732 0.031001500785
          -4.6952867508 -0.18051728606 0.4779253006 -4.6800694466 0.0018985598581 0.46689039469
          -4.7917890549 -0.033734429628 0.26267528534 -4.5753359795 -0.14313571155 0.30882889032
          -3.2997620106 0.21736480296 0.27584698796 -3.3706200123 0.48187199235 0.10127900541
          -3.2128009796 0.42603981495 0.26003301144 -3.4292929173 0.39982169867 0.30081498623
          -3.8473057747 -0.00070657959441 -0.13606338203 -4.0971708298 0.14169080555 0.095920503139
          -3.8129053116 0.21391560137 0.11131499708 -3.9542860985 -0.041209600866 0.17256499827
          -1.6305606365 -0.29367351532 -0.52340888977 -1.5961900949 -0.24007625878 -0.77421802282
          -1.2913279533 -0.31723329425 -0.56081938744 -1.3103187084 -0.16647019982 -0.72021299601
          -2.8009653091 0.022092198953 -0.32149419188 -2.7996120453 -0.02800030075 -0.034934002906
          -2.7577950954 0.15421199799 -0.14046099782 -2.5937309265 -0.094380997121 -0.091197997332
          5.0362038612 -0.1984565109 1.0518586636 4.9225811958 -0.41055479646 1.0575927496
          4.9568657875 -0.20041409135 1.3308819532 4.9736399651 -0.40930470824 1.310732007
          4.6259679794 -0.40398031473 0.7512139678 4.6102437973 -0.26420500875 0.44404000044
          4.736287117 -0.4010592103 0.59583199024 4.7822642326 -0.20231451094 0.72078299522
          4.9794502258 -0.39840599895 0.61955702305 5.1017589569 -0.19658398628 0.71833097935
          5.2478318214 -0.29952001572 0.57194000483 5.1102108955 -0.40072900057 0.75134700537
          1.7900329828 0.53836679459 -0.22017219663 1.5727180243 0.33926710486 -0.070410497487
          1.562005043 0.53115862608 -0.25408700109 1.6795022488 0.53295719624 0.087283298373
          -2.4840130806 -0.30007189512 -0.074917010963 -2.5874330997 -0.50843310356 -0.077546991408
          -2.3604021072 -0.51019489765 -0.16444499791 -2.4960739613 -0.50847524405 -0.33113560081
          2.810836792 0.55920171738 0.76666796207 2.9040269852 0.39754191041 0.64887100458
          3.0665662289 0.3753657043 0.82187402248 3.0461831093 0.56736302376 0.63019996881
          1.6559460163 -0.46090990305 -0.083716340363 1.6362780333 -0.19434309006 -0.1196873039
          1.7291409969 -0.28722119331 -0.28180330992 1.8784749508 -0.24840208888 0.010538879782
          1.027140975 0.51393949986 0.19080199301 1.1881120205 0.31921857595 0.10735101253
          1.0401221514 0.23939830065 -0.032525006682 0.92705971003 0.28618240356 0.2508969903
          3.8910729885 -0.40569660068 0.7535443902 4.0511579514 -0.20270109177 0.7991797924
          3.8193171024 -0.21124768257 0.82013428211 3.9133279324 -0.075963594019 0.57894998789
          -4.5090827942 0.30276152492 -0.34050369263 -4.67258358 0.49731987715 -0.45437440276
          -4.7826919556 0.30165764689 -0.29666978121 -4.6022672653 0.31213206053 -0.53499019146
          -2.4908249378 0.11884979904 -0.11749400944 -2.2799999714 0.29279088974 0.072902999818
          -2.2999050617 -0.0097464201972 -0.11074100435 -2.5005450249 0.17306339741 0.11759500206
          2.0239698887 0.24268069863 -0.49068275094 1.7200000286 0.27868279815 -0.33277949691
          1.8510379791 0.076726302505 -0.29504978657 1.8266550303 0.23588789999 -0.55572861433
          4.0632171631 0.57045120001 1.2416960001 4.0205068588 0.28315189481 1.0268609524
          4.0298194885 0.42154958844 1.3837649822 4.2713618279 0.37677168846 1.2242929935
          1.5734430552 0.53300869465 -0.47562000155 1.562005043 0.53115862608 -0.25408700109
          1.40358603 0.24286289513 -0.3494130075 1.23584795 0.52147328854 -0.44651499391
          -1.9761929512 -0.084401905537 0.01688499935 -1.8008160591 -0.23927970231 -0.014976000413
          -1.7572649717 0.069237500429 -0.019905999303 -1.8348480463 -0.01922108978 -0.21806798875
          -1.7870930433 -0.33796232939 -0.8220590353 -1.9412852526 -0.50214797258 -0.90207898617
          -1.6989388466 -0.50504058599 -0.72892701626 -1.5869110823 -0.50118023157 -0.88304901123
          2.2508289814 -0.099022090435 0.14436070621 2.2007000446 -0.030069796368 -0.17213380337
          2.4399039745 -0.10959740728 -0.0052800015546 2.3748869896 0.069039702415 0.16169330478
          -4.7826919556 0.30165764689 -0.29666978121 -4.67258358 0.49731987715 -0.45437440276
          -4.792386055 0.26623538136 -0.51841771603 -4.6022672653 0.31213206053 -0.53499019146
          -0.70339399576 -0.074503429234 -0.67528831959 -0.82459098101 -0.20698645711 -0.80915498734
          -0.83050501347 -0.26468807459 -0.57061237097 -0.66083502769 -0.29501193762 -0.69995200634
          1.1396989822 0.51905441284 -0.65952801704 1.23584795 0.52147328854 -0.44651499391
          1.323251009 0.38888579607 -0.71256399155 1.0754319429 0.25025811791 -0.42730200291
          -1.0854450464 -0.072821497917 -0.097055003047 -1.0315690041 0.001321600168 -0.39257600904
          -0.8307570219 -0.058059498668 -0.35817700624 -0.96485602856 0.047094900161 -0.10023099929
          -3.1758265495 0.071973100305 -0.7731680274 -3.3997917175 0.20229819417 -0.72843700647
          -3.2429180145 0.19009520113 -0.47103300691 -3.3833937645 -0.032667398453 -0.48868498206
          -0.30593618751 0.24488276243 -0.24136300385 -0.2487116009 0.11720266938 -0.055061001331
          -0.080558300018 0.23630402982 -0.025882000104 -0.092815898359 0.28653284907 -0.26267999411
          -2.1859169006 0.48576170206 -0.060932002962 -2.0546720028 0.3103351891 0.029857000336
          -1.8519480228 0.40634250641 -0.0071279997937 -1.8772009611 0.48616209626 -0.20101100206
          -1.6121549606 0.47708061337 -0.83065801859 -1.8841609955 0.47777590156 -0.81263101101
          -1.7930159569 0.48152941465 -0.59363406897 -1.8121285439 0.26642638445 -0.82310700417
          1.8784749508 -0.24840208888 0.010538879782 1.85224998 -0.44815999269 -0.31117022038
          1.9479429722 -0.26660808921 -0.33822989464 1.7291409969 -0.28722119331 -0.28180330992
          4.1932888031 -0.10509669781 1.111093998 4.2263350487 -0.055008299649 1.4182280302
          4.372276783 -0.18564900756 1.2451930046 4.1478528976 -0.20111000538 1.3932329416
          2.7863173485 0.018803799525 0.9157999754 2.5507669449 -0.059395201504 0.81727099419
          2.6809933186 0.045304298401 0.64524197578 2.5544810295 0.1293092072 0.82531297207
          4.7657809258 0.38576200604 0.78052300215 4.9471430779 0.61130398512 0.85095900297
          4.8564839363 0.61346799135 0.55668997765 5.0679278374 0.61340600252 0.65205299854
          4.548661232 0.31044599414 0.7846570015 4.7789177895 0.14037750661 0.96490341425
          4.7657809258 0.38576200604 0.78052300215 4.7792887688 0.17319969833 0.70396101475
          2.5975399017 0.036539699882 0.30856120586 2.6479671001 -0.18968589604 0.18436330557
          2.5335454941 -0.19222688675 0.50451397896 2.8154499531 -0.22758620977 0.35329309106
          -2.9699950218 0.48249959946 -0.0066279866733 -2.9876549244 0.48245361447 0.20254100859
          -2.7288138866 0.4837333858 0.065889015794 -2.761079073 0.3002846241 0.17035700381
          0.15515929461 0.27147474885 -0.81783097982 -0.04301200062 0.17476075888 -0.718306005
          -0.091403998435 0.28790903091 -0.89287102222 -0.17038999498 0.33329957724 -0.6997410059
          0.28973901272 -0.46788781881 0.039062999189 0.44537511468 -0.27799990773 -0.12429698557
          0.32351368666 -0.50792455673 -0.14887700975 0.48393589258 -0.50734382868 0.013009998947
          -2.6686131954 0.11487980187 -0.87576198578 -2.8732545376 0.220630005 -0.8351380229
          -2.6349360943 0.29374942183 -0.88281100988 -2.8207395077 0.30260008574 -0.65172201395
          4.372276783 -0.18564900756 1.2451930046 4.6312479973 -0.18212139606 1.2574429512
          4.4776749611 -0.40230458975 1.0684930086 4.4911990166 -0.39900299907 1.2523469925
          3.1153120995 -0.17042639852 0.52375102043 3.1101438999 0.080181010067 0.45569860935
          3.0500233173 -0.10988160223 0.76281303167 2.824450016 -0.10761829466 0.55310499668
          3.0500233173 -0.10988160223 0.76281303167 3.0184175968 0.12345609814 0.73364597559
          3.0447850227 0.06147922948 1.0241279602 2.7863173485 0.018803799525 0.9157999754
          4.2858800888 -0.1588639915 0.36022999883 4.2261519432 -0.095267094672 0.65937298536
          4.2745900154 -0.40359979868 0.66799497604 4.0834741592 -0.21439018846 0.53021103144
          0.84688097239 0.325525105 -0.34160640836 0.70016598701 0.50710338354 -0.40990638733
          0.76200997829 0.19809819758 -0.53690600395 0.89502197504 0.51158940792 -0.54344600439
          0.43230000138 -0.066396504641 -0.95820701122 0.56008797884 0.052585806698 -0.68334698677
          0.63849902153 0.22250783443 -0.90636301041 0.6468949914 -0.072852902114 -0.91035401821
          -0.96485602856 0.047094900161 -0.10023099929 -1.0315690041 0.001321600168 -0.39257600904
          -0.8307570219 -0.058059498668 -0.35817700624 -1.0361119509 0.21812960505 -0.37398898602
          2.4399039745 -0.10959740728 -0.0052800015546 2.4686999321 0.064002029598 -0.14970698953
          2.5682160854 -0.13655368984 -0.3176009953 2.6714880466 0.016336200759 -0.27357900143
          1.6287219524 -0.45572260022 -0.34583300352 1.5894249678 -0.45208120346 -0.55978298187
          1.6978210211 -0.28733319044 -0.61622899771 1.5643210411 -0.27857810259 -0.44123601913
          1.3978904486 -0.12460799515 0.020671008155 1.3097800016 -0.27519398928 -0.1584803015
          1.1952601671 -0.29477098584 0.064541012049 1.4941439629 -0.30191999674 -0.0081950007007
          3.245980978 0.052640799433 0.88878798485 3.3097200394 -0.10290320963 0.73021501303
          3.0500233173 -0.10988160223 0.76281303167 3.3624682426 -0.19947208464 0.94604200125
          -2.9424054623 0.1131972 -0.47736001015 -3.0509493351 0.29688620567 -0.58453899622
          -2.9400956631 0.27705860138 -0.27815890312 -3.2429180145 0.19009520113 -0.47103300691
          3.8472468853 0.14682120085 0.8287910223 3.7040190697 0.031617399305 1.0519629717
          3.9209868908 -0.049528494477 0.94006299973 3.599364996 -0.13409550488 0.90844702721
          3.6017444134 -0.40726909041 1.038525939 3.3624682426 -0.19947208464 0.94604200125
          3.465408802 -0.29649040103 1.1825380325 3.3577077389 -0.41411450505 1.0120899677
          -4.6800694466 0.0018985598581 0.46689039469 -4.7917890549 -0.033734429628 0.26267528534
          -4.8499131203 0.16269566119 0.48204991221 -5 0.07584580034 0.38386198878
          -4.2742209435 0.42202806473 -0.57460540533 -4.1004319191 0.30029353499 -0.60041797161
          -4.0919904709 0.29906708002 -0.39470338821 -4.0913190842 0.49074068666 -0.52665829659
          -4.0971708298 0.14169080555 0.095920503139 -4.0624485016 0.11422649771 0.40121608973
          -3.8654940128 0.059473201632 0.37344399095 -3.9542860985 -0.041209600866 0.17256499827
          -3.5458295345 0.1751678884 -0.0069859996438 -3.3023517132 0.0064315996133 -0.24028472602
          -3.5523664951 0.0045121996664 -0.18042999506 -3.302652359 0.038016501814 0.04223600775
          1.3815850019 -0.12085030228 -0.70849198103 1.3804830313 -0.0036427995656 -0.4926970005
          1.1442159414 -0.0049022994936 -0.49735999107 1.3034750223 0.047147899866 -0.72722101212
          4.7792887688 0.17319969833 0.70396101475 4.9800801277 0.31590399146 0.82129001617
          4.7657809258 0.38576200604 0.78052300215 4.8283820152 0.36398798227 0.50014001131
          2.9719080925 -0.42173939943 0.30924770236 2.8154499531 -0.22758620977 0.35329309106
          2.8791120052 -0.42745420337 0.46121960878 2.7957570553 -0.42637899518 0.25317001343
          -3.1080467701 -0.29268443584 -0.24082820117 -3.1343755722 -0.50439548492 -0.0088849952444
          -3.0159440041 -0.32825475931 -0.049925994128 -3.0154821873 -0.50680673122 -0.26073569059
          1.3844920397 0.52349030972 0.14648000896 1.3544540405 0.20737339556 0.028903007507
          1.543838501 0.32068037987 0.19921569526 1.5727180243 0.33926710486 -0.070410497487
          2.7066569328 0.013594998047 0.026080995798 2.6138679981 0.31076711416 0.28303608298
          2.8881449699 0.23836348951 0.18792100251 2.5975399017 0.036539699882 0.30856120586
          -2.5502791405 0.25031089783 -0.30732250214 -2.741081953 0.32292592525 -0.24629439414
          -2.638958931 0.48359829187 -0.078652016819 -2.4349720478 0.31375589967 -0.069557994604
          -1.8121285439 0.26642638445 -0.82310700417 -1.7826962471 0.45563310385 -1.0317989588
          -1.8841609955 0.47777590156 -0.81263101101 -1.9643406868 0.25973030925 -1.0027730465
          5.0587530136 0.088731199503 0.75192797184 4.9991178513 0.039471499622 1.0460796356
          4.7766752243 -0.0062490031123 0.81723797321 4.7789177895 0.14037750661 0.96490341425
          0.95586800575 0.071381397545 -0.33720040321 1.1638020277 0.033433400095 -0.21218000352
          1.1442159414 -0.0049022994936 -0.49735999107 1.1370209455 -0.2310988009 -0.34101459384
          -4.6960554123 0.49519553781 -0.24164129794 -4.7826919556 0.30165764689 -0.29666978121
          -4.6259469986 0.16757617891 -0.22007699311 -4.5090827942 0.30276152492 -0.34050369263
          -1.596382618 -0.17736847699 -1.051363945 -1.5961900949 -0.24007625878 -0.77421802282
          -1.5869110823 -0.50118023157 -0.88304901123 -1.7870930433 -0.33796232939 -0.8220590353
          -3.2429180145 0.19009520113 -0.47103300691 -2.9424054623 0.1131972 -0.47736001015
          -3.0660376549 -0.035237099975 -0.601772964 -3.1901597977 0.0029790997505 -0.4238820076
          3.1375620365 -0.015359799378 -0.09573700279 2.9183690548 -0.10514099896 0.18946899474
          3.0793170929 -0.24457119405 0.11937200278 2.9599170685 -0.19250740111 -0.1730210036
          3.2735610008 0.57003730536 0.75401997566 3.4191789627 0.57933980227 0.56054317951
          3.2744851112 0.38130360842 0.56395947933 3.4926049709 0.5762001276 0.76709657907
          -3.6243565083 0.17590141296 -0.3374350071 -3.8043015003 -0.00087310036179 -0.39245098829
          -3.5941543579 0.02097989805 -0.47818499804 -3.7273154259 0.27898979187 -0.49260097742
          -1.2542339563 0.29450172186 -0.30690699816 -1.3188999891 0.28086179495 -0.079112000763
          -1.1158839464 0.17156629264 -0.093520998955 -1.1750420332 0.11218670756 -0.27856901288
          -0.96485602856 0.047094900161 -0.10023099929 -1.1750420332 0.11218670756 -0.27856901288
          -1.0854450464 -0.072821497917 -0.097055003047 -1.0315690041 0.001321600168 -0.39257600904
          -0.82459098101 -0.20698645711 -0.80915498734 -1.0344099998 -0.31266370416 -0.88067400455
          -1.0780789852 -0.26223245263 -0.61954492331 -0.88709700108 -0.50346982479 -0.72862702608
          -0.82459098101 -0.20698645711 -0.80915498734 -1.0344099998 -0.31266370416 -0.88067400455
          -0.88709700108 -0.50346982479 -0.72862702608 -0.74040699005 -0.49768507481 -0.86798501015
          -1.1750420332 0.11218670756 -0.27856901288 -1.293176055 0.1205618009 -0.45924699306
          -1.2152099609 -0.081209897995 -0.31830999255 -1.0315690041 0.001321600168 -0.39257600904
          -3.1325054169 -0.50747013092 -0.43627199531 -3.1450257301 -0.19032800198 -0.44944301248
          -3.1080467701 -0.29268443584 -0.24082820117 -3.3609697819 -0.25755804777 -0.25123178959
          4.527215004 0.58946532011 1.2835580111 4.3783740997 0.40928810835 1.4540369511
          4.6475157738 0.38701429963 1.2527079582 4.2713618279 0.37677168846 1.2242929935
          -0.33919200301 0.20730000734 -0.79884600639 -0.47368499637 0.48183679581 -0.90071099997
          -0.42215698957 0.32589438558 -1.0801579952 -0.25258800387 0.48134300113 -1.0479999781
          4.309071064 0.60760998726 0.56352597475 4.3505711555 0.60127097368 0.76294797659
          4.4798941612 0.42885500193 0.6264359951 4.2886710167 0.33758100867 0.66382801533
          2.0072319508 0.54592597485 -0.34398621321 1.7900329828 0.53836679459 -0.22017219663
          2.0672409534 0.54569250345 -0.02698210068 1.9153610468 0.36894521117 -0.30883604288
          3.4149284363 -0.092121005058 1.167222023 3.1393265724 -0.19575251639 1.0545070171
          3.3624682426 -0.19947208464 0.94604200125 3.245980978 0.052640799433 0.88878798485
          -1.6305606365 -0.29367351532 -0.52340888977 -1.8079010248 -0.20703689754 -0.34597599506
          -1.5985989571 -0.27739399672 -0.2576969862 -1.7037880421 -0.51201498508 -0.40343299508
          -4.1034150124 -0.18890102208 0.022778199986 -4.0808696747 -0.048765938729 -0.15966640413
          -4.2165794373 -0.29792863131 -0.10957739502 -3.9980287552 -0.32266074419 -0.13652320206
          3.8319048882 0.3724052906 1.1257870197 3.6068017483 0.56949651241 1.0521490574
          3.5123636723 0.27264100313 1.2129739523 3.690030098 0.28598979115 0.94812899828
          -3.0590620041 0.043446499854 -0.27457588911 -2.7577950954 0.15421199799 -0.14046099782
          -2.9204330444 -0.13243819773 -0.19507199526 -2.7996120453 -0.02800030075 -0.034934002906
          1.543838501 0.32068037987 0.19921569526 1.4660654068 0.43263700604 0.43621888757
          1.662907958 0.3483915925 0.50106751919 1.6081655025 0.1408970952 0.47529900074
          -0.81611001492 0.30783483386 -0.27051800489 -0.6164612174 0.29320520163 -0.31236797571
          -0.66691201925 0.49013388157 -0.48518800735 -0.75858801603 0.17240820825 -0.42690300941
          4.2345128059 0.15581940114 1.1804380417 4.0558829308 0.27783259749 1.3923959732
          4.2366080284 0.27729278803 1.4644019604 4.0751972198 0.034389801323 1.3754040003
          1.912476182 -0.21805660427 0.34040221572 1.7383420467 -0.46321061254 0.15311719477
          1.9601919651 -0.45431318879 0.13470560312 1.8784749508 -0.24840208888 0.010538879782
          -4.2148256302 0.11070713401 -0.5839381218 -4.3753385544 0.16644324362 -0.56169492006
          -4.4088745117 0.030903441831 -0.32176870108 -4.3847136497 -0.10933701694 -0.55893617868
          1.3844920397 0.52349030972 0.14648000896 1.543838501 0.32068037987 0.19921569526
          1.6495490074 0.52970409393 0.32440179586 1.6795022488 0.53295719624 0.087283298373
          -1.2013354301 -0.1661592871 -1.0883820057 -1.2481642962 0.04549119994 -0.89113599062
          -1.323502183 -0.038665849715 -1.075633049 -1.0507317781 -0.037540301681 -1.0923370123
          -2.4353275299 -0.11288639903 -0.92088502645 -2.2304649353 -0.22556725144 -0.77245599031
          -2.4961392879 -0.28663662076 -0.90913802385 -2.3716421127 -0.18197050691 -0.6025840044
          0.98700541258 -0.19875110686 -0.078704997897 0.81067937613 -0.037577752024 -0.03468298912
          0.97177040577 0.064062602818 -0.1233580038 1.1398986578 -0.010146999732 0.071502000093
          -1.1206613779 0.30866101384 -1.0912829638 -1.2560925484 0.27916309237 -0.88956099749
          -1.1157516241 0.10669529438 -1.088037014 -1.2635279894 0.19011539221 -1.0803289413
          4.4729690552 0.34756699204 0.42458799481 4.4424939156 0.089347399771 0.64447599649
          4.6309452057 0.20724229515 0.45776200294 4.4777679443 0.087183900177 0.41901400685
          -0.85043102503 0.031999699771 -0.80896800756 -0.82459098101 -0.20698645711 -0.80915498734
          -0.70339399576 -0.074503429234 -0.67528831959 -0.65971499681 -0.068506918848 -0.89710998535
          0.08132699877 -0.24986088276 -1.0299509764 0.066189996898 -0.13907346129 -0.85989201069
          0.31595930457 -0.22976750135 -0.98769599199 0.20165160298 -0.28208371997 -0.78509497643
          2.6138679981 0.31076711416 0.28303608298 2.3807709217 0.34840109944 0.17629000545
          2.3748869896 0.069039702415 0.16169330478 2.5194039345 0.221833691 0.014336997643
          2.3105502129 0.12302970141 0.72935801744 2.0783751011 -0.022333201021 0.63662797213
          2.2661983967 0.044934421778 0.50948798656 2.0865969658 0.17642100155 0.64691102505
          -3.3997917175 0.20229819417 -0.72843700647 -3.2531692982 0.48335590959 -0.6420429945
          -3.2075111866 0.26916709542 -0.76702600718 -3.2429180145 0.19009520113 -0.47103300691
          4.4798941612 0.42885500193 0.6264359951 4.4424939156 0.089347399771 0.64447599649
          4.4729690552 0.34756699204 0.42458799481 4.2886710167 0.33758100867 0.66382801533
          -2.8207395077 0.30260008574 -0.65172201395 -2.923997879 0.48139628768 -0.67437797785
          -2.8732545376 0.220630005 -0.8351380229 -2.7109742165 0.4802801013 -0.74906599522
          -1.5961900949 -0.24007625878 -0.77421802282 -1.5869110823 -0.50118023157 -0.88304901123
          -1.5043648481 -0.50604504347 -0.71901899576 -1.3901776075 -0.50089198351 -0.8744109869
          -0.31712800264 -0.025899430737 -0.85415101051 -0.43940600753 -0.13465237617 -1.0850310326
          -0.29308599234 -0.22735399008 -1.0733640194 -0.3908880055 0.018037790433 -1.0773969889
          5.2740988731 0.079818502069 0.87786698341 5.2391929626 -0.046786397696 1.0306526423
          4.9587922096 -0.11951480061 0.84872800112 4.9991178513 0.039471499622 1.0460796356
          -3.6243565083 0.17590141296 -0.3374350071 -3.8077201843 0.48553070426 -0.30209600925
          -3.71869874 0.25738021731 -0.13884219527 -3.8971295357 0.23590660095 -0.36395600438
          -4.1448526382 0.14308868349 -0.26994079351 -4.0808696747 -0.048765938729 -0.15966640413
          -3.9548974037 0.23137070239 -0.10864424706 -3.8473057747 -0.00070657959441 -0.13606338203
          -2.819904089 0.037339199334 -0.66302698851 -3.0065186024 0.11188069731 -0.80747801065
          -2.8732545376 0.220630005 -0.8351380229 -2.8207395077 0.30260008574 -0.65172201395
          4.2713618279 0.37677168846 1.2242929935 4.0298194885 0.42154958844 1.3837649822
          4.2064089775 0.54333531857 1.4228320122 4.2366080284 0.27729278803 1.4644019604
          1.3804830313 -0.0036427995656 -0.4926970005 1.1370209455 -0.2310988009 -0.34101459384
          1.1442159414 -0.0049022994936 -0.49735999107 1.4434380531 -0.14066420496 -0.32838499546
          4.4112458229 -0.36157390475 0.39370900393 4.4464259148 -0.17551660538 0.63643395901
          4.2745900154 -0.40359979868 0.66799497604 4.2858800888 -0.1588639915 0.36022999883
          -0.55649799109 -0.51590490341 -0.39866101742 -0.51817697287 -0.33874639869 -0.53937000036
          -0.76909697056 -0.29619181156 -0.33838999271 -0.80718201399 -0.50908124447 -0.54855680466
          3.0665662289 0.3753657043 0.82187402248 3.245980978 0.052640799433 0.88878798485
          3.0447850227 0.06147922948 1.0241279602 3.1853451729 0.33565509319 1.0903539658
          -1.224069953 -0.31939327717 -0.31514698267 -1.3917900324 -0.51799577475 -0.23380000889
          -1.1190869808 -0.42417049408 -0.10118299723 -1.1271990538 -0.51521211863 -0.40683698654
          1.8809980154 0.037144001573 -0.0096619697288 1.6362780333 -0.19434309006 -0.1196873039
          1.9164220095 -0.13674210012 -0.17615103722 1.655272007 0.093524098396 -0.11352000386
          2.7232918739 -0.43851751089 0.85738897324 2.8574714661 -0.22937789559 0.73542100191
          2.900462389 -0.18088708818 0.95662897825 2.6677677631 -0.20719739795 0.85902500153
          2.9040269852 0.39754191041 0.64887100458 2.6725535393 0.38265278935 0.65312898159
          2.7912619114 0.22470119596 0.5612180233 2.8127799034 0.36863431334 0.39534589648
          3.0184175968 0.12345609814 0.73364597559 3.245980978 0.052640799433 0.88878798485
          3.0447850227 0.06147922948 1.0241279602 3.0665662289 0.3753657043 0.82187402248
          -4.5035572052 0.34405878186 0.45431670547 -4.374229908 0.21605139971 0.18340799212
          -4.4532856941 0.16817709804 0.44724240899 -4.1795921326 0.26754778624 0.41782468557
          -1.6865179539 0.27380079031 -0.033339001238 -1.545979023 0.22976130247 -0.33403101563
          -1.5091439486 0.10905019939 -0.055601000786 -1.5615320206 0.44849410653 -0.052519001067
          1.655272007 0.093524098396 -0.11352000386 1.8510379791 0.076726302505 -0.29504978657
          1.9164220095 -0.13674210012 -0.17615103722 1.8809980154 0.037144001573 -0.0096619697288
          1.9232388735 -0.45981270075 0.32396870852 1.7383420467 -0.46321061254 0.15311719477
          1.9601919651 -0.45431318879 0.13470560312 1.912476182 -0.21805660427 0.34040221572
          3.550276041 0.36652091146 0.69562649727 3.6307458878 0.097795702517 0.69470512867
          3.7448599339 0.30333548784 0.49451100826 3.4329230785 0.25877740979 0.41826298833
          1.5854810476 0.084593199193 -0.4168010056 1.8998550177 0.038344699889 -0.53832769394
          1.6285569668 0.23750409484 -0.61983597279 1.5145740509 0.068407997489 -0.66118901968
          -0.95145201683 0.22650431097 -1.0941970348 -0.94496697187 0.078266300261 -1.0942200422
          -0.81324702501 0.26146668196 -0.86965799332 -0.78103899956 0.039071749896 -1.0954949856
          1.6795022488 0.53295719624 0.087283298373 1.6495490074 0.52970409393 0.32440179586
          1.914431572 0.53861421347 0.26570081711 1.8545037508 0.351865381 0.36945268512
          1.1370209455 -0.2310988009 -0.34101459384 0.98700541258 -0.19875110686 -0.078704997897
          0.87983602285 -0.093330197036 -0.22511909902 1.1842939854 -0.12854279578 -0.092633001506
          -3.0837988853 0.48263069987 -0.33776900172 -3.2644114494 0.48313009739 -0.43453800678
          -3.3095912933 0.2773117125 -0.21319679916 -3.2429180145 0.19009520113 -0.47103300691
          -2.0947520733 0.29650449753 -0.21109998226 -2.0529088974 0.052241001278 -0.20910900831
          -1.9377369881 0.14763340354 0.0093440003693 -1.8959770203 0.26786220074 -0.15826401114
          -2.0947520733 0.29650449753 -0.21109998226 -2.0529088974 0.052241001278 -0.20910900831
          -1.8959770203 0.26786220074 -0.15826401114 -1.8419760466 0.17466241121 -0.33885499835
          -3.1989395618 -0.20423613489 -0.036946997046 -3.3023517132 0.0064315996133 -0.24028472602
          -3.3609697819 -0.25755804777 -0.25123178959 -3.1080467701 -0.29268443584 -0.24082820117
          -0.11249899864 -0.48702061176 -0.93265897036 -0.32380700111 -0.29127669334 -0.87523800135
          -0.14045800269 -0.19142946601 -0.79101097584 -0.14834499359 -0.49472266436 -0.76049399376
          3.7946639061 -0.40322849154 0.91091799736 3.599364996 -0.13409550488 0.90844702721
          3.5705780983 -0.40920200944 0.84491300583 3.8193171024 -0.21124768257 0.82013428211
          -4.4126858711 0.49212142825 -0.31948131323 -4.4985280037 0.48879349232 -0.082372002304
          -4.2460803986 0.48600909114 -0.044718399644 -4.3738183975 0.24991054833 -0.14364899695
          -2.5502791405 0.25031089783 -0.30732250214 -2.7577950954 0.15421199799 -0.14046099782
          -2.741081953 0.32292592525 -0.24629439414 -2.4349720478 0.31375589967 -0.069557994604
          -4.0514550209 0.30707678199 0.23333111405 -3.9883553982 0.47970271111 0.36896401644
          -3.7645668983 0.47991481423 0.33562999964 -3.8718869686 0.28284701705 0.37479698658
          -3.8971295357 0.23590660095 -0.36395600438 -4.0919904709 0.29906708002 -0.39470338821
          -3.9548974037 0.23137070239 -0.10864424706 -4.1448526382 0.14308868349 -0.26994079351
          2.9692933559 0.5583781004 0.99691599607 3.0461831093 0.56736302376 0.63019996881
          3.0665662289 0.3753657043 0.82187402248 3.2735610008 0.57003730536 0.75401997566
          -4.0447149277 -0.49747499824 0.14612358809 -4.0265545845 -0.28167268634 0.21848671138
          -4.0673441887 -0.49335995317 0.36177811027 -4.2297291756 -0.32805991173 0.13521359861
          -1.684795022 0.12831169367 -0.21073399484 -1.8959770203 0.26786220074 -0.15826401114
          -1.7572649717 0.069237500429 -0.019905999303 -1.8348480463 -0.01922108978 -0.21806798875
          -4.2165794373 -0.29792863131 -0.10957739502 -4.3568739891 -0.16453392804 0.20460030437
          -4.394712925 -0.0063827331178 -0.052065320313 -4.1034150124 -0.18890102208 0.022778199986
          3.6307458878 0.097795702517 0.69470512867 3.7448599339 0.30333548784 0.49451100826
          3.8472468853 0.14682120085 0.8287910223 3.8135120869 0.40065589547 0.74336141348
          -4.2165794373 -0.29792863131 -0.10957739502 -4.0492649078 -0.50518339872 -0.26489710808
          -4.2843179703 -0.50610029697 -0.3169965148 -4.2421140671 -0.50075817108 -0.098954796791
          3.4964818954 -0.10279240459 0.43279200792 3.4166619778 0.065547503531 0.28209301829
          3.6490149498 0.068853497505 0.12046000361 3.7211930752 0.051226999611 0.43084198236
          -3.3023517132 0.0064315996133 -0.24028472602 -3.3833937645 -0.032667398453 -0.48868498206
          -3.3609697819 -0.25755804777 -0.25123178959 -3.1901597977 0.0029790997505 -0.4238820076
          3.6307458878 0.097795702517 0.69470512867 3.8472468853 0.14682120085 0.8287910223
          3.9209868908 -0.049528494477 0.94006299973 3.599364996 -0.13409550488 0.90844702721
          2.8261909485 0.28350150585 0.9414550066 3.0665662289 0.3753657043 0.82187402248
          3.0447850227 0.06147922948 1.0241279602 3.1853451729 0.33565509319 1.0903539658
          1.7981909513 0.54004788399 -0.43759217858 1.7900329828 0.53836679459 -0.22017219663
          2.0072319508 0.54592597485 -0.34398621321 1.9153610468 0.36894521117 -0.30883604288
          3.3609991074 0.066775999963 0.55516642332 3.4166619778 0.065547503531 0.28209301829
          3.4964818954 -0.10279240459 0.43279200792 3.7211930752 0.051226999611 0.43084198236
          -4.6022672653 0.31213206053 -0.53499019146 -4.6036734581 0.038398779929 -0.53355240822
          -4.5090827942 0.30276152492 -0.34050369263 -4.3753385544 0.16644324362 -0.56169492006
          3.7727000713 0.59062451124 0.58069598675 3.7448599339 0.30333548784 0.49451100826
          3.5548529625 0.58682149649 0.44130200148 3.550276041 0.36652091146 0.69562649727
          2.0239698887 0.24268069863 -0.49068275094 1.9153610468 0.36894521117 -0.30883604288
          1.8510379791 0.076726302505 -0.29504978657 1.7200000286 0.27868279815 -0.33277949691
          0.7164170146 -0.01385910064 -0.332908988 0.58373397589 0.27239969373 -0.33771339059
          0.49993100762 0.0054506729357 -0.41626721621 0.76200997829 0.19809819758 -0.53690600395
          -2.7225356102 -0.3007414341 -0.86474698782 -2.8126263618 -0.50702655315 -0.63701498508
          -2.5882301331 -0.30685323477 -0.65421998501 -2.715783596 -0.50627452135 -0.80598902702
          4.1932888031 -0.10509669781 1.111093998 4.2345128059 0.15581940114 1.1804380417
          4.4337921143 0.1125216037 1.254134059 4.2263350487 -0.055008299649 1.4182280302
          0.0696529001 -0.32972794771 -0.23890098929 -0.081785798073 -0.18698275089 -0.35594800115
          -0.20980919898 -0.34469109774 -0.28026798368 0.082827799022 -0.50211364031 -0.4565897882
          -3.0590620041 0.043446499854 -0.27457588911 -3.3023517132 0.0064315996133 -0.24028472602
          -3.1989395618 -0.20423613489 -0.036946997046 -3.1080467701 -0.29268443584 -0.24082820117
          -1.7352849245 0.25046640635 -1.035277009 -1.8121285439 0.26642638445 -0.82310700417
          -1.6661914587 0.0097754001617 -0.81471097469 -1.825833559 0.060503903776 -1.0222599506
          -3.5458295345 0.1751678884 -0.0069859996438 -3.6940450668 -0.011909330264 0.12301498652
          -3.4821026325 -0.046573873609 0.11716599017 -3.5523664951 0.0045121996664 -0.18042999506
          -1.3793640137 0.48962751031 -0.2810100019 -1.2542339563 0.29450172186 -0.30690699816
          -1.4487729073 0.26224949956 -0.55564618111 -1.545979023 0.22976130247 -0.33403101563
          -1.293176055 0.1205618009 -0.45924699306 -1.1938619614 0.03204099834 -0.66020560265
          -1.2275027037 0.26585769653 -0.64385217428 -1.4055235386 0.16061809659 -0.77410399914
          -1.1717802286 0.47396370769 -1.0808559656 -1.3401434422 0.47775200009 -0.87771999836
          -1.0845546722 0.4788222909 -0.80185699463 -1.2560925484 0.27916309237 -0.88956099749
          0.54733449221 -0.32747480273 0.11482799798 0.28973901272 -0.46788781881 0.039062999189
          0.48393589258 -0.50734382868 0.013009998947 0.44537511468 -0.27799990773 -0.12429698557
          -4.2421140671 -0.50075817108 -0.098954796791 -4.3444986343 -0.49644988775 0.069615103304
          -4.2165794373 -0.29792863131 -0.10957739502 -4.2297291756 -0.32805991173 0.13521359861
          4.3321962357 -0.16034509242 0.88920331001 4.0511579514 -0.20270109177 0.7991797924
          4.1026678085 0.059743199497 1.0158569813 4.1932888031 -0.10509669781 1.111093998
          -0.42215698957 0.32589438558 -1.0801579952 -0.55084097385 0.27224868536 -0.88415497541
          -0.62441599369 0.23691308498 -1.0922019482 -0.59120500088 0.45415121317 -1.0933190584
          4.6312479973 -0.18212139606 1.2574429512 4.531235218 -0.23131799698 1.462864995
          4.6833701134 -0.40567740798 1.2680499554 4.4911990166 -0.39900299907 1.2523469925
          4.6576151848 0.017758300528 1.462864995 4.6513729095 0.13981750607 1.2424490452
          4.6312479973 -0.18212139606 1.2574429512 4.8456058502 -0.1037119925 1.1854159832
          4.6259679794 -0.40398031473 0.7512139678 4.5794639587 -0.095555409789 0.80211597681
          4.7351660728 -0.16101920605 0.98147392273 4.5186548233 -0.2072378099 0.99021959305
          0.68045121431 -0.49612438679 -0.13406600058 0.44537511468 -0.27799990773 -0.12429698557
          0.79302960634 -0.29305431247 -0.039216998965 0.54733449221 -0.32747480273 0.11482799798
          -2.7196071148 0.012619300745 0.16217699647 -2.5996620655 -0.2836445868 0.13820500672
          -2.3502340317 -0.11054370552 0.087472997606 -2.5937309265 -0.094380997121 -0.091197997332
          -2.2283110619 -0.34106051922 -0.12456599623 -2.1776151657 -0.33875748515 -0.37888690829
          -2.3604021072 -0.51019489765 -0.16444499791 -2.1493499279 -0.51199901104 -0.23114798963
          4.6102437973 -0.26420500875 0.44404000044 4.8261451721 -0.19942000508 0.48777401447
          4.736287117 -0.4010592103 0.59583199024 4.7822642326 -0.20231451094 0.72078299522
          -1.6661914587 0.0097754001617 -0.81471097469 -1.901250124 -0.024264600128 -0.80353200436
          -1.6368409395 -0.014472581446 -0.55414676666 -1.8874305487 -0.20946229994 -0.68173897266
          -2.7347252369 -0.50761651993 -0.30021220446 -2.8796532154 -0.32189744711 -0.3305183053
          -2.9167158604 -0.50708723068 -0.47135400772 -2.6578717232 -0.50742650032 -0.52386301756
          1.1396989822 0.51905441284 -0.65952801704 1.23584795 0.52147328854 -0.44651499391
          0.94843697548 0.30960980058 -0.61462700367 0.89502197504 0.51158940792 -0.54344600439
          -0.51817697287 -0.33874639869 -0.53937000036 -0.63126498461 -0.15162830055 -0.47663301229
          -0.76909697056 -0.29619181156 -0.33838999271 -0.83050501347 -0.26468807459 -0.57061237097
          -2.0975265503 -0.075285196304 -0.43518251181 -2.1776151657 -0.33875748515 -0.37888690829
          -2.3716421127 -0.18197050691 -0.6025840044 -2.3835964203 -0.32359841466 -0.41965642571
          -0.012552999891 -0.06247812137 -1.0391819477 -0.31712800264 -0.025899430737 -0.85415101051
          -0.29308599234 -0.22735399008 -1.0733640194 -0.18109099567 0.051842641085 -1.0570659637
          3.1393265724 -0.19575251639 1.0545070171 3.245980978 0.052640799433 0.88878798485
          3.0500233173 -0.10988160223 0.76281303167 3.3624682426 -0.19947208464 0.94604200125
          5.0733251572 -0.094601005316 0.53920000792 4.9587922096 -0.11951480061 0.84872800112
          5.0587530136 0.088731199503 0.75192797184 5.1017589569 -0.19658398628 0.71833097935
          1.5734430552 0.53300869465 -0.47562000155 1.7200000286 0.27868279815 -0.33277949691
          1.6285569668 0.23750409484 -0.61983597279 1.40358603 0.24286289513 -0.3494130075
          -5 0.15884299576 0.21330599487 -5 0.32793700695 0.27663400769
          -4.8499131203 0.16269566119 0.48204991221 -5 0.07584580034 0.38386198878
          4.995156765 0.16772520542 0.52926999331 4.9800801277 0.31590399146 0.82129001617
          5.2214250565 0.24645899236 0.57607001066 5.0587530136 0.088731199503 0.75192797184
          -0.2450055927 0.36689928174 -0.052769999951 -0.30593618751 0.24488276243 -0.24136300385
          -0.092815898359 0.28653284907 -0.26267999411 -0.22821579874 0.49608099461 -0.32180100679
          -4.373114109 0.48056659102 0.41136088967 -4.2010884285 0.48155650496 0.20740970969
          -4.374229908 0.21605139971 0.18340799212 -4.1795921326 0.26754778624 0.41782468557
          -4.8607320786 0.078173696995 -0.5131021142 -4.9899616241 0.27313753963 -0.50233417749
          -4.792386055 0.26623538136 -0.51841771603 -5 0.09418129921 -0.34129801393
          -2.9400956631 0.27705860138 -0.27815890312 -3.0849509239 0.17763519287 -0.079053997993
          -2.8941919804 0.276453197 -0.0076509867795 -2.7577950954 0.15421199799 -0.14046099782
          -3.0849509239 0.17763519287 -0.079053997993 -2.8941919804 0.276453197 -0.0076509867795
          -3.0187089443 -0.037960600108 0.018444009125 -2.9779620171 0.1083374992 0.21390299499
          0.91907000542 -0.28306537867 -0.28310790658 0.87655997276 -0.11350530386 -0.45971497893
          0.87983602285 -0.093330197036 -0.22511909902 0.73383498192 -0.30438300967 -0.4254899919
          1.7837769985 -0.11298939586 0.15795660019 1.6362780333 -0.19434309006 -0.1196873039
          1.8809980154 0.037144001573 -0.0096619697288 1.655272007 0.093524098396 -0.11352000386
          1.1139479876 0.04362449795 -0.78375899792 0.93168497086 0.052144400775 -0.6099550128
          1.1091860533 0.2945098877 -0.77885699272 1.2272870541 0.18516859412 -0.74592202902
          4.9225811958 -0.41055479646 1.0575927496 4.9700870514 -0.40666720271 0.87981498241
          5.1633911133 -0.40683791041 0.92723697424 5.0362038612 -0.1984565109 1.0518586636
          -3.2997620106 0.21736480296 0.27584698796 -3.302652359 0.038016501814 0.04223600775
          -3.4652879238 0.12876489758 0.30643999577 -3.1700980663 0.079973198473 0.25145700574
          3.9250519276 0.16208969057 0.46795699 3.6307458878 0.097795702517 0.69470512867
          3.8472468853 0.14682120085 0.8287910223 3.9133279324 -0.075963594019 0.57894998789
          3.1256771088 0.35985979438 0.17385299504 3.0462920666 0.35370859504 0.42864450812
          3.3498690128 0.38853508234 0.25040599704 3.2137260437 0.23683209717 0.35793501139
          1.3614029884 0.52470320463 -0.1519087255 1.3844920397 0.52349030972 0.14648000896
          1.1881120205 0.31921857595 0.10735101253 1.133603096 0.5178232789 0.011582996696
          -1.1938619614 0.03204099834 -0.66020560265 -1.293176055 0.1205618009 -0.45924699306
          -1.0361119509 0.21812960505 -0.37398898602 -1.0315690041 0.001321600168 -0.39257600904
          -4.1034150124 -0.18890102208 0.022778199986 -4.2297291756 -0.32805991173 0.13521359861
          -3.9980287552 -0.32266074419 -0.13652320206 -4.2165794373 -0.29792863131 -0.10957739502
          4.065433979 0.57982081175 1.038596034 4.2772049904 0.36336359382 0.94083797932
          4.2535729408 0.58250921965 1.0972069502 4.2130708694 0.59228688478 0.90869247913
          -0.89386701584 0.49129199982 -0.34832200408 -1.0361119509 0.21812960505 -0.37398898602
          -1.0550040007 0.40813687444 -0.10020700097 -0.81611001492 0.30783483386 -0.27051800489
          -4.1157817841 0.48770108819 -0.3238914907 -4.0919904709 0.29906708002 -0.39470338821
          -3.8971295357 0.23590660095 -0.36395600438 -3.8077201843 0.48553070426 -0.30209600925
          -1.4899309874 -0.36410149932 -0.064006000757 -1.5985989571 -0.27739399672 -0.2576969862
          -1.6751329899 -0.51861619949 -0.069551989436 -1.5839049816 -0.51631599665 -0.24902200699
          3.4896070957 0.099841497838 0.92870599031 3.599364996 -0.13409550488 0.90844702721
          3.6307458878 0.097795702517 0.69470512867 3.3097200394 -0.10290320963 0.73021501303
          3.9209868908 -0.049528494477 0.94006299973 3.9359619617 0.090236805379 1.1565029621
          3.7870020866 -0.19021171331 1.074723959 3.7040190697 0.031617399305 1.0519629717
          1.3544540405 0.20737339556 0.028903007507 1.3329657316 0.04662720114 0.17705599964
          1.5601570606 0.064071901143 0.17068810761 1.3978904486 -0.12460799515 0.020671008155
          -4.0808696747 -0.048765938729 -0.15966640413 -4.0971708298 0.14169080555 0.095920503139
          -3.9542860985 -0.041209600866 0.17256499827 -4.1034150124 -0.18890102208 0.022778199986
          3.6307458878 0.097795702517 0.69470512867 3.7040190697 0.031617399305 1.0519629717
          3.8472468853 0.14682120085 0.8287910223 3.599364996 -0.13409550488 0.90844702721
          0.79302960634 -0.29305431247 -0.039216998965 0.67708927393 -0.18054930866 -0.18623100221
          0.87983602285 -0.093330197036 -0.22511909902 0.81067937613 -0.037577752024 -0.03468298912
          -1.075802207 0.17113420367 -0.81510698795 -0.94496697187 0.078266300261 -1.0942200422
          -1.0723729134 -0.088602088392 -0.8404250145 -0.85043102503 0.031999699771 -0.80896800756
          2.7863173485 0.018803799525 0.9157999754 2.6677677631 -0.20719739795 0.85902500153
          2.8574714661 -0.22937789559 0.73542100191 2.6809933186 0.045304298401 0.64524197578
          4.8261451721 -0.19942000508 0.48777401447 5.1017589569 -0.19658398628 0.71833097935
          4.9794502258 -0.39840599895 0.61955702305 4.7822642326 -0.20231451094 0.72078299522
          -3.2531692982 0.48335590959 -0.6420429945 -3.0509493351 0.29688620567 -0.58453899622
          -3.2429180145 0.19009520113 -0.47103300691 -3.2644114494 0.48313009739 -0.43453800678
          -0.080558300018 0.23630402982 -0.025882000104 0.12283880264 0.27401307225 -0.19243100286
          0.19005160034 0.5024972558 -0.0085250083357 -0.04318710044 0.49930903316 -0.083802998066
          0.98700541258 -0.19875110686 -0.078704997897 0.95090967417 -0.35872739553 0.2368170023
          0.98844081163 -0.48904711008 0.035179998726 0.79302960634 -0.29305431247 -0.039216998965
          2.2661983967 0.044934421778 0.50948798656 2.0783751011 -0.022333201021 0.63662797213
          2.3105502129 0.12302970141 0.72935801744 2.3686749935 -0.11354149133 0.74313497543
          -1.0845546722 0.4788222909 -0.80185699463 -1.2275027037 0.26585769653 -0.64385217428
          -0.98683398962 0.4838886857 -0.57747471333 -0.90989202261 0.24085079134 -0.62744837999
          2.5975399017 0.036539699882 0.30856120586 2.8575510979 0.064445592463 0.36333754659
          2.6479671001 -0.18968589604 0.18436330557 2.8154499531 -0.22758620977 0.35329309106
          2.7146170139 0.56399077177 0.092618003488 2.5151159763 0.5552688241 0.37893998623
          2.8252680302 0.56484931707 0.31118530035 2.6138679981 0.31076711416 0.28303608298
          -3.1901597977 0.0029790997505 -0.4238820076 -2.9648208618 -0.08248540014 -0.41598600149
          -3.1450257301 -0.19032800198 -0.44944301248 -3.0590620041 0.043446499854 -0.27457588911
          -0.49614500999 -0.18467617035 -0.78485298157 -0.51164197922 0.025980791077 -0.55774062872
          -0.31712800264 -0.025899430737 -0.85415101051 -0.28265699744 -0.012162780389 -0.58007609844
          1.7981909513 0.54004788399 -0.43759217858 1.7200000286 0.27868279815 -0.33277949691
          1.562005043 0.53115862608 -0.25408700109 1.7900329828 0.53836679459 -0.22017219663
          -1.2655464411 -0.30120876431 -0.88210499287 -1.3467004299 -0.27448686957 -1.0782300234
          -1.2013354301 -0.1661592871 -1.0883820057 -1.4535621405 -0.08741620183 -0.88498598337
          1.9164220095 -0.13674210012 -0.17615103722 2.1296679974 -0.11873139441 -0.46822568774
          2.1323330402 -0.24952030182 -0.2159884125 2.2007000446 -0.030069796368 -0.17213380337
          -2.0592620373 -0.25566390157 -0.23402400315 -1.8079010248 -0.20703689754 -0.34597599506
          -1.8348480463 -0.01922108978 -0.21806798875 -2.0975265503 -0.075285196304 -0.43518251181
          -4.6960554123 0.49519553781 -0.24164129794 -4.9270887375 0.4960334301 -0.082894615829
          -4.8276562691 0.49022433162 0.10507963598 -4.7578840256 0.28817969561 -0.030578099191
          -3.5145463943 -0.50127327442 0.11511399597 -3.6591205597 -0.502214849 -0.015271005221
          -3.5096030235 -0.50470131636 -0.15045179427 -3.3824651241 -0.30312857032 0.073741987348
          3.0462920666 0.35370859504 0.42864450812 2.7912619114 0.22470119596 0.5612180233
          2.8575510979 0.064445592463 0.36333754659 2.8127799034 0.36863431334 0.39534589648
          -3.1450257301 -0.19032800198 -0.44944301248 -3.0590620041 0.043446499854 -0.27457588911
          -3.3023517132 0.0064315996133 -0.24028472602 -3.1901597977 0.0029790997505 -0.4238820076
          -4.5877504349 0.083796218038 -0.033795300871 -4.7780652046 -0.0085761295632 -0.01886684075
          -4.7578840256 0.28817969561 -0.030578099191 -4.6630234718 0.13930633664 0.15250210464
          -3.8473057747 -0.00070657959441 -0.13606338203 -4.0808696747 -0.048765938729 -0.15966640413
          -3.9542860985 -0.041209600866 0.17256499827 -4.1034150124 -0.18890102208 0.022778199986
          -0.56078988314 -0.3168579042 -0.30044898391 -0.4785284996 -0.28558018804 -0.089541003108
          -0.44009780884 -0.045463498682 -0.38387098908 -0.37324941158 -0.23546770215 -0.36768600345
          2.3748869896 0.069039702415 0.16169330478 2.4686999321 0.064002029598 -0.14970698953
          2.4399039745 -0.10959740728 -0.0052800015546 2.5194039345 0.221833691 0.014336997643
          -2.0592620373 -0.25566390157 -0.23402400315 -2.2283110619 -0.34106051922 -0.12456599623
          -1.9509960413 -0.51507622004 -0.028830006719 -2.1493499279 -0.51199901104 -0.23114798963
          1.9838659763 -0.058840800077 0.22020068765 2.1151509285 0.051999751478 0.097855910659
          2.2508289814 -0.099022090435 0.14436070621 2.0134241581 0.082406297326 0.37211599946
          1.3329657316 0.04662720114 0.17705599964 1.1546875238 0.13383899629 0.32170900702
          1.359737277 0.23038239777 0.39317399263 1.3826347589 0.0027236009482 0.39376598597
          2.4447433949 0.34735611081 0.78896600008 2.6725535393 0.38265278935 0.65312898159
          2.5544810295 0.1293092072 0.82531297207 2.6536407471 0.42629250884 0.87590301037
          2.0865969658 0.17642100155 0.64691102505 2.2661983967 0.044934421778 0.50948798656
          2.2926232815 0.21838380396 0.36620301008 2.0134241581 0.082406297326 0.37211599946
          -4.7917890549 -0.033734429628 0.26267528534 -4.7839722633 -0.32270756364 0.2961961925
          -4.5753359795 -0.14313571155 0.30882889032 -4.6583003998 -0.19147884846 0.13825491071
          1.3132139444 -0.24616961181 -0.5035700202 1.1370209455 -0.2310988009 -0.34101459384
          1.0520069599 -0.24730080366 -0.58848804235 1.1442159414 -0.0049022994936 -0.49735999107
          -2.6924591064 0.48232129216 -0.35847869515 -2.7973310947 0.48305559158 -0.13842301071
          -2.638958931 0.48359829187 -0.078652016819 -2.741081953 0.32292592525 -0.24629439414
          2.2495288849 -0.45216780901 0.5471829772 2.0636451244 -0.34763351083 0.61844497919
          2.1862559319 -0.44939181209 0.30064499378 2.1206483841 -0.27323719859 0.41196197271
          -2.4840130806 -0.30007189512 -0.074917010963 -2.3400249481 -0.19343669713 -0.23309500515
          -2.5937309265 -0.094380997121 -0.091197997332 -2.6131467819 -0.26515978575 -0.30168119073
          1.9772109985 0.2443075031 -0.15706959367 1.8809980154 0.037144001573 -0.0096619697288
          2.0875871181 0.32275497913 0.17387519777 2.1151509285 0.051999751478 0.097855910659
          0.86573559046 -0.49677124619 0.15245500207 0.69000768661 -0.50142276287 0.050528015941
          0.86059832573 -0.49077758193 -0.080404996872 0.79302960634 -0.29305431247 -0.039216998965
          -0.96610802412 -0.023699499667 -0.59952700138 -1.0723729134 -0.088602088392 -0.8404250145
          -1.0780789852 -0.26223245263 -0.61954492331 -0.82459098101 -0.20698645711 -0.80915498734
          2.7912619114 0.22470119596 0.5612180233 2.6809933186 0.045304298401 0.64524197578
          2.824450016 -0.10761829466 0.55310499668 2.8575510979 0.064445592463 0.36333754659
          -0.50009101629 0.076063752174 -0.91057896614 -0.65971499681 -0.068506918848 -0.89710998535
          -0.58885598183 0.011368970387 -1.0877560377 -0.78103899956 0.039071749896 -1.0954949856
          2.3807709217 0.34840109944 0.17629000545 2.6138679981 0.31076711416 0.28303608298
          2.7448999882 0.34383347631 0.0055840001442 2.5194039345 0.221833691 0.014336997643
          4.7970080376 0.40450099111 0.99685043097 4.4793419838 0.2869952023 1.1247149706
          4.6475157738 0.38701429963 1.2527079582 4.6513729095 0.13981750607 1.2424490452
          1.23584795 0.52147328854 -0.44651499391 1.3614029884 0.52470320463 -0.1519087255
          1.2022919655 0.33101278543 -0.21015967429 0.98131197691 0.51418298483 -0.26199400425
          3.7448599339 0.30333548784 0.49451100826 3.4329230785 0.25877740979 0.41826298833
          3.7211930752 0.051226999611 0.43084198236 3.6066539288 0.1872664988 0.30272099376
          -5 -0.26007699966 0.21836000681 -4.7839722633 -0.32270756364 0.2961961925
          -5 -0.12896800041 0.37591099739 -4.7917890549 -0.033734429628 0.26267528534
          -4.1448526382 0.14308868349 -0.26994079351 -4.2057743073 0.083515927196 -0.063847601414
          -3.9548974037 0.23137070239 -0.10864424706 -4.0808696747 -0.048765938729 -0.15966640413
          1.914431572 0.53861421347 0.26570081711 1.8545037508 0.351865381 0.36945268512
          2.0875871181 0.32275497913 0.17387519777 1.8019828796 0.22406680882 0.18662501872
          -2.4840130806 -0.30007189512 -0.074917010963 -2.5937309265 -0.094380997121 -0.091197997332
          -2.8014369011 -0.27421984076 -0.022419007495 -2.6131467819 -0.26515978575 -0.30168119073
          1.6795022488 0.53295719624 0.087283298373 1.8545037508 0.351865381 0.36945268512
          1.914431572 0.53861421347 0.26570081711 1.8019828796 0.22406680882 0.18662501872
          -2.1485760212 0.26226508617 -0.74843597412 -2.3224203587 0.14642329514 -0.60301297903
          -2.3340997696 0.29154390097 -0.43325453997 -2.0933618546 0.23922790587 -0.44598591328
          3.4964818954 -0.10279240459 0.43279200792 3.3609991074 0.066775999963 0.55516642332
          3.6680510044 -0.16187010705 0.64812618494 3.3097200394 -0.10290320963 0.73021501303
          1.8019828796 0.22406680882 0.18662501872 1.543838501 0.32068037987 0.19921569526
          1.662907958 0.3483915925 0.50106751919 1.6081655025 0.1408970952 0.47529900074
          2.9183690548 -0.10514099896 0.18946899474 2.8154499531 -0.22758620977 0.35329309106
          2.9301850796 -0.41978639364 0.12177300453 2.6479671001 -0.18968589604 0.18436330557
          -1.1717802286 0.47396370769 -1.0808559656 -1.5252443552 0.33827269077 -1.0592859983
          -1.3401434422 0.47775200009 -0.87771999836 -1.2560925484 0.27916309237 -0.88956099749
          -3.0837988853 0.48263069987 -0.33776900172 -3.2429180145 0.19009520113 -0.47103300691
          -3.3095912933 0.2773117125 -0.21319679916 -2.9400956631 0.27705860138 -0.27815890312
          4.2772049904 0.36336359382 0.94083797932 4.2535729408 0.58250921965 1.0972069502
          4.2130708694 0.59228688478 0.90869247913 4.4149041176 0.59745812416 0.95439249277
          2.7066569328 0.013594998047 0.026080995798 2.5975399017 0.036539699882 0.30856120586
          2.8881449699 0.23836348951 0.18792100251 2.8575510979 0.064445592463 0.36333754659
          3.1375620365 -0.015359799378 -0.09573700279 3.0793170929 -0.24457119405 0.11937200278
          3.1675219536 -0.22371681035 -0.091278001666 2.9599170685 -0.19250740111 -0.1730210036
          4.4464259148 -0.17551660538 0.63643395901 4.7822642326 -0.20231451094 0.72078299522
          4.6400561333 0.033197704703 0.65296798944 4.6600642204 -0.03085799329 0.45767199993
          3.1375620365 -0.015359799378 -0.09573700279 3.0793170929 -0.24457119405 0.11937200278
          3.3469219208 -0.1246156022 -0.013377999887 3.1675219536 -0.22371681035 -0.091278001666
          1.3544540405 0.20737339556 0.028903007507 1.5727180243 0.33926710486 -0.070410497487
          1.3614029884 0.52470320463 -0.1519087255 1.2022919655 0.33101278543 -0.21015967429
          -1.4155100584 -0.21666789055 -0.40096598864 -1.2152099609 -0.081209897995 -0.31830999255
          -1.4041509628 -0.13285940886 -0.071116998792 -1.3984810114 0.086329601705 -0.26900598407
          4.0511579514 -0.20270109177 0.7991797924 3.9209868908 -0.049528494477 0.94006299973
          4.0790348053 0.052158098668 0.78453868628 4.1026678085 0.059743199497 1.0158569813
          4.2772049904 0.36336359382 0.94083797932 4.2130708694 0.59228688478 0.90869247913
          4.0778617859 0.38755699992 0.83571088314 4.1542201042 0.59776520729 0.72164899111
          -2.3831439018 0.30391207337 -0.93155002594 -2.5130262375 0.47851529717 -0.88141399622
          -2.3831152916 0.479411304 -0.7015529871 -2.4720232487 0.27283710241 -0.72016400099
          2.0239698887 0.24268069863 -0.49068275094 1.8510379791 0.076726302505 -0.29504978657
          2.1178569794 0.093814596534 -0.4642611146 1.8998550177 0.038344699889 -0.53832769394
          2.5151159763 0.5552688241 0.37893998623 2.4725689888 0.38891109824 0.53518199921
          2.1985135078 0.54629540443 0.35489299893 2.3064310551 0.54786038399 0.58645904064
          1.4162900448 0.058589901775 -0.19647470117 1.40358603 0.24286289513 -0.3494130075
          1.1638020277 0.033433400095 -0.21218000352 1.2660080194 0.1764563024 -0.51763701439
          3.7211930752 0.051226999611 0.43084198236 3.6490149498 0.068853497505 0.12046000361
          3.4964818954 -0.10279240459 0.43279200792 3.5797228813 -0.13064749539 0.085768997669
          4.9800801277 0.31590399146 0.82129001617 5.0286197662 0.27560698986 1.0374772549
          5.250415802 0.44116699696 0.96342402697 5.2609939575 0.27832901478 0.92522102594
          -0.89386701584 0.49129199982 -0.34832200408 -0.70233458281 0.49317741394 -0.27365800738
          -0.83363598585 0.4878360033 -0.50646197796 -0.81611001492 0.30783483386 -0.27051800489
          2.8154499531 -0.22758620977 0.35329309106 2.824450016 -0.10761829466 0.55310499668
          3.1153120995 -0.17042639852 0.52375102043 2.8791120052 -0.42745420337 0.46121960878
          -0.8307570219 -0.058059498668 -0.35817700624 -0.96485602856 0.047094900161 -0.10023099929
          -0.85646498203 0.17925000191 -0.10178700089 -0.83420801163 -0.058261297643 -0.10190299898
          0.0033680000342 -0.49371635914 -0.68691200018 -0.055491000414 -0.26846665144 -0.58021008968
          0.20165160298 -0.28208371997 -0.78509497643 0.23998099566 -0.31517469883 -0.51127868891
          3.0461831093 0.56736302376 0.63019996881 3.2744851112 0.38130360842 0.56395947933
          3.0665662289 0.3753657043 0.82187402248 3.2735610008 0.57003730536 0.75401997566
          -3.0590620041 0.043446499854 -0.27457588911 -3.3023517132 0.0064315996133 -0.24028472602
          -3.1080467701 -0.29268443584 -0.24082820117 -3.1450257301 -0.19032800198 -0.44944301248
          1.3614029884 0.52470320463 -0.1519087255 1.133603096 0.5178232789 0.011582996696
          1.2022919655 0.33101278543 -0.21015967429 0.98131197691 0.51418298483 -0.26199400425
          4.2261519432 -0.095267094672 0.65937298536 4.3321962357 -0.16034509242 0.88920331001
          4.2745900154 -0.40359979868 0.66799497604 4.0511579514 -0.20270109177 0.7991797924
          2.8574714661 -0.22937789559 0.73542100191 2.824450016 -0.10761829466 0.55310499668
          3.1153120995 -0.17042639852 0.52375102043 3.0500233173 -0.10988160223 0.76281303167
          1.9164220095 -0.13674210012 -0.17615103722 1.9479429722 -0.26660808921 -0.33822989464
          2.1296679974 -0.11873139441 -0.46822568774 1.8510379791 0.076726302505 -0.29504978657
          -2.5529778004 -0.19498869777 -0.48805639148 -2.3289134502 -0.0023192001972 -0.42081850767
          -2.3716421127 -0.18197050691 -0.6025840044 -2.3835964203 -0.32359841466 -0.41965642571
          -1.0723729134 -0.088602088392 -0.8404250145 -1.2481642962 0.04549119994 -0.89113599062
          -1.2013354301 -0.1661592871 -1.0883820057 -1.0507317781 -0.037540301681 -1.0923370123
          -1.2560925484 0.27916309237 -0.88956099749 -1.4055235386 0.16061809659 -0.77410399914
          -1.2635279894 0.19011539221 -1.0803289413 -1.5809962749 0.26638999581 -0.86372798681
          -3.0187089443 -0.037960600108 0.018444009125 -3.0159440041 -0.32825475931 -0.049925994128
          -2.8014369011 -0.27421984076 -0.022419007495 -2.9204330444 -0.13243819773 -0.19507199526
          -2.9648208618 -0.08248540014 -0.41598600149 -3.0590620041 0.043446499854 -0.27457588911
          -3.1080467701 -0.29268443584 -0.24082820117 -3.1450257301 -0.19032800198 -0.44944301248
          -0.012552999891 -0.06247812137 -1.0391819477 0.066189996898 -0.13907346129 -0.85989201069
          -0.14045800269 -0.19142946601 -0.79101097584 -0.084298998117 0.0080306082964 -0.84863698483
          -4.4689326286 -0.28248617053 -0.54752629995 -4.6513981819 -0.323874861 -0.5277801156
          -4.4642100334 -0.19895298779 -0.3199582994 -4.4325690269 -0.50963848829 -0.48281699419
          -2.4924480915 0.1497296989 -0.4765163064 -2.5502791405 0.25031089783 -0.30732250214
          -2.6538431644 0.18475399911 -0.59675198793 -2.6084048748 0.48110160232 -0.5615530014
          4.9225811958 -0.41055479646 1.0575927496 4.6833701134 -0.40567740798 1.2680499554
          4.7013711929 -0.40805020928 1.0405980349 4.8456058502 -0.1037119925 1.1854159832
          -4.2165794373 -0.29792863131 -0.10957739502 -4.3444986343 -0.49644988775 0.069615103304
          -4.4301371574 -0.28078189492 -0.098592102528 -4.2297291756 -0.32805991173 0.13521359861
          2.4307379723 -0.44270971417 0.40620398521 2.2495288849 -0.45216780901 0.5471829772
          2.1862559319 -0.44939181209 0.30064499378 2.3304371834 -0.26972290874 0.49684798717
          -4.1843628883 -0.059714950621 -0.58763289452 -4.0446949005 -0.034010000527 -0.39543700218
          -4.0561761856 -0.22405919433 -0.60680097342 -4.1002011299 -0.31287899613 -0.40952581167
          5.1017589569 -0.19658398628 0.71833097935 5.3150639534 0.048920102417 0.68501400948
          5.2478318214 -0.29952001572 0.57194000483 5.2886118889 -0.19004799426 0.81414800882
          0.54373598099 -0.25898191333 -0.94053697586 0.4496409893 -0.20598120987 -0.64667701721
          0.20165160298 -0.28208371997 -0.78509497643 0.31595930457 -0.22976750135 -0.98769599199
          -4.2742209435 0.42202806473 -0.57460540533 -4.0919904709 0.29906708002 -0.39470338821
          -4.1157817841 0.48770108819 -0.3238914907 -4.0913190842 0.49074068666 -0.52665829659
          0.36064499617 -0.039502311498 -0.75520098209 0.41305398941 0.29973137379 -0.76187801361
          0.43729901314 0.24008713663 -0.95277100801 0.56008797884 0.052585806698 -0.68334698677
          -2.9699292183 -0.052413102239 -0.81482702494 -2.9465870857 -0.28584861755 -0.81910002232
          -3.0045845509 -0.31262481213 -0.59387999773 -2.8155953884 -0.19327259064 -0.5224930048
          4.6223192215 0.42864599824 0.46175301075 4.7657809258 0.38576200604 0.78052300215
          4.5893030167 0.61060297489 0.61573702097 4.8283820152 0.36398798227 0.50014001131
          -2.4720232487 0.27283710241 -0.72016400099 -2.6538431644 0.18475399911 -0.59675198793
          -2.8207395077 0.30260008574 -0.65172201395 -2.7109742165 0.4802801013 -0.74906599522
          1.133603096 0.5178232789 0.011582996696 0.86728978157 0.51141232252 0.092799015343
          1.027140975 0.51393949986 0.19080199301 1.0401221514 0.23939830065 -0.032525006682
          -0.83363598585 0.4878360033 -0.50646197796 -0.98683398962 0.4838886857 -0.57747471333
          -1.0361119509 0.21812960505 -0.37398898602 -0.90989202261 0.24085079134 -0.62744837999
          4.5828242302 0.39658501744 0.96988636255 4.7789177895 0.14037750661 0.96490341425
          4.7970080376 0.40450099111 0.99685043097 4.7657809258 0.38576200604 0.78052300215
          -0.62074798346 -0.15536004305 -1.0920000076 -0.89977502823 -0.26588141918 -1.0985300541
          -0.64104998112 -0.30240130424 -0.9189350009 -0.66408002377 -0.41804593801 -1.1008930206
          4.4331560135 0.52280199528 0.42006701231 4.2886710167 0.33758100867 0.66382801533
          4.4798941612 0.42885500193 0.6264359951 4.4729690552 0.34756699204 0.42458799481
          -1.596382618 -0.17736847699 -1.051363945 -1.4535621405 -0.08741620183 -0.88498598337
          -1.323502183 -0.038665849715 -1.075633049 -1.3467004299 -0.27448686957 -1.0782300234
          2.0672409534 0.54569250345 -0.02698210068 2.111946106 0.35183390975 -0.033053901047
          2.2839529514 0.55297267437 -0.13702598214 2.1508929729 0.55003911257 -0.24668708444
          2.2007000446 -0.030069796368 -0.17213380337 2.1296679974 -0.11873139441 -0.46822568774
          2.3845460415 0.082077801228 -0.37291699648 2.1178569794 0.093814596534 -0.4642611146
          0.31418091059 0.094848684967 -0.98210698366 0.41305398941 0.29973137379 -0.76187801361
          0.43729901314 0.24008713663 -0.95277100801 0.36064499617 -0.039502311498 -0.75520098209
          -1.0361119509 0.21812960505 -0.37398898602 -1.1158839464 0.17156629264 -0.093520998955
          -1.0550040007 0.40813687444 -0.10020700097 -0.85646498203 0.17925000191 -0.10178700089
          -4.1795921326 0.26754778624 0.41782468557 -4.0514550209 0.30707678199 0.23333111405
          -4.2010884285 0.48155650496 0.20740970969 -4.374229908 0.21605139971 0.18340799212
          1.4162900448 0.058589901775 -0.19647470117 1.2660080194 0.1764563024 -0.51763701439
          1.1638020277 0.033433400095 -0.21218000352 1.3804830313 -0.0036427995656 -0.4926970005
          -0.65971499681 -0.068506918848 -0.89710998535 -0.64104998112 -0.30240130424 -0.9189350009
          -0.66083502769 -0.29501193762 -0.69995200634 -0.49614500999 -0.18467617035 -0.78485298157
          1.0754319429 0.25025811791 -0.42730200291 1.23584795 0.52147328854 -0.44651499391
          1.323251009 0.38888579607 -0.71256399155 1.2660080194 0.1764563024 -0.51763701439
          0.31266918778 0.50222033262 -0.13974998891 0.33304131031 0.20393286645 -0.24557299912
          0.51253330708 0.2876406908 -0.10298900306 0.36727958918 0.50212621689 -0.31630799174
          5.0362038612 -0.1984565109 1.0518586636 4.9991178513 0.039471499622 1.0460796356
          5.1611480713 -0.11739530414 1.3518660069 4.8456058502 -0.1037119925 1.1854159832
          -2.0371425152 -0.34191715717 -0.78012096882 -1.9412852526 -0.50214797258 -0.90207898617
          -1.7870930433 -0.33796232939 -0.8220590353 -1.8414185047 -0.36941739917 -1.0222549438
          2.1323330402 -0.24952030182 -0.2159884125 2.1296679974 -0.11873139441 -0.46822568774
          2.1658439636 -0.43505328894 -0.3575527072 2.3959000111 -0.2165030092 -0.38119700551
          -0.2450055927 0.36689928174 -0.052769999951 -0.30593618751 0.24488276243 -0.24136300385
          -0.22821579874 0.49608099461 -0.32180100679 -0.38844299316 0.49596226215 -0.19252300262
          2.4244749546 -0.42912569642 -0.22337199748 2.2273271084 -0.43826460838 -0.11158529669
          2.1658439636 -0.43505328894 -0.3575527072 2.1323330402 -0.24952030182 -0.2159884125
          -2.8796532154 -0.32189744711 -0.3305183053 -2.9648208618 -0.08248540014 -0.41598600149
          -3.1080467701 -0.29268443584 -0.24082820117 -3.1450257301 -0.19032800198 -0.44944301248
          4.6309452057 0.20724229515 0.45776200294 4.548661232 0.31044599414 0.7846570015
          4.6223192215 0.42864599824 0.46175301075 4.8283820152 0.36398798227 0.50014001131
          0.67708927393 -0.18054930866 -0.18623100221 0.49290901423 -0.27051791549 -0.38118758798
          0.7164170146 -0.01385910064 -0.332908988 0.474378407 -0.11557681859 -0.24810600281
          -2.4249818325 -0.50633567572 -0.6508589983 -2.4961392879 -0.28663662076 -0.90913802385
          -2.2304649353 -0.22556725144 -0.77245599031 -2.5882301331 -0.30685323477 -0.65421998501
          1.8545037508 0.351865381 0.36945268512 1.7636737823 0.046389199793 0.32517156005
          1.9014420509 0.24749788642 0.58212649822 2.0134241581 0.082406297326 0.37211599946
          0.87983602285 -0.093330197036 -0.22511909902 0.81067937613 -0.037577752024 -0.03468298912
          0.97177040577 0.064062602818 -0.1233580038 0.98700541258 -0.19875110686 -0.078704997897
          -1.2013354301 -0.1661592871 -1.0883820057 -1.1241190434 -0.31656226516 -1.0943260193
          -1.0344099998 -0.31266370416 -0.88067400455 -0.89977502823 -0.26588141918 -1.0985300541
          -4.3568739891 -0.16453392804 0.20460030437 -4.4945139885 -0.24172013998 0.45762220025
          -4.1561627388 -0.30235728621 0.4173707962 -4.3543543816 -0.49132984877 0.25861698389
          2.6714880466 0.016336200759 -0.27357900143 2.5325028896 -0.2637206018 -0.12680798769
          2.7066569328 0.013594998047 0.026080995798 2.7572391033 -0.22472290695 -0.032116010785
          2.4399039745 -0.10959740728 -0.0052800015546 2.3959000111 -0.2165030092 -0.38119700551
          2.5325028896 -0.2637206018 -0.12680798769 2.5682160854 -0.13655368984 -0.3176009953
          4.86105299 0.0081822015345 0.50044000149 4.7766752243 -0.0062490031123 0.81723797321
          4.9587922096 -0.11951480061 0.84872800112 4.7822642326 -0.20231451094 0.72078299522
          0.75077849627 0.37738004327 0.19743099809 0.74646031857 0.32201400399 -0.03702198714
          0.64910101891 0.50723767281 0.064737014472 0.56493777037 0.3193680346 0.1386000067
          1.40358603 0.24286289513 -0.3494130075 1.5854810476 0.084593199193 -0.4168010056
          1.2660080194 0.1764563024 -0.51763701439 1.3804830313 -0.0036427995656 -0.4926970005
          1.5581665039 -0.242820099 0.18669840693 1.3826347589 0.0027236009482 0.39376598597
          1.3329657316 0.04662720114 0.17705599964 1.5601570606 0.064071901143 0.17068810761
          -2.6087565422 -0.063813298941 -0.63231498003 -2.8155953884 -0.19327259064 -0.5224930048
          -2.8009653091 0.022092198953 -0.32149419188 -2.5705890656 -0.0096552502364 -0.37767747045
          5.2214250565 0.24645899236 0.57607001066 5.2609939575 0.27832901478 0.92522102594
          4.9800801277 0.31590399146 0.82129001617 5.2841758728 0.46887099743 0.8069050312
          0.56008797884 0.052585806698 -0.68334698677 0.36064499617 -0.039502311498 -0.75520098209
          0.35398098826 -0.14804252982 -0.47525811195 0.4496409893 -0.20598120987 -0.64667701721
          3.6307458878 0.097795702517 0.69470512867 3.4329230785 0.25877740979 0.41826298833
          3.3609991074 0.066775999963 0.55516642332 3.7211930752 0.051226999611 0.43084198236
          4.0511579514 -0.20270109177 0.7991797924 4.0790348053 0.052158098668 0.78453868628
          3.9133279324 -0.075963594019 0.57894998789 4.2261519432 -0.095267094672 0.65937298536
          4.9794502258 -0.39840599895 0.61955702305 5.0733251572 -0.094601005316 0.53920000792
          5.2478318214 -0.29952001572 0.57194000483 5.1017589569 -0.19658398628 0.71833097935
          -4.8607320786 0.078173696995 -0.5131021142 -5 0.09418129921 -0.34129801393
          -4.7891550064 0.016387579963 -0.29043120146 -5 -0.13075700402 -0.36378800869
          -1.8419760466 0.17466241121 -0.33885499835 -1.8959770203 0.26786220074 -0.15826401114
          -1.8348480463 -0.01922108978 -0.21806798875 -2.0529088974 0.052241001278 -0.20910900831
          -0.17106099427 0.49157705903 -0.57271128893 -0.40303009748 0.49246281385 -0.4396699965
          -0.35219299793 0.31618493795 -0.60427820683 -0.3020440042 0.48588180542 -0.73787802458
          -1.2542339563 0.29450172186 -0.30690699816 -1.293176055 0.1205618009 -0.45924699306
          -1.4487729073 0.26224949956 -0.55564618111 -1.545979023 0.22976130247 -0.33403101563
          1.5581665039 -0.242820099 0.18669840693 1.7837769985 -0.11298939586 0.15795660019
          1.912476182 -0.21805660427 0.34040221572 1.6243675947 -0.24140480161 0.4665620923
          1.6749150753 -0.47052338719 0.39508730173 1.5581665039 -0.242820099 0.18669840693
          1.912476182 -0.21805660427 0.34040221572 1.6243675947 -0.24140480161 0.4665620923
          -3.9548974037 0.23137070239 -0.10864424706 -4.0038924217 0.48269051313 0.10539000481
          -3.8129053116 0.21391560137 0.11131499708 -4.0514550209 0.30707678199 0.23333111405
          4.7970080376 0.40450099111 0.99685043097 4.6475157738 0.38701429963 1.2527079582
          4.8725390434 0.29623439908 1.2086399794 4.6513729095 0.13981750607 1.2424490452
          -1.4055235386 0.16061809659 -0.77410399914 -1.6661914587 0.0097754001617 -0.81471097469
          -1.4074389935 -0.049107201397 -0.5518643856 -1.4535621405 -0.08741620183 -0.88498598337
          4.8725390434 0.29623439908 1.2086399794 4.6475157738 0.38701429963 1.2527079582
          4.7225232124 0.21502579749 1.4921859503 4.6513729095 0.13981750607 1.2424490452
          -2.9204330444 -0.13243819773 -0.19507199526 -3.1989395618 -0.20423613489 -0.036946997046
          -3.0159440041 -0.32825475931 -0.049925994128 -3.1080467701 -0.29268443584 -0.24082820117
          1.4299919605 -0.4650863111 -0.25022679567 1.3097800016 -0.27519398928 -0.1584803015
          1.3132139444 -0.24616961181 -0.5035700202 1.4434380531 -0.14066420496 -0.32838499546
          -0.055491000414 -0.26846665144 -0.58021008968 0.096351802349 -0.10763604939 -0.42178741097
          0.0696529001 -0.32972794771 -0.23890098929 -0.081785798073 -0.18698275089 -0.35594800115
          1.3132139444 -0.24616961181 -0.5035700202 1.1370209455 -0.2310988009 -0.34101459384
          1.3804830313 -0.0036427995656 -0.4926970005 1.4434380531 -0.14066420496 -0.32838499546
          -1.4041509628 -0.13285940886 -0.071116998792 -1.6200009584 -0.10922949761 -0.042343001813
          -1.4899309874 -0.36410149932 -0.064006000757 -1.5985989571 -0.27739399672 -0.2576969862
          -3.9158587456 -0.22345404327 -0.33129701018 -3.733959198 -0.32337343693 -0.43397399783
          -3.8566205502 -0.50966030359 -0.52288502455 -3.8035757542 -0.50670826435 -0.31858798862
          -2.7973310947 0.48305559158 -0.13842301071 -3.0837988853 0.48263069987 -0.33776900172
          -2.9400956631 0.27705860138 -0.27815890312 -2.9112796783 0.48190781474 -0.45949801803
          -0.092815898359 0.28653284907 -0.26267999411 -0.30593618751 0.24488276243 -0.24136300385
          -0.18545199931 0.22996643186 -0.47609320283 -0.22821579874 0.49608099461 -0.32180100679
          0.82692998648 -0.47690171003 -0.55843901634 0.81277400255 -0.48748779297 -0.2579177916
          0.63634902239 -0.49167880416 -0.31372991204 0.73383498192 -0.30438300967 -0.4254899919
          -0.30593618751 0.24488276243 -0.24136300385 -0.18545199931 0.22996643186 -0.47609320283
          -0.22821579874 0.49608099461 -0.32180100679 -0.40303009748 0.49246281385 -0.4396699965
          4.3321962357 -0.16034509242 0.88920331001 4.0511579514 -0.20270109177 0.7991797924
          4.0172262192 -0.24458359182 1.074458003 4.1675348282 -0.40187141299 0.870411098
          -4.0514550209 0.30707678199 0.23333111405 -3.7645668983 0.47991481423 0.33562999964
          -3.8129053116 0.21391560137 0.11131499708 -3.8718869686 0.28284701705 0.37479698658
          1.914431572 0.53861421347 0.26570081711 1.8545037508 0.351865381 0.36945268512
          2.0509207249 0.54013729095 0.59274601936 2.0810952187 0.34367528558 0.4289650023
          1.655272007 0.093524098396 -0.11352000386 1.5601570606 0.064071901143 0.17068810761
          1.6362780333 -0.19434309006 -0.1196873039 1.3978904486 -0.12460799515 0.020671008155
          -4.1448526382 0.14308868349 -0.26994079351 -3.9548974037 0.23137070239 -0.10864424706
          -3.8971295357 0.23590660095 -0.36395600438 -3.8473057747 -0.00070657959441 -0.13606338203
          5.0286197662 0.27560698986 1.0374772549 4.7970080376 0.40450099111 0.99685043097
          4.8725390434 0.29623439908 1.2086399794 4.7789177895 0.14037750661 0.96490341425
          3.9133279324 -0.075963594019 0.57894998789 4.0860438347 -0.014925898984 0.46736100316
          4.0790348053 0.052158098668 0.78453868628 3.9250519276 0.16208969057 0.46795699
          -1.8419760466 0.17466241121 -0.33885499835 -2.0245499611 0.48440909386 -0.34754398465
          -2.0933618546 0.23922790587 -0.44598591328 -1.9025046825 0.29032579064 -0.52002221346
          3.7608931065 -0.4066208899 0.33188599348 3.6210319996 -0.40883889794 0.49147000909
          3.5444030762 -0.40834650397 0.28405502439 3.7570819855 -0.18195958436 0.41518300772
          -1.1750420332 0.11218670756 -0.27856901288 -1.1158839464 0.17156629264 -0.093520998955
          -1.0854450464 -0.072821497917 -0.097055003047 -1.2953740358 0.05793229863 -0.080146998167
          5.0476732254 0.61224198341 1.0092389584 4.7970080376 0.40450099111 0.99685043097
          5.0286197662 0.27560698986 1.0374772549 4.9800801277 0.31590399146 0.82129001617
          3.7570819855 -0.18195958436 0.41518300772 3.9752399921 -0.40516790748 0.36332198977
          3.7608931065 -0.4066208899 0.33188599348 3.8355340958 -0.40645951033 0.54560798407
          -1.0344099998 -0.31266370416 -0.88067400455 -1.1241190434 -0.31656226516 -1.0943260193
          -1.1810113192 -0.49926784635 -0.8929489851 -1.0406808853 -0.49340972304 -1.0401200056
          4.527215004 0.58946532011 1.2835580111 4.7883992195 0.58720839024 1.4859639406
          4.7051949501 0.60293000937 1.1564450264 4.6475157738 0.38701429963 1.2527079582
          -3.3609697819 -0.25755804777 -0.25123178959 -3.5462591648 -0.3417108953 -0.29696801305
          -3.251019001 -0.50599706173 -0.25622180104 -3.3306560516 -0.50790274143 -0.51511698961
          -3.5462591648 -0.3417108953 -0.29696801305 -3.733959198 -0.32337343693 -0.43397399783
          -3.600661993 -0.50759500265 -0.39991500974 -3.4071218967 -0.27582120895 -0.49657699466
          -4.1843628883 -0.059714950621 -0.58763289452 -4.4088745117 0.030903441831 -0.32176870108
          -4.2235832214 -0.18397390842 -0.2816118896 -4.3847136497 -0.10933701694 -0.55893617868
          -2.0947520733 0.29650449753 -0.21109998226 -2.2913610935 0.16144010425 -0.25700899959
          -2.0529088974 0.052241001278 -0.20910900831 -2.0933618546 0.23922790587 -0.44598591328
          -2.819904089 0.037339199334 -0.66302698851 -2.8207395077 0.30260008574 -0.65172201395
          -2.8732545376 0.220630005 -0.8351380229 -2.6538431644 0.18475399911 -0.59675198793
          4.5794639587 -0.095555409789 0.80211597681 4.7822642326 -0.20231451094 0.72078299522
          4.6259679794 -0.40398031473 0.7512139678 4.7351660728 -0.16101920605 0.98147392273
          -0.83420801163 -0.058261297643 -0.10190299898 -0.85025602579 -0.29496991634 -0.10682400316
          -0.8307570219 -0.058059498668 -0.35817700624 -1.0108540058 -0.22747680545 -0.36507099867
          -3.4071218967 -0.27582120895 -0.49657699466 -3.600661993 -0.50759500265 -0.39991500974
          -3.5462591648 -0.3417108953 -0.29696801305 -3.3306560516 -0.50790274143 -0.51511698961
          -4.374229908 0.21605139971 0.18340799212 -4.1721348763 0.28047949076 -0.053690198809
          -4.2010884285 0.48155650496 0.20740970969 -4.3946790695 0.48465889692 0.11185610294
          1.3804830313 -0.0036427995656 -0.4926970005 1.5854810476 0.084593199193 -0.4168010056
          1.5975199938 -0.11391670257 -0.6415219903 1.4434380531 -0.14066420496 -0.32838499546
          -4.745464325 0.3263682127 0.25227379799 -4.6630234718 0.13930633664 0.15250210464
          -4.6333608627 0.15650126338 0.46339869499 -4.5572566986 0.23751859367 0.2899813056
          4.4798941612 0.42885500193 0.6264359951 4.5438528061 0.60426002741 0.8030000329
          4.5893030167 0.61060297489 0.61573702097 4.7657809258 0.38576200604 0.78052300215
          -2.0257306099 -0.031649298966 -0.9920539856 -1.825833559 0.060503903776 -1.0222599506
          -1.901250124 -0.024264600128 -0.80353200436 -2.0292806625 0.11994799972 -0.99204802513
          -0.44009780884 -0.045463498682 -0.38387098908 -0.4785284996 -0.28558018804 -0.089541003108
          -0.43998798728 -0.035619899631 -0.082337997854 -0.37324941158 -0.23546770215 -0.36768600345
          -4.2235832214 -0.18397390842 -0.2816118896 -4.0808696747 -0.048765938729 -0.15966640413
          -4.2165794373 -0.29792863131 -0.10957739502 -4.394712925 -0.0063827331178 -0.052065320313
          4.0488052368 -0.40442740917 0.66158497334 3.8910729885 -0.40569660068 0.7535443902
          4.0511579514 -0.20270109177 0.7991797924 3.9864780903 -0.40239870548 0.92023420334
          -4.0971708298 0.14169080555 0.095920503139 -4.1795921326 0.26754778624 0.41782468557
          -4.0624485016 0.11422649771 0.40121608973 -4.1840386391 -0.02179926075 0.21181380749
          -3.4821026325 -0.046573873609 0.11716599017 -3.6042940617 -0.28407350183 0.332062006
          -3.5214090347 -0.040553983301 0.31633499265 -3.3787970543 -0.14233914018 0.29122000933
          2.7572391033 -0.22472290695 -0.032116010785 2.7957570553 -0.42637899518 0.25317001343
          2.9301850796 -0.41978639364 0.12177300453 2.635833025 -0.42590990663 -0.026309985667
          -1.1287009716 0.49046784639 -0.31941500306 -1.2492990494 0.49424445629 -0.10197599977
          -1.2542339563 0.29450172186 -0.30690699816 -1.3793640137 0.48962751031 -0.2810100019
          3.4964818954 -0.10279240459 0.43279200792 3.6307458878 0.097795702517 0.69470512867
          3.6680510044 -0.16187010705 0.64812618494 3.3609991074 0.066775999963 0.55516642332
          3.8472468853 0.14682120085 0.8287910223 3.7448599339 0.30333548784 0.49451100826
          4.0052309036 0.2497472018 0.67321902514 3.8135120869 0.40065589547 0.74336141348
          2.5429031849 0.55357050896 0.69124501944 2.6536407471 0.42629250884 0.87590301037
          2.6725535393 0.38265278935 0.65312898159 2.4447433949 0.34735611081 0.78896600008
          -2.2434971333 -0.063827201724 -0.95553797483 -2.2304649353 -0.22556725144 -0.77245599031
          -2.4353275299 -0.11288639903 -0.92088502645 -2.3477945328 -0.017081549391 -0.75131797791
          -3.4652879238 0.12876489758 0.30643999577 -3.6565101147 0.11428040266 0.33922699094
          -3.5214090347 -0.040553983301 0.31633499265 -3.6940450668 -0.011909330264 0.12301498652
          4.7051949501 0.60293000937 1.1564450264 4.6475157738 0.38701429963 1.2527079582
          4.8725390434 0.29623439908 1.2086399794 4.7970080376 0.40450099111 0.99685043097
          2.0672409534 0.54569250345 -0.02698210068 1.9153610468 0.36894521117 -0.30883604288
          2.1508929729 0.55003911257 -0.24668708444 2.0072319508 0.54592597485 -0.34398621321
          3.4282515049 0.33187240362 0.97428900003 3.550276041 0.36652091146 0.69562649727
          3.4896070957 0.099841497838 0.92870599031 3.690030098 0.28598979115 0.94812899828
          -0.55649799109 -0.51590490341 -0.39866101742 -0.37324941158 -0.23546770215 -0.36768600345
          -0.51817697287 -0.33874639869 -0.53937000036 -0.39079099894 -0.51813417673 -0.27170100808
          -0.47170200944 -0.50193786621 -0.68685621023 -0.51817697287 -0.33874639869 -0.53937000036
          -0.49614500999 -0.18467617035 -0.78485298157 -0.29999598861 -0.31015944481 -0.61351531744
          4.7377829552 0.60829901695 0.77481901646 4.6236991882 0.60261398554 0.97155320644
          4.9471430779 0.61130398512 0.85095900297 4.7970080376 0.40450099111 0.99685043097
          -0.29999598861 -0.31015944481 -0.61351531744 -0.42318299413 -0.15868732333 -0.55037420988
          -0.28265699744 -0.012162780389 -0.58007609844 -0.37324941158 -0.23546770215 -0.36768600345
          4.7051949501 0.60293000937 1.1564450264 4.6475157738 0.38701429963 1.2527079582
          4.9242591858 0.60738301277 1.1569290161 4.8725390434 0.29623439908 1.2086399794
          1.9838659763 -0.058840800077 0.22020068765 2.2780179977 -0.12498279661 0.35640898347
          2.1206483841 -0.27323719859 0.41196197271 2.0134241581 0.082406297326 0.37211599946
          -0.27925050259 -0.14596910775 -0.065104998648 -0.062883600593 -0.026130199432 -0.024199999869
          -0.081785798073 -0.18698275089 -0.35594800115 -0.056981399655 -0.33009880781 -0.03277400136
          4.6309452057 0.20724229515 0.45776200294 4.548661232 0.31044599414 0.7846570015
          4.8283820152 0.36398798227 0.50014001131 4.7792887688 0.17319969833 0.70396101475
          2.0688860416 -0.10810660571 -0.024964602664 2.1151509285 0.051999751478 0.097855910659
          2.2508289814 -0.099022090435 0.14436070621 1.9838659763 -0.058840800077 0.22020068765
          -2.3340997696 0.29154390097 -0.43325453997 -2.3224203587 0.14642329514 -0.60301297903
          -2.3831152916 0.479411304 -0.7015529871 -2.4720232487 0.27283710241 -0.72016400099
          -4.3444986343 -0.49644988775 0.069615103304 -4.4882779121 -0.32354712486 0.15183719993
          -4.2297291756 -0.32805991173 0.13521359861 -4.3543543816 -0.49132984877 0.25861698389
          -3.7853329182 0.48204940557 0.059275992215 -3.5950241089 0.48102658987 0.19185300171
          -3.8129053116 0.21391560137 0.11131499708 -3.7645668983 0.47991481423 0.33562999964
          -0.87940299511 -0.1013680622 -1.096660018 -0.64104998112 -0.30240130424 -0.9189350009
          -0.82459098101 -0.20698645711 -0.80915498734 -0.65971499681 -0.068506918848 -0.89710998535
          1.4299919605 -0.4650863111 -0.25022679567 1.3097800016 -0.27519398928 -0.1584803015
          1.2600870132 -0.46586328745 -0.47155499458 1.3132139444 -0.24616961181 -0.5035700202
          -4.2873783112 -0.33291450143 -0.56937742233 -4.2235832214 -0.18397390842 -0.2816118896
          -4.1002011299 -0.31287899613 -0.40952581167 -4.2843179703 -0.50610029697 -0.3169965148
          -4.1843628883 -0.059714950621 -0.58763289452 -4.1002011299 -0.31287899613 -0.40952581167
          -4.2873783112 -0.33291450143 -0.56937742233 -4.2235832214 -0.18397390842 -0.2816118896
          -0.30593618751 0.24488276243 -0.24136300385 -0.6164612174 0.29320520163 -0.31236797571
          -0.45164808631 0.18338213861 -0.40235000849 -0.54038512707 0.49495917559 -0.25420597196
          -0.012552999891 -0.06247812137 -1.0391819477 0.073527999222 0.1395072788 -1.023146987
          0.14842510223 0.040421258658 -0.80009198189 -0.084298998117 0.0080306082964 -0.84863698483
          -3.8473057747 -0.00070657959441 -0.13606338203 -3.7167961597 -0.29400056601 -0.18038730323
          -3.5523664951 0.0045121996664 -0.18042999506 -3.5914151669 -0.15871548653 -0.36829999089
          -2.3835964203 -0.32359841466 -0.41965642571 -2.6131467819 -0.26515978575 -0.30168119073
          -2.4840130806 -0.30007189512 -0.074917010963 -2.4960739613 -0.50847524405 -0.33113560081
          4.995156765 0.16772520542 0.52926999331 4.9800801277 0.31590399146 0.82129001617
          5.0496749878 0.39370700717 0.54334002733 5.2214250565 0.24645899236 0.57607001066
          4.3505711555 0.60127097368 0.76294797659 4.5438528061 0.60426002741 0.8030000329
          4.5893030167 0.61060297489 0.61573702097 4.4798941612 0.42885500193 0.6264359951
          1.4299919605 -0.4650863111 -0.25022679567 1.1713650227 -0.47730788589 -0.15520529449
          1.2600870132 -0.46586328745 -0.47155499458 1.3097800016 -0.27519398928 -0.1584803015
          4.548661232 0.31044599414 0.7846570015 4.285888195 0.099320337176 0.90528231859
          4.4424939156 0.089347399771 0.64447599649 4.2886710167 0.33758100867 0.66382801533
          -2.1201012135 -0.050273101777 -0.70986998081 -2.1139371395 -0.28715011477 -0.97770702839
          -2.0371425152 -0.34191715717 -0.78012096882 -1.901250124 -0.024264600128 -0.80353200436
          3.3609991074 0.066775999963 0.55516642332 3.0947101116 0.28387919068 0.62956798077
          3.3003060818 0.23398950696 0.76375299692 3.1101438999 0.080181010067 0.45569860935
          4.0751972198 0.034389801323 1.3754040003 4.33537817 0.096284002066 1.4644019604
          4.2345128059 0.15581940114 1.1804380417 4.2263350487 -0.055008299649 1.4182280302
          -0.67207598686 -0.50358366966 -0.68930828571 -0.55649799109 -0.51590490341 -0.39866101742
          -0.51817697287 -0.33874639869 -0.53937000036 -0.47170200944 -0.50193786621 -0.68685621023
          2.2763319016 0.28125241399 -0.14818999171 2.3807709217 0.34840109944 0.17629000545
          2.4682879448 0.38555598259 -0.10436999053 2.2439339161 0.21964900196 0.058875899762
          -0.10962300003 0.48779779673 -0.82918798923 -0.17106099427 0.49157705903 -0.57271128893
          -0.17038999498 0.33329957724 -0.6997410059 -0.3020440042 0.48588180542 -0.73787802458
          4.8456058502 -0.1037119925 1.1854159832 4.9225811958 -0.41055479646 1.0575927496
          4.6833701134 -0.40567740798 1.2680499554 4.9736399651 -0.40930470824 1.310732007
          -0.83420801163 -0.058261297643 -0.10190299898 -0.65379941463 -0.29078039527 -0.10148400068
          -0.62142932415 -0.09965570271 -0.097244001925 -0.76909697056 -0.29619181156 -0.33838999271
          1.3614029884 0.52470320463 -0.1519087255 1.5727180243 0.33926710486 -0.070410497487
          1.3844920397 0.52349030972 0.14648000896 1.6795022488 0.53295719624 0.087283298373
          2.6677677631 -0.20719739795 0.85902500153 2.4849748611 -0.2620677948 0.78334200382
          2.5335454941 -0.19222688675 0.50451397896 2.5507669449 -0.059395201504 0.81727099419
          -0.42318299413 -0.15868732333 -0.55037420988 -0.70339399576 -0.074503429234 -0.67528831959
          -0.51164197922 0.025980791077 -0.55774062872 -0.63126498461 -0.15162830055 -0.47663301229
          0.58373397589 0.27239969373 -0.33771339059 0.52244597673 0.28034487367 -0.58197897673
          0.70016598701 0.50710338354 -0.40990638733 0.41060099006 0.50051188469 -0.52816462517
          3.9209868908 -0.049528494477 0.94006299973 4.1932888031 -0.10509669781 1.111093998
          4.0172262192 -0.24458359182 1.074458003 3.9359619617 0.090236805379 1.1565029621
          0.86059832573 -0.49077758193 -0.080404996872 0.91907000542 -0.28306537867 -0.28310790658
          0.81277400255 -0.48748779297 -0.2579177916 0.9440330267 -0.47934010625 -0.38176751137
          4.2858800888 -0.1588639915 0.36022999883 4.4468998909 -0.11275999993 0.40511700511
          4.4464259148 -0.17551660538 0.63643395901 4.2261519432 -0.095267094672 0.65937298536
          2.0875871181 0.32275497913 0.17387519777 2.0134241581 0.082406297326 0.37211599946
          2.2926232815 0.21838380396 0.36620301008 2.1151509285 0.051999751478 0.097855910659
          -3.0590620041 0.043446499854 -0.27457588911 -2.8009653091 0.022092198953 -0.32149419188
          -2.9400956631 0.27705860138 -0.27815890312 -2.9424054623 0.1131972 -0.47736001015
          5.0476732254 0.61224198341 1.0092389584 4.9242591858 0.60738301277 1.1569290161
          5.0302901268 0.43874397874 1.1967389584 4.7970080376 0.40450099111 0.99685043097
          0.97589570284 -0.18196713924 0.2518529892 0.95090967417 -0.35872739553 0.2368170023
          0.79302960634 -0.29305431247 -0.039216998965 0.75087296963 -0.33744975924 0.1757349968
          -4.7891550064 0.016387579963 -0.29043120146 -5 0.1004910022 -0.10199099779
          -5 -0.16616299748 -0.067754097283 -5 -0.13075700402 -0.36378800869
          1.5581665039 -0.242820099 0.18669840693 1.7837769985 -0.11298939586 0.15795660019
          1.6362780333 -0.19434309006 -0.1196873039 1.8784749508 -0.24840208888 0.010538879782
          -3.2429180145 0.19009520113 -0.47103300691 -3.2075111866 0.26916709542 -0.76702600718
          -3.1758265495 0.071973100305 -0.7731680274 -3.0509493351 0.29688620567 -0.58453899622
          0.93168497086 0.052144400775 -0.6099550128 1.1139479876 0.04362449795 -0.78375899792
          0.97156202793 -0.18440270424 -0.83044797182 1.1848659515 -0.12604640424 -0.76831799746
          -2.1283559799 0.094898201525 0.043953001499 -2.0947520733 0.29650449753 -0.21109998226
          -2.0546720028 0.3103351891 0.029857000336 -2.2799999714 0.29279088974 0.072902999818
          0.6468949914 -0.072852902114 -0.91035401821 0.36064499617 -0.039502311498 -0.75520098209
          0.54373598099 -0.25898191333 -0.94053697586 0.43230000138 -0.066396504641 -0.95820701122
          -1.2481642962 0.04549119994 -0.89113599062 -1.5627611876 0.064892105758 -1.05468297
          -1.323502183 -0.038665849715 -1.075633049 -1.2635279894 0.19011539221 -1.0803289413
          0.30108499527 0.17071788013 -0.6524900198 0.31418091059 0.094848684967 -0.98210698366
          0.15515929461 0.27147474885 -0.81783097982 0.14842510223 0.040421258658 -0.80009198189
          2.0688860416 -0.10810660571 -0.024964602664 2.2007000446 -0.030069796368 -0.17213380337
          2.2508289814 -0.099022090435 0.14436070621 2.1151509285 0.051999751478 0.097855910659
          -1.7352849245 0.25046640635 -1.035277009 -1.6661914587 0.0097754001617 -0.81471097469
          -1.5809962749 0.26638999581 -0.86372798681 -1.5627611876 0.064892105758 -1.05468297
          3.0665662289 0.3753657043 0.82187402248 3.3003060818 0.23398950696 0.76375299692
          3.245980978 0.052640799433 0.88878798485 3.1853451729 0.33565509319 1.0903539658
          2.0085380077 -0.44803181291 -0.051146503538 2.1323330402 -0.24952030182 -0.2159884125
          2.0688860416 -0.10810660571 -0.024964602664 1.8784749508 -0.24840208888 0.010538879782
          0.14842510223 0.040421258658 -0.80009198189 0.31418091059 0.094848684967 -0.98210698366
          0.15515929461 0.27147474885 -0.81783097982 0.073527999222 0.1395072788 -1.023146987
          -0.94496697187 0.078266300261 -1.0942200422 -0.85043102503 0.031999699771 -0.80896800756
          -0.81324702501 0.26146668196 -0.86965799332 -0.78103899956 0.039071749896 -1.0954949856
          -4.3568739891 -0.16453392804 0.20460030437 -4.4813494682 0.022646209225 0.2389934808
          -4.5570960045 -0.13278326392 -0.03384745121 -4.394712925 -0.0063827331178 -0.052065320313
          -4.792386055 0.26623538136 -0.51841771603 -4.7826919556 0.30165764689 -0.29666978121
          -4.6259469986 0.16757617891 -0.22007699311 -4.7891550064 0.016387579963 -0.29043120146
          4.285888195 0.099320337176 0.90528231859 4.2772049904 0.36336359382 0.94083797932
          4.0778617859 0.38755699992 0.83571088314 4.2886710167 0.33758100867 0.66382801533
          -4.1157817841 0.48770108819 -0.3238914907 -4.2460803986 0.48600909114 -0.044718399644
          -3.9854476452 0.48504701257 -0.10422489792 -4.1721348763 0.28047949076 -0.053690198809
          2.7912619114 0.22470119596 0.5612180233 2.5975399017 0.036539699882 0.30856120586
          2.6809933186 0.045304298401 0.64524197578 2.8575510979 0.064445592463 0.36333754659
          1.85224998 -0.44815999269 -0.31117022038 1.9479429722 -0.26660808921 -0.33822989464
          2.1323330402 -0.24952030182 -0.2159884125 2.0085380077 -0.44803181291 -0.051146503538
          2.2839529514 0.55297267437 -0.13702598214 2.4682879448 0.38555598259 -0.10436999053
          2.533821106 0.36376240849 -0.31047001481 2.2763319016 0.28125241399 -0.14818999171
          -0.055491000414 -0.26846665144 -0.58021008968 0.13293649256 -0.12217481434 -0.6249139905
          0.23998099566 -0.31517469883 -0.51127868891 0.096351802349 -0.10763604939 -0.42178741097
          -1.5961900949 -0.24007625878 -0.77421802282 -1.6368409395 -0.014472581446 -0.55414676666
          -1.6305606365 -0.29367351532 -0.52340888977 -1.8874305487 -0.20946229994 -0.68173897266
          -1.9025046825 0.29032579064 -0.52002221346 -1.8747121096 0.0029144007713 -0.49748280644
          -2.0933618546 0.23922790587 -0.44598591328 -1.8419760466 0.17466241121 -0.33885499835
          -2.3835964203 -0.32359841466 -0.41965642571 -2.4840130806 -0.30007189512 -0.074917010963
          -2.3604021072 -0.51019489765 -0.16444499791 -2.4960739613 -0.50847524405 -0.33113560081
          1.5734430552 0.53300869465 -0.47562000155 1.562005043 0.53115862608 -0.25408700109
          1.7200000286 0.27868279815 -0.33277949691 1.40358603 0.24286289513 -0.3494130075
          2.0875871181 0.32275497913 0.17387519777 2.2926232815 0.21838380396 0.36620301008
          2.1985135078 0.54629540443 0.35489299893 2.3807709217 0.34840109944 0.17629000545
          3.8637049198 0.57652932405 1.0168390274 3.807289362 0.56469881535 1.2195600271
          4.0632171631 0.57045120001 1.2416960001 3.8319048882 0.3724052906 1.1257870197
          4.3783740997 0.40928810835 1.4540369511 4.2064089775 0.54333531857 1.4228320122
          4.2366080284 0.27729278803 1.4644019604 4.2713618279 0.37677168846 1.2242929935
          4.2476382256 0.56425100565 0.3695769906 4.309071064 0.60760998726 0.56352597475
          4.4331560135 0.52280199528 0.42006701231 4.2886710167 0.33758100867 0.66382801533
          -0.83050501347 -0.26468807459 -0.57061237097 -1.0108540058 -0.22747680545 -0.36507099867
          -0.76909697056 -0.29619181156 -0.33838999271 -0.99892598391 -0.51049762964 -0.55400800705
          1.4434380531 -0.14066420496 -0.32838499546 1.655272007 0.093524098396 -0.11352000386
          1.4162900448 0.058589901775 -0.19647470117 1.5854810476 0.084593199193 -0.4168010056
          -3.7167961597 -0.29400056601 -0.18038730323 -3.6591205597 -0.502214849 -0.015271005221
          -3.5503668785 -0.17767935991 -0.019175993279 -3.5096030235 -0.50470131636 -0.15045179427
          -0.6087269187 0.024860799313 -0.30977600813 -0.76909697056 -0.29619181156 -0.33838999271
          -0.62142932415 -0.09965570271 -0.097244001925 -0.56078988314 -0.3168579042 -0.30044898391
          -0.62142932415 -0.09965570271 -0.097244001925 -0.4785284996 -0.28558018804 -0.089541003108
          -0.43998798728 -0.035619899631 -0.082337997854 -0.56078988314 -0.3168579042 -0.30044898391
          -4.6960554123 0.49519553781 -0.24164129794 -4.67258358 0.49731987715 -0.45437440276
          -4.907037735 0.49900719523 -0.297534585 -4.7826919556 0.30165764689 -0.29666978121
          -0.55649799109 -0.51590490341 -0.39866101742 -0.76909697056 -0.29619181156 -0.33838999271
          -0.51817697287 -0.33874639869 -0.53937000036 -0.56078988314 -0.3168579042 -0.30044898391
          -1.2275027037 0.26585769653 -0.64385217428 -1.1938619614 0.03204099834 -0.66020560265
          -1.075802207 0.17113420367 -0.81510698795 -1.4055235386 0.16061809659 -0.77410399914
          -1.075802207 0.17113420367 -0.81510698795 -1.2275027037 0.26585769653 -0.64385217428
          -0.90989202261 0.24085079134 -0.62744837999 -1.1938619614 0.03204099834 -0.66020560265
          -3.1325054169 -0.50747013092 -0.43627199531 -3.1080467701 -0.29268443584 -0.24082820117
          -3.251019001 -0.50599706173 -0.25622180104 -3.3609697819 -0.25755804777 -0.25123178959
          1.4162900448 0.058589901775 -0.19647470117 1.655272007 0.093524098396 -0.11352000386
          1.40358603 0.24286289513 -0.3494130075 1.5854810476 0.084593199193 -0.4168010056
          0.066189996898 -0.13907346129 -0.85989201069 -0.084298998117 0.0080306082964 -0.84863698483
          0.13293649256 -0.12217481434 -0.6249139905 -0.14045800269 -0.19142946601 -0.79101097584
          -2.8941919804 0.276453197 -0.0076509867795 -2.9699950218 0.48249959946 -0.0066279866733
          -3.0553820133 0.29404971004 0.22911499441 -3.1628189087 0.48208609223 0.07378398627
          -0.83175802231 0.47526419163 -1.0315499306 -1.1717802286 0.47396370769 -1.0808559656
          -0.90296202898 0.47852620482 -0.86588096619 -1.1206613779 0.30866101384 -1.0912829638
          -0.95145201683 0.22650431097 -1.0941970348 -0.81324702501 0.26146668196 -0.86965799332
          -1.075802207 0.17113420367 -0.81510698795 -1.1206613779 0.30866101384 -1.0912829638
          -0.27925050259 -0.14596910775 -0.065104998648 -0.088332302868 0.076261751354 -0.21729001403
          -0.2487116009 0.11720266938 -0.055061001331 -0.264005512 0.0059295003302 -0.30922400951
          -2.4518558979 0.48177570105 -0.4138597846 -2.5502791405 0.25031089783 -0.30732250214
          -2.3905160427 0.48403820395 -0.18478998542 -2.3340997696 0.29154390097 -0.43325453997
          4.0488052368 -0.40442740917 0.66158497334 3.9864780903 -0.40239870548 0.92023420334
          4.0511579514 -0.20270109177 0.7991797924 4.1675348282 -0.40187141299 0.870411098
          -2.7973310947 0.48305559158 -0.13842301071 -2.9400956631 0.27705860138 -0.27815890312
          -2.8941919804 0.276453197 -0.0076509867795 -2.741081953 0.32292592525 -0.24629439414
          -1.0361119509 0.21812960505 -0.37398898602 -1.2542339563 0.29450172186 -0.30690699816
          -1.0550040007 0.40813687444 -0.10020700097 -1.1158839464 0.17156629264 -0.093520998955
          -4.6583003998 -0.19147884846 0.13825491071 -4.7949709892 -0.27444934845 -0.028330069035
          -4.7839722633 -0.32270756364 0.2961961925 -4.8250303268 -0.49250531197 0.14701525867
          1.3844920397 0.52349030972 0.14648000896 1.543838501 0.32068037987 0.19921569526
          1.4660654068 0.43263700604 0.43621888757 1.6495490074 0.52970409393 0.32440179586
          -2.8796532154 -0.32189744711 -0.3305183053 -3.1450257301 -0.19032800198 -0.44944301248
          -3.1325054169 -0.50747013092 -0.43627199531 -3.0045845509 -0.31262481213 -0.59387999773
          -2.8796532154 -0.32189744711 -0.3305183053 -2.8155953884 -0.19327259064 -0.5224930048
          -3.0045845509 -0.31262481213 -0.59387999773 -2.9167158604 -0.50708723068 -0.47135400772
          3.6307458878 0.097795702517 0.69470512867 3.7448599339 0.30333548784 0.49451100826
          3.9250519276 0.16208969057 0.46795699 3.8472468853 0.14682120085 0.8287910223
          -0.62441599369 0.23691308498 -1.0922019482 -0.95145201683 0.22650431097 -1.0941970348
          -0.81324702501 0.26146668196 -0.86965799332 -0.78103899956 0.039071749896 -1.0954949856
          -3.9273982048 0.42422729731 -0.62899297476 -3.7273154259 0.27898979187 -0.49260097742
          -3.8699226379 0.21788460016 -0.63997101784 -3.8971295357 0.23590660095 -0.36395600438
          0.41305398941 0.29973137379 -0.76187801361 0.31418091059 0.094848684967 -0.98210698366
          0.15515929461 0.27147474885 -0.81783097982 0.30108499527 0.17071788013 -0.6524900198
          3.1256771088 0.35985979438 0.17385299504 2.8127799034 0.36863431334 0.39534589648
          3.0462920666 0.35370859504 0.42864450812 2.8881449699 0.23836348951 0.18792100251
          -0.47170200944 -0.50193786621 -0.68685621023 -0.55649799109 -0.51590490341 -0.39866101742
          -0.51817697287 -0.33874639869 -0.53937000036 -0.26617699862 -0.50942438841 -0.44230300188
          -3.4343647957 -0.1506202966 -0.72061800957 -3.5520818233 -0.30605709553 -0.697009027
          -3.5939254761 -0.0081771295518 -0.69047999382 -3.5914151669 -0.15871548653 -0.36829999089
          1.9838659763 -0.058840800077 0.22020068765 2.2508289814 -0.099022090435 0.14436070621
          2.2780179977 -0.12498279661 0.35640898347 2.0134241581 0.082406297326 0.37211599946
          3.7570819855 -0.18195958436 0.41518300772 3.4964818954 -0.10279240459 0.43279200792
          3.5444030762 -0.40834650397 0.28405502439 3.4389131069 -0.21940618753 0.24159599841
          -3.8971295357 0.23590660095 -0.36395600438 -4.0919904709 0.29906708002 -0.39470338821
          -3.7656788826 0.48673638701 -0.49626898766 -3.8077201843 0.48553070426 -0.30209600925
          -2.2283110619 -0.34106051922 -0.12456599623 -2.1452450752 -0.48567259312 0.046202000231
          -2.1493499279 -0.51199901104 -0.23114798963 -2.3604021072 -0.51019489765 -0.16444499791
          2.977586031 0.57245218754 0.10077200085 2.8252680302 0.56484931707 0.31118530035
          3.1256771088 0.35985979438 0.17385299504 2.8881449699 0.23836348951 0.18792100251
          -3.8129053116 0.21391560137 0.11131499708 -3.8654940128 0.059473201632 0.37344399095
          -3.6565101147 0.11428040266 0.33922699094 -3.6940450668 -0.011909330264 0.12301498652
          1.5727180243 0.33926710486 -0.070410497487 1.8019828796 0.22406680882 0.18662501872
          1.5601570606 0.064071901143 0.17068810761 1.543838501 0.32068037987 0.19921569526
          -5 -0.26007699966 0.21836000681 -4.7839722633 -0.32270756364 0.2961961925
          -4.7917890549 -0.033734429628 0.26267528534 -4.6583003998 -0.19147884846 0.13825491071
          -1.0845546722 0.4788222909 -0.80185699463 -1.3714095354 0.48100718856 -0.68255013227
          -1.2323629856 0.48578119278 -0.53944307566 -1.2275027037 0.26585769653 -0.64385217428
          -1.5961900949 -0.24007625878 -0.77421802282 -1.2655464411 -0.30120876431 -0.88210499287
          -1.3103187084 -0.16647019982 -0.72021299601 -1.4535621405 -0.08741620183 -0.88498598337
          -3.6940450668 -0.011909330264 0.12301498652 -3.8215641975 -0.23188085854 0.091413997114
          -3.5503668785 -0.17767935991 -0.019175993279 -3.8473057747 -0.00070657959441 -0.13606338203
          -1.0845546722 0.4788222909 -0.80185699463 -1.2323629856 0.48578119278 -0.53944307566
          -0.98683398962 0.4838886857 -0.57747471333 -1.2275027037 0.26585769653 -0.64385217428
          2.5975399017 0.036539699882 0.30856120586 2.8154499531 -0.22758620977 0.35329309106
          2.5335454941 -0.19222688675 0.50451397896 2.824450016 -0.10761829466 0.55310499668
          -4.8607320786 0.078173696995 -0.5131021142 -4.792386055 0.26623538136 -0.51841771603
          -4.7826919556 0.30165764689 -0.29666978121 -5 0.09418129921 -0.34129801393
          4.5119929314 -0.044536296278 1.1272319555 4.3321962357 -0.16034509242 0.88920331001
          4.285888195 0.099320337176 0.90528231859 4.1932888031 -0.10509669781 1.111093998
          -1.0854450464 -0.072821497917 -0.097055003047 -1.2953740358 0.05793229863 -0.080146998167
          -1.2214440107 -0.234099105 -0.087950997055 -1.2152099609 -0.081209897995 -0.31830999255
          -2.7973310947 0.48305559158 -0.13842301071 -3.133988142 0.48230528831 -0.1387040019
          -2.9699950218 0.48249959946 -0.0066279866733 -2.9400956631 0.27705860138 -0.27815890312
          -0.18545199931 0.22996643186 -0.47609320283 -0.45164808631 0.18338213861 -0.40235000849
          -0.28265699744 -0.012162780389 -0.58007609844 -0.35219299793 0.31618493795 -0.60427820683
          1.8510379791 0.076726302505 -0.29504978657 1.655272007 0.093524098396 -0.11352000386
          1.5854810476 0.084593199193 -0.4168010056 1.7200000286 0.27868279815 -0.33277949691
          1.1952601671 -0.29477098584 0.064541012049 1.0654981136 -0.48984488845 0.18946000934
          0.98844081163 -0.48904711008 0.035179998726 0.95090967417 -0.35872739553 0.2368170023
          1.912476182 -0.21805660427 0.34040221572 1.9601919651 -0.45431318879 0.13470560312
          2.0660989285 -0.22966709733 0.14300569892 1.8784749508 -0.24840208888 0.010538879782
          -4.3444986343 -0.49644988775 0.069615103304 -4.2297291756 -0.32805991173 0.13521359861
          -4.0447149277 -0.49747499824 0.14612358809 -4.3543543816 -0.49132984877 0.25861698389
          -2.1485760212 0.26226508617 -0.74843597412 -2.1449475288 0.47599279881 -0.93732100725
          -1.9643406868 0.25973030925 -1.0027730465 -1.8841609955 0.47777590156 -0.81263101101
          4.7789177895 0.14037750661 0.96490341425 4.4793419838 0.2869952023 1.1247149706
          4.6513729095 0.13981750607 1.2424490452 4.5335330963 0.11206749827 0.92334389687
          3.1758000851 0.57594889402 0.29714500904 3.1256771088 0.35985979438 0.17385299504
          3.3498690128 0.38853508234 0.25040599704 3.3937470913 0.42309600115 0.025817999616
          -2.3400249481 -0.19343669713 -0.23309500515 -2.0529088974 0.052241001278 -0.20910900831
          -2.2999050617 -0.0097464201972 -0.11074100435 -2.0975265503 -0.075285196304 -0.43518251181
          4.3321962357 -0.16034509242 0.88920331001 4.0511579514 -0.20270109177 0.7991797924
          4.1932888031 -0.10509669781 1.111093998 4.0172262192 -0.24458359182 1.074458003
          -3.8077201843 0.48553070426 -0.30209600925 -3.9548974037 0.23137070239 -0.10864424706
          -3.8971295357 0.23590660095 -0.36395600438 -3.9854476452 0.48504701257 -0.10422489792
          0.8415030241 0.30299159884 -0.85388797522 0.70296800137 0.32958817482 -0.69135397673
          0.94843697548 0.30960980058 -0.61462700367 0.94738799334 0.12911939621 -0.82793599367
          1.2600870132 -0.46586328745 -0.47155499458 1.1713650227 -0.47730788589 -0.15520529449
          0.9440330267 -0.47934010625 -0.38176751137 1.1370209455 -0.2310988009 -0.34101459384
          3.8757009506 -0.27522069216 0.20697000623 3.9752399921 -0.40516790748 0.36332198977
          3.7608931065 -0.4066208899 0.33188599348 3.7570819855 -0.18195958436 0.41518300772
          3.8757009506 -0.27522069216 0.20697000623 3.8754689693 -0.016982000321 0.21258999407
          4.1229319572 -0.1651879102 0.30276998878 3.7570819855 -0.18195958436 0.41518300772
          3.9133279324 -0.075963594019 0.57894998789 3.8355340958 -0.40645951033 0.54560798407
          3.7570819855 -0.18195958436 0.41518300772 3.6680510044 -0.16187010705 0.64812618494
          -3.0590620041 0.043446499854 -0.27457588911 -2.7577950954 0.15421199799 -0.14046099782
          -3.0849509239 0.17763519287 -0.079053997993 -2.9400956631 0.27705860138 -0.27815890312
          0.81277400255 -0.48748779297 -0.2579177916 0.68045121431 -0.49612438679 -0.13406600058
          0.63634902239 -0.49167880416 -0.31372991204 0.67708927393 -0.18054930866 -0.18623100221
          -2.5705890656 -0.0096552502364 -0.37767747045 -2.8009653091 0.022092198953 -0.32149419188
          -2.7577950954 0.15421199799 -0.14046099782 -2.5937309265 -0.094380997121 -0.091197997332
          -0.27925050259 -0.14596910775 -0.065104998648 -0.264005512 0.0059295003302 -0.30922400951
          -0.2487116009 0.11720266938 -0.055061001331 -0.43998798728 -0.035619899631 -0.082337997854
          -3.9273982048 0.42422729731 -0.62899297476 -3.7656788826 0.48673638701 -0.49626898766
          -3.7273154259 0.27898979187 -0.49260097742 -3.8971295357 0.23590660095 -0.36395600438
          -0.96610802412 -0.023699499667 -0.59952700138 -1.075802207 0.17113420367 -0.81510698795
          -1.1938619614 0.03204099834 -0.66020560265 -1.0723729134 -0.088602088392 -0.8404250145
          -0.96610802412 -0.023699499667 -0.59952700138 -1.1938619614 0.03204099834 -0.66020560265
          -1.0780789852 -0.26223245263 -0.61954492331 -1.0723729134 -0.088602088392 -0.8404250145
          -4.7839722633 -0.32270756364 0.2961961925 -4.6952867508 -0.18051728606 0.4779253006
          -4.4945139885 -0.24172013998 0.45762220025 -4.6849908829 -0.4852682054 0.41684499383
          3.4964818954 -0.10279240459 0.43279200792 3.2239820957 -0.14030811191 0.26961100101
          3.1153120995 -0.17042639852 0.52375102043 3.3867809772 -0.23781871796 0.5709104538
          -1.7870930433 -0.33796232939 -0.8220590353 -1.9412852526 -0.50214797258 -0.90207898617
          -1.9995814562 -0.50839465857 -0.5625320673 -1.6989388466 -0.50504058599 -0.72892701626
          2.9585413933 -0.41264221072 0.97368997335 2.8574714661 -0.22937789559 0.73542100191
          3.167424202 -0.4212833941 0.82355499268 2.900462389 -0.18088708818 0.95662897825
          -1.4074389935 -0.049107201397 -0.5518643856 -1.6305606365 -0.29367351532 -0.52340888977
          -1.4155100584 -0.21666789055 -0.40096598864 -1.2913279533 -0.31723329425 -0.56081938744
          -1.4155100584 -0.21666789055 -0.40096598864 -1.6305606365 -0.29367351532 -0.52340888977
          -1.4011659622 -0.51028960943 -0.56537860632 -1.2913279533 -0.31723329425 -0.56081938744
          -0.55649799109 -0.51590490341 -0.39866101742 -0.76909697056 -0.29619181156 -0.33838999271
          -0.70222002268 -0.52214252949 -0.27207800746 -0.80718201399 -0.50908124447 -0.54855680466
          5.2886118889 -0.19004799426 0.81414800882 5.2391929626 -0.046786397696 1.0306526423
          5.0362038612 -0.1984565109 1.0518586636 4.9587922096 -0.11951480061 0.84872800112
          -0.42215698957 0.32589438558 -1.0801579952 -0.50009101629 0.076063752174 -0.91057896614
          -0.55084097385 0.27224868536 -0.88415497541 -0.33919200301 0.20730000734 -0.79884600639
          -0.8307570219 -0.058059498668 -0.35817700624 -1.0854450464 -0.072821497917 -0.097055003047
          -0.96485602856 0.047094900161 -0.10023099929 -0.83420801163 -0.058261297643 -0.10190299898
          -4.394712925 -0.0063827331178 -0.052065320313 -4.3568739891 -0.16453392804 0.20460030437
          -4.1840386391 -0.02179926075 0.21181380749 -4.1034150124 -0.18890102208 0.022778199986
          3.1400530338 -0.41660821438 0.24456399679 3.0793170929 -0.24457119405 0.11937200278
          3.0323710442 -0.2302993089 0.32912188768 2.9719080925 -0.42173939943 0.30924770236
          2.3794255257 -0.41916438937 0.73524999619 2.2495288849 -0.45216780901 0.5471829772
          2.5104129314 -0.4431695044 0.58892899752 2.3304371834 -0.26972290874 0.49684798717
          -2.5874330997 -0.50843310356 -0.077546991408 -2.5996620655 -0.2836445868 0.13820500672
          -2.8014369011 -0.27421984076 -0.022419007495 -2.4840130806 -0.30007189512 -0.074917010963
          2.9183690548 -0.10514099896 0.18946899474 2.8154499531 -0.22758620977 0.35329309106
          3.0323710442 -0.2302993089 0.32912188768 2.9301850796 -0.41978639364 0.12177300453
          0.49290901423 -0.27051791549 -0.38118758798 0.67708927393 -0.18054930866 -0.18623100221
          0.63634902239 -0.49167880416 -0.31372991204 0.44537511468 -0.27799990773 -0.12429698557
          3.0793170929 -0.24457119405 0.11937200278 2.9183690548 -0.10514099896 0.18946899474
          3.2239820957 -0.14030811191 0.26961100101 3.0323710442 -0.2302993089 0.32912188768
          0.24357970059 -0.27066677809 0.034074999392 0.31893050671 -0.015289099887 -0.15932199359
          0.071282997727 -0.17594109476 -0.0039079999551 0.24777440727 -0.18341463804 -0.29771098495
          -4.2245573997 -0.0047437800094 0.42267590761 -4.4945139885 -0.24172013998 0.45762220025
          -4.1561627388 -0.30235728621 0.4173707962 -4.3568739891 -0.16453392804 0.20460030437
          0.61904597282 -0.48145249486 -0.62268102169 0.65387302637 -0.44024658203 -0.92117100954
          0.87940001488 -0.37989571691 -0.86367201805 0.73838502169 -0.23838828504 -0.67500901222
          -2.3400249481 -0.19343669713 -0.23309500515 -2.2999050617 -0.0097464201972 -0.11074100435
          -2.3289134502 -0.0023192001972 -0.42081850767 -2.0975265503 -0.075285196304 -0.43518251181
          -4.0000076294 -0.12829710543 0.39358600974 -4.2245573997 -0.0047437800094 0.42267590761
          -4.1561627388 -0.30235728621 0.4173707962 -4.1840386391 -0.02179926075 0.21181380749
          -4.67258358 0.49731987715 -0.45437440276 -4.8738484383 0.47361603379 -0.50984418392
          -4.7826919556 0.30165764689 -0.29666978121 -4.792386055 0.26623538136 -0.51841771603
          -4.0000076294 -0.12829710543 0.39358600974 -3.9542860985 -0.041209600866 0.17256499827
          -4.1840386391 -0.02179926075 0.21181380749 -4.0265545845 -0.28167268634 0.21848671138
          0.12283880264 0.27401307225 -0.19243100286 -0.020758699626 0.49720421433 -0.34290099144
          -0.092815898359 0.28653284907 -0.26267999411 0.10719139874 0.28679504991 -0.54870027304
          3.6017444134 -0.40726909041 1.038525939 3.599364996 -0.13409550488 0.90844702721
          3.465408802 -0.29649040103 1.1825380325 3.3624682426 -0.19947208464 0.94604200125
          4.2886710167 0.33758100867 0.66382801533 4.2772049904 0.36336359382 0.94083797932
          4.548661232 0.31044599414 0.7846570015 4.285888195 0.099320337176 0.90528231859
          -0.49614500999 -0.18467617035 -0.78485298157 -0.50009101629 0.076063752174 -0.91057896614
          -0.31712800264 -0.025899430737 -0.85415101051 -0.51164197922 0.025980791077 -0.55774062872
          0.33304131031 0.20393286645 -0.24557299912 0.12283880264 0.27401307225 -0.19243100286
          0.098207399249 -0.032019931823 -0.19597899914 0.0546566993 0.13170881569 -0.364466995
          -3.2902696133 0.27174562216 0.025448989123 -3.5273160934 0.29413831234 0.15600700676
          -3.5492799282 0.4825848937 -0.0015599994222 -3.3706200123 0.48187199235 0.10127900541
          1.3978904486 -0.12460799515 0.020671008155 1.6362780333 -0.19434309006 -0.1196873039
          1.3097800016 -0.27519398928 -0.1584803015 1.4941439629 -0.30191999674 -0.0081950007007
          3.0462920666 0.35370859504 0.42864450812 2.8575510979 0.064445592463 0.36333754659
          3.1101438999 0.080181010067 0.45569860935 2.8881449699 0.23836348951 0.18792100251
          1.5854810476 0.084593199193 -0.4168010056 1.8998550177 0.038344699889 -0.53832769394
          1.5975199938 -0.11391670257 -0.6415219903 1.7244919538 -0.11605580151 -0.38782680035
          5.0733251572 -0.094601005316 0.53920000792 5.3150639534 0.048920102417 0.68501400948
          5.2478318214 -0.29952001572 0.57194000483 5.1017589569 -0.19658398628 0.71833097935
          -0.41128501296 -0.48971751332 -0.99034798145 -0.48082599044 -0.31821736693 -1.0916539431
          -0.64104998112 -0.30240130424 -0.9189350009 -0.66408002377 -0.41804593801 -1.1008930206
          -2.7996120453 -0.02800030075 -0.034934002906 -2.7577950954 0.15421199799 -0.14046099782
          -2.7196071148 0.012619300745 0.16217699647 -2.8941919804 0.276453197 -0.0076509867795
          0.95090967417 -0.35872739553 0.2368170023 0.86573559046 -0.49677124619 0.15245500207
          0.98844081163 -0.48904711008 0.035179998726 0.79302960634 -0.29305431247 -0.039216998965
          2.1151509285 0.051999751478 0.097855910659 2.3748869896 0.069039702415 0.16169330478
          2.2439339161 0.21964900196 0.058875899762 2.2007000446 -0.030069796368 -0.17213380337
          -0.89386701584 0.49129199982 -0.34832200408 -0.98683398962 0.4838886857 -0.57747471333
          -1.1287009716 0.49046784639 -0.31941500306 -1.0361119509 0.21812960505 -0.37398898602
          -0.89386701584 0.49129199982 -0.34832200408 -1.1287009716 0.49046784639 -0.31941500306
          -1.0550040007 0.40813687444 -0.10020700097 -1.0361119509 0.21812960505 -0.37398898602
          -0.8307570219 -0.058059498668 -0.35817700624 -0.76909697056 -0.29619181156 -0.33838999271
          -0.62142932415 -0.09965570271 -0.097244001925 -0.6087269187 0.024860799313 -0.30977600813
          -3.0660376549 -0.035237099975 -0.601772964 -3.3833937645 -0.032667398453 -0.48868498206
          -3.1450257301 -0.19032800198 -0.44944301248 -3.1794657707 -0.17824740708 -0.77178901434
          -5 0.09418129921 -0.34129801393 -5 0.1004910022 -0.10199099779
          -4.7891550064 0.016387579963 -0.29043120146 -5 -0.13075700402 -0.36378800869
          -1.8654859066 -0.17263565958 -1.0173939466 -2.1139371395 -0.28715011477 -0.97770702839
          -2.0371425152 -0.34191715717 -0.78012096882 -1.8414185047 -0.36941739917 -1.0222549438
          -1.4074389935 -0.049107201397 -0.5518643856 -1.2152099609 -0.081209897995 -0.31830999255
          -1.3984810114 0.086329601705 -0.26900598407 -1.293176055 0.1205618009 -0.45924699306
          -1.8519480228 0.40634250641 -0.0071279997937 -1.8772009611 0.48616209626 -0.20101100206
          -1.8959770203 0.26786220074 -0.15826401114 -1.6865179539 0.27380079031 -0.033339001238
          -5 0.32793700695 0.27663400769 -4.8927183151 0.49172759056 0.30637028813
          -4.745464325 0.3263682127 0.25227379799 -4.9696040154 0.31183549762 0.46324345469
          0.82692998648 -0.47690171003 -0.55843901634 0.87940001488 -0.37989571691 -0.86367201805
          0.99080097675 -0.46790888906 -0.68673402071 0.73838502169 -0.23838828504 -0.67500901222
          -4.1795921326 0.26754778624 0.41782468557 -4.374229908 0.21605139971 0.18340799212
          -4.4532856941 0.16817709804 0.44724240899 -4.2245573997 -0.0047437800094 0.42267590761
          4.0488052368 -0.40442740917 0.66158497334 4.0511579514 -0.20270109177 0.7991797924
          4.2745900154 -0.40359979868 0.66799497604 4.1675348282 -0.40187141299 0.870411098
          -3.5939254761 -0.0081771295518 -0.69047999382 -3.5914151669 -0.15871548653 -0.36829999089
          -3.5941543579 0.02097989805 -0.47818499804 -3.4343647957 -0.1506202966 -0.72061800957
          -5 -0.16616299748 -0.067754097283 -5 -0.13075700402 -0.36378800869
          -5 -0.33370301127 -0.29875099659 -4.7889413834 -0.29244363308 -0.33276119828
          2.6714880466 0.016336200759 -0.27357900143 2.5682160854 -0.13655368984 -0.3176009953
          2.5325028896 -0.2637206018 -0.12680798769 2.7572391033 -0.22472290695 -0.032116010785
          1.655272007 0.093524098396 -0.11352000386 1.5601570606 0.064071901143 0.17068810761
          1.7837769985 -0.11298939586 0.15795660019 1.6362780333 -0.19434309006 -0.1196873039
          0.48899298906 -0.47851881385 -0.81525802612 0.65387302637 -0.44024658203 -0.92117100954
          0.73838502169 -0.23838828504 -0.67500901222 0.54373598099 -0.25898191333 -0.94053697586
          -3.9548974037 0.23137070239 -0.10864424706 -4.0971708298 0.14169080555 0.095920503139
          -3.8129053116 0.21391560137 0.11131499708 -3.8473057747 -0.00070657959441 -0.13606338203
          3.7040190697 0.031617399305 1.0519629717 3.4896070957 0.099841497838 0.92870599031
          3.3044917583 0.12322919816 1.1306680441 3.4149284363 -0.092121005058 1.167222023
          4.6102437973 -0.26420500875 0.44404000044 4.8261451721 -0.19942000508 0.48777401447
          4.7822642326 -0.20231451094 0.72078299522 4.6600642204 -0.03085799329 0.45767199993
          4.5119929314 -0.044536296278 1.1272319555 4.4337921143 0.1125216037 1.254134059
          4.285888195 0.099320337176 0.90528231859 4.5335330963 0.11206749827 0.92334389687
          -3.8077201843 0.48553070426 -0.30209600925 -3.71869874 0.25738021731 -0.13884219527
          -3.9548974037 0.23137070239 -0.10864424706 -3.9854476452 0.48504701257 -0.10422489792
          -0.43940600753 -0.13465237617 -1.0850310326 -0.50009101629 0.076063752174 -0.91057896614
          -0.3908880055 0.018037790433 -1.0773969889 -0.31712800264 -0.025899430737 -0.85415101051
          0.096351802349 -0.10763604939 -0.42178741097 0.13293649256 -0.12217481434 -0.6249139905
          0.35398098826 -0.14804252982 -0.47525811195 0.25168299675 0.024994578212 -0.46399909258
          -3.71869874 0.25738021731 -0.13884219527 -3.9854476452 0.48504701257 -0.10422489792
          -3.7853329182 0.48204940557 0.059275992215 -3.9548974037 0.23137070239 -0.10864424706
          3.0793170929 -0.24457119405 0.11937200278 2.9719080925 -0.42173939943 0.30924770236
          3.1400530338 -0.41660821438 0.24456399679 2.9301850796 -0.41978639364 0.12177300453
          -0.55649799109 -0.51590490341 -0.39866101742 -0.56078988314 -0.3168579042 -0.30044898391
          -0.51817697287 -0.33874639869 -0.53937000036 -0.37324941158 -0.23546770215 -0.36768600345
          -0.51817697287 -0.33874639869 -0.53937000036 -0.56078988314 -0.3168579042 -0.30044898391
          -0.63126498461 -0.15162830055 -0.47663301229 -0.37324941158 -0.23546770215 -0.36768600345
          -3.5914151669 -0.15871548653 -0.36829999089 -3.5523664951 0.0045121996664 -0.18042999506
          -3.3023517132 0.0064315996133 -0.24028472602 -3.3609697819 -0.25755804777 -0.25123178959
          -1.6200009584 -0.10922949761 -0.042343001813 -1.684795022 0.12831169367 -0.21073399484
          -1.8348480463 -0.01922108978 -0.21806798875 -1.5760400295 -0.030635099858 -0.29671400785
          1.1952601671 -0.29477098584 0.064541012049 1.3097800016 -0.27519398928 -0.1584803015
          1.3978904486 -0.12460799515 0.020671008155 1.1842939854 -0.12854279578 -0.092633001506
          3.690030098 0.28598979115 0.94812899828 3.7040190697 0.031617399305 1.0519629717
          3.8472468853 0.14682120085 0.8287910223 3.4896070957 0.099841497838 0.92870599031
          4.6223192215 0.42864599824 0.46175301075 4.4798941612 0.42885500193 0.6264359951
          4.5893030167 0.61060297489 0.61573702097 4.7657809258 0.38576200604 0.78052300215
          -4.1840386391 -0.02179926075 0.21181380749 -4.2245573997 -0.0047437800094 0.42267590761
          -4.0624485016 0.11422649771 0.40121608973 -4.0000076294 -0.12829710543 0.39358600974
          -3.0849509239 0.17763519287 -0.079053997993 -3.3023517132 0.0064315996133 -0.24028472602
          -3.3095912933 0.2773117125 -0.21319679916 -3.302652359 0.038016501814 0.04223600775
          -0.10962300003 0.48779779673 -0.82918798923 -0.17038999498 0.33329957724 -0.6997410059
          -0.091403998435 0.28790903091 -0.89287102222 -0.3020440042 0.48588180542 -0.73787802458
          -4.7780652046 -0.0085761295632 -0.01886684075 -4.7917890549 -0.033734429628 0.26267528534
          -4.6630234718 0.13930633664 0.15250210464 -4.6583003998 -0.19147884846 0.13825491071
          0.92705971003 0.28618240356 0.2508969903 0.74646031857 0.32201400399 -0.03702198714
          0.86728978157 0.51141232252 0.092799015343 0.75077849627 0.37738004327 0.19743099809
          0.54373598099 -0.25898191333 -0.94053697586 0.4496409893 -0.20598120987 -0.64667701721
          0.48899298906 -0.47851881385 -0.81525802612 0.20165160298 -0.28208371997 -0.78509497643
          1.6243675947 -0.24140480161 0.4665620923 1.5581665039 -0.242820099 0.18669840693
          1.4301359653 -0.33039590716 0.39710000157 1.6749150753 -0.47052338719 0.39508730173
          -5 -0.004447159823 0.13623799384 -5 -0.26007699966 0.21836000681
          -4.7917890549 -0.033734429628 0.26267528534 -4.6583003998 -0.19147884846 0.13825491071
          -4.7780652046 -0.0085761295632 -0.01886684075 -5 -0.004447159823 0.13623799384
          -4.7917890549 -0.033734429628 0.26267528534 -4.6583003998 -0.19147884846 0.13825491071
          -0.62142932415 -0.09965570271 -0.097244001925 -0.4785284996 -0.28558018804 -0.089541003108
          -0.56078988314 -0.3168579042 -0.30044898391 -0.65379941463 -0.29078039527 -0.10148400068
          1.4434380531 -0.14066420496 -0.32838499546 1.4162900448 0.058589901775 -0.19647470117
          1.1638020277 0.033433400095 -0.21218000352 1.3804830313 -0.0036427995656 -0.4926970005
          1.7636737823 0.046389199793 0.32517156005 2.0134241581 0.082406297326 0.37211599946
          1.912476182 -0.21805660427 0.34040221572 1.8082741499 -0.041739497334 0.53896141052
          1.6795022488 0.53295719624 0.087283298373 1.562005043 0.53115862608 -0.25408700109
          1.3614029884 0.52470320463 -0.1519087255 1.5727180243 0.33926710486 -0.070410497487
          0.096351802349 -0.10763604939 -0.42178741097 0.25168299675 0.024994578212 -0.46399909258
          0.24777440727 -0.18341463804 -0.29771098495 0.098207399249 -0.032019931823 -0.19597899914
          1.7900329828 0.53836679459 -0.22017219663 1.7200000286 0.27868279815 -0.33277949691
          1.562005043 0.53115862608 -0.25408700109 1.5727180243 0.33926710486 -0.070410497487
          3.2239820957 -0.14030811191 0.26961100101 2.9183690548 -0.10514099896 0.18946899474
          2.9649469852 0.070412486792 0.048234000802 3.1981549263 0.12413520366 0.16969101131
          -1.6305606365 -0.29367351532 -0.52340888977 -1.8747121096 0.0029144007713 -0.49748280644
          -1.8079010248 -0.20703689754 -0.34597599506 -1.8874305487 -0.20946229994 -0.68173897266
          0.81067937613 -0.037577752024 -0.03468298912 0.67708927393 -0.18054930866 -0.18623100221
          0.7164170146 -0.01385910064 -0.332908988 0.53519868851 0.048687562346 -0.13842900097
          -2.0933618546 0.23922790587 -0.44598591328 -2.0975265503 -0.075285196304 -0.43518251181
          -2.0529088974 0.052241001278 -0.20910900831 -1.8747121096 0.0029144007713 -0.49748280644
          -1.8747121096 0.0029144007713 -0.49748280644 -1.9367829561 0.15483479202 -0.66529297829
          -1.6368409395 -0.014472581446 -0.55414676666 -1.6599514484 0.24216479063 -0.65762501955
          3.4389131069 -0.21940618753 0.24159599841 3.3867809772 -0.23781871796 0.5709104538
          3.3344159126 -0.41385099292 0.43574500084 3.2239820957 -0.14030811191 0.26961100101
          -2.3289134502 -0.0023192001972 -0.42081850767 -2.0975265503 -0.075285196304 -0.43518251181
          -2.1776151657 -0.33875748515 -0.37888690829 -2.3400249481 -0.19343669713 -0.23309500515
          4.9568657875 -0.20041409135 1.3308819532 4.7135901451 -0.22733098269 1.489552021
          4.6833701134 -0.40567740798 1.2680499554 4.6312479973 -0.18212139606 1.2574429512
          -0.45164808631 0.18338213861 -0.40235000849 -0.75858801603 0.17240820825 -0.42690300941
          -0.6087269187 0.024860799313 -0.30977600813 -0.51164197922 0.025980791077 -0.55774062872
          1.5581665039 -0.242820099 0.18669840693 1.6362780333 -0.19434309006 -0.1196873039
          1.4941439629 -0.30191999674 -0.0081950007007 1.8784749508 -0.24840208888 0.010538879782
          -4.1843628883 -0.059714950621 -0.58763289452 -4.0446949005 -0.034010000527 -0.39543700218
          -4.1002011299 -0.31287899613 -0.40952581167 -4.2235832214 -0.18397390842 -0.2816118896
          -3.2429180145 0.19009520113 -0.47103300691 -3.0509493351 0.29688620567 -0.58453899622
          -3.0660376549 -0.035237099975 -0.601772964 -2.9424054623 0.1131972 -0.47736001015
          2.5429031849 0.55357050896 0.69124501944 2.6725535393 0.38265278935 0.65312898159
          2.4725689888 0.38891109824 0.53518199921 2.4447433949 0.34735611081 0.78896600008
          -4.1157817841 0.48770108819 -0.3238914907 -4.3738183975 0.24991054833 -0.14364899695
          -4.2460803986 0.48600909114 -0.044718399644 -4.1721348763 0.28047949076 -0.053690198809
          3.3003060818 0.23398950696 0.76375299692 3.550276041 0.36652091146 0.69562649727
          3.4896070957 0.099841497838 0.92870599031 3.4282515049 0.33187240362 0.97428900003
          3.4282515049 0.33187240362 0.97428900003 3.0665662289 0.3753657043 0.82187402248
          3.1853451729 0.33565509319 1.0903539658 3.3003060818 0.23398950696 0.76375299692
          3.197124958 0.55400508642 1.1030919552 3.4009900093 0.56842762232 0.97544896603
          3.1853451729 0.33565509319 1.0903539658 3.4282515049 0.33187240362 0.97428900003
          -4.7949709892 -0.27444934845 -0.028330069035 -4.7671570778 -0.49938252568 -0.076874218881
          -4.8250303268 -0.49250531197 0.14701525867 -4.5417332649 -0.49570846558 0.045956496149
          -2.5996620655 -0.2836445868 0.13820500672 -2.6173989773 -0.49825462699 0.14134299755
          -2.3538520336 -0.5108473897 0.052726007998 -2.4840130806 -0.30007189512 -0.074917010963
          -0.65971499681 -0.068506918848 -0.89710998535 -0.87940299511 -0.1013680622 -1.096660018
          -0.85043102503 0.031999699771 -0.80896800756 -0.82459098101 -0.20698645711 -0.80915498734
          3.8712925911 0.060066998005 1.3235830069 3.947902441 -0.095926292241 1.3428709507
          4.0751972198 0.034389801323 1.3754040003 3.9359619617 0.090236805379 1.1565029621
          3.9209868908 -0.049528494477 0.94006299973 3.7040190697 0.031617399305 1.0519629717
          3.7870020866 -0.19021171331 1.074723959 3.599364996 -0.13409550488 0.90844702721
          -1.0854450464 -0.072821497917 -0.097055003047 -1.2152099609 -0.081209897995 -0.31830999255
          -1.0108540058 -0.22747680545 -0.36507099867 -1.0315690041 0.001321600168 -0.39257600904
          3.9359619617 0.090236805379 1.1565029621 3.8741321564 0.28035160899 1.3299449682
          4.0558829308 0.27783259749 1.3923959732 3.8712925911 0.060066998005 1.3235830069
          3.690030098 0.28598979115 0.94812899828 3.550276041 0.36652091146 0.69562649727
          3.8135120869 0.40065589547 0.74336141348 3.6906139851 0.57666391134 0.86979299784
          3.550276041 0.36652091146 0.69562649727 3.7727000713 0.59062451124 0.58069598675
          3.8135120869 0.40065589547 0.74336141348 3.6906139851 0.57666391134 0.86979299784
          1.7291409969 -0.28722119331 -0.28180330992 1.6978210211 -0.28733319044 -0.61622899771
          1.90753901 -0.28872641921 -0.54777610302 1.7244919538 -0.11605580151 -0.38782680035
          -2.8796532154 -0.32189744711 -0.3305183053 -3.0045845509 -0.31262481213 -0.59387999773
          -3.1325054169 -0.50747013092 -0.43627199531 -2.9167158604 -0.50708723068 -0.47135400772
          -0.65971499681 -0.068506918848 -0.89710998535 -0.64104998112 -0.30240130424 -0.9189350009
          -0.82459098101 -0.20698645711 -0.80915498734 -0.66083502769 -0.29501193762 -0.69995200634
          2.4399039745 -0.10959740728 -0.0052800015546 2.6479671001 -0.18968589604 0.18436330557
          2.7066569328 0.013594998047 0.026080995798 2.7572391033 -0.22472290695 -0.032116010785
          1.3129299879 -0.29227387905 -0.73667401075 1.1848659515 -0.12604640424 -0.76831799746
          1.0520069599 -0.24730080366 -0.58848804235 0.97156202793 -0.18440270424 -0.83044797182
          -1.7018979788 0.48639988899 -0.31914901733 -1.684795022 0.12831169367 -0.21073399484
          -1.545979023 0.22976130247 -0.33403101563 -1.7097920179 0.31207630038 -0.45334500074
          5.2039008141 -0.31573709846 1.1745685339 4.9225811958 -0.41055479646 1.0575927496
          5.0362038612 -0.1984565109 1.0518586636 4.9736399651 -0.40930470824 1.310732007
          -0.90989202261 0.24085079134 -0.62744837999 -1.0361119509 0.21812960505 -0.37398898602
          -1.0315690041 0.001321600168 -0.39257600904 -0.96610802412 -0.023699499667 -0.59952700138
          2.7232918739 -0.43851751089 0.85738897324 2.4849748611 -0.2620677948 0.78334200382
          2.7102086544 -0.435593009 0.59967702627 2.6677677631 -0.20719739795 0.85902500153
          -1.2214440107 -0.234099105 -0.087950997055 -1.2152099609 -0.081209897995 -0.31830999255
          -1.4041509628 -0.13285940886 -0.071116998792 -1.224069953 -0.31939327717 -0.31514698267
          -1.2152099609 -0.081209897995 -0.31830999255 -1.1750420332 0.11218670756 -0.27856901288
          -1.0854450464 -0.072821497917 -0.097055003047 -1.2953740358 0.05793229863 -0.080146998167
          3.6068017483 0.56949651241 1.0521490574 3.8319048882 0.3724052906 1.1257870197
          3.8637049198 0.57652932405 1.0168390274 3.6906139851 0.57666391134 0.86979299784
          1.5581665039 -0.242820099 0.18669840693 1.5601570606 0.064071901143 0.17068810761
          1.7837769985 -0.11298939586 0.15795660019 1.5706268549 -0.052340894938 0.45530718565
          -2.3289134502 -0.0023192001972 -0.42081850767 -2.0975265503 -0.075285196304 -0.43518251181
          -2.3835964203 -0.32359841466 -0.41965642571 -2.1776151657 -0.33875748515 -0.37888690829
          3.9250519276 0.16208969057 0.46795699 4.0860438347 -0.014925898984 0.46736100316
          4.0827860832 0.11810979992 0.29750001431 3.8754689693 -0.016982000321 0.21258999407
          0.49290901423 -0.27051791549 -0.38118758798 0.41597700119 -0.49056598544 -0.53072541952
          0.61904597282 -0.48145249486 -0.62268102169 0.4496409893 -0.20598120987 -0.64667701721
          0.98700541258 -0.19875110686 -0.078704997897 0.97177040577 0.064062602818 -0.1233580038
          1.1638020277 0.033433400095 -0.21218000352 1.1842939854 -0.12854279578 -0.092633001506
          2.810836792 0.55920171738 0.76666796207 3.0665662289 0.3753657043 0.82187402248
          2.8261909485 0.28350150585 0.9414550066 2.9692933559 0.5583781004 0.99691599607
          1.1842939854 -0.12854279578 -0.092633001506 0.98700541258 -0.19875110686 -0.078704997897
          0.87983602285 -0.093330197036 -0.22511909902 1.1638020277 0.033433400095 -0.21218000352
          -3.8129053116 0.21391560137 0.11131499708 -3.9542860985 -0.041209600866 0.17256499827
          -3.8654940128 0.059473201632 0.37344399095 -3.6940450668 -0.011909330264 0.12301498652
          -3.8473057747 -0.00070657959441 -0.13606338203 -3.8043015003 -0.00087310036179 -0.39245098829
          -3.7167961597 -0.29400056601 -0.18038730323 -3.5914151669 -0.15871548653 -0.36829999089
          -3.8473057747 -0.00070657959441 -0.13606338203 -3.9158587456 -0.22345404327 -0.33129701018
          -3.7167961597 -0.29400056601 -0.18038730323 -3.8043015003 -0.00087310036179 -0.39245098829
          -0.61225312948 -0.48133009672 -0.10661300272 -0.4785284996 -0.28558018804 -0.089541003108
          -0.56078988314 -0.3168579042 -0.30044898391 -0.39079099894 -0.51813417673 -0.27170100808
          3.947902441 -0.095926292241 1.3428709507 4.2263350487 -0.055008299649 1.4182280302
          4.1932888031 -0.10509669781 1.111093998 4.1478528976 -0.20111000538 1.3932329416
          4.0751972198 0.034389801323 1.3754040003 4.2263350487 -0.055008299649 1.4182280302
          4.2345128059 0.15581940114 1.1804380417 4.1932888031 -0.10509669781 1.111093998
          3.947902441 -0.095926292241 1.3428709507 4.0751972198 0.034389801323 1.3754040003
          4.1932888031 -0.10509669781 1.111093998 4.2263350487 -0.055008299649 1.4182280302
          -0.04301200062 0.17476075888 -0.718306005 0.10719139874 0.28679504991 -0.54870027304
          0.30108499527 0.17071788013 -0.6524900198 -0.045155998319 0.014279329218 -0.54846435785
          -0.04301200062 0.17476075888 -0.718306005 -0.045155998319 0.014279329218 -0.54846435785
          -0.18545199931 0.22996643186 -0.47609320283 0.10719139874 0.28679504991 -0.54870027304
          2.9075191021 0.029458599165 -0.18439200521 2.7572391033 -0.22472290695 -0.032116010785
          2.9599170685 -0.19250740111 -0.1730210036 2.7099030018 -0.25898209214 -0.27057000995
          1.2022919655 0.33101278543 -0.21015967429 1.0401221514 0.23939830065 -0.032525006682
          0.84688097239 0.325525105 -0.34160640836 0.98131197691 0.51418298483 -0.26199400425
          3.5444030762 -0.40834650397 0.28405502439 3.4964818954 -0.10279240459 0.43279200792
          3.6210319996 -0.40883889794 0.49147000909 3.4389131069 -0.21940618753 0.24159599841
          3.0461831093 0.56736302376 0.63019996881 3.4191789627 0.57933980227 0.56054317951
          3.2744851112 0.38130360842 0.56395947933 3.2735610008 0.57003730536 0.75401997566
          0.17703129351 0.49817833304 -0.43983438611 0.32533699274 0.30109125376 -0.45768621564
          0.15476429462 0.49982050061 -0.22475299239 0.36727958918 0.50212621689 -0.31630799174
          0.41060099006 0.50051188469 -0.52816462517 0.32533699274 0.30109125376 -0.45768621564
          0.17703129351 0.49817833304 -0.43983438611 0.36727958918 0.50212621689 -0.31630799174
          0.9749379158 0.10632624477 0.26197698712 0.807526052 0.036346398294 0.20567299426
          0.85527962446 0.15694072843 0.023737987503 0.72277122736 0.1972938925 0.1844419986
          -0.83050501347 -0.26468807459 -0.57061237097 -0.88709700108 -0.50346982479 -0.72862702608
          -0.99892598391 -0.51049762964 -0.55400800705 -0.80718201399 -0.50908124447 -0.54855680466
          0.32533699274 0.30109125376 -0.45768621564 0.17703129351 0.49817833304 -0.43983438611
          0.22630690038 0.49578845501 -0.65596997738 0.41060099006 0.50051188469 -0.52816462517
          0.30108499527 0.17071788013 -0.6524900198 0.25168299675 0.024994578212 -0.46399909258
          0.10719139874 0.28679504991 -0.54870027304 0.32533699274 0.30109125376 -0.45768621564
          1.4162900448 0.058589901775 -0.19647470117 1.40358603 0.24286289513 -0.3494130075
          1.2022919655 0.33101278543 -0.21015967429 1.1638020277 0.033433400095 -0.21218000352
          -3.8971295357 0.23590660095 -0.36395600438 -3.7273154259 0.27898979187 -0.49260097742
          -3.6243565083 0.17590141296 -0.3374350071 -3.8077201843 0.48553070426 -0.30209600925
          -3.9332222939 -0.36795258522 -0.62505298853 -3.8566205502 -0.50966030359 -0.52288502455
          -4.1405329704 -0.51005542278 -0.4925802052 -4.1002011299 -0.31287899613 -0.40952581167
          0.73383498192 -0.30438300967 -0.4254899919 0.4496409893 -0.20598120987 -0.64667701721
          0.73838502169 -0.23838828504 -0.67500901222 0.6582840085 -0.086143799126 -0.53992497921
          -2.6924591064 0.48232129216 -0.35847869515 -2.741081953 0.32292592525 -0.24629439414
          -2.638958931 0.48359829187 -0.078652016819 -2.5502791405 0.25031089783 -0.30732250214
          -0.83420801163 -0.058261297643 -0.10190299898 -0.85646498203 0.17925000191 -0.10178700089
          -0.6087269187 0.024860799313 -0.30977600813 -0.65999889374 0.24785794318 -0.095564998686
          -0.83420801163 -0.058261297643 -0.10190299898 -0.65999889374 0.24785794318 -0.095564998686
          -0.6087269187 0.024860799313 -0.30977600813 -0.62142932415 -0.09965570271 -0.097244001925
          0.61904597282 -0.48145249486 -0.62268102169 0.87940001488 -0.37989571691 -0.86367201805
          0.82692998648 -0.47690171003 -0.55843901634 0.73838502169 -0.23838828504 -0.67500901222
          -1.5961900949 -0.24007625878 -0.77421802282 -1.7870930433 -0.33796232939 -0.8220590353
          -1.6989388466 -0.50504058599 -0.72892701626 -1.5869110823 -0.50118023157 -0.88304901123
          -3.4454441071 0.45380440354 -0.71922898293 -3.2644114494 0.48313009739 -0.43453800678
          -3.4724879265 0.27005422115 -0.50610899925 -3.5693891048 0.4848459959 -0.46422702074
          0.36064499617 -0.039502311498 -0.75520098209 0.25168299675 0.024994578212 -0.46399909258
          0.49993100762 0.0054506729357 -0.41626721621 0.35398098826 -0.14804252982 -0.47525811195
          4.372276783 -0.18564900756 1.2451930046 4.4911990166 -0.39900299907 1.2523469925
          4.2914719582 -0.39629501104 1.270524025 4.4186382294 -0.39407101274 1.4219969511
          -3.0837988853 0.48263069987 -0.33776900172 -3.3095912933 0.2773117125 -0.21319679916
          -3.133988142 0.48230528831 -0.1387040019 -2.9400956631 0.27705860138 -0.27815890312
          1.6559460163 -0.46090990305 -0.083716340363 1.6287219524 -0.45572260022 -0.34583300352
          1.85224998 -0.44815999269 -0.31117022038 1.7291409969 -0.28722119331 -0.28180330992
          1.6559460163 -0.46090990305 -0.083716340363 1.7291409969 -0.28722119331 -0.28180330992
          1.85224998 -0.44815999269 -0.31117022038 1.8268829584 -0.45585429668 -0.0072320010513
          -0.38844299316 0.49596226215 -0.19252300262 -0.30593618751 0.24488276243 -0.24136300385
          -0.22821579874 0.49608099461 -0.32180100679 -0.40303009748 0.49246281385 -0.4396699965
          4.2886710167 0.33758100867 0.66382801533 4.1542201042 0.59776520729 0.72164899111
          4.309071064 0.60760998726 0.56352597475 4.3505711555 0.60127097368 0.76294797659
          -2.8014369011 -0.27421984076 -0.022419007495 -3.0159440041 -0.32825475931 -0.049925994128
          -2.8594679832 -0.50669443607 -0.096579000354 -2.8796532154 -0.32189744711 -0.3305183053
          3.8754689693 -0.016982000321 0.21258999407 3.7907569408 0.2246016115 0.18572899699
          3.7211930752 0.051226999611 0.43084198236 3.6490149498 0.068853497505 0.12046000361
          3.6307458878 0.097795702517 0.69470512867 3.8135120869 0.40065589547 0.74336141348
          3.8472468853 0.14682120085 0.8287910223 3.690030098 0.28598979115 0.94812899828
          -3.4147019386 -0.30549126863 0.2988910079 -3.0995531082 -0.23698805273 0.23871299624
          -3.3787970543 -0.14233914018 0.29122000933 -3.3824651241 -0.30312857032 0.073741987348
          3.6307458878 0.097795702517 0.69470512867 3.690030098 0.28598979115 0.94812899828
          3.8472468853 0.14682120085 0.8287910223 3.4896070957 0.099841497838 0.92870599031
          -4.374229908 0.21605139971 0.18340799212 -4.5572566986 0.23751859367 0.2899813056
          -4.6630234718 0.13930633664 0.15250210464 -4.5292730331 0.2915058732 0.031001500785
          -2.0292806625 0.11994799972 -0.99204802513 -2.1201012135 -0.050273101777 -0.70986998081
          -1.9367829561 0.15483479202 -0.66529297829 -1.901250124 -0.024264600128 -0.80353200436
          -4.3847136497 -0.10933701694 -0.55893617868 -4.4642100334 -0.19895298779 -0.3199582994
          -4.2235832214 -0.18397390842 -0.2816118896 -4.2873783112 -0.33291450143 -0.56937742233
          2.7232918739 -0.43851751089 0.85738897324 2.7102086544 -0.435593009 0.59967702627
          2.9244709015 -0.4294475019 0.74562698603 2.8574714661 -0.22937789559 0.73542100191
          -2.1485760212 0.26226508617 -0.74843597412 -2.1201012135 -0.050273101777 -0.70986998081
          -1.9367829561 0.15483479202 -0.66529297829 -2.0292806625 0.11994799972 -0.99204802513
          -4.3847136497 -0.10933701694 -0.55893617868 -4.4689326286 -0.28248617053 -0.54752629995
          -4.4642100334 -0.19895298779 -0.3199582994 -4.2873783112 -0.33291450143 -0.56937742233
          -2.9204330444 -0.13243819773 -0.19507199526 -2.7577950954 0.15421199799 -0.14046099782
          -3.0590620041 0.043446499854 -0.27457588911 -2.8009653091 0.022092198953 -0.32149419188
          -1.1750420332 0.11218670756 -0.27856901288 -1.3188999891 0.28086179495 -0.079112000763
          -1.1158839464 0.17156629264 -0.093520998955 -1.2953740358 0.05793229863 -0.080146998167
          2.7863173485 0.018803799525 0.9157999754 2.8574714661 -0.22937789559 0.73542100191
          2.824450016 -0.10761829466 0.55310499668 2.6809933186 0.045304298401 0.64524197578
          -1.3714095354 0.48100718856 -0.68255013227 -1.6121549606 0.47708061337 -0.83065801859
          -1.6599514484 0.24216479063 -0.65762501955 -1.5809962749 0.26638999581 -0.86372798681
          5.0302901268 0.43874397874 1.1967389584 4.9485001564 0.60167902708 1.3511019945
          5.1848549843 0.61228102446 1.2231149673 5.1688809395 0.37849900126 1.3310799599
          0.19005160034 0.5024972558 -0.0085250083357 0.10837440193 0.15965628624 0.013736000285
          0.34905490279 0.20103774965 0.07488899678 0.12283880264 0.27401307225 -0.19243100286
          3.49279809 -0.41079649329 0.65922492743 3.3867809772 -0.23781871796 0.5709104538
          3.599364996 -0.13409550488 0.90844702721 3.3624682426 -0.19947208464 0.94604200125
          0.85454148054 0.51173609495 -0.11017200351 1.0401221514 0.23939830065 -0.032525006682
          0.98131197691 0.51418298483 -0.26199400425 0.84688097239 0.325525105 -0.34160640836
          3.3624682426 -0.19947208464 0.94604200125 3.2812619209 -0.41720849276 0.63608801365
          3.49279809 -0.41079649329 0.65922492743 3.3867809772 -0.23781871796 0.5709104538
          -4.4301371574 -0.28078189492 -0.098592102528 -4.7949709892 -0.27444934845 -0.028330069035
          -4.4882779121 -0.32354712486 0.15183719993 -4.5417332649 -0.49570846558 0.045956496149
          0.84688097239 0.325525105 -0.34160640836 0.85454148054 0.51173609495 -0.11017200351
          0.70016598701 0.50710338354 -0.40990638733 0.98131197691 0.51418298483 -0.26199400425
          -4.6022672653 0.31213206053 -0.53499019146 -4.6036734581 0.038398779929 -0.53355240822
          -4.6259469986 0.16757617891 -0.22007699311 -4.5090827942 0.30276152492 -0.34050369263
          3.9765019417 0.28852498531 0.26302400231 3.7448599339 0.30333548784 0.49451100826
          3.7907569408 0.2246016115 0.18572899699 3.9061729908 0.52652400732 0.245728001
          -1.901250124 -0.024264600128 -0.80353200436 -1.8654859066 -0.17263565958 -1.0173939466
          -1.8874305487 -0.20946229994 -0.68173897266 -1.7870930433 -0.33796232939 -0.8220590353
          -1.901250124 -0.024264600128 -0.80353200436 -1.7870930433 -0.33796232939 -0.8220590353
          -1.8874305487 -0.20946229994 -0.68173897266 -1.5961900949 -0.24007625878 -0.77421802282
          1.133603096 0.5178232789 0.011582996696 0.86728978157 0.51141232252 0.092799015343
          1.0401221514 0.23939830065 -0.032525006682 0.85454148054 0.51173609495 -0.11017200351
          -3.302652359 0.038016501814 0.04223600775 -3.3023517132 0.0064315996133 -0.24028472602
          -3.5503668785 -0.17767935991 -0.019175993279 -3.1989395618 -0.20423613489 -0.036946997046
          -4.8276562691 0.49022433162 0.10507963598 -4.4985280037 0.48879349232 -0.082372002304
          -4.7578840256 0.28817969561 -0.030578099191 -4.6132879257 0.48546689749 0.14135861397
          -2.0836164951 0.47975090146 -0.66095596552 -2.0933618546 0.23922790587 -0.44598591328
          -2.2193543911 0.4817315042 -0.46778970957 -1.9671391249 0.48218691349 -0.52298557758
          -0.27925050259 -0.14596910775 -0.065104998648 -0.088332302868 0.076261751354 -0.21729001403
          -0.264005512 0.0059295003302 -0.30922400951 -0.081785798073 -0.18698275089 -0.35594800115
          -3.7788000107 -0.49894934893 0.14450898767 -4.0265545845 -0.28167268634 0.21848671138
          -3.8215641975 -0.23188085854 0.091413997114 -3.8431739807 -0.42423200607 0.37291398644
          -1.2323629856 0.48578119278 -0.53944307566 -1.4487729073 0.26224949956 -0.55564618111
          -1.2275027037 0.26585769653 -0.64385217428 -1.3714095354 0.48100718856 -0.68255013227
          -0.062883600593 -0.026130199432 -0.024199999869 0.10837440193 0.15965628624 0.013736000285
          0.098207399249 -0.032019931823 -0.19597899914 0.1771903038 0.016279280186 0.027272000909
          4.548661232 0.31044599414 0.7846570015 4.4149041176 0.59745812416 0.95439249277
          4.5828242302 0.39658501744 0.96988636255 4.2772049904 0.36336359382 0.94083797932
          2.5325028896 -0.2637206018 -0.12680798769 2.4399039745 -0.10959740728 -0.0052800015546
          2.7066569328 0.013594998047 0.026080995798 2.7572391033 -0.22472290695 -0.032116010785
          -1.8772009611 0.48616209626 -0.20101100206 -2.0245499611 0.48440909386 -0.34754398465
          -1.7097920179 0.31207630038 -0.45334500074 -1.7018979788 0.48639988899 -0.31914901733
          0.94843697548 0.30960980058 -0.61462700367 0.84688097239 0.325525105 -0.34160640836
          0.76200997829 0.19809819758 -0.53690600395 0.89502197504 0.51158940792 -0.54344600439
          0.39167898893 0.41524764895 -0.96190798283 0.41876199841 0.49852332473 -0.76524400711
          0.67563098669 0.48699307442 -0.89504599571 0.41305398941 0.29973137379 -0.76187801361
          1.1952601671 -0.29477098584 0.064541012049 0.98700541258 -0.19875110686 -0.078704997897
          1.1842939854 -0.12854279578 -0.092633001506 1.1398986578 -0.010146999732 0.071502000093
          -1.2655464411 -0.30120876431 -0.88210499287 -1.2481642962 0.04549119994 -0.89113599062
          -1.2013354301 -0.1661592871 -1.0883820057 -1.0723729134 -0.088602088392 -0.8404250145
          0.97589570284 -0.18196713924 0.2518529892 0.81067937613 -0.037577752024 -0.03468298912
          0.98700541258 -0.19875110686 -0.078704997897 1.1398986578 -0.010146999732 0.071502000093
          1.1842939854 -0.12854279578 -0.092633001506 1.4162900448 0.058589901775 -0.19647470117
          1.3097800016 -0.27519398928 -0.1584803015 1.3978904486 -0.12460799515 0.020671008155
          -2.819904089 0.037339199334 -0.66302698851 -3.0509493351 0.29688620567 -0.58453899622
          -3.0065186024 0.11188069731 -0.80747801065 -2.8207395077 0.30260008574 -0.65172201395
          -3.4071218967 -0.27582120895 -0.49657699466 -3.3206231594 -0.27725860476 -0.74263799191
          -3.3306560516 -0.50790274143 -0.51511698961 -3.1707112789 -0.50821882486 -0.61334198713
          -2.4518558979 0.48177570105 -0.4138597846 -2.4720232487 0.27283710241 -0.72016400099
          -2.3831152916 0.479411304 -0.7015529871 -2.6084048748 0.48110160232 -0.5615530014
          -0.90989202261 0.24085079134 -0.62744837999 -1.0315690041 0.001321600168 -0.39257600904
          -0.75858801603 0.17240820825 -0.42690300941 -0.96610802412 -0.023699499667 -0.59952700138
          -2.6131467819 -0.26515978575 -0.30168119073 -2.6578717232 -0.50742650032 -0.52386301756
          -2.3835964203 -0.32359841466 -0.41965642571 -2.5529778004 -0.19498869777 -0.48805639148
          -0.6087269187 0.024860799313 -0.30977600813 -0.85646498203 0.17925000191 -0.10178700089
          -0.75858801603 0.17240820825 -0.42690300941 -0.81611001492 0.30783483386 -0.27051800489
          -2.1267375946 -0.28440442681 -0.5801320076 -2.2481837273 -0.50829571486 -0.4661166966
          -2.3835964203 -0.32359841466 -0.41965642571 -2.1776151657 -0.33875748515 -0.37888690829
          -2.6087565422 -0.063813298941 -0.63231498003 -2.5882301331 -0.30685323477 -0.65421998501
          -2.5529778004 -0.19498869777 -0.48805639148 -2.3716421127 -0.18197050691 -0.6025840044
          3.8910729885 -0.40569660068 0.7535443902 4.0834741592 -0.21439018846 0.53021103144
          3.8355340958 -0.40645951033 0.54560798407 4.0488052368 -0.40442740917 0.66158497334
          3.2137260437 0.23683209717 0.35793501139 3.1981549263 0.12413520366 0.16969101131
          3.1101438999 0.080181010067 0.45569860935 3.4166619778 0.065547503531 0.28209301829
          4.6833701134 -0.40567740798 1.2680499554 4.7135901451 -0.22733098269 1.489552021
          4.9568657875 -0.20041409135 1.3308819532 4.8533592224 -0.39696198702 1.5024620295
          -2.1283559799 0.094898201525 0.043953001499 -2.2913610935 0.16144010425 -0.25700899959
          -2.0947520733 0.29650449753 -0.21109998226 -2.2799999714 0.29279088974 0.072902999818
          2.6138679981 0.31076711416 0.28303608298 2.3748869896 0.069039702415 0.16169330478
          2.5975399017 0.036539699882 0.30856120586 2.5194039345 0.221833691 0.014336997643
          2.8574714661 -0.22937789559 0.73542100191 2.6677677631 -0.20719739795 0.85902500153
          2.824450016 -0.10761829466 0.55310499668 2.6809933186 0.045304298401 0.64524197578
          -1.6121549606 0.47708061337 -0.83065801859 -1.7826962471 0.45563310385 -1.0317989588
          -1.8121285439 0.26642638445 -0.82310700417 -1.5809962749 0.26638999581 -0.86372798681
          -1.3714095354 0.48100718856 -0.68255013227 -1.5809962749 0.26638999581 -0.86372798681
          -1.4487729073 0.26224949956 -0.55564618111 -1.4055235386 0.16061809659 -0.77410399914
          3.7211930752 0.051226999611 0.43084198236 3.6680510044 -0.16187010705 0.64812618494
          3.6307458878 0.097795702517 0.69470512867 3.9133279324 -0.075963594019 0.57894998789
          3.3003060818 0.23398950696 0.76375299692 3.550276041 0.36652091146 0.69562649727
          3.2744851112 0.38130360842 0.56395947933 3.4329230785 0.25877740979 0.41826298833
          -3.8473057747 -0.00070657959441 -0.13606338203 -3.8215641975 -0.23188085854 0.091413997114
          -3.5503668785 -0.17767935991 -0.019175993279 -3.7167961597 -0.29400056601 -0.18038730323
          -0.081785798073 -0.18698275089 -0.35594800115 -0.045155998319 0.014279329218 -0.54846435785
          -0.264005512 0.0059295003302 -0.30922400951 -0.28265699744 -0.012162780389 -0.58007609844
          1.0520069599 -0.24730080366 -0.58848804235 1.1442159414 -0.0049022994936 -0.49735999107
          0.93168497086 0.052144400775 -0.6099550128 1.1848659515 -0.12604640424 -0.76831799746
          -3.9548974037 0.23137070239 -0.10864424706 -4.0514550209 0.30707678199 0.23333111405
          -3.8129053116 0.21391560137 0.11131499708 -4.0971708298 0.14169080555 0.095920503139
          2.4791090488 0.55759829283 0.014952993952 2.6138679981 0.31076711416 0.28303608298
          2.7146170139 0.56399077177 0.092618003488 2.7448999882 0.34383347631 0.0055840001442
          4.6513729095 0.13981750607 1.2424490452 4.9596247673 0.084158137441 1.2836079597
          4.9991178513 0.039471499622 1.0460796356 4.8456058502 -0.1037119925 1.1854159832
          4.6576151848 0.017758300528 1.462864995 4.7225232124 0.21502579749 1.4921859503
          4.9596247673 0.084158137441 1.2836079597 4.9073309898 0.060586899519 1.514449954
          -1.6305606365 -0.29367351532 -0.52340888977 -1.5961900949 -0.24007625878 -0.77421802282
          -1.5043648481 -0.50604504347 -0.71901899576 -1.2913279533 -0.31723329425 -0.56081938744
          -1.2655464411 -0.30120876431 -0.88210499287 -1.5043648481 -0.50604504347 -0.71901899576
          -1.2879470587 -0.50460076332 -0.71951198578 -1.3901776075 -0.50089198351 -0.8744109869
          -1.5961900949 -0.24007625878 -0.77421802282 -1.6989388466 -0.50504058599 -0.72892701626
          -1.5043648481 -0.50604504347 -0.71901899576 -1.5869110823 -0.50118023157 -0.88304901123
          0.86573559046 -0.49677124619 0.15245500207 0.69000768661 -0.50142276287 0.050528015941
          0.79302960634 -0.29305431247 -0.039216998965 0.75087296963 -0.33744975924 0.1757349968
          0.75087296963 -0.33744975924 0.1757349968 0.79302960634 -0.29305431247 -0.039216998965
          0.97589570284 -0.18196713924 0.2518529892 0.68674623966 -0.13471266627 0.16325600445
          1.5581665039 -0.242820099 0.18669840693 1.2453129292 -0.22395838797 0.33866900206
          1.3978904486 -0.12460799515 0.020671008155 1.3329657316 0.04662720114 0.17705599964
          2.7383420467 0.41610860825 -0.23452399671 2.8233048916 0.56940752268 -0.11903401464
          3.0206739902 0.45230871439 -0.12432000041 2.7448999882 0.34383347631 0.0055840001442
          -1.0252319574 -0.25830030441 -0.10159199685 -1.1190869808 -0.42417049408 -0.10118299723
          -0.888019979 -0.52109897137 -0.27666097879 -1.0108540058 -0.22747680545 -0.36507099867
          -2.2283110619 -0.34106051922 -0.12456599623 -2.3048820496 -0.31219279766 0.078204996884
          -2.3538520336 -0.5108473897 0.052726007998 -2.4840130806 -0.30007189512 -0.074917010963
          2.6138679981 0.31076711416 0.28303608298 2.2926232815 0.21838380396 0.36620301008
          2.3748869896 0.069039702415 0.16169330478 2.3807709217 0.34840109944 0.17629000545
          -2.6087565422 -0.063813298941 -0.63231498003 -2.5882301331 -0.30685323477 -0.65421998501
          -2.6172776222 -0.17857418954 -0.88542699814 -2.7225356102 -0.3007414341 -0.86474698782
          -1.224069953 -0.31939327717 -0.31514698267 -1.0780789852 -0.26223245263 -0.61954492331
          -1.1271990538 -0.51521211863 -0.40683698654 -1.0108540058 -0.22747680545 -0.36507099867
          2.5507669449 -0.059395201504 0.81727099419 2.3686749935 -0.11354149133 0.74313497543
          2.6809933186 0.045304298401 0.64524197578 2.5117163658 0.16574789584 0.5378869772
          4.8725390434 0.29623439908 1.2086399794 4.7499132156 0.39788281918 1.4921859503
          4.6475157738 0.38701429963 1.2527079582 4.9485001564 0.60167902708 1.3511019945
          0.52244597673 0.28034487367 -0.58197897673 0.60414099693 0.50304430723 -0.62985301018
          0.70016598701 0.50710338354 -0.40990638733 0.41060099006 0.50051188469 -0.52816462517
          0.68674623966 -0.13471266627 0.16325600445 0.79302960634 -0.29305431247 -0.039216998965
          0.97589570284 -0.18196713924 0.2518529892 0.81067937613 -0.037577752024 -0.03468298912
          0.76200997829 0.19809819758 -0.53690600395 0.52244597673 0.28034487367 -0.58197897673
          0.70016598701 0.50710338354 -0.40990638733 0.58373397589 0.27239969373 -0.33771339059
          4.995156765 0.16772520542 0.52926999331 5.2214250565 0.24645899236 0.57607001066
          5.0733251572 -0.094601005316 0.53920000792 5.0587530136 0.088731199503 0.75192797184
          -4.1157817841 0.48770108819 -0.3238914907 -4.1721348763 0.28047949076 -0.053690198809
          -3.9548974037 0.23137070239 -0.10864424706 -4.0919904709 0.29906708002 -0.39470338821
          -1.075802207 0.17113420367 -0.81510698795 -1.0845546722 0.4788222909 -0.80185699463
          -0.81324702501 0.26146668196 -0.86965799332 -0.90989202261 0.24085079134 -0.62744837999
          -4.4548616409 -0.039748691022 0.44836860895 -4.6800694466 0.0018985598581 0.46689039469
          -4.5753359795 -0.14313571155 0.30882889032 -4.4813494682 0.022646209225 0.2389934808
          -4.4548616409 -0.039748691022 0.44836860895 -4.5753359795 -0.14313571155 0.30882889032
          -4.3568739891 -0.16453392804 0.20460030437 -4.4813494682 0.022646209225 0.2389934808
          -4.1004319191 0.30029353499 -0.60041797161 -4.0438446999 0.094188794494 -0.60962402821
          -4.0919904709 0.29906708002 -0.39470338821 -3.8971295357 0.23590660095 -0.36395600438
          4.4729690552 0.34756699204 0.42458799481 4.4424939156 0.089347399771 0.64447599649
          4.4777679443 0.087183900177 0.41901400685 4.344326973 0.23196899891 0.38592201471
          -3.5096030235 -0.50470131636 -0.15045179427 -3.3482511044 -0.50422972441 -0.021191004664
          -3.3609697819 -0.25755804777 -0.25123178959 -3.251019001 -0.50599706173 -0.25622180104
          3.0184175968 0.12345609814 0.73364597559 2.8575510979 0.064445592463 0.36333754659
          3.1101438999 0.080181010067 0.45569860935 2.7912619114 0.22470119596 0.5612180233
          3.0462920666 0.35370859504 0.42864450812 2.7912619114 0.22470119596 0.5612180233
          3.1101438999 0.080181010067 0.45569860935 2.8575510979 0.064445592463 0.36333754659
          2.6138679981 0.31076711416 0.28303608298 2.8881449699 0.23836348951 0.18792100251
          2.5975399017 0.036539699882 0.30856120586 2.8575510979 0.064445592463 0.36333754659
          0.58373397589 0.27239969373 -0.33771339059 0.32533699274 0.30109125376 -0.45768621564
          0.41060099006 0.50051188469 -0.52816462517 0.36727958918 0.50212621689 -0.31630799174
          1.2453129292 -0.22395838797 0.33866900206 0.95090967417 -0.35872739553 0.2368170023
          1.1952601671 -0.29477098584 0.064541012049 0.97589570284 -0.18196713924 0.2518529892
          3.3469219208 -0.1246156022 -0.013377999887 3.1981549263 0.12413520366 0.16969101131
          3.2239820957 -0.14030811191 0.26961100101 3.1375620365 -0.015359799378 -0.09573700279
          1.4301359653 -0.33039590716 0.39710000157 1.5706268549 -0.052340894938 0.45530718565
          1.5581665039 -0.242820099 0.18669840693 1.6243675947 -0.24140480161 0.4665620923
          1.4301359653 -0.33039590716 0.39710000157 1.3826347589 0.0027236009482 0.39376598597
          1.5581665039 -0.242820099 0.18669840693 1.5706268549 -0.052340894938 0.45530718565
          2.1151509285 0.051999751478 0.097855910659 2.2439339161 0.21964900196 0.058875899762
          1.9772109985 0.2443075031 -0.15706959367 2.1437630653 0.14836460352 -0.25723919272
          3.1981549263 0.12413520366 0.16969101131 3.1546220779 0.28414210677 -0.077771998942
          3.4725759029 0.18676179647 0.05072100088 3.3937470913 0.42309600115 0.025817999616
          -2.7973310947 0.48305559158 -0.13842301071 -2.9699950218 0.48249959946 -0.0066279866733
          -2.7288138866 0.4837333858 0.065889015794 -2.8941919804 0.276453197 -0.0076509867795
          -0.83363598585 0.4878360033 -0.50646197796 -0.70233458281 0.49317741394 -0.27365800738
          -0.66691201925 0.49013388157 -0.48518800735 -0.81611001492 0.30783483386 -0.27051800489
          -1.2542339563 0.29450172186 -0.30690699816 -1.2492990494 0.49424445629 -0.10197599977
          -1.3188999891 0.28086179495 -0.079112000763 -1.3793640137 0.48962751031 -0.2810100019
          4.5335330963 0.11206749827 0.92334389687 4.7766752243 -0.0062490031123 0.81723797321
          4.5794639587 -0.095555409789 0.80211597681 4.7351660728 -0.16101920605 0.98147392273
          -2.5937309265 -0.094380997121 -0.091197997332 -2.7996120453 -0.02800030075 -0.034934002906
          -2.7196071148 0.012619300745 0.16217699647 -2.5996620655 -0.2836445868 0.13820500672
          4.5335330963 0.11206749827 0.92334389687 4.7789177895 0.14037750661 0.96490341425
          4.7766752243 -0.0062490031123 0.81723797321 4.7351660728 -0.16101920605 0.98147392273
          1.1442159414 -0.0049022994936 -0.49735999107 0.87655997276 -0.11350530386 -0.45971497893
          0.93168497086 0.052144400775 -0.6099550128 0.95586800575 0.071381397545 -0.33720040321
          -3.6042940617 -0.28407350183 0.332062006 -3.6940450668 -0.011909330264 0.12301498652
          -3.5214090347 -0.040553983301 0.31633499265 -3.7582271099 -0.17851629853 0.35762301087
          -0.64104998112 -0.30240130424 -0.9189350009 -0.41128501296 -0.48971751332 -0.99034798145
          -0.74040699005 -0.49768507481 -0.86798501015 -0.47170200944 -0.50193786621 -0.68685621023
          4.4793419838 0.2869952023 1.1247149706 4.6475157738 0.38701429963 1.2527079582
          4.4337921143 0.1125216037 1.254134059 4.5082879066 0.20863980055 1.4644019604
          -4.6960554123 0.49519553781 -0.24164129794 -4.4985280037 0.48879349232 -0.082372002304
          -4.7578840256 0.28817969561 -0.030578099191 -4.8276562691 0.49022433162 0.10507963598
          -2.7973310947 0.48305559158 -0.13842301071 -2.7288138866 0.4837333858 0.065889015794
          -2.638958931 0.48359829187 -0.078652016819 -2.8941919804 0.276453197 -0.0076509867795
          5.1017589569 -0.19658398628 0.71833097935 5.0587530136 0.088731199503 0.75192797184
          5.3150639534 0.048920102417 0.68501400948 5.2886118889 -0.19004799426 0.81414800882
          3.9752399921 -0.40516790748 0.36332198977 4.1229319572 -0.1651879102 0.30276998878
          4.1763081551 -0.404874295 0.45419001579 4.0834741592 -0.21439018846 0.53021103144
          -1.9671391249 0.48218691349 -0.52298557758 -2.0933618546 0.23922790587 -0.44598591328
          -2.2193543911 0.4817315042 -0.46778970957 -2.0245499611 0.48440909386 -0.34754398465
          3.3003060818 0.23398950696 0.76375299692 3.550276041 0.36652091146 0.69562649727
          3.6307458878 0.097795702517 0.69470512867 3.4896070957 0.099841497838 0.92870599031
          3.4896070957 0.099841497838 0.92870599031 3.550276041 0.36652091146 0.69562649727
          3.6307458878 0.097795702517 0.69470512867 3.690030098 0.28598979115 0.94812899828
          -0.70222002268 -0.52214252949 -0.27207800746 -0.76909697056 -0.29619181156 -0.33838999271
          -0.55649799109 -0.51590490341 -0.39866101742 -0.56078988314 -0.3168579042 -0.30044898391
          -0.2487116009 0.11720266938 -0.055061001331 -0.062883600593 -0.026130199432 -0.024199999869
          -0.080558300018 0.23630402982 -0.025882000104 -0.088332302868 0.076261751354 -0.21729001403
          1.5145740509 0.068407997489 -0.66118901968 1.8998550177 0.038344699889 -0.53832769394
          1.5975199938 -0.11391670257 -0.6415219903 1.5854810476 0.084593199193 -0.4168010056
          3.1153120995 -0.17042639852 0.52375102043 3.0756709576 -0.422498703 0.57748502493
          3.167424202 -0.4212833941 0.82355499268 3.2812619209 -0.41720849276 0.63608801365
          3.3609991074 0.066775999963 0.55516642332 3.2137260437 0.23683209717 0.35793501139
          3.2744851112 0.38130360842 0.56395947933 3.0947101116 0.28387919068 0.62956798077
          -0.47368499637 0.48183679581 -0.90071099997 -0.50065600872 0.48602038622 -0.66250771284
          -0.55084097385 0.27224868536 -0.88415497541 -0.68241202831 0.47980180383 -0.89547097683
          3.2744851112 0.38130360842 0.56395947933 3.2137260437 0.23683209717 0.35793501139
          3.4329230785 0.25877740979 0.41826298833 3.3498690128 0.38853508234 0.25040599704
          -0.90989202261 0.24085079134 -0.62744837999 -0.75858801603 0.17240820825 -0.42690300941
          -0.62419199944 0.12591390312 -0.73094600439 -0.70339399576 -0.074503429234 -0.67528831959
          1.0754319429 0.25025811791 -0.42730200291 1.1638020277 0.033433400095 -0.21218000352
          1.40358603 0.24286289513 -0.3494130075 1.2660080194 0.1764563024 -0.51763701439
          -0.3020440042 0.48588180542 -0.73787802458 -0.50065600872 0.48602038622 -0.66250771284
          -0.55084097385 0.27224868536 -0.88415497541 -0.47368499637 0.48183679581 -0.90071099997
          2.3748869896 0.069039702415 0.16169330478 2.2007000446 -0.030069796368 -0.17213380337
          2.4399039745 -0.10959740728 -0.0052800015546 2.4686999321 0.064002029598 -0.14970698953
          -1.2323629856 0.48578119278 -0.53944307566 -1.2542339563 0.29450172186 -0.30690699816
          -1.4487729073 0.26224949956 -0.55564618111 -1.3793640137 0.48962751031 -0.2810100019
          -1.4487729073 0.26224949956 -0.55564618111 -1.6599514484 0.24216479063 -0.65762501955
          -1.6368409395 -0.014472581446 -0.55414676666 -1.4055235386 0.16061809659 -0.77410399914
          -1.293176055 0.1205618009 -0.45924699306 -1.2275027037 0.26585769653 -0.64385217428
          -1.4487729073 0.26224949956 -0.55564618111 -1.4055235386 0.16061809659 -0.77410399914
          -1.4487729073 0.26224949956 -0.55564618111 -1.545979023 0.22976130247 -0.33403101563
          -1.6368409395 -0.014472581446 -0.55414676666 -1.6599514484 0.24216479063 -0.65762501955
          2.5325028896 -0.2637206018 -0.12680798769 2.635833025 -0.42590990663 -0.026309985667
          2.7572391033 -0.22472290695 -0.032116010785 2.7099030018 -0.25898209214 -0.27057000995
          -5 -0.49631300569 0.38468599319 -4.6849908829 -0.4852682054 0.41684499383
          -4.8936700821 -0.25269600749 0.5 -4.7839722633 -0.32270756364 0.2961961925
          -2.7248899937 -0.058732099831 -0.86423897743 -2.8155953884 -0.19327259064 -0.5224930048
          -2.9699292183 -0.052413102239 -0.81482702494 -2.819904089 0.037339199334 -0.66302698851
          -3.0187089443 -0.037960600108 0.018444009125 -3.0995531082 -0.23698805273 0.23871299624
          -2.9013741016 -0.1873832345 0.19913700223 -3.0159440041 -0.32825475931 -0.049925994128
          2.7448999882 0.34383347631 0.0055840001442 2.4791090488 0.55759829283 0.014952993952
          2.5832331181 0.56287848949 -0.20339798927 2.7146170139 0.56399077177 0.092618003488
          -1.3793640137 0.48962751031 -0.2810100019 -1.4487729073 0.26224949956 -0.55564618111
          -1.5147645473 0.48376119137 -0.53487837315 -1.545979023 0.22976130247 -0.33403101563
          0.85527962446 0.15694072843 0.023737987503 0.807526052 0.036346398294 0.20567299426
          0.81067937613 -0.037577752024 -0.03468298912 0.5864264369 0.083424940705 0.13992400467
          2.1238291264 -0.18699400127 0.64728599787 2.1206483841 -0.27323719859 0.41196197271
          2.2356448174 -0.32073310018 0.68389499187 2.3304371834 -0.26972290874 0.49684798717
          1.8019828796 0.22406680882 0.18662501872 1.662907958 0.3483915925 0.50106751919
          1.8545037508 0.351865381 0.36945268512 1.6081655025 0.1408970952 0.47529900074
          -5 -0.26007699966 0.21836000681 -4.8936700821 -0.25269600749 0.5
          -5 -0.12896800041 0.37591099739 -4.7839722633 -0.32270756364 0.2961961925
          -1.3714095354 0.48100718856 -0.68255013227 -1.6121549606 0.47708061337 -0.83065801859
          -1.5147645473 0.48376119137 -0.53487837315 -1.6599514484 0.24216479063 -0.65762501955
          -1.5147645473 0.48376119137 -0.53487837315 -1.6121549606 0.47708061337 -0.83065801859
          -1.7930159569 0.48152941465 -0.59363406897 -1.6599514484 0.24216479063 -0.65762501955
          -1.825833559 0.060503903776 -1.0222599506 -2.0257306099 -0.031649298966 -0.9920539856
          -1.901250124 -0.024264600128 -0.80353200436 -1.8654859066 -0.17263565958 -1.0173939466
          -1.6661914587 0.0097754001617 -0.81471097469 -1.8747121096 0.0029144007713 -0.49748280644
          -1.6368409395 -0.014472581446 -0.55414676666 -1.901250124 -0.024264600128 -0.80353200436
          3.4166619778 0.065547503531 0.28209301829 3.4725759029 0.18676179647 0.05072100088
          3.6066539288 0.1872664988 0.30272099376 3.4329230785 0.25877740979 0.41826298833
          -4.5711774826 -0.48988559842 0.24580539763 -4.7839722633 -0.32270756364 0.2961961925
          -4.4945139885 -0.24172013998 0.45762220025 -4.6849908829 -0.4852682054 0.41684499383
          -4.6583003998 -0.19147884846 0.13825491071 -4.7949709892 -0.27444934845 -0.028330069035
          -5 -0.26007699966 0.21836000681 -4.7839722633 -0.32270756364 0.2961961925
          0.97589570284 -0.18196713924 0.2518529892 0.807526052 0.036346398294 0.20567299426
          1.1398986578 -0.010146999732 0.071502000093 0.9749379158 0.10632624477 0.26197698712
          3.3044917583 0.12322919816 1.1306680441 3.1393265724 -0.19575251639 1.0545070171
          3.245980978 0.052640799433 0.88878798485 3.0447850227 0.06147922948 1.0241279602
          3.4149284363 -0.092121005058 1.167222023 3.1393265724 -0.19575251639 1.0545070171
          3.245980978 0.052640799433 0.88878798485 3.3044917583 0.12322919816 1.1306680441
          3.0500233173 -0.10988160223 0.76281303167 3.245980978 0.052640799433 0.88878798485
          3.0447850227 0.06147922948 1.0241279602 3.0184175968 0.12345609814 0.73364597559
          -0.18545199931 0.22996643186 -0.47609320283 -0.17106099427 0.49157705903 -0.57271128893
          -0.22821579874 0.49608099461 -0.32180100679 -0.40303009748 0.49246281385 -0.4396699965
          4.5335330963 0.11206749827 0.92334389687 4.7792887688 0.17319969833 0.70396101475
          4.7766752243 -0.0062490031123 0.81723797321 4.7789177895 0.14037750661 0.96490341425
          -0.65379941463 -0.29078039527 -0.10148400068 -0.85025602579 -0.29496991634 -0.10682400316
          -0.61225312948 -0.48133009672 -0.10661300272 -0.70222002268 -0.52214252949 -0.27207800746
          -1.5252443552 0.33827269077 -1.0592859983 -1.7352849245 0.25046640635 -1.035277009
          -1.5809962749 0.26638999581 -0.86372798681 -1.5627611876 0.064892105758 -1.05468297
          -3.8129053116 0.21391560137 0.11131499708 -3.7645668983 0.47991481423 0.33562999964
          -3.6309099197 0.31252777576 0.33574199677 -3.8718869686 0.28284701705 0.37479698658
          -3.8129053116 0.21391560137 0.11131499708 -3.8718869686 0.28284701705 0.37479698658
          -3.6309099197 0.31252777576 0.33574199677 -3.6565101147 0.11428040266 0.33922699094
          -0.49614500999 -0.18467617035 -0.78485298157 -0.51817697287 -0.33874639869 -0.53937000036
          -0.42318299413 -0.15868732333 -0.55037420988 -0.29999598861 -0.31015944481 -0.61351531744
          3.7211930752 0.051226999611 0.43084198236 3.4964818954 -0.10279240459 0.43279200792
          3.6307458878 0.097795702517 0.69470512867 3.6680510044 -0.16187010705 0.64812618494
          -1.2013354301 -0.1661592871 -1.0883820057 -1.2655464411 -0.30120876431 -0.88210499287
          -1.0723729134 -0.088602088392 -0.8404250145 -1.0344099998 -0.31266370416 -0.88067400455
          -3.8129053116 0.21391560137 0.11131499708 -3.5950241089 0.48102658987 0.19185300171
          -3.6309099197 0.31252777576 0.33574199677 -3.7645668983 0.47991481423 0.33562999964
          -3.8129053116 0.21391560137 0.11131499708 -3.8718869686 0.28284701705 0.37479698658
          -3.6565101147 0.11428040266 0.33922699094 -3.8654940128 0.059473201632 0.37344399095
          -4.8607320786 0.078173696995 -0.5131021142 -4.7891550064 0.016387579963 -0.29043120146
          -4.8238286972 -0.16162951291 -0.51467502117 -5 -0.13075700402 -0.36378800869
          -4.4787201881 0.49494040012 -0.53550213575 -4.6022672653 0.31213206053 -0.53499019146
          -4.5090827942 0.30276152492 -0.34050369263 -4.3753385544 0.16644324362 -0.56169492006
          1.9537478685 -0.17958140373 0.5853844285 2.0134241581 0.082406297326 0.37211599946
          2.0783751011 -0.022333201021 0.63662797213 1.8082741499 -0.041739497334 0.53896141052
          4.0632171631 0.57045120001 1.2416960001 3.8319048882 0.3724052906 1.1257870197
          4.0298194885 0.42154958844 1.3837649822 4.0205068588 0.28315189481 1.0268609524
          -0.96610802412 -0.023699499667 -0.59952700138 -1.0315690041 0.001321600168 -0.39257600904
          -0.75858801603 0.17240820825 -0.42690300941 -0.8307570219 -0.058059498668 -0.35817700624
          -2.7973310947 0.48305559158 -0.13842301071 -2.9400956631 0.27705860138 -0.27815890312
          -2.741081953 0.32292592525 -0.24629439414 -2.9112796783 0.48190781474 -0.45949801803
          4.2535729408 0.58250921965 1.0972069502 4.065433979 0.57982081175 1.038596034
          4.0632171631 0.57045120001 1.2416960001 4.2713618279 0.37677168846 1.2242929935
          -1.9761929512 -0.084401905537 0.01688499935 -1.8348480463 -0.01922108978 -0.21806798875
          -2.0529088974 0.052241001278 -0.20910900831 -2.0592620373 -0.25566390157 -0.23402400315
          2.5975399017 0.036539699882 0.30856120586 2.5117163658 0.16574789584 0.5378869772
          2.6138679981 0.31076711416 0.28303608298 2.7912619114 0.22470119596 0.5612180233
          0.94843697548 0.30960980058 -0.61462700367 1.23584795 0.52147328854 -0.44651499391
          1.0754319429 0.25025811791 -0.42730200291 0.89502197504 0.51158940792 -0.54344600439
          3.0447850227 0.06147922948 1.0241279602 2.8261909485 0.28350150585 0.9414550066
          2.7863173485 0.018803799525 0.9157999754 3.0184175968 0.12345609814 0.73364597559
          0.9641879797 0.46827450395 -0.81677001715 1.1396989822 0.51905441284 -0.65952801704
          0.94843697548 0.30960980058 -0.61462700367 0.89502197504 0.51158940792 -0.54344600439
          -0.90989202261 0.24085079134 -0.62744837999 -0.75858801603 0.17240820825 -0.42690300941
          -0.70339399576 -0.074503429234 -0.67528831959 -0.96610802412 -0.023699499667 -0.59952700138
          -1.2913279533 -0.31723329425 -0.56081938744 -1.5043648481 -0.50604504347 -0.71901899576
          -1.4011659622 -0.51028960943 -0.56537860632 -1.2879470587 -0.50460076332 -0.71951198578
          -3.9158587456 -0.22345404327 -0.33129701018 -3.7167961597 -0.29400056601 -0.18038730323
          -3.5914151669 -0.15871548653 -0.36829999089 -3.733959198 -0.32337343693 -0.43397399783
          -0.81611001492 0.30783483386 -0.27051800489 -0.82669299841 0.46579259634 -0.102669999
          -0.65999889374 0.24785794318 -0.095564998686 -0.85646498203 0.17925000191 -0.10178700089
          -3.5520818233 -0.30605709553 -0.697009027 -3.7473104 -0.28769311309 -0.66039299965
          -3.5939254761 -0.0081771295518 -0.69047999382 -3.5914151669 -0.15871548653 -0.36829999089
          -1.4074389935 -0.049107201397 -0.5518643856 -1.6661914587 0.0097754001617 -0.81471097469
          -1.6368409395 -0.014472581446 -0.55414676666 -1.4535621405 -0.08741620183 -0.88498598337
          4.0558829308 0.27783259749 1.3923959732 3.8319048882 0.3724052906 1.1257870197
          4.0298194885 0.42154958844 1.3837649822 3.8741321564 0.28035160899 1.3299449682
          -0.3020440042 0.48588180542 -0.73787802458 -0.35219299793 0.31618493795 -0.60427820683
          -0.33919200301 0.20730000734 -0.79884600639 -0.50065600872 0.48602038622 -0.66250771284
          0.75087296963 -0.33744975924 0.1757349968 0.68674623966 -0.13471266627 0.16325600445
          0.54733449221 -0.32747480273 0.11482799798 0.79302960634 -0.29305431247 -0.039216998965
          -2.5882301331 -0.30685323477 -0.65421998501 -2.8126263618 -0.50702655315 -0.63701498508
          -2.6578717232 -0.50742650032 -0.52386301756 -2.715783596 -0.50627452135 -0.80598902702
          -5 0.32793700695 0.27663400769 -4.9696040154 0.31183549762 0.46324345469
          -4.8499131203 0.16269566119 0.48204991221 -5 0.07584580034 0.38386198878
          3.8757009506 -0.27522069216 0.20697000623 4.1229319572 -0.1651879102 0.30276998878
          4.0834741592 -0.21439018846 0.53021103144 3.7570819855 -0.18195958436 0.41518300772
          1.2453129292 -0.22395838797 0.33866900206 0.97589570284 -0.18196713924 0.2518529892
          1.1398986578 -0.010146999732 0.071502000093 1.1546875238 0.13383899629 0.32170900702
          3.1758000851 0.57594889402 0.29714500904 3.3498690128 0.38853508234 0.25040599704
          3.3910770416 0.58322429657 0.34406098723 3.3937470913 0.42309600115 0.025817999616
          -4.7780652046 -0.0085761295632 -0.01886684075 -5 -0.004447159823 0.13623799384
          -4.6630234718 0.13930633664 0.15250210464 -4.7917890549 -0.033734429628 0.26267528534
          4.4793419838 0.2869952023 1.1247149706 4.6475157738 0.38701429963 1.2527079582
          4.6513729095 0.13981750607 1.2424490452 4.4337921143 0.1125216037 1.254134059
          4.1932888031 -0.10509669781 1.111093998 4.5119929314 -0.044536296278 1.1272319555
          4.372276783 -0.18564900756 1.2451930046 4.4337921143 0.1125216037 1.254134059
          4.5119929314 -0.044536296278 1.1272319555 4.4337921143 0.1125216037 1.254134059
          4.5335330963 0.11206749827 0.92334389687 4.4793419838 0.2869952023 1.1247149706
          0.31029599905 -0.48520949483 -0.72552001476 0.084794998169 -0.48656210303 -0.82398599386
          0.20165160298 -0.28208371997 -0.78509497643 0.0033680000342 -0.49371635914 -0.68691200018
          0.084794998169 -0.48656210303 -0.82398599386 -0.14834499359 -0.49472266436 -0.76049399376
          -0.14045800269 -0.19142946601 -0.79101097584 0.0033680000342 -0.49371635914 -0.68691200018
          1.8317303658 -0.34591260552 0.53505861759 1.912476182 -0.21805660427 0.34040221572
          1.6243675947 -0.24140480161 0.4665620923 1.6749150753 -0.47052338719 0.39508730173
          -4.5090827942 0.30276152492 -0.34050369263 -4.6036734581 0.038398779929 -0.53355240822
          -4.4088745117 0.030903441831 -0.32176870108 -4.3753385544 0.16644324362 -0.56169492006
          3.9061729908 0.52652400732 0.245728001 3.9646220207 0.41419330239 0.50147998333
          4.1101632118 0.60391497612 0.52134698629 4.1377820969 0.39951202273 0.32685101032
          4.7351660728 -0.16101920605 0.98147392273 4.9991178513 0.039471499622 1.0460796356
          4.9587922096 -0.11951480061 0.84872800112 5.0362038612 -0.1984565109 1.0518586636
          -0.42215698957 0.32589438558 -1.0801579952 -0.47368499637 0.48183679581 -0.90071099997
          -0.55084097385 0.27224868536 -0.88415497541 -0.59120500088 0.45415121317 -1.0933190584
          3.3867809772 -0.23781871796 0.5709104538 3.2812619209 -0.41720849276 0.63608801365
          3.3344159126 -0.41385099292 0.43574500084 3.1153120995 -0.17042639852 0.52375102043
          3.9250519276 0.16208969057 0.46795699 4.1978611946 0.12986010313 0.5741019845
          4.0860438347 -0.014925898984 0.46736100316 4.0052309036 0.2497472018 0.67321902514
          -1.4041509628 -0.13285940886 -0.071116998792 -1.5985989571 -0.27739399672 -0.2576969862
          -1.4899309874 -0.36410149932 -0.064006000757 -1.4155100584 -0.21666789055 -0.40096598864
          4.8261451721 -0.19942000508 0.48777401447 5.0733251572 -0.094601005316 0.53920000792
          4.9794502258 -0.39840599895 0.61955702305 5.1017589569 -0.19658398628 0.71833097935
          2.8881449699 0.23836348951 0.18792100251 3.2137260437 0.23683209717 0.35793501139
          3.1101438999 0.080181010067 0.45569860935 3.0462920666 0.35370859504 0.42864450812
          -1.7870930433 -0.33796232939 -0.8220590353 -1.9412852526 -0.50214797258 -0.90207898617
          -1.5869110823 -0.50118023157 -0.88304901123 -1.6650289297 -0.48398628831 -1.047039032
          -3.0849509239 0.17763519287 -0.079053997993 -2.7577950954 0.15421199799 -0.14046099782
          -2.7996120453 -0.02800030075 -0.034934002906 -2.8941919804 0.276453197 -0.0076509867795
          -1.3917900324 -0.51799577475 -0.23380000889 -1.4155100584 -0.21666789055 -0.40096598864
          -1.4899309874 -0.36410149932 -0.064006000757 -1.5985989571 -0.27739399672 -0.2576969862
          -1.4041509628 -0.13285940886 -0.071116998792 -1.5760400295 -0.030635099858 -0.29671400785
          -1.5985989571 -0.27739399672 -0.2576969862 -1.4155100584 -0.21666789055 -0.40096598864
          -3.302652359 0.038016501814 0.04223600775 -3.3023517132 0.0064315996133 -0.24028472602
          -3.3095912933 0.2773117125 -0.21319679916 -3.5458295345 0.1751678884 -0.0069859996438
          5.2740988731 0.079818502069 0.87786698341 5.2391929626 -0.046786397696 1.0306526423
          4.9991178513 0.039471499622 1.0460796356 5.2330021858 0.14374749362 1.0523743629
          -0.056981399655 -0.33009880781 -0.03277400136 -0.081785798073 -0.18698275089 -0.35594800115
          0.0696529001 -0.32972794771 -0.23890098929 0.071282997727 -0.17594109476 -0.0039079999551
          0.15807649493 -0.51398259401 -0.10896699131 0.0696529001 -0.32972794771 -0.23890098929
          0.082827799022 -0.50211364031 -0.4565897882 0.34409999847 -0.50164806843 -0.32478198409
          0.15807649493 -0.51398259401 -0.10896699131 0.0696529001 -0.32972794771 -0.23890098929
          -0.082211501896 -0.51397901773 -0.23908998072 0.082827799022 -0.50211364031 -0.4565897882
          2.6444098949 0.20465949178 -0.2766700089 2.6714880466 0.016336200759 -0.27357900143
          2.7066569328 0.013594998047 0.026080995798 2.8420228958 0.24354210496 -0.20201000571
          2.2839529514 0.55297267437 -0.13702598214 2.533821106 0.36376240849 -0.31047001481
          2.2626259327 0.55465871096 -0.37340500951 2.2763319016 0.28125241399 -0.14818999171
          -3.4724879265 0.27005422115 -0.50610899925 -3.2644114494 0.48313009739 -0.43453800678
          -3.5198493004 0.28535220027 -0.20457419753 -3.4978125095 0.48323321342 -0.19416743517
          3.8319048882 0.3724052906 1.1257870197 3.6068017483 0.56949651241 1.0521490574
          3.690030098 0.28598979115 0.94812899828 3.6906139851 0.57666391134 0.86979299784
          2.2763319016 0.28125241399 -0.14818999171 2.533821106 0.36376240849 -0.31047001481
          2.2626259327 0.55465871096 -0.37340500951 2.2012159824 0.29154539108 -0.42888310552
          2.2763319016 0.28125241399 -0.14818999171 2.533821106 0.36376240849 -0.31047001481
          2.2012159824 0.29154539108 -0.42888310552 2.3845460415 0.082077801228 -0.37291699648
          4.8261451721 -0.19942000508 0.48777401447 5.0733251572 -0.094601005316 0.53920000792
          5.1017589569 -0.19658398628 0.71833097935 4.7822642326 -0.20231451094 0.72078299522
          2.7383420467 0.41610860825 -0.23452399671 2.6444098949 0.20465949178 -0.2766700089
          2.7448999882 0.34383347631 0.0055840001442 2.8420228958 0.24354210496 -0.20201000571
          -0.8307570219 -0.058059498668 -0.35817700624 -0.75858801603 0.17240820825 -0.42690300941
          -0.63126498461 -0.15162830055 -0.47663301229 -0.6087269187 0.024860799313 -0.30977600813
          -4.0438446999 0.094188794494 -0.60962402821 -3.8068175316 -0.027711499482 -0.64996302128
          -4.0446949005 -0.034010000527 -0.39543700218 -3.8043015003 -0.00087310036179 -0.39245098829
          1.4434380531 -0.14066420496 -0.32838499546 1.1638020277 0.033433400095 -0.21218000352
          1.1370209455 -0.2310988009 -0.34101459384 1.1442159414 -0.0049022994936 -0.49735999107
          1.5581665039 -0.242820099 0.18669840693 1.5706268549 -0.052340894938 0.45530718565
          1.7837769985 -0.11298939586 0.15795660019 1.6243675947 -0.24140480161 0.4665620923
          0.74646031857 0.32201400399 -0.03702198714 0.51253330708 0.2876406908 -0.10298900306
          0.64910101891 0.50723767281 0.064737014472 0.56493777037 0.3193680346 0.1386000067
          3.3624682426 -0.19947208464 0.94604200125 3.3097200394 -0.10290320963 0.73021501303
          3.4896070957 0.099841497838 0.92870599031 3.245980978 0.052640799433 0.88878798485
          -1.293176055 0.1205618009 -0.45924699306 -1.2111840248 -0.1263563931 -0.52467823029
          -1.4074389935 -0.049107201397 -0.5518643856 -1.2152099609 -0.081209897995 -0.31830999255
          5.0476732254 0.61224198341 1.0092389584 5.0302901268 0.43874397874 1.1967389584
          5.0286197662 0.27560698986 1.0374772549 4.7970080376 0.40450099111 0.99685043097
          -3.9980287552 -0.32266074419 -0.13652320206 -4.0492649078 -0.50518339872 -0.26489710808
          -4.2165794373 -0.29792863131 -0.10957739502 -4.2421140671 -0.50075817108 -0.098954796791
          -4.2148256302 0.11070713401 -0.5839381218 -4.2742209435 0.42202806473 -0.57460540533
          -4.2976675034 0.29178825021 -0.37512549758 -4.3753385544 0.16644324362 -0.56169492006
          -2.8155953884 -0.19327259064 -0.5224930048 -2.6578717232 -0.50742650032 -0.52386301756
          -2.6131467819 -0.26515978575 -0.30168119073 -2.5529778004 -0.19498869777 -0.48805639148
          0.4496409893 -0.20598120987 -0.64667701721 0.23998099566 -0.31517469883 -0.51127868891
          0.20165160298 -0.28208371997 -0.78509497643 0.13293649256 -0.12217481434 -0.6249139905
          4.0751972198 0.034389801323 1.3754040003 4.33537817 0.096284002066 1.4644019604
          4.2366080284 0.27729278803 1.4644019604 4.2345128059 0.15581940114 1.1804380417
          1.3844920397 0.52349030972 0.14648000896 1.1881120205 0.31921857595 0.10735101253
          1.543838501 0.32068037987 0.19921569526 1.3544540405 0.20737339556 0.028903007507
          1.2022919655 0.33101278543 -0.21015967429 1.133603096 0.5178232789 0.011582996696
          1.0401221514 0.23939830065 -0.032525006682 0.98131197691 0.51418298483 -0.26199400425
          1.2022919655 0.33101278543 -0.21015967429 1.40358603 0.24286289513 -0.3494130075
          1.0754319429 0.25025811791 -0.42730200291 1.1638020277 0.033433400095 -0.21218000352
          0.20165160298 -0.28208371997 -0.78509497643 0.034777998924 -0.452539891 -1.0440080166
          0.084794998169 -0.48656210303 -0.82398599386 0.37125998735 -0.47539919615 -0.97635698318
          0.08132699877 -0.24986088276 -1.0299509764 0.034777998924 -0.452539891 -1.0440080166
          0.084794998169 -0.48656210303 -0.82398599386 0.20165160298 -0.28208371997 -0.78509497643
          2.1151509285 0.051999751478 0.097855910659 2.1437630653 0.14836460352 -0.25723919272
          1.8809980154 0.037144001573 -0.0096619697288 2.2007000446 -0.030069796368 -0.17213380337
          0.4496409893 -0.20598120987 -0.64667701721 0.23998099566 -0.31517469883 -0.51127868891
          0.31029599905 -0.48520949483 -0.72552001476 0.20165160298 -0.28208371997 -0.78509497643
          2.2007000446 -0.030069796368 -0.17213380337 1.8809980154 0.037144001573 -0.0096619697288
          1.9164220095 -0.13674210012 -0.17615103722 2.1437630653 0.14836460352 -0.25723919272
          0.08132699877 -0.24986088276 -1.0299509764 0.034777998924 -0.452539891 -1.0440080166
          0.20165160298 -0.28208371997 -0.78509497643 0.37125998735 -0.47539919615 -0.97635698318
          4.5119929314 -0.044536296278 1.1272319555 4.1932888031 -0.10509669781 1.111093998
          4.285888195 0.099320337176 0.90528231859 4.2345128059 0.15581940114 1.1804380417
          0.79302960634 -0.29305431247 -0.039216998965 0.69000768661 -0.50142276287 0.050528015941
          0.54733449221 -0.32747480273 0.11482799798 0.75087296963 -0.33744975924 0.1757349968
          -3.8077201843 0.48553070426 -0.30209600925 -4.1157817841 0.48770108819 -0.3238914907
          -3.9854476452 0.48504701257 -0.10422489792 -3.8971295357 0.23590660095 -0.36395600438
          -4.373114109 0.48056659102 0.41136088967 -4.2010884285 0.48155650496 0.20740970969
          -4.4874916077 0.48258560896 0.25255030394 -4.374229908 0.21605139971 0.18340799212
          -4.6333608627 0.15650126338 0.46339869499 -4.4813494682 0.022646209225 0.2389934808
          -4.6800694466 0.0018985598581 0.46689039469 -4.4548616409 -0.039748691022 0.44836860895
          1.9537478685 -0.17958140373 0.5853844285 1.8317303658 -0.34591260552 0.53505861759
          1.912476182 -0.21805660427 0.34040221572 1.8082741499 -0.041739497334 0.53896141052
          -3.7167961597 -0.29400056601 -0.18038730323 -3.8562464714 -0.50317251682 -0.11210159957
          -3.5096030235 -0.50470131636 -0.15045179427 -3.8035757542 -0.50670826435 -0.31858798862
          -4.5035572052 0.34405878186 0.45431670547 -4.5572566986 0.23751859367 0.2899813056
          -4.7025990486 0.30048549175 0.47185480595 -4.6333608627 0.15650126338 0.46339869499
          0.73383498192 -0.30438300967 -0.4254899919 0.73838502169 -0.23838828504 -0.67500901222
          0.87655997276 -0.11350530386 -0.45971497893 0.6582840085 -0.086143799126 -0.53992497921
          -2.4518558979 0.48177570105 -0.4138597846 -2.4924480915 0.1497296989 -0.4765163064
          -2.3340997696 0.29154390097 -0.43325453997 -2.6084048748 0.48110160232 -0.5615530014
          -4.1004319191 0.30029353499 -0.60041797161 -4.0438446999 0.094188794494 -0.60962402821
          -3.8971295357 0.23590660095 -0.36395600438 -3.8699226379 0.21788460016 -0.63997101784
          -0.012552999891 -0.06247812137 -1.0391819477 -0.14045800269 -0.19142946601 -0.79101097584
          -0.29308599234 -0.22735399008 -1.0733640194 -0.31712800264 -0.025899430737 -0.85415101051
          -0.27925050259 -0.14596910775 -0.065104998648 -0.20980919898 -0.34469109774 -0.28026798368
          -0.264005512 0.0059295003302 -0.30922400951 -0.37324941158 -0.23546770215 -0.36768600345
          -2.5882301331 -0.30685323477 -0.65421998501 -2.6087565422 -0.063813298941 -0.63231498003
          -2.8155953884 -0.19327259064 -0.5224930048 -2.7225356102 -0.3007414341 -0.86474698782
          -3.5145463943 -0.50127327442 0.11511399597 -3.5967168808 -0.45885637403 0.3317900002
          -3.6205406189 -0.31749200821 0.12511700392 -3.4147019386 -0.30549126863 0.2988910079
          -4.4874916077 0.48258560896 0.25255030394 -4.6132879257 0.48546689749 0.14135861397
          -4.5572566986 0.23751859367 0.2899813056 -4.5292730331 0.2915058732 0.031001500785
          -3.6321229935 0.48460400105 -0.30110099912 -3.8077201843 0.48553070426 -0.30209600925
          -3.71869874 0.25738021731 -0.13884219527 -3.6243565083 0.17590141296 -0.3374350071
          -3.6321229935 0.48460400105 -0.30110099912 -3.8077201843 0.48553070426 -0.30209600925
          -3.7007267475 0.4836808145 -0.12965320051 -3.71869874 0.25738021731 -0.13884219527
          -3.8473057747 -0.00070657959441 -0.13606338203 -3.9542860985 -0.041209600866 0.17256499827
          -3.8129053116 0.21391560137 0.11131499708 -3.6940450668 -0.011909330264 0.12301498652
          -4.0038924217 0.48269051313 0.10539000481 -3.9883553982 0.47970271111 0.36896401644
          -3.7645668983 0.47991481423 0.33562999964 -4.0514550209 0.30707678199 0.23333111405
          -0.04318710044 0.49930903316 -0.083802998066 -0.22821579874 0.49608099461 -0.32180100679
          -0.092815898359 0.28653284907 -0.26267999411 -0.020758699626 0.49720421433 -0.34290099144
          1.027140975 0.51393949986 0.19080199301 1.1094706059 0.31878361106 0.31281399727
          1.1881120205 0.31921857595 0.10735101253 0.92705971003 0.28618240356 0.2508969903
          -0.64104998112 -0.30240130424 -0.9189350009 -0.66408002377 -0.41804593801 -1.1008930206
          -0.74040699005 -0.49768507481 -0.86798501015 -0.41128501296 -0.48971751332 -0.99034798145
          -0.89977502823 -0.26588141918 -1.0985300541 -1.0344099998 -0.31266370416 -0.88067400455
          -0.64104998112 -0.30240130424 -0.9189350009 -0.74040699005 -0.49768507481 -0.86798501015
          -3.3609697819 -0.25755804777 -0.25123178959 -3.5503668785 -0.17767935991 -0.019175993279
          -3.3023517132 0.0064315996133 -0.24028472602 -3.1989395618 -0.20423613489 -0.036946997046
          0.95586800575 0.071381397545 -0.33720040321 1.1638020277 0.033433400095 -0.21218000352
          1.0754319429 0.25025811791 -0.42730200291 1.1442159414 -0.0049022994936 -0.49735999107
          0.34409999847 -0.50164806843 -0.32478198409 0.49290901423 -0.27051791549 -0.38118758798
          0.63634902239 -0.49167880416 -0.31372991204 0.4930306077 -0.50028795004 -0.18466299772
          -0.14045800269 -0.19142946601 -0.79101097584 -0.28265699744 -0.012162780389 -0.58007609844
          -0.045155998319 0.014279329218 -0.54846435785 -0.055491000414 -0.26846665144 -0.58021008968
          3.5123636723 0.27264100313 1.2129739523 3.4896070957 0.099841497838 0.92870599031
          3.3044917583 0.12322919816 1.1306680441 3.6909389496 0.12423589826 1.2709879875
          1.23584795 0.52147328854 -0.44651499391 1.2022919655 0.33101278543 -0.21015967429
          1.0754319429 0.25025811791 -0.42730200291 0.98131197691 0.51418298483 -0.26199400425
          -2.4518558979 0.48177570105 -0.4138597846 -2.6924591064 0.48232129216 -0.35847869515
          -2.5502791405 0.25031089783 -0.30732250214 -2.6084048748 0.48110160232 -0.5615530014
          0.51253330708 0.2876406908 -0.10298900306 0.58373397589 0.27239969373 -0.33771339059
          0.66463452578 0.50741457939 -0.17443799973 0.36727958918 0.50212621689 -0.31630799174
          0.51253330708 0.2876406908 -0.10298900306 0.33304131031 0.20393286645 -0.24557299912
          0.58373397589 0.27239969373 -0.33771339059 0.36727958918 0.50212621689 -0.31630799174
          -0.83050501347 -0.26468807459 -0.57061237097 -0.99892598391 -0.51049762964 -0.55400800705
          -0.76909697056 -0.29619181156 -0.33838999271 -0.80718201399 -0.50908124447 -0.54855680466
          2.4725689888 0.38891109824 0.53518199921 2.0810952187 0.34367528558 0.4289650023
          2.1985135078 0.54629540443 0.35489299893 2.3064310551 0.54786038399 0.58645904064
          2.5151159763 0.5552688241 0.37893998623 2.4725689888 0.38891109824 0.53518199921
          2.6138679981 0.31076711416 0.28303608298 2.3807709217 0.34840109944 0.17629000545
          -0.04318710044 0.49930903316 -0.083802998066 0.12283880264 0.27401307225 -0.19243100286
          0.19005160034 0.5024972558 -0.0085250083357 0.15476429462 0.49982050061 -0.22475299239
          -0.020758699626 0.49720421433 -0.34290099144 0.12283880264 0.27401307225 -0.19243100286
          0.15476429462 0.49982050061 -0.22475299239 0.17703129351 0.49817833304 -0.43983438611
          0.56493777037 0.3193680346 0.1386000067 0.34905490279 0.20103774965 0.07488899678
          0.5864264369 0.083424940705 0.13992400467 0.51253330708 0.2876406908 -0.10298900306
          0.51253330708 0.2876406908 -0.10298900306 0.33304131031 0.20393286645 -0.24557299912
          0.53519868851 0.048687562346 -0.13842900097 0.58373397589 0.27239969373 -0.33771339059
          3.7101740837 0.59498238564 0.34702202678 3.5936889648 0.39519989491 0.35134500265
          3.7448599339 0.30333548784 0.49451100826 3.9061729908 0.52652400732 0.245728001
          0.73838502169 -0.23838828504 -0.67500901222 0.65387302637 -0.44024658203 -0.92117100954
          0.87940001488 -0.37989571691 -0.86367201805 0.54373598099 -0.25898191333 -0.94053697586
          0.73838502169 -0.23838828504 -0.67500901222 0.54373598099 -0.25898191333 -0.94053697586
          0.87940001488 -0.37989571691 -0.86367201805 0.6468949914 -0.072852902114 -0.91035401821
          0.73838502169 -0.23838828504 -0.67500901222 0.87940001488 -0.37989571691 -0.86367201805
          0.97156202793 -0.18440270424 -0.83044797182 0.6468949914 -0.072852902114 -0.91035401821
          1.5581665039 -0.242820099 0.18669840693 1.4743545055 -0.47509750724 0.23366600275
          1.4301359653 -0.33039590716 0.39710000157 1.6749150753 -0.47052338719 0.39508730173
          -2.7225356102 -0.3007414341 -0.86474698782 -2.9465870857 -0.28584861755 -0.81910002232
          -2.8126263618 -0.50702655315 -0.63701498508 -2.715783596 -0.50627452135 -0.80598902702
          -4.3444986343 -0.49644988775 0.069615103304 -4.5711774826 -0.48988559842 0.24580539763
          -4.4882779121 -0.32354712486 0.15183719993 -4.3543543816 -0.49132984877 0.25861698389
          0.34905490279 0.20103774965 0.07488899678 0.30940818787 -0.10097020119 0.057927999645
          0.48138740659 -0.12545976043 0.10301499814 0.53519868851 0.048687562346 -0.13842900097
          0.78821092844 0.14894378185 -0.18848800659 0.58373397589 0.27239969373 -0.33771339059
          0.7164170146 -0.01385910064 -0.332908988 0.76200997829 0.19809819758 -0.53690600395
          3.5123636723 0.27264100313 1.2129739523 3.690030098 0.28598979115 0.94812899828
          3.7040190697 0.031617399305 1.0519629717 3.6909389496 0.12423589826 1.2709879875
          4.9471430779 0.61130398512 0.85095900297 4.6236991882 0.60261398554 0.97155320644
          4.7051949501 0.60293000937 1.1564450264 4.7970080376 0.40450099111 0.99685043097
          1.1638020277 0.033433400095 -0.21218000352 1.1398986578 -0.010146999732 0.071502000093
          1.3544540405 0.20737339556 0.028903007507 1.4162900448 0.058589901775 -0.19647470117
          4.4777679443 0.087183900177 0.41901400685 4.2723498344 0.019195003435 0.35912799835
          4.4424939156 0.089347399771 0.64447599649 4.4468998909 -0.11275999993 0.40511700511
          4.9991178513 0.039471499622 1.0460796356 5.0587530136 0.088731199503 0.75192797184
          5.2740988731 0.079818502069 0.87786698341 5.2330021858 0.14374749362 1.0523743629
          -2.1631000042 -0.090172797441 0.050840999931 -2.0529088974 0.052241001278 -0.20910900831
          -2.2999050617 -0.0097464201972 -0.11074100435 -2.0592620373 -0.25566390157 -0.23402400315
          -0.51817697287 -0.33874639869 -0.53937000036 -0.66083502769 -0.29501193762 -0.69995200634
          -0.67207598686 -0.50358366966 -0.68930828571 -0.47170200944 -0.50193786621 -0.68685621023
          0.93168497086 0.052144400775 -0.6099550128 0.94738799334 0.12911939621 -0.82793599367
          0.84875500202 -0.035446301103 -0.85831201077 1.1139479876 0.04362449795 -0.78375899792
          3.3003060818 0.23398950696 0.76375299692 3.3609991074 0.066775999963 0.55516642332
          3.1101438999 0.080181010067 0.45569860935 3.0184175968 0.12345609814 0.73364597559
          -0.83050501347 -0.26468807459 -0.57061237097 -0.8307570219 -0.058059498668 -0.35817700624
          -0.70339399576 -0.074503429234 -0.67528831959 -0.63126498461 -0.15162830055 -0.47663301229
          0.58373397589 0.27239969373 -0.33771339059 0.53519868851 0.048687562346 -0.13842900097
          0.49993100762 0.0054506729357 -0.41626721621 0.33304131031 0.20393286645 -0.24557299912
          0.78821092844 0.14894378185 -0.18848800659 0.84688097239 0.325525105 -0.34160640836
          0.58373397589 0.27239969373 -0.33771339059 0.76200997829 0.19809819758 -0.53690600395
          -4.3738183975 0.24991054833 -0.14364899695 -4.374229908 0.21605139971 0.18340799212
          -4.394712925 -0.0063827331178 -0.052065320313 -4.5292730331 0.2915058732 0.031001500785
          0.84875500202 -0.035446301103 -0.85831201077 0.93168497086 0.052144400775 -0.6099550128
          0.73838502169 -0.23838828504 -0.67500901222 0.6582840085 -0.086143799126 -0.53992497921
          1.6362780333 -0.19434309006 -0.1196873039 1.5601570606 0.064071901143 0.17068810761
          1.7837769985 -0.11298939586 0.15795660019 1.3978904486 -0.12460799515 0.020671008155
          -1.8772009611 0.48616209626 -0.20101100206 -2.0245499611 0.48440909386 -0.34754398465
          -1.8419760466 0.17466241121 -0.33885499835 -1.9025046825 0.29032579064 -0.52002221346
          -1.6661914587 0.0097754001617 -0.81471097469 -1.901250124 -0.024264600128 -0.80353200436
          -1.8874305487 -0.20946229994 -0.68173897266 -1.5961900949 -0.24007625878 -0.77421802282
          -1.6661914587 0.0097754001617 -0.81471097469 -1.8874305487 -0.20946229994 -0.68173897266
          -1.6368409395 -0.014472581446 -0.55414676666 -1.5961900949 -0.24007625878 -0.77421802282
          0.52244597673 0.28034487367 -0.58197897673 0.41305398941 0.29973137379 -0.76187801361
          0.41060099006 0.50051188469 -0.52816462517 0.32533699274 0.30109125376 -0.45768621564
          5.0587530136 0.088731199503 0.75192797184 5.2609939575 0.27832901478 0.92522102594
          5.2214250565 0.24645899236 0.57607001066 5.2740988731 0.079818502069 0.87786698341
          -2.5502791405 0.25031089783 -0.30732250214 -2.6924591064 0.48232129216 -0.35847869515
          -2.7821593285 0.30021998286 -0.44675600529 -2.6084048748 0.48110160232 -0.5615530014
          4.6312479973 -0.18212139606 1.2574429512 4.6513729095 0.13981750607 1.2424490452
          4.5119929314 -0.044536296278 1.1272319555 4.8456058502 -0.1037119925 1.1854159832
          3.8910729885 -0.40569660068 0.7535443902 3.7946639061 -0.40322849154 0.91091799736
          3.8193171024 -0.21124768257 0.82013428211 3.9864780903 -0.40239870548 0.92023420334
          4.9225811958 -0.41055479646 1.0575927496 5.0362038612 -0.1984565109 1.0518586636
          5.1633911133 -0.40683791041 0.92723697424 5.2039008141 -0.31573709846 1.1745685339
          -0.084298998117 0.0080306082964 -0.84863698483 -0.091403998435 0.28790903091 -0.89287102222
          -0.04301200062 0.17476075888 -0.718306005 -0.33919200301 0.20730000734 -0.79884600639
          0.49290901423 -0.27051791549 -0.38118758798 0.34409999847 -0.50164806843 -0.32478198409
          0.63634902239 -0.49167880416 -0.31372991204 0.41597700119 -0.49056598544 -0.53072541952
          0.63634902239 -0.49167880416 -0.31372991204 0.41597700119 -0.49056598544 -0.53072541952
          0.61904597282 -0.48145249486 -0.62268102169 0.49290901423 -0.27051791549 -0.38118758798
          4.7351660728 -0.16101920605 0.98147392273 4.6312479973 -0.18212139606 1.2574429512
          4.5119929314 -0.044536296278 1.1272319555 4.8456058502 -0.1037119925 1.1854159832
          -3.0187089443 -0.037960600108 0.018444009125 -3.1989395618 -0.20423613489 -0.036946997046
          -2.9204330444 -0.13243819773 -0.19507199526 -3.0590620041 0.043446499854 -0.27457588911
          -0.22414989769 -0.31539151073 -0.059500001371 -0.27925050259 -0.14596910775 -0.065104998648
          -0.081785798073 -0.18698275089 -0.35594800115 -0.056981399655 -0.33009880781 -0.03277400136
          -4.1843628883 -0.059714950621 -0.58763289452 -4.0438446999 0.094188794494 -0.60962402821
          -4.0446949005 -0.034010000527 -0.39543700218 -4.2148256302 0.11070713401 -0.5839381218
          5.0362038612 -0.1984565109 1.0518586636 5.2391929626 -0.046786397696 1.0306526423
          5.1611480713 -0.11739530414 1.3518660069 4.9991178513 0.039471499622 1.0460796356
          -3.3833937645 -0.032667398453 -0.48868498206 -3.3609697819 -0.25755804777 -0.25123178959
          -3.1450257301 -0.19032800198 -0.44944301248 -3.4071218967 -0.27582120895 -0.49657699466
          0.15515929461 0.27147474885 -0.81783097982 0.30108499527 0.17071788013 -0.6524900198
          -0.04301200062 0.17476075888 -0.718306005 0.10719139874 0.28679504991 -0.54870027304
          4.86105299 0.0081822015345 0.50044000149 4.7792887688 0.17319969833 0.70396101475
          4.8283820152 0.36398798227 0.50014001131 4.995156765 0.16772520542 0.52926999331
          4.7792887688 0.17319969833 0.70396101475 4.9800801277 0.31590399146 0.82129001617
          4.8283820152 0.36398798227 0.50014001131 4.995156765 0.16772520542 0.52926999331
          -3.5523664951 0.0045121996664 -0.18042999506 -3.3023517132 0.0064315996133 -0.24028472602
          -3.5503668785 -0.17767935991 -0.019175993279 -3.302652359 0.038016501814 0.04223600775
          3.4329230785 0.25877740979 0.41826298833 3.4166619778 0.065547503531 0.28209301829
          3.2137260437 0.23683209717 0.35793501139 3.3609991074 0.066775999963 0.55516642332
          0.31266918778 0.50222033262 -0.13974998891 0.12283880264 0.27401307225 -0.19243100286
          0.34905490279 0.20103774965 0.07488899678 0.33304131031 0.20393286645 -0.24557299912
          3.4926049709 0.5762001276 0.76709657907 3.5548529625 0.58682149649 0.44130200148
          3.4191789627 0.57933980227 0.56054317951 3.550276041 0.36652091146 0.69562649727
          3.1400530338 -0.41660821438 0.24456399679 3.3344159126 -0.41385099292 0.43574500084
          3.0323710442 -0.2302993089 0.32912188768 3.2239820957 -0.14030811191 0.26961100101
          -2.4353275299 -0.11288639903 -0.92088502645 -2.4961392879 -0.28663662076 -0.90913802385
          -2.6172776222 -0.17857418954 -0.88542699814 -2.3716421127 -0.18197050691 -0.6025840044
          -3.0159440041 -0.32825475931 -0.049925994128 -3.1343755722 -0.50439548492 -0.0088849952444
          -2.8594679832 -0.50669443607 -0.096579000354 -3.0154821873 -0.50680673122 -0.26073569059
          0.24777440727 -0.18341463804 -0.29771098495 0.34409999847 -0.50164806843 -0.32478198409
          0.49290901423 -0.27051791549 -0.38118758798 0.23998099566 -0.31517469883 -0.51127868891
          -3.1325054169 -0.50747013092 -0.43627199531 -3.3609697819 -0.25755804777 -0.25123178959
          -3.251019001 -0.50599706173 -0.25622180104 -3.4071218967 -0.27582120895 -0.49657699466
          2.5975399017 0.036539699882 0.30856120586 2.2661983967 0.044934421778 0.50948798656
          2.5117163658 0.16574789584 0.5378869772 2.5335454941 -0.19222688675 0.50451397896
          4.9800801277 0.31590399146 0.82129001617 4.9991178513 0.039471499622 1.0460796356
          5.0587530136 0.088731199503 0.75192797184 4.7789177895 0.14037750661 0.96490341425
          4.8456058502 -0.1037119925 1.1854159832 4.7135901451 -0.22733098269 1.489552021
          4.9568657875 -0.20041409135 1.3308819532 4.6312479973 -0.18212139606 1.2574429512
          0.0033680000342 -0.49371635914 -0.68691200018 -0.14834499359 -0.49472266436 -0.76049399376
          -0.055491000414 -0.26846665144 -0.58021008968 -0.096773996949 -0.50181341171 -0.56035459042
          -3.6205406189 -0.31749200821 0.12511700392 -3.4147019386 -0.30549126863 0.2988910079
          -3.3787970543 -0.14233914018 0.29122000933 -3.3824651241 -0.30312857032 0.073741987348
          -3.6205406189 -0.31749200821 0.12511700392 -3.6042940617 -0.28407350183 0.332062006
          -3.3787970543 -0.14233914018 0.29122000933 -3.4147019386 -0.30549126863 0.2988910079
          -4.0438446999 0.094188794494 -0.60962402821 -3.8867964745 -0.18341259658 -0.63530302048
          -4.0561761856 -0.22405919433 -0.60680097342 -4.0446949005 -0.034010000527 -0.39543700218
          0.76892197132 0.11045709997 -0.87638199329 0.70296800137 0.32958817482 -0.69135397673
          0.8415030241 0.30299159884 -0.85388797522 0.94738799334 0.12911939621 -0.82793599367
          1.7900329828 0.53836679459 -0.22017219663 1.8098720312 0.33792459965 -0.017415300012
          2.0672409534 0.54569250345 -0.02698210068 1.9153610468 0.36894521117 -0.30883604288
          0.41305398941 0.29973137379 -0.76187801361 0.22630690038 0.49578845501 -0.65596997738
          0.32533699274 0.30109125376 -0.45768621564 0.30108499527 0.17071788013 -0.6524900198
          1.7244919538 -0.11605580151 -0.38782680035 1.6362780333 -0.19434309006 -0.1196873039
          1.4434380531 -0.14066420496 -0.32838499546 1.655272007 0.093524098396 -0.11352000386
          -3.1080467701 -0.29268443584 -0.24082820117 -3.0154821873 -0.50680673122 -0.26073569059
          -3.0159440041 -0.32825475931 -0.049925994128 -2.8796532154 -0.32189744711 -0.3305183053
          1.9164220095 -0.13674210012 -0.17615103722 1.6362780333 -0.19434309006 -0.1196873039
          1.7244919538 -0.11605580151 -0.38782680035 1.655272007 0.093524098396 -0.11352000386
          -3.8068175316 -0.027711499482 -0.64996302128 -3.733959198 -0.32337343693 -0.43397399783
          -3.8867964745 -0.18341259658 -0.63530302048 -3.8043015003 -0.00087310036179 -0.39245098829
          2.6809933186 0.045304298401 0.64524197578 2.3686749935 -0.11354149133 0.74313497543
          2.5335454941 -0.19222688675 0.50451397896 2.5117163658 0.16574789584 0.5378869772
          -3.4112770557 0.15064421296 -0.34156700969 -3.3095912933 0.2773117125 -0.21319679916
          -3.3023517132 0.0064315996133 -0.24028472602 -3.5523664951 0.0045121996664 -0.18042999506
          4.8456058502 -0.1037119925 1.1854159832 4.9596247673 0.084158137441 1.2836079597
          4.9991178513 0.039471499622 1.0460796356 5.1611480713 -0.11739530414 1.3518660069
          -3.2902696133 0.27174562216 0.025448989123 -3.5492799282 0.4825848937 -0.0015599994222
          -3.4978125095 0.48323321342 -0.19416743517 -3.3706200123 0.48187199235 0.10127900541
          4.285888195 0.099320337176 0.90528231859 4.0205068588 0.28315189481 1.0268609524
          4.1026678085 0.059743199497 1.0158569813 4.0790348053 0.052158098668 0.78453868628
          0.81277400255 -0.48748779297 -0.2579177916 0.91907000542 -0.28306537867 -0.28310790658
          0.67708927393 -0.18054930866 -0.18623100221 0.73383498192 -0.30438300967 -0.4254899919
          -1.6599514484 0.24216479063 -0.65762501955 -1.9367829561 0.15483479202 -0.66529297829
          -1.6368409395 -0.014472581446 -0.55414676666 -1.6661914587 0.0097754001617 -0.81471097469
          -4.1157817841 0.48770108819 -0.3238914907 -4.4126858711 0.49212142825 -0.31948131323
          -4.2460803986 0.48600909114 -0.044718399644 -4.2976675034 0.29178825021 -0.37512549758
          1.5706268549 -0.052340894938 0.45530718565 1.5601570606 0.064071901143 0.17068810761
          1.7636737823 0.046389199793 0.32517156005 1.6081655025 0.1408970952 0.47529900074
          1.7636737823 0.046389199793 0.32517156005 1.5601570606 0.064071901143 0.17068810761
          1.8019828796 0.22406680882 0.18662501872 1.6081655025 0.1408970952 0.47529900074
          2.0134241581 0.082406297326 0.37211599946 1.7636737823 0.046389199793 0.32517156005
          1.9014420509 0.24749788642 0.58212649822 1.8082741499 -0.041739497334 0.53896141052
          -1.6661914587 0.0097754001617 -0.81471097469 -1.8654859066 -0.17263565958 -1.0173939466
          -1.5961900949 -0.24007625878 -0.77421802282 -1.596382618 -0.17736847699 -1.051363945
          -1.825833559 0.060503903776 -1.0222599506 -1.8654859066 -0.17263565958 -1.0173939466
          -1.6661914587 0.0097754001617 -0.81471097469 -1.596382618 -0.17736847699 -1.051363945
          -1.5627611876 0.064892105758 -1.05468297 -1.825833559 0.060503903776 -1.0222599506
          -1.6661914587 0.0097754001617 -0.81471097469 -1.596382618 -0.17736847699 -1.051363945
          4.5335330963 0.11206749827 0.92334389687 4.7792887688 0.17319969833 0.70396101475
          4.6400561333 0.033197704703 0.65296798944 4.7766752243 -0.0062490031123 0.81723797321
          1.8082741499 -0.041739497334 0.53896141052 1.5706268549 -0.052340894938 0.45530718565
          1.7636737823 0.046389199793 0.32517156005 1.6081655025 0.1408970952 0.47529900074
          1.7636737823 0.046389199793 0.32517156005 1.6081655025 0.1408970952 0.47529900074
          1.9014420509 0.24749788642 0.58212649822 1.8082741499 -0.041739497334 0.53896141052
          -1.6661914587 0.0097754001617 -0.81471097469 -1.5961900949 -0.24007625878 -0.77421802282
          -1.6368409395 -0.014472581446 -0.55414676666 -1.4535621405 -0.08741620183 -0.88498598337
          3.197124958 0.55400508642 1.1030919552 3.0665662289 0.3753657043 0.82187402248
          3.1853451729 0.33565509319 1.0903539658 3.4009900093 0.56842762232 0.97544896603
          3.197124958 0.55400508642 1.1030919552 3.2735610008 0.57003730536 0.75401997566
          3.0665662289 0.3753657043 0.82187402248 3.4009900093 0.56842762232 0.97544896603
          -0.49614500999 -0.18467617035 -0.78485298157 -0.62419199944 0.12591390312 -0.73094600439
          -0.51164197922 0.025980791077 -0.55774062872 -0.70339399576 -0.074503429234 -0.67528831959
          -0.82459098101 -0.20698645711 -0.80915498734 -0.88709700108 -0.50346982479 -0.72862702608
          -1.0780789852 -0.26223245263 -0.61954492331 -0.83050501347 -0.26468807459 -0.57061237097
          3.2239820957 -0.14030811191 0.26961100101 3.0793170929 -0.24457119405 0.11937200278
          3.1375620365 -0.015359799378 -0.09573700279 2.9649469852 0.070412486792 0.048234000802
          3.1375620365 -0.015359799378 -0.09573700279 3.2239820957 -0.14030811191 0.26961100101
          3.3469219208 -0.1246156022 -0.013377999887 3.0793170929 -0.24457119405 0.11937200278
          -1.6200009584 -0.10922949761 -0.042343001813 -1.7572649717 0.069237500429 -0.019905999303
          -1.8008160591 -0.23927970231 -0.014976000413 -1.8348480463 -0.01922108978 -0.21806798875
          -1.5760400295 -0.030635099858 -0.29671400785 -1.8348480463 -0.01922108978 -0.21806798875
          -1.5985989571 -0.27739399672 -0.2576969862 -1.8079010248 -0.20703689754 -0.34597599506
          -2.0592620373 -0.25566390157 -0.23402400315 -1.8348480463 -0.01922108978 -0.21806798875
          -2.0529088974 0.052241001278 -0.20910900831 -2.0975265503 -0.075285196304 -0.43518251181
          -1.5760400295 -0.030635099858 -0.29671400785 -1.8419760466 0.17466241121 -0.33885499835
          -1.8348480463 -0.01922108978 -0.21806798875 -1.8747121096 0.0029144007713 -0.49748280644
          -0.62441599369 0.23691308498 -1.0922019482 -0.50009101629 0.076063752174 -0.91057896614
          -0.58885598183 0.011368970387 -1.0877560377 -0.78103899956 0.039071749896 -1.0954949856
          2.3105502129 0.12302970141 0.72935801744 2.1993765831 0.33982020617 0.69473302364
          2.2926232815 0.21838380396 0.36620301008 2.5117163658 0.16574789584 0.5378869772
          4.1542201042 0.59776520729 0.72164899111 4.2772049904 0.36336359382 0.94083797932
          4.2130708694 0.59228688478 0.90869247913 4.3505711555 0.60127097368 0.76294797659
          3.807289362 0.56469881535 1.2195600271 3.8319048882 0.3724052906 1.1257870197
          3.5158138275 0.52084130049 1.2258909941 3.8741321564 0.28035160899 1.3299449682
          -0.080558300018 0.23630402982 -0.025882000104 -0.062883600593 -0.026130199432 -0.024199999869
          0.10837440193 0.15965628624 0.013736000285 -0.088332302868 0.076261751354 -0.21729001403
          -2.0529088974 0.052241001278 -0.20910900831 -1.9377369881 0.14763340354 0.0093440003693
          -1.8348480463 -0.01922108978 -0.21806798875 -1.9761929512 -0.084401905537 0.01688499935
          3.4964818954 -0.10279240459 0.43279200792 3.6680510044 -0.16187010705 0.64812618494
          3.7570819855 -0.18195958436 0.41518300772 3.6210319996 -0.40883889794 0.49147000909
          3.8757009506 -0.27522069216 0.20697000623 3.8754689693 -0.016982000321 0.21258999407
          3.7570819855 -0.18195958436 0.41518300772 3.5797228813 -0.13064749539 0.085768997669
          1.912476182 -0.21805660427 0.34040221572 1.6243675947 -0.24140480161 0.4665620923
          1.7837769985 -0.11298939586 0.15795660019 1.7636737823 0.046389199793 0.32517156005
          -1.6661914587 0.0097754001617 -0.81471097469 -1.9367829561 0.15483479202 -0.66529297829
          -1.6368409395 -0.014472581446 -0.55414676666 -1.8747121096 0.0029144007713 -0.49748280644
          -1.8019082546 -0.50858289003 -0.56323200464 -1.8874305487 -0.20946229994 -0.68173897266
          -1.9710366726 -0.33433938026 -0.42893758416 -1.9995814562 -0.50839465857 -0.5625320673
          -1.7037880421 -0.51201498508 -0.40343299508 -1.6305606365 -0.29367351532 -0.52340888977
          -1.9710366726 -0.33433938026 -0.42893758416 -1.8019082546 -0.50858289003 -0.56323200464
          1.655272007 0.093524098396 -0.11352000386 1.5727180243 0.33926710486 -0.070410497487
          1.5601570606 0.064071901143 0.17068810761 1.3544540405 0.20737339556 0.028903007507
          1.655272007 0.093524098396 -0.11352000386 1.8019828796 0.22406680882 0.18662501872
          1.5601570606 0.064071901143 0.17068810761 1.5727180243 0.33926710486 -0.070410497487
          2.5151159763 0.5552688241 0.37893998623 2.1985135078 0.54629540443 0.35489299893
          2.3807709217 0.34840109944 0.17629000545 2.2603468895 0.54986870289 0.12335199863
          2.4791090488 0.55759829283 0.014952993952 2.6138679981 0.31076711416 0.28303608298
          2.7448999882 0.34383347631 0.0055840001442 2.3807709217 0.34840109944 0.17629000545
          3.1153120995 -0.17042639852 0.52375102043 3.3097200394 -0.10290320963 0.73021501303
          3.167424202 -0.4212833941 0.82355499268 3.0500233173 -0.10988160223 0.76281303167
          2.5151159763 0.5552688241 0.37893998623 2.2603468895 0.54986870289 0.12335199863
          2.3807709217 0.34840109944 0.17629000545 2.4791090488 0.55759829283 0.014952993952
          -2.8155953884 -0.19327259064 -0.5224930048 -2.6578717232 -0.50742650032 -0.52386301756
          -2.5529778004 -0.19498869777 -0.48805639148 -2.5882301331 -0.30685323477 -0.65421998501
          -0.47170200944 -0.50193786621 -0.68685621023 -0.51817697287 -0.33874639869 -0.53937000036
          -0.29999598861 -0.31015944481 -0.61351531744 -0.26617699862 -0.50942438841 -0.44230300188
          -5 -0.004447159823 0.13623799384 -5 -0.12896800041 0.37591099739
          -5 0.07584580034 0.38386198878 -4.7917890549 -0.033734429628 0.26267528534
          3.7211930752 0.051226999611 0.43084198236 3.6066539288 0.1872664988 0.30272099376
          3.6490149498 0.068853497505 0.12046000361 3.7907569408 0.2246016115 0.18572899699
          -3.5458295345 0.1751678884 -0.0069859996438 -3.5273160934 0.29413831234 0.15600700676
          -3.6940450668 -0.011909330264 0.12301498652 -3.8129053116 0.21391560137 0.11131499708
          -2.0933618546 0.23922790587 -0.44598591328 -2.0975265503 -0.075285196304 -0.43518251181
          -2.2913610935 0.16144010425 -0.25700899959 -2.0529088974 0.052241001278 -0.20910900831
          -1.5760400295 -0.030635099858 -0.29671400785 -1.8419760466 0.17466241121 -0.33885499835
          -1.8747121096 0.0029144007713 -0.49748280644 -1.6368409395 -0.014472581446 -0.55414676666
          2.6714880466 0.016336200759 -0.27357900143 2.7066569328 0.013594998047 0.026080995798
          2.9075191021 0.029458599165 -0.18439200521 2.7572391033 -0.22472290695 -0.032116010785
          -2.4843699932 0.064298801124 -0.91173398495 -2.6172776222 -0.17857418954 -0.88542699814
          -2.7248899937 -0.058732099831 -0.86423897743 -2.6087565422 -0.063813298941 -0.63231498003
          -1.7097920179 0.31207630038 -0.45334500074 -1.9025046825 0.29032579064 -0.52002221346
          -1.6599514484 0.24216479063 -0.65762501955 -1.7930159569 0.48152941465 -0.59363406897
          4.548661232 0.31044599414 0.7846570015 4.7792887688 0.17319969833 0.70396101475
          4.7657809258 0.38576200604 0.78052300215 4.8283820152 0.36398798227 0.50014001131
          -2.4908249378 0.11884979904 -0.11749400944 -2.7577950954 0.15421199799 -0.14046099782
          -2.4349720478 0.31375589967 -0.069557994604 -2.5757539272 0.34280958772 0.13254100084
          0.58373397589 0.27239969373 -0.33771339059 0.49993100762 0.0054506729357 -0.41626721621
          0.76200997829 0.19809819758 -0.53690600395 0.52244597673 0.28034487367 -0.58197897673
          4.2130708694 0.59228688478 0.90869247913 3.997948885 0.58768248558 0.85406768322
          4.0778617859 0.38755699992 0.83571088314 4.1542201042 0.59776520729 0.72164899111
          0.24357970059 -0.27066677809 0.034074999392 0.30940818787 -0.10097020119 0.057927999645
          0.31893050671 -0.015289099887 -0.15932199359 0.44537511468 -0.27799990773 -0.12429698557
          2.5536410809 -0.43353191018 0.20064629614 2.7957570553 -0.42637899518 0.25317001343
          2.6479671001 -0.18968589604 0.18436330557 2.635833025 -0.42590990663 -0.026309985667
          3.0184175968 0.12345609814 0.73364597559 3.3003060818 0.23398950696 0.76375299692
          3.245980978 0.052640799433 0.88878798485 3.0665662289 0.3753657043 0.82187402248
          3.4149284363 -0.092121005058 1.167222023 3.245980978 0.052640799433 0.88878798485
          3.4896070957 0.099841497838 0.92870599031 3.3044917583 0.12322919816 1.1306680441
          4.5794639587 -0.095555409789 0.80211597681 4.4079709053 -0.40386489034 0.85058301687
          4.4464259148 -0.17551660538 0.63643395901 4.3321962357 -0.16034509242 0.88920331001
          4.2261519432 -0.095267094672 0.65937298536 4.3321962357 -0.16034509242 0.88920331001
          4.4464259148 -0.17551660538 0.63643395901 4.2745900154 -0.40359979868 0.66799497604
          4.4464259148 -0.17551660538 0.63643395901 4.4424939156 0.089347399771 0.64447599649
          4.5794639587 -0.095555409789 0.80211597681 4.3321962357 -0.16034509242 0.88920331001
          4.6102437973 -0.26420500875 0.44404000044 4.4468998909 -0.11275999993 0.40511700511
          4.4464259148 -0.17551660538 0.63643395901 4.4112458229 -0.36157390475 0.39370900393
          -0.20478600264 -0.4216414988 -1.0713649988 -0.41128501296 -0.48971751332 -0.99034798145
          -0.29308599234 -0.22735399008 -1.0733640194 -0.32380700111 -0.29127669334 -0.87523800135
          4.2261519432 -0.095267094672 0.65937298536 4.4424939156 0.089347399771 0.64447599649
          4.4464259148 -0.17551660538 0.63643395901 4.3321962357 -0.16034509242 0.88920331001
          4.9700870514 -0.40666720271 0.87981498241 5.1017589569 -0.19658398628 0.71833097935
          5.1633911133 -0.40683791041 0.92723697424 4.9587922096 -0.11951480061 0.84872800112
          4.6102437973 -0.26420500875 0.44404000044 4.4464259148 -0.17551660538 0.63643395901
          4.4951000214 -0.40278640389 0.62707102299 4.4112458229 -0.36157390475 0.39370900393
          -0.85043102503 0.031999699771 -0.80896800756 -0.90989202261 0.24085079134 -0.62744837999
          -0.70339399576 -0.074503429234 -0.67528831959 -0.96610802412 -0.023699499667 -0.59952700138
          4.7657809258 0.38576200604 0.78052300215 4.7789177895 0.14037750661 0.96490341425
          4.9800801277 0.31590399146 0.82129001617 4.7792887688 0.17319969833 0.70396101475
          0.95090967417 -0.35872739553 0.2368170023 0.86573559046 -0.49677124619 0.15245500207
          0.79302960634 -0.29305431247 -0.039216998965 0.75087296963 -0.33744975924 0.1757349968
          -0.40303009748 0.49246281385 -0.4396699965 -0.5779209733 0.28877097368 -0.57027238607
          -0.50065600872 0.48602038622 -0.66250771284 -0.66691201925 0.49013388157 -0.48518800735
          3.6307458878 0.097795702517 0.69470512867 3.4329230785 0.25877740979 0.41826298833
          3.7211930752 0.051226999611 0.43084198236 3.7448599339 0.30333548784 0.49451100826
          -4.6692109108 -0.16517569125 -0.19817639887 -4.7889413834 -0.29244363308 -0.33276119828
          -4.752243042 -0.50364774466 -0.24244779348 -4.5914802551 -0.50413167477 -0.23168960214
          -4.2976675034 0.29178825021 -0.37512549758 -4.5090827942 0.30276152492 -0.34050369263
          -4.3738183975 0.24991054833 -0.14364899695 -4.4088745117 0.030903441831 -0.32176870108
          -1.596382618 -0.17736847699 -1.051363945 -1.7870930433 -0.33796232939 -0.8220590353
          -1.5869110823 -0.50118023157 -0.88304901123 -1.6650289297 -0.48398628831 -1.047039032
          -2.2913610935 0.16144010425 -0.25700899959 -2.4349720478 0.31375589967 -0.069557994604
          -2.2999050617 -0.0097464201972 -0.11074100435 -2.4908249378 0.11884979904 -0.11749400944
          1.2453129292 -0.22395838797 0.33866900206 1.1952601671 -0.29477098584 0.064541012049
          1.1398986578 -0.010146999732 0.071502000093 0.97589570284 -0.18196713924 0.2518529892
          1.2453129292 -0.22395838797 0.33866900206 1.1952601671 -0.29477098584 0.064541012049
          1.3978904486 -0.12460799515 0.020671008155 1.1398986578 -0.010146999732 0.071502000093
          -2.0933618546 0.23922790587 -0.44598591328 -2.0947520733 0.29650449753 -0.21109998226
          -2.2193543911 0.4817315042 -0.46778970957 -2.0245499611 0.48440909386 -0.34754398465
          1.1952601671 -0.29477098584 0.064541012049 0.98700541258 -0.19875110686 -0.078704997897
          1.1398986578 -0.010146999732 0.071502000093 0.97589570284 -0.18196713924 0.2518529892
          -4.0971708298 0.14169080555 0.095920503139 -4.2057743073 0.083515927196 -0.063847601414
          -4.374229908 0.21605139971 0.18340799212 -4.1840386391 -0.02179926075 0.21181380749
          -3.0553820133 0.29404971004 0.22911499441 -2.9699950218 0.48249959946 -0.0066279866733
          -2.9876549244 0.48245361447 0.20254100859 -3.1628189087 0.48208609223 0.07378398627
          1.1952601671 -0.29477098584 0.064541012049 1.4743545055 -0.47509750724 0.23366600275
          1.3789390326 -0.47327530384 -0.003226995701 1.2560261488 -0.45418319106 0.33257600665
          0.36064499617 -0.039502311498 -0.75520098209 0.066189996898 -0.13907346129 -0.85989201069
          0.13293649256 -0.12217481434 -0.6249139905 0.20165160298 -0.28208371997 -0.78509497643
          -1.2275027037 0.26585769653 -0.64385217428 -1.2542339563 0.29450172186 -0.30690699816
          -1.0361119509 0.21812960505 -0.37398898602 -1.293176055 0.1205618009 -0.45924699306
          -1.2275027037 0.26585769653 -0.64385217428 -1.2323629856 0.48578119278 -0.53944307566
          -1.0361119509 0.21812960505 -0.37398898602 -1.2542339563 0.29450172186 -0.30690699816
          -5 -0.49631300569 0.38468599319 -4.7839722633 -0.32270756364 0.2961961925
          -4.8936700821 -0.25269600749 0.5 -5 -0.26007699966 0.21836000681
          0.97589570284 -0.18196713924 0.2518529892 0.95090967417 -0.35872739553 0.2368170023
          0.98700541258 -0.19875110686 -0.078704997897 0.79302960634 -0.29305431247 -0.039216998965
          1.5601570606 0.064071901143 0.17068810761 1.6081655025 0.1408970952 0.47529900074
          1.543838501 0.32068037987 0.19921569526 1.8019828796 0.22406680882 0.18662501872
          4.9471430779 0.61130398512 0.85095900297 4.9242591858 0.60738301277 1.1569290161
          5.0476732254 0.61224198341 1.0092389584 4.7970080376 0.40450099111 0.99685043097
          1.543838501 0.32068037987 0.19921569526 1.8019828796 0.22406680882 0.18662501872
          1.6495490074 0.52970409393 0.32440179586 1.6795022488 0.53295719624 0.087283298373
          2.9075191021 0.029458599165 -0.18439200521 2.9649469852 0.070412486792 0.048234000802
          2.7572391033 -0.22472290695 -0.032116010785 2.7066569328 0.013594998047 0.026080995798
          1.6495490074 0.52970409393 0.32440179586 1.4660654068 0.43263700604 0.43621888757
          1.662907958 0.3483915925 0.50106751919 1.543838501 0.32068037987 0.19921569526
          -1.8841609955 0.47777590156 -0.81263101101 -2.0836164951 0.47975090146 -0.66095596552
          -1.9367829561 0.15483479202 -0.66529297829 -2.1485760212 0.26226508617 -0.74843597412
          -2.1485760212 0.26226508617 -0.74843597412 -2.188603878 0.16068729758 -0.96540898085
          -1.9643406868 0.25973030925 -1.0027730465 -2.1449475288 0.47599279881 -0.93732100725
          1.133603096 0.5178232789 0.011582996696 1.2129423618 0.51908618212 0.16832698882
          1.1881120205 0.31921857595 0.10735101253 1.027140975 0.51393949986 0.19080199301
          -1.6368409395 -0.014472581446 -0.55414676666 -1.5760400295 -0.030635099858 -0.29671400785
          -1.6305606365 -0.29367351532 -0.52340888977 -1.8079010248 -0.20703689754 -0.34597599506
          -4.1157817841 0.48770108819 -0.3238914907 -4.2976675034 0.29178825021 -0.37512549758
          -4.2460803986 0.48600909114 -0.044718399644 -4.3738183975 0.24991054833 -0.14364899695
          -1.6368409395 -0.014472581446 -0.55414676666 -1.5760400295 -0.030635099858 -0.29671400785
          -1.4155100584 -0.21666789055 -0.40096598864 -1.6305606365 -0.29367351532 -0.52340888977
          4.9242591858 0.60738301277 1.1569290161 4.9485001564 0.60167902708 1.3511019945
          5.1848549843 0.61228102446 1.2231149673 5.0302901268 0.43874397874 1.1967389584
          -4.1721348763 0.28047949076 -0.053690198809 -4.3946790695 0.48465889692 0.11185610294
          -4.374229908 0.21605139971 0.18340799212 -4.5292730331 0.2915058732 0.031001500785
          1.1546875238 0.13383899629 0.32170900702 1.3329657316 0.04662720114 0.17705599964
          1.1398986578 -0.010146999732 0.071502000093 1.2453129292 -0.22395838797 0.33866900206
          4.285888195 0.099320337176 0.90528231859 4.0205068588 0.28315189481 1.0268609524
          4.0778617859 0.38755699992 0.83571088314 4.2772049904 0.36336359382 0.94083797932
          2.7383420467 0.41610860825 -0.23452399671 2.7448999882 0.34383347631 0.0055840001442
          3.0206739902 0.45230871439 -0.12432000041 2.8420228958 0.24354210496 -0.20201000571
          0.34905490279 0.20103774965 0.07488899678 0.31893050671 -0.015289099887 -0.15932199359
          0.30940818787 -0.10097020119 0.057927999645 0.53519868851 0.048687562346 -0.13842900097
          -2.3716421127 -0.18197050691 -0.6025840044 -2.2304649353 -0.22556725144 -0.77245599031
          -2.4249818325 -0.50633567572 -0.6508589983 -2.1267375946 -0.28440442681 -0.5801320076
          4.6576151848 0.017758300528 1.462864995 4.6513729095 0.13981750607 1.2424490452
          4.8456058502 -0.1037119925 1.1854159832 4.9596247673 0.084158137441 1.2836079597
          4.6513729095 0.13981750607 1.2424490452 4.9596247673 0.084158137441 1.2836079597
          4.7789177895 0.14037750661 0.96490341425 4.9991178513 0.039471499622 1.0460796356
          -1.2214440107 -0.234099105 -0.087950997055 -1.2953740358 0.05793229863 -0.080146998167
          -1.4041509628 -0.13285940886 -0.071116998792 -1.2152099609 -0.081209897995 -0.31830999255
          -2.4249818325 -0.50633567572 -0.6508589983 -2.2304649353 -0.22556725144 -0.77245599031
          -2.3716421127 -0.18197050691 -0.6025840044 -2.5882301331 -0.30685323477 -0.65421998501
          3.5123636723 0.27264100313 1.2129739523 3.7040190697 0.031617399305 1.0519629717
          3.4896070957 0.099841497838 0.92870599031 3.6909389496 0.12423589826 1.2709879875
          -2.1267375946 -0.28440442681 -0.5801320076 -2.1830513477 -0.50529420376 -0.71057498455
          -2.4249818325 -0.50633567572 -0.6508589983 -2.2481837273 -0.50829571486 -0.4661166966
          2.8261909485 0.28350150585 0.9414550066 2.5544810295 0.1293092072 0.82531297207
          2.7863173485 0.018803799525 0.9157999754 2.6809933186 0.045304298401 0.64524197578
          3.7570819855 -0.18195958436 0.41518300772 4.0860438347 -0.014925898984 0.46736100316
          4.1229319572 -0.1651879102 0.30276998878 3.9133279324 -0.075963594019 0.57894998789
          4.0834741592 -0.21439018846 0.53021103144 4.2261519432 -0.095267094672 0.65937298536
          4.2745900154 -0.40359979868 0.66799497604 4.0511579514 -0.20270109177 0.7991797924
          -4.3946790695 0.48465889692 0.11185610294 -4.6132879257 0.48546689749 0.14135861397
          -4.4874916077 0.48258560896 0.25255030394 -4.5292730331 0.2915058732 0.031001500785
          -4.3946790695 0.48465889692 0.11185610294 -4.4874916077 0.48258560896 0.25255030394
          -4.374229908 0.21605139971 0.18340799212 -4.5292730331 0.2915058732 0.031001500785
          4.0488052368 -0.40442740917 0.66158497334 4.0834741592 -0.21439018846 0.53021103144
          4.2745900154 -0.40359979868 0.66799497604 4.0511579514 -0.20270109177 0.7991797924
          3.8910729885 -0.40569660068 0.7535443902 4.0511579514 -0.20270109177 0.7991797924
          4.0834741592 -0.21439018846 0.53021103144 4.0488052368 -0.40442740917 0.66158497334
          4.1229319572 -0.1651879102 0.30276998878 4.0860438347 -0.014925898984 0.46736100316
          4.0834741592 -0.21439018846 0.53021103144 3.9133279324 -0.075963594019 0.57894998789
          -0.81324702501 0.26146668196 -0.86965799332 -1.0845546722 0.4788222909 -0.80185699463
          -0.90296202898 0.47852620482 -0.86588096619 -0.90989202261 0.24085079134 -0.62744837999
          -2.4518558979 0.48177570105 -0.4138597846 -2.3340997696 0.29154390097 -0.43325453997
          -2.4720232487 0.27283710241 -0.72016400099 -2.6084048748 0.48110160232 -0.5615530014
          -3.9548974037 0.23137070239 -0.10864424706 -4.0038924217 0.48269051313 0.10539000481
          -3.7853329182 0.48204940557 0.059275992215 -3.8129053116 0.21391560137 0.11131499708
          -3.9854476452 0.48504701257 -0.10422489792 -4.0038924217 0.48269051313 0.10539000481
          -3.7853329182 0.48204940557 0.059275992215 -3.9548974037 0.23137070239 -0.10864424706
          -1.4074389935 -0.049107201397 -0.5518643856 -1.5760400295 -0.030635099858 -0.29671400785
          -1.4155100584 -0.21666789055 -0.40096598864 -1.6368409395 -0.014472581446 -0.55414676666
          -2.2434971333 -0.063827201724 -0.95553797483 -2.2304649353 -0.22556725144 -0.77245599031
          -2.3477945328 -0.017081549391 -0.75131797791 -2.1201012135 -0.050273101777 -0.70986998081
          -3.4652879238 0.12876489758 0.30643999577 -3.5273160934 0.29413831234 0.15600700676
          -3.4292929173 0.39982169867 0.30081498623 -3.6309099197 0.31252777576 0.33574199677
          2.2454249859 -0.24175401032 -0.0085900025442 2.2007000446 -0.030069796368 -0.17213380337
          2.4399039745 -0.10959740728 -0.0052800015546 2.2508289814 -0.099022090435 0.14436070621
          4.2507781982 -0.39692500234 1.0791150331 4.372276783 -0.18564900756 1.2451930046
          4.1932888031 -0.10509669781 1.111093998 4.3321962357 -0.16034509242 0.88920331001
          -3.9158587456 -0.22345404327 -0.33129701018 -3.9980287552 -0.32266074419 -0.13652320206
          -3.7167961597 -0.29400056601 -0.18038730323 -3.8035757542 -0.50670826435 -0.31858798862
          3.1256771088 0.35985979438 0.17385299504 2.8252680302 0.56484931707 0.31118530035
          3.1758000851 0.57594889402 0.29714500904 3.0462920666 0.35370859504 0.42864450812
          0.79302960634 -0.29305431247 -0.039216998965 0.68674623966 -0.13471266627 0.16325600445
          0.54733449221 -0.32747480273 0.11482799798 0.67708927393 -0.18054930866 -0.18623100221
          4.1675348282 -0.40187141299 0.870411098 4.0172262192 -0.24458359182 1.074458003
          4.2507781982 -0.39692500234 1.0791150331 3.9864780903 -0.40239870548 0.92023420334
          4.0172262192 -0.24458359182 1.074458003 4.1675348282 -0.40187141299 0.870411098
          4.2507781982 -0.39692500234 1.0791150331 4.3321962357 -0.16034509242 0.88920331001
          3.8999164104 -0.26179867983 1.3262170553 4.0172262192 -0.24458359182 1.074458003
          4.0831799507 -0.39639300108 1.2308779955 4.1478528976 -0.20111000538 1.3932329416
          -3.4454441071 0.45380440354 -0.71922898293 -3.3997917175 0.20229819417 -0.72843700647
          -3.6580049992 0.19486609101 -0.67846798897 -3.4724879265 0.27005422115 -0.50610899925
          -2.8941919804 0.276453197 -0.0076509867795 -3.133988142 0.48230528831 -0.1387040019
          -2.9699950218 0.48249959946 -0.0066279866733 -3.0849509239 0.17763519287 -0.079053997993
          -2.9400956631 0.27705860138 -0.27815890312 -3.133988142 0.48230528831 -0.1387040019
          -2.8941919804 0.276453197 -0.0076509867795 -3.0849509239 0.17763519287 -0.079053997993
          -4.792386055 0.26623538136 -0.51841771603 -4.7891550064 0.016387579963 -0.29043120146
          -4.6259469986 0.16757617891 -0.22007699311 -4.6036734581 0.038398779929 -0.53355240822
          -4.792386055 0.26623538136 -0.51841771603 -4.8607320786 0.078173696995 -0.5131021142
          -4.7891550064 0.016387579963 -0.29043120146 -4.6036734581 0.038398779929 -0.53355240822
          -2.9400956631 0.27705860138 -0.27815890312 -3.3095912933 0.2773117125 -0.21319679916
          -3.133988142 0.48230528831 -0.1387040019 -3.0849509239 0.17763519287 -0.079053997993
          -3.3997917175 0.20229819417 -0.72843700647 -3.6580049992 0.19486609101 -0.67846798897
          -3.4724879265 0.27005422115 -0.50610899925 -3.5939254761 -0.0081771295518 -0.69047999382
          -4.7578840256 0.28817969561 -0.030578099191 -4.9270887375 0.4960334301 -0.082894615829
          -5 0.28975299001 0.088944099844 -5 0.30918601155 -0.271468997
          -5 0.1004910022 -0.10199099779 -4.7578840256 0.28817969561 -0.030578099191
          -5 0.28975299001 0.088944099844 -5 0.30918601155 -0.271468997
          -1.4155100584 -0.21666789055 -0.40096598864 -1.5197509527 -0.51312232018 -0.42337998748
          -1.4011659622 -0.51028960943 -0.56537860632 -1.6305606365 -0.29367351532 -0.52340888977
          -1.6305606365 -0.29367351532 -0.52340888977 -1.5197509527 -0.51312232018 -0.42337998748
          -1.4011659622 -0.51028960943 -0.56537860632 -1.5043648481 -0.50604504347 -0.71901899576
          -4.7578840256 0.28817969561 -0.030578099191 -5 0.1004910022 -0.10199099779
          -5 0.28975299001 0.088944099844 -4.7780652046 -0.0085761295632 -0.01886684075
          -0.17038999498 0.33329957724 -0.6997410059 -0.35219299793 0.31618493795 -0.60427820683
          -0.33919200301 0.20730000734 -0.79884600639 -0.3020440042 0.48588180542 -0.73787802458
          -1.0845546722 0.4788222909 -0.80185699463 -1.2275027037 0.26585769653 -0.64385217428
          -0.90989202261 0.24085079134 -0.62744837999 -1.075802207 0.17113420367 -0.81510698795
          -3.6940450668 -0.011909330264 0.12301498652 -3.8654940128 0.059473201632 0.37344399095
          -3.6565101147 0.11428040266 0.33922699094 -3.7582271099 -0.17851629853 0.35762301087
          3.6680510044 -0.16187010705 0.64812618494 3.6307458878 0.097795702517 0.69470512867
          3.9133279324 -0.075963594019 0.57894998789 3.8472468853 0.14682120085 0.8287910223
          3.6680510044 -0.16187010705 0.64812618494 3.7057540417 -0.40722391009 0.7109375596
          3.6210319996 -0.40883889794 0.49147000909 3.49279809 -0.41079649329 0.65922492743
          3.6680510044 -0.16187010705 0.64812618494 3.8355340958 -0.40645951033 0.54560798407
          3.6210319996 -0.40883889794 0.49147000909 3.7057540417 -0.40722391009 0.7109375596
          -2.1005930901 -0.28334778547 0.038400001824 -2.1631000042 -0.090172797441 0.050840999931
          -2.2283110619 -0.34106051922 -0.12456599623 -2.0592620373 -0.25566390157 -0.23402400315
          -2.1005930901 -0.28334778547 0.038400001824 -2.3048820496 -0.31219279766 0.078204996884
          -2.2283110619 -0.34106051922 -0.12456599623 -2.1631000042 -0.090172797441 0.050840999931
          2.8574714661 -0.22937789559 0.73542100191 2.824450016 -0.10761829466 0.55310499668
          3.0500233173 -0.10988160223 0.76281303167 2.7863173485 0.018803799525 0.9157999754
          1.3544540405 0.20737339556 0.028903007507 1.3329657316 0.04662720114 0.17705599964
          1.543838501 0.32068037987 0.19921569526 1.5601570606 0.064071901143 0.17068810761
          3.6680510044 -0.16187010705 0.64812618494 3.6307458878 0.097795702517 0.69470512867
          3.599364996 -0.13409550488 0.90844702721 3.3097200394 -0.10290320963 0.73021501303
          4.2507781982 -0.39692500234 1.0791150331 4.0172262192 -0.24458359182 1.074458003
          4.0831799507 -0.39639300108 1.2308779955 3.9864780903 -0.40239870548 0.92023420334
          3.7040190697 0.031617399305 1.0519629717 3.4149284363 -0.092121005058 1.167222023
          3.7523159981 -0.085600093007 1.2815630436 3.7870020866 -0.19021171331 1.074723959
          -2.8796532154 -0.32189744711 -0.3305183053 -2.6131467819 -0.26515978575 -0.30168119073
          -2.8009653091 0.022092198953 -0.32149419188 -2.8155953884 -0.19327259064 -0.5224930048
          4.3321962357 -0.16034509242 0.88920331001 4.4424939156 0.089347399771 0.64447599649
          4.5794639587 -0.095555409789 0.80211597681 4.285888195 0.099320337176 0.90528231859
          2.9040269852 0.39754191041 0.64887100458 3.0184175968 0.12345609814 0.73364597559
          3.0947101116 0.28387919068 0.62956798077 2.7912619114 0.22470119596 0.5612180233
          0.31029599905 -0.48520949483 -0.72552001476 0.0033680000342 -0.49371635914 -0.68691200018
          0.20165160298 -0.28208371997 -0.78509497643 0.23998099566 -0.31517469883 -0.51127868891
          2.9585413933 -0.41264221072 0.97368997335 2.7232918739 -0.43851751089 0.85738897324
          2.9244709015 -0.4294475019 0.74562698603 2.8574714661 -0.22937789559 0.73542100191
          2.9585413933 -0.41264221072 0.97368997335 2.9244709015 -0.4294475019 0.74562698603
          3.167424202 -0.4212833941 0.82355499268 2.8574714661 -0.22937789559 0.73542100191
          -3.6243565083 0.17590141296 -0.3374350071 -3.8971295357 0.23590660095 -0.36395600438
          -3.8473057747 -0.00070657959441 -0.13606338203 -3.8043015003 -0.00087310036179 -0.39245098829
          -3.8971295357 0.23590660095 -0.36395600438 -3.8043015003 -0.00087310036179 -0.39245098829
          -3.8699226379 0.21788460016 -0.63997101784 -4.0438446999 0.094188794494 -0.60962402821
          -3.8043015003 -0.00087310036179 -0.39245098829 -3.8068175316 -0.027711499482 -0.64996302128
          -3.8699226379 0.21788460016 -0.63997101784 -4.0438446999 0.094188794494 -0.60962402821
          -2.0292806625 0.11994799972 -0.99204802513 -2.1201012135 -0.050273101777 -0.70986998081
          -2.0257306099 -0.031649298966 -0.9920539856 -2.188603878 0.16068729758 -0.96540898085
          -1.6368409395 -0.014472581446 -0.55414676666 -1.5961900949 -0.24007625878 -0.77421802282
          -1.6305606365 -0.29367351532 -0.52340888977 -1.4074389935 -0.049107201397 -0.5518643856
          -1.6368409395 -0.014472581446 -0.55414676666 -1.6305606365 -0.29367351532 -0.52340888977
          -1.4155100584 -0.21666789055 -0.40096598864 -1.4074389935 -0.049107201397 -0.5518643856
          -4.394712925 -0.0063827331178 -0.052065320313 -4.4642100334 -0.19895298779 -0.3199582994
          -4.4301371574 -0.28078189492 -0.098592102528 -4.2235832214 -0.18397390842 -0.2816118896
          3.8637049198 0.57652932405 1.0168390274 3.8319048882 0.3724052906 1.1257870197
          4.065433979 0.57982081175 1.038596034 4.0205068588 0.28315189481 1.0268609524
          -3.8043015003 -0.00087310036179 -0.39245098829 -3.9158587456 -0.22345404327 -0.33129701018
          -3.7167961597 -0.29400056601 -0.18038730323 -3.5914151669 -0.15871548653 -0.36829999089
          4.6576151848 0.017758300528 1.462864995 4.7135901451 -0.22733098269 1.489552021
          4.6312479973 -0.18212139606 1.2574429512 4.531235218 -0.23131799698 1.462864995
          -3.9548974037 0.23137070239 -0.10864424706 -3.71869874 0.25738021731 -0.13884219527
          -3.8971295357 0.23590660095 -0.36395600438 -3.8473057747 -0.00070657959441 -0.13606338203
          -2.4871096611 -0.50503849983 -0.87453103065 -2.7225356102 -0.3007414341 -0.86474698782
          -2.5882301331 -0.30685323477 -0.65421998501 -2.715783596 -0.50627452135 -0.80598902702
          0.44537511468 -0.27799990773 -0.12429698557 0.24777440727 -0.18341463804 -0.29771098495
          0.34409999847 -0.50164806843 -0.32478198409 0.49290901423 -0.27051791549 -0.38118758798
          -2.2999050617 -0.0097464201972 -0.11074100435 -2.4908249378 0.11884979904 -0.11749400944
          -2.3502340317 -0.11054370552 0.087472997606 -2.5937309265 -0.094380997121 -0.091197997332
          -2.3400249481 -0.19343669713 -0.23309500515 -2.2999050617 -0.0097464201972 -0.11074100435
          -2.4908249378 0.11884979904 -0.11749400944 -2.5705890656 -0.0096552502364 -0.37767747045
          2.5536410809 -0.43353191018 0.20064629614 2.6479671001 -0.18968589604 0.18436330557
          2.4038360119 -0.2405732125 0.18867635727 2.635833025 -0.42590990663 -0.026309985667
          2.3360071182 -0.43899869919 0.085661202669 2.635833025 -0.42590990663 -0.026309985667
          2.5536410809 -0.43353191018 0.20064629614 2.4038360119 -0.2405732125 0.18867635727
          0.44537511468 -0.27799990773 -0.12429698557 0.48138740659 -0.12545976043 0.10301499814
          0.67708927393 -0.18054930866 -0.18623100221 0.54733449221 -0.32747480273 0.11482799798
          -3.4071218967 -0.27582120895 -0.49657699466 -3.3206231594 -0.27725860476 -0.74263799191
          -3.1707112789 -0.50821882486 -0.61334198713 -3.1450257301 -0.19032800198 -0.44944301248
          -2.3502340317 -0.11054370552 0.087472997606 -2.5937309265 -0.094380997121 -0.091197997332
          -2.4840130806 -0.30007189512 -0.074917010963 -2.2999050617 -0.0097464201972 -0.11074100435
          -1.1241190434 -0.31656226516 -1.0943260193 -1.2899454832 -0.49320724607 -1.0851969719
          -1.1810113192 -0.49926784635 -0.8929489851 -1.0406808853 -0.49340972304 -1.0401200056
          -2.5937309265 -0.094380997121 -0.091197997332 -2.9204330444 -0.13243819773 -0.19507199526
          -2.8014369011 -0.27421984076 -0.022419007495 -2.6131467819 -0.26515978575 -0.30168119073
          -4.6010689735 -0.032954148948 -0.34019801021 -4.4642100334 -0.19895298779 -0.3199582994
          -4.6480989456 -0.13892398775 -0.52972179651 -4.6692109108 -0.16517569125 -0.19817639887
          -0.89977502823 -0.26588141918 -1.0985300541 -1.0406808853 -0.49340972304 -1.0401200056
          -1.0344099998 -0.31266370416 -0.88067400455 -0.74040699005 -0.49768507481 -0.86798501015
          -2.8014369011 -0.27421984076 -0.022419007495 -2.9013741016 -0.1873832345 0.19913700223
          -2.7196071148 0.012619300745 0.16217699647 -2.5996620655 -0.2836445868 0.13820500672
          -2.9013741016 -0.1873832345 0.19913700223 -2.8371300697 -0.46261897683 0.18645299971
          -2.5996620655 -0.2836445868 0.13820500672 -2.8014369011 -0.27421984076 -0.022419007495
          -3.0187089443 -0.037960600108 0.018444009125 -3.2058420181 -0.10112692416 0.25872200727
          -2.9013741016 -0.1873832345 0.19913700223 -3.0995531082 -0.23698805273 0.23871299624
          1.9601919651 -0.45431318879 0.13470560312 1.8784749508 -0.24840208888 0.010538879782
          2.0085380077 -0.44803181291 -0.051146503538 2.0660989285 -0.22966709733 0.14300569892
          -3.0187089443 -0.037960600108 0.018444009125 -3.2058420181 -0.10112692416 0.25872200727
          -3.0995531082 -0.23698805273 0.23871299624 -3.1989395618 -0.20423613489 -0.036946997046
          -2.5996620655 -0.2836445868 0.13820500672 -2.8371300697 -0.46261897683 0.18645299971
          -2.6173989773 -0.49825462699 0.14134299755 -2.8014369011 -0.27421984076 -0.022419007495
          -2.5996620655 -0.2836445868 0.13820500672 -2.6173989773 -0.49825462699 0.14134299755
          -2.5874330997 -0.50843310356 -0.077546991408 -2.8014369011 -0.27421984076 -0.022419007495
          3.9765019417 0.28852498531 0.26302400231 3.9061729908 0.52652400732 0.245728001
          4.1377820969 0.39951202273 0.32685101032 3.9646220207 0.41419330239 0.50147998333
          -4.3738183975 0.24991054833 -0.14364899695 -4.1721348763 0.28047949076 -0.053690198809
          -4.374229908 0.21605139971 0.18340799212 -4.5292730331 0.2915058732 0.031001500785
          -0.75858801603 0.17240820825 -0.42690300941 -1.0361119509 0.21812960505 -0.37398898602
          -0.85646498203 0.17925000191 -0.10178700089 -0.8307570219 -0.058059498668 -0.35817700624
          3.4009900093 0.56842762232 0.97544896603 3.2735610008 0.57003730536 0.75401997566
          3.0665662289 0.3753657043 0.82187402248 3.4282515049 0.33187240362 0.97428900003
          3.4009900093 0.56842762232 0.97544896603 3.0665662289 0.3753657043 0.82187402248
          3.1853451729 0.33565509319 1.0903539658 3.4282515049 0.33187240362 0.97428900003
          -4.1721348763 0.28047949076 -0.053690198809 -4.2460803986 0.48600909114 -0.044718399644
          -4.2010884285 0.48155650496 0.20740970969 -4.3946790695 0.48465889692 0.11185610294
          3.997948885 0.58768248558 0.85406768322 3.8135120869 0.40065589547 0.74336141348
          3.8637049198 0.57652932405 1.0168390274 4.0778617859 0.38755699992 0.83571088314
          0.24357970059 -0.27066677809 0.034074999392 0.31893050671 -0.015289099887 -0.15932199359
          0.24777440727 -0.18341463804 -0.29771098495 0.44537511468 -0.27799990773 -0.12429698557
          3.8135120869 0.40065589547 0.74336141348 3.997948885 0.58768248558 0.85406768322
          3.9646220207 0.41419330239 0.50147998333 4.0778617859 0.38755699992 0.83571088314
          4.065433979 0.57982081175 1.038596034 3.997948885 0.58768248558 0.85406768322
          4.0778617859 0.38755699992 0.83571088314 4.2130708694 0.59228688478 0.90869247913
          -2.4249818325 -0.50633567572 -0.6508589983 -2.4871096611 -0.50503849983 -0.87453103065
          -2.5882301331 -0.30685323477 -0.65421998501 -2.715783596 -0.50627452135 -0.80598902702
          2.0636451244 -0.34763351083 0.61844497919 1.9537478685 -0.17958140373 0.5853844285
          2.1206483841 -0.27323719859 0.41196197271 2.1238291264 -0.18699400127 0.64728599787
          1.85224998 -0.44815999269 -0.31117022038 2.1323330402 -0.24952030182 -0.2159884125
          2.1658439636 -0.43505328894 -0.3575527072 2.0085380077 -0.44803181291 -0.051146503538
          4.6259679794 -0.40398031473 0.7512139678 4.7822642326 -0.20231451094 0.72078299522
          4.7853469849 -0.40575119853 0.83861100674 4.7351660728 -0.16101920605 0.98147392273
          4.1932888031 -0.10509669781 1.111093998 4.2345128059 0.15581940114 1.1804380417
          4.0751972198 0.034389801323 1.3754040003 3.9359619617 0.090236805379 1.1565029621
          1.3614029884 0.52470320463 -0.1519087255 1.3544540405 0.20737339556 0.028903007507
          1.2022919655 0.33101278543 -0.21015967429 1.1881120205 0.31921857595 0.10735101253
          -2.8126263618 -0.50702655315 -0.63701498508 -2.9465870857 -0.28584861755 -0.81910002232
          -2.8155953884 -0.19327259064 -0.5224930048 -3.0045845509 -0.31262481213 -0.59387999773
          1.2600870132 -0.46586328745 -0.47155499458 0.9440330267 -0.47934010625 -0.38176751137
          0.99080097675 -0.46790888906 -0.68673402071 1.0520069599 -0.24730080366 -0.58848804235
          1.2166980505 -0.46223008633 -0.67697501183 1.2600870132 -0.46586328745 -0.47155499458
          0.99080097675 -0.46790888906 -0.68673402071 1.0520069599 -0.24730080366 -0.58848804235
          1.0520069599 -0.24730080366 -0.58848804235 1.2166980505 -0.46223008633 -0.67697501183
          0.97156202793 -0.18440270424 -0.83044797182 0.99080097675 -0.46790888906 -0.68673402071
          1.0520069599 -0.24730080366 -0.58848804235 0.87940001488 -0.37989571691 -0.86367201805
          0.99080097675 -0.46790888906 -0.68673402071 0.97156202793 -0.18440270424 -0.83044797182
          0.73838502169 -0.23838828504 -0.67500901222 0.87940001488 -0.37989571691 -0.86367201805
          1.0520069599 -0.24730080366 -0.58848804235 0.97156202793 -0.18440270424 -0.83044797182
          0.73838502169 -0.23838828504 -0.67500901222 0.87940001488 -0.37989571691 -0.86367201805
          0.99080097675 -0.46790888906 -0.68673402071 1.0520069599 -0.24730080366 -0.58848804235
          1.0520069599 -0.24730080366 -0.58848804235 0.82692998648 -0.47690171003 -0.55843901634
          0.99080097675 -0.46790888906 -0.68673402071 0.73838502169 -0.23838828504 -0.67500901222
          5.2039008141 -0.31573709846 1.1745685339 5.2391929626 -0.046786397696 1.0306526423
          5.1611480713 -0.11739530414 1.3518660069 5.0362038612 -0.1984565109 1.0518586636
          -3.5198493004 0.28535220027 -0.20457419753 -3.6243565083 0.17590141296 -0.3374350071
          -3.71869874 0.25738021731 -0.13884219527 -3.5523664951 0.0045121996664 -0.18042999506
          0.9440330267 -0.47934010625 -0.38176751137 0.82692998648 -0.47690171003 -0.55843901634
          0.99080097675 -0.46790888906 -0.68673402071 1.0520069599 -0.24730080366 -0.58848804235
          1.3097800016 -0.27519398928 -0.1584803015 1.1370209455 -0.2310988009 -0.34101459384
          1.2600870132 -0.46586328745 -0.47155499458 1.3132139444 -0.24616961181 -0.5035700202
          3.3609991074 0.066775999963 0.55516642332 3.2137260437 0.23683209717 0.35793501139
          3.0947101116 0.28387919068 0.62956798077 3.1101438999 0.080181010067 0.45569860935
          3.0462920666 0.35370859504 0.42864450812 3.2137260437 0.23683209717 0.35793501139
          3.0947101116 0.28387919068 0.62956798077 3.2744851112 0.38130360842 0.56395947933
          4.1932888031 -0.10509669781 1.111093998 4.4337921143 0.1125216037 1.254134059
          4.372276783 -0.18564900756 1.2451930046 4.2263350487 -0.055008299649 1.4182280302
          3.1758000851 0.57594889402 0.29714500904 3.2744851112 0.38130360842 0.56395947933
          3.3910770416 0.58322429657 0.34406098723 3.3498690128 0.38853508234 0.25040599704
          3.1758000851 0.57594889402 0.29714500904 3.0462920666 0.35370859504 0.42864450812
          3.2744851112 0.38130360842 0.56395947933 3.3498690128 0.38853508234 0.25040599704
          -3.8068175316 -0.027711499482 -0.64996302128 -3.7473104 -0.28769311309 -0.66039299965
          -3.733959198 -0.32337343693 -0.43397399783 -3.5914151669 -0.15871548653 -0.36829999089
          2.7275784016 0.56002151966 0.53235000372 2.6725535393 0.38265278935 0.65312898159
          2.8127799034 0.36863431334 0.39534589648 2.4725689888 0.38891109824 0.53518199921
          -0.51817697287 -0.33874639869 -0.53937000036 -0.49614500999 -0.18467617035 -0.78485298157
          -0.66083502769 -0.29501193762 -0.69995200634 -0.47170200944 -0.50193786621 -0.68685621023
          -4.6692109108 -0.16517569125 -0.19817639887 -4.7949709892 -0.27444934845 -0.028330069035
          -4.5570960045 -0.13278326392 -0.03384745121 -4.4301371574 -0.28078189492 -0.098592102528
          -2.3289134502 -0.0023192001972 -0.42081850767 -2.3716421127 -0.18197050691 -0.6025840044
          -2.6087565422 -0.063813298941 -0.63231498003 -2.5529778004 -0.19498869777 -0.48805639148
          4.0790348053 0.052158098668 0.78453868628 3.8472468853 0.14682120085 0.8287910223
          4.0205068588 0.28315189481 1.0268609524 4.1026678085 0.059743199497 1.0158569813
          4.3321962357 -0.16034509242 0.88920331001 4.0790348053 0.052158098668 0.78453868628
          4.285888195 0.099320337176 0.90528231859 4.1026678085 0.059743199497 1.0158569813
          1.3815850019 -0.12085030228 -0.70849198103 1.3132139444 -0.24616961181 -0.5035700202
          1.1848659515 -0.12604640424 -0.76831799746 1.1442159414 -0.0049022994936 -0.49735999107
          0.84875500202 -0.035446301103 -0.85831201077 0.73838502169 -0.23838828504 -0.67500901222
          0.97156202793 -0.18440270424 -0.83044797182 0.6468949914 -0.072852902114 -0.91035401821
          2.4399039745 -0.10959740728 -0.0052800015546 2.2007000446 -0.030069796368 -0.17213380337
          2.5682160854 -0.13655368984 -0.3176009953 2.4686999321 0.064002029598 -0.14970698953
          -1.8008160591 -0.23927970231 -0.014976000413 -2.1005930901 -0.28334778547 0.038400001824
          -1.8710329533 -0.32551139593 -0.18849799037 -1.9761929512 -0.084401905537 0.01688499935
          1.5894249678 -0.45208120346 -0.55978298187 1.3132139444 -0.24616961181 -0.5035700202
          1.4319980145 -0.45352560282 -0.70679199696 1.5054880381 -0.2863958776 -0.67730301619
          1.3132139444 -0.24616961181 -0.5035700202 1.0520069599 -0.24730080366 -0.58848804235
          1.1848659515 -0.12604640424 -0.76831799746 1.1442159414 -0.0049022994936 -0.49735999107
          -1.8008160591 -0.23927970231 -0.014976000413 -2.1005930901 -0.28334778547 0.038400001824
          -1.9509960413 -0.51507622004 -0.028830006719 -1.8710329533 -0.32551139593 -0.18849799037
          -1.0108540058 -0.22747680545 -0.36507099867 -0.8307570219 -0.058059498668 -0.35817700624
          -0.96610802412 -0.023699499667 -0.59952700138 -0.83050501347 -0.26468807459 -0.57061237097
          -0.83050501347 -0.26468807459 -0.57061237097 -0.96610802412 -0.023699499667 -0.59952700138
          -1.0108540058 -0.22747680545 -0.36507099867 -1.0780789852 -0.26223245263 -0.61954492331
          4.3321962357 -0.16034509242 0.88920331001 4.1026678085 0.059743199497 1.0158569813
          4.285888195 0.099320337176 0.90528231859 4.1932888031 -0.10509669781 1.111093998
          0.34905490279 0.20103774965 0.07488899678 0.10837440193 0.15965628624 0.013736000285
          0.31893050671 -0.015289099887 -0.15932199359 0.33304131031 0.20393286645 -0.24557299912
          -3.5458295345 0.1751678884 -0.0069859996438 -3.71869874 0.25738021731 -0.13884219527
          -3.8473057747 -0.00070657959441 -0.13606338203 -3.5523664951 0.0045121996664 -0.18042999506
          -3.5458295345 0.1751678884 -0.0069859996438 -3.71869874 0.25738021731 -0.13884219527
          -3.8129053116 0.21391560137 0.11131499708 -3.8473057747 -0.00070657959441 -0.13606338203
          3.1256771088 0.35985979438 0.17385299504 3.1546220779 0.28414210677 -0.077771998942
          3.1981549263 0.12413520366 0.16969101131 3.3937470913 0.42309600115 0.025817999616
          3.1256771088 0.35985979438 0.17385299504 3.1963329315 0.58174359798 -0.046583991498
          3.1546220779 0.28414210677 -0.077771998942 3.3937470913 0.42309600115 0.025817999616
          -3.0187089443 -0.037960600108 0.018444009125 -3.3023517132 0.0064315996133 -0.24028472602
          -3.302652359 0.038016501814 0.04223600775 -3.1989395618 -0.20423613489 -0.036946997046
          -3.0187089443 -0.037960600108 0.018444009125 -3.2058420181 -0.10112692416 0.25872200727
          -3.1989395618 -0.20423613489 -0.036946997046 -3.302652359 0.038016501814 0.04223600775
          -3.2075111866 0.26916709542 -0.76702600718 -3.0065186024 0.11188069731 -0.80747801065
          -3.1758265495 0.071973100305 -0.7731680274 -3.0509493351 0.29688620567 -0.58453899622
          -2.9779620171 0.1083374992 0.21390299499 -3.2058420181 -0.10112692416 0.25872200727
          -2.9013741016 -0.1873832345 0.19913700223 -3.0187089443 -0.037960600108 0.018444009125
          4.3783740997 0.40928810835 1.4540369511 4.4337921143 0.1125216037 1.254134059
          4.5082879066 0.20863980055 1.4644019604 4.4793419838 0.2869952023 1.1247149706
          4.9794502258 -0.39840599895 0.61955702305 5.1017589569 -0.19658398628 0.71833097935
          5.1102108955 -0.40072900057 0.75134700537 4.9700870514 -0.40666720271 0.87981498241
          1.1370209455 -0.2310988009 -0.34101459384 1.1713650227 -0.47730788589 -0.15520529449
          0.9440330267 -0.47934010625 -0.38176751137 0.91907000542 -0.28306537867 -0.28310790658
          1.8510379791 0.076726302505 -0.29504978657 2.1296679974 -0.11873139441 -0.46822568774
          2.2007000446 -0.030069796368 -0.17213380337 2.1178569794 0.093814596534 -0.4642611146
          5.0733251572 -0.094601005316 0.53920000792 5.0587530136 0.088731199503 0.75192797184
          5.3150639534 0.048920102417 0.68501400948 5.1017589569 -0.19658398628 0.71833097935
          1.655272007 0.093524098396 -0.11352000386 1.7244919538 -0.11605580151 -0.38782680035
          1.9164220095 -0.13674210012 -0.17615103722 1.8510379791 0.076726302505 -0.29504978657
          5.0286197662 0.27560698986 1.0374772549 5.0302901268 0.43874397874 1.1967389584
          5.2164421082 0.40284201503 1.1155520678 5.1940898895 0.12840040028 1.2278339863
          -3.4112770557 0.15064421296 -0.34156700969 -3.3833937645 -0.032667398453 -0.48868498206
          -3.1901597977 0.0029790997505 -0.4238820076 -3.2429180145 0.19009520113 -0.47103300691
          3.550276041 0.36652091146 0.69562649727 3.8135120869 0.40065589547 0.74336141348
          3.6307458878 0.097795702517 0.69470512867 3.690030098 0.28598979115 0.94812899828
          3.550276041 0.36652091146 0.69562649727 3.7448599339 0.30333548784 0.49451100826
          3.6307458878 0.097795702517 0.69470512867 3.8135120869 0.40065589547 0.74336141348
          3.7448599339 0.30333548784 0.49451100826 3.7727000713 0.59062451124 0.58069598675
          3.8135120869 0.40065589547 0.74336141348 3.550276041 0.36652091146 0.69562649727
          -2.1201012135 -0.050273101777 -0.70986998081 -2.3716421127 -0.18197050691 -0.6025840044
          -2.3289134502 -0.0023192001972 -0.42081850767 -2.0975265503 -0.075285196304 -0.43518251181
          3.8135120869 0.40065589547 0.74336141348 3.7727000713 0.59062451124 0.58069598675
          3.997948885 0.58768248558 0.85406768322 3.6906139851 0.57666391134 0.86979299784
          3.997948885 0.58768248558 0.85406768322 3.6906139851 0.57666391134 0.86979299784
          3.8637049198 0.57652932405 1.0168390274 3.8135120869 0.40065589547 0.74336141348
          3.8135120869 0.40065589547 0.74336141348 3.8319048882 0.3724052906 1.1257870197
          3.8637049198 0.57652932405 1.0168390274 4.0205068588 0.28315189481 1.0268609524
          -2.3831439018 0.30391207337 -0.93155002594 -2.5130262375 0.47851529717 -0.88141399622
          -2.4720232487 0.27283710241 -0.72016400099 -2.6349360943 0.29374942183 -0.88281100988
          -0.31712800264 -0.025899430737 -0.85415101051 -0.62419199944 0.12591390312 -0.73094600439
          -0.33919200301 0.20730000734 -0.79884600639 -0.51164197922 0.025980791077 -0.55774062872
          -0.6087269187 0.024860799313 -0.30977600813 -0.75858801603 0.17240820825 -0.42690300941
          -0.63126498461 -0.15162830055 -0.47663301229 -0.51164197922 0.025980791077 -0.55774062872
          2.1151509285 0.051999751478 0.097855910659 2.0134241581 0.082406297326 0.37211599946
          2.3748869896 0.069039702415 0.16169330478 2.2780179977 -0.12498279661 0.35640898347
          2.1151509285 0.051999751478 0.097855910659 2.0134241581 0.082406297326 0.37211599946
          2.2926232815 0.21838380396 0.36620301008 2.3748869896 0.069039702415 0.16169330478
          -3.9542860985 -0.041209600866 0.17256499827 -4.0624485016 0.11422649771 0.40121608973
          -3.8654940128 0.059473201632 0.37344399095 -4.0000076294 -0.12829710543 0.39358600974
          -0.056981399655 -0.33009880781 -0.03277400136 0.071282997727 -0.17594109476 -0.0039079999551
          0.0696529001 -0.32972794771 -0.23890098929 0.24357970059 -0.27066677809 0.034074999392
          2.3748869896 0.069039702415 0.16169330478 2.0134241581 0.082406297326 0.37211599946
          2.2926232815 0.21838380396 0.36620301008 2.2780179977 -0.12498279661 0.35640898347
          2.3748869896 0.069039702415 0.16169330478 2.5975399017 0.036539699882 0.30856120586
          2.4399039745 -0.10959740728 -0.0052800015546 2.6479671001 -0.18968589604 0.18436330557
          2.3748869896 0.069039702415 0.16169330478 2.5975399017 0.036539699882 0.30856120586
          2.7066569328 0.013594998047 0.026080995798 2.4399039745 -0.10959740728 -0.0052800015546
          3.7727000713 0.59062451124 0.58069598675 3.7101740837 0.59498238564 0.34702202678
          3.9646220207 0.41419330239 0.50147998333 3.9061729908 0.52652400732 0.245728001
          3.7727000713 0.59062451124 0.58069598675 3.7101740837 0.59498238564 0.34702202678
          3.7448599339 0.30333548784 0.49451100826 3.9646220207 0.41419330239 0.50147998333
          -4.752243042 -0.50364774466 -0.24244779348 -5 -0.33370301127 -0.29875099659
          -4.7781114578 -0.50555992126 -0.40374428034 -4.7889413834 -0.29244363308 -0.33276119828
          -4.7891550064 0.016387579963 -0.29043120146 -4.7889413834 -0.29244363308 -0.33276119828
          -4.8238286972 -0.16162951291 -0.51467502117 -5 -0.13075700402 -0.36378800869
          4.9991178513 0.039471499622 1.0460796356 5.1940898895 0.12840040028 1.2278339863
          5.2391929626 -0.046786397696 1.0306526423 5.1611480713 -0.11739530414 1.3518660069
          3.7570819855 -0.18195958436 0.41518300772 3.7211930752 0.051226999611 0.43084198236
          3.4964818954 -0.10279240459 0.43279200792 3.5797228813 -0.13064749539 0.085768997669
          3.7570819855 -0.18195958436 0.41518300772 3.6210319996 -0.40883889794 0.49147000909
          3.5444030762 -0.40834650397 0.28405502439 3.4964818954 -0.10279240459 0.43279200792
          3.7211930752 0.051226999611 0.43084198236 3.6680510044 -0.16187010705 0.64812618494
          3.7570819855 -0.18195958436 0.41518300772 3.4964818954 -0.10279240459 0.43279200792
          4.6513729095 0.13981750607 1.2424490452 4.9991178513 0.039471499622 1.0460796356
          4.7789177895 0.14037750661 0.96490341425 4.8456058502 -0.1037119925 1.1854159832
          3.7211930752 0.051226999611 0.43084198236 3.9133279324 -0.075963594019 0.57894998789
          3.7570819855 -0.18195958436 0.41518300772 3.6680510044 -0.16187010705 0.64812618494
          -2.5882301331 -0.30685323477 -0.65421998501 -2.4961392879 -0.28663662076 -0.90913802385
          -2.6172776222 -0.17857418954 -0.88542699814 -2.7225356102 -0.3007414341 -0.86474698782
          4.7351660728 -0.16101920605 0.98147392273 4.7789177895 0.14037750661 0.96490341425
          4.9991178513 0.039471499622 1.0460796356 4.8456058502 -0.1037119925 1.1854159832
          3.9765019417 0.28852498531 0.26302400231 3.9061729908 0.52652400732 0.245728001
          3.9646220207 0.41419330239 0.50147998333 3.7448599339 0.30333548784 0.49451100826
          0.19005160034 0.5024972558 -0.0085250083357 0.12283880264 0.27401307225 -0.19243100286
          0.34905490279 0.20103774965 0.07488899678 0.31266918778 0.50222033262 -0.13974998891
          -4.7889413834 -0.29244363308 -0.33276119828 -4.7891550064 0.016387579963 -0.29043120146
          -5 -0.16616299748 -0.067754097283 -5 -0.13075700402 -0.36378800869
          -1.8959770203 0.26786220074 -0.15826401114 -2.0546720028 0.3103351891 0.029857000336
          -2.0947520733 0.29650449753 -0.21109998226 -1.8772009611 0.48616209626 -0.20101100206
          1.8809980154 0.037144001573 -0.0096619697288 1.7837769985 -0.11298939586 0.15795660019
          1.7636737823 0.046389199793 0.32517156005 1.9838659763 -0.058840800077 0.22020068765
          -3.1325054169 -0.50747013092 -0.43627199531 -3.1450257301 -0.19032800198 -0.44944301248
          -3.3609697819 -0.25755804777 -0.25123178959 -3.4071218967 -0.27582120895 -0.49657699466
          -3.4071218967 -0.27582120895 -0.49657699466 -3.3609697819 -0.25755804777 -0.25123178959
          -3.251019001 -0.50599706173 -0.25622180104 -3.3306560516 -0.50790274143 -0.51511698961
          1.5643210411 -0.27857810259 -0.44123601913 1.4434380531 -0.14066420496 -0.32838499546
          1.7291409969 -0.28722119331 -0.28180330992 1.6362780333 -0.19434309006 -0.1196873039
          -3.4071218967 -0.27582120895 -0.49657699466 -3.5324959755 -0.49818360806 -0.69915002584
          -3.600661993 -0.50759500265 -0.39991500974 -3.3306560516 -0.50790274143 -0.51511698961
          1.1370209455 -0.2310988009 -0.34101459384 0.87983602285 -0.093330197036 -0.22511909902
          0.87655997276 -0.11350530386 -0.45971497893 0.95586800575 0.071381397545 -0.33720040321
          1.1370209455 -0.2310988009 -0.34101459384 0.91907000542 -0.28306537867 -0.28310790658
          0.87655997276 -0.11350530386 -0.45971497893 0.87983602285 -0.093330197036 -0.22511909902
          -3.5520818233 -0.30605709553 -0.697009027 -3.5324959755 -0.49818360806 -0.69915002584
          -3.600661993 -0.50759500265 -0.39991500974 -3.4071218967 -0.27582120895 -0.49657699466
          -1.4535621405 -0.08741620183 -0.88498598337 -1.5961900949 -0.24007625878 -0.77421802282
          -1.6368409395 -0.014472581446 -0.55414676666 -1.4074389935 -0.049107201397 -0.5518643856
          -3.7273154259 0.27898979187 -0.49260097742 -3.6321229935 0.48460400105 -0.30110099912
          -3.6243565083 0.17590141296 -0.3374350071 -3.8077201843 0.48553070426 -0.30209600925
          0.24777440727 -0.18341463804 -0.29771098495 0.096351802349 -0.10763604939 -0.42178741097
          0.35398098826 -0.14804252982 -0.47525811195 0.25168299675 0.024994578212 -0.46399909258
          -1.5760400295 -0.030635099858 -0.29671400785 -1.8747121096 0.0029144007713 -0.49748280644
          -1.8079010248 -0.20703689754 -0.34597599506 -1.6368409395 -0.014472581446 -0.55414676666
          -3.687541008 0.43435680866 -0.67268902063 -3.7273154259 0.27898979187 -0.49260097742
          -3.6580049992 0.19486609101 -0.67846798897 -3.8699226379 0.21788460016 -0.63997101784
          4.7970080376 0.40450099111 0.99685043097 4.9242591858 0.60738301277 1.1569290161
          5.0302901268 0.43874397874 1.1967389584 4.8725390434 0.29623439908 1.2086399794
          1.5706268549 -0.052340894938 0.45530718565 1.5601570606 0.064071901143 0.17068810761
          1.7837769985 -0.11298939586 0.15795660019 1.7636737823 0.046389199793 0.32517156005
          2.5104129314 -0.4431695044 0.58892899752 2.3304371834 -0.26972290874 0.49684798717
          2.4307379723 -0.44270971417 0.40620398521 2.5335454941 -0.19222688675 0.50451397896
          1.9772109985 0.2443075031 -0.15706959367 1.8098720312 0.33792459965 -0.017415300012
          2.111946106 0.35183390975 -0.033053901047 2.0875871181 0.32275497913 0.17387519777
          -2.1485760212 0.26226508617 -0.74843597412 -2.3831439018 0.30391207337 -0.93155002594
          -2.1449475288 0.47599279881 -0.93732100725 -2.3831152916 0.479411304 -0.7015529871
          3.3867809772 -0.23781871796 0.5709104538 3.2239820957 -0.14030811191 0.26961100101
          3.1153120995 -0.17042639852 0.52375102043 3.3344159126 -0.41385099292 0.43574500084
          0.44702979922 0.50523287058 -0.018845997751 0.19005160034 0.5024972558 -0.0085250083357
          0.34905490279 0.20103774965 0.07488899678 0.31266918778 0.50222033262 -0.13974998891
          -4.1448526382 0.14308868349 -0.26994079351 -4.2976675034 0.29178825021 -0.37512549758
          -4.4088745117 0.030903441831 -0.32176870108 -4.2148256302 0.11070713401 -0.5839381218
          -2.9699292183 -0.052413102239 -0.81482702494 -2.8155953884 -0.19327259064 -0.5224930048
          -3.0660376549 -0.035237099975 -0.601772964 -2.819904089 0.037339199334 -0.66302698851
          -4.4548616409 -0.039748691022 0.44836860895 -4.6800694466 0.0018985598581 0.46689039469
          -4.6952867508 -0.18051728606 0.4779253006 -4.5753359795 -0.14313571155 0.30882889032
          0.30108499527 0.17071788013 -0.6524900198 0.10719139874 0.28679504991 -0.54870027304
          0.22630690038 0.49578845501 -0.65596997738 0.32533699274 0.30109125376 -0.45768621564
          1.5581665039 -0.242820099 0.18669840693 1.8784749508 -0.24840208888 0.010538879782
          1.4941439629 -0.30191999674 -0.0081950007007 1.7383420467 -0.46321061254 0.15311719477
          0.14842510223 0.040421258658 -0.80009198189 0.073527999222 0.1395072788 -1.023146987
          0.15515929461 0.27147474885 -0.81783097982 -0.04301200062 0.17476075888 -0.718306005
          -0.18545199931 0.22996643186 -0.47609320283 -0.020758699626 0.49720421433 -0.34290099144
          -0.17106099427 0.49157705903 -0.57271128893 0.10719139874 0.28679504991 -0.54870027304
          0.10719139874 0.28679504991 -0.54870027304 -0.020758699626 0.49720421433 -0.34290099144
          -0.17106099427 0.49157705903 -0.57271128893 0.014425000176 0.49165633321 -0.66029900312
          0.10719139874 0.28679504991 -0.54870027304 -0.020758699626 0.49720421433 -0.34290099144
          0.014425000176 0.49165633321 -0.66029900312 0.17703129351 0.49817833304 -0.43983438611
          0.84875500202 -0.035446301103 -0.85831201077 0.56008797884 0.052585806698 -0.68334698677
          0.73838502169 -0.23838828504 -0.67500901222 0.6468949914 -0.072852902114 -0.91035401821
          4.4776749611 -0.40230458975 1.0684930086 4.372276783 -0.18564900756 1.2451930046
          4.2914719582 -0.39629501104 1.270524025 4.2507781982 -0.39692500234 1.0791150331
          0.93168497086 0.052144400775 -0.6099550128 0.76200997829 0.19809819758 -0.53690600395
          0.6582840085 -0.086143799126 -0.53992497921 0.56008797884 0.052585806698 -0.68334698677
          -0.55649799109 -0.51590490341 -0.39866101742 -0.51817697287 -0.33874639869 -0.53937000036
          -0.26617699862 -0.50942438841 -0.44230300188 -0.39079099894 -0.51813417673 -0.27170100808
          2.6714880466 0.016336200759 -0.27357900143 2.4686999321 0.064002029598 -0.14970698953
          2.7066569328 0.013594998047 0.026080995798 2.4399039745 -0.10959740728 -0.0052800015546
          -0.81324702501 0.26146668196 -0.86965799332 -0.90989202261 0.24085079134 -0.62744837999
          -0.62419199944 0.12591390312 -0.73094600439 -0.85043102503 0.031999699771 -0.80896800756
          0.30940818787 -0.10097020119 0.057927999645 0.1771903038 0.016279280186 0.027272000909
          0.071282997727 -0.17594109476 -0.0039079999551 0.31893050671 -0.015289099887 -0.15932199359
          0.31893050671 -0.015289099887 -0.15932199359 0.1771903038 0.016279280186 0.027272000909
          0.071282997727 -0.17594109476 -0.0039079999551 0.098207399249 -0.032019931823 -0.19597899914
          2.4686999321 0.064002029598 -0.14970698953 2.2007000446 -0.030069796368 -0.17213380337
          2.3959000111 -0.2165030092 -0.38119700551 2.3845460415 0.082077801228 -0.37291699648
          0.31893050671 -0.015289099887 -0.15932199359 0.098207399249 -0.032019931823 -0.19597899914
          0.071282997727 -0.17594109476 -0.0039079999551 0.24777440727 -0.18341463804 -0.29771098495
          0.24357970059 -0.27066677809 0.034074999392 0.30940818787 -0.10097020119 0.057927999645
          0.071282997727 -0.17594109476 -0.0039079999551 0.31893050671 -0.015289099887 -0.15932199359
          0.34905490279 0.20103774965 0.07488899678 0.31893050671 -0.015289099887 -0.15932199359
          0.53519868851 0.048687562346 -0.13842900097 0.33304131031 0.20393286645 -0.24557299912
          5.0587530136 0.088731199503 0.75192797184 5.2740988731 0.079818502069 0.87786698341
          5.2214250565 0.24645899236 0.57607001066 5.3150639534 0.048920102417 0.68501400948
          5.0587530136 0.088731199503 0.75192797184 5.2214250565 0.24645899236 0.57607001066
          5.0733251572 -0.094601005316 0.53920000792 5.3150639534 0.048920102417 0.68501400948
          3.7946639061 -0.40322849154 0.91091799736 3.5705780983 -0.40920200944 0.84491300583
          3.7057540417 -0.40722391009 0.7109375596 3.8193171024 -0.21124768257 0.82013428211
          5.0587530136 0.088731199503 0.75192797184 4.9587922096 -0.11951480061 0.84872800112
          5.0733251572 -0.094601005316 0.53920000792 4.86105299 0.0081822015345 0.50044000149
          5.0587530136 0.088731199503 0.75192797184 5.2740988731 0.079818502069 0.87786698341
          5.3150639534 0.048920102417 0.68501400948 5.2886118889 -0.19004799426 0.81414800882
          -3.5523664951 0.0045121996664 -0.18042999506 -3.6940450668 -0.011909330264 0.12301498652
          -3.5503668785 -0.17767935991 -0.019175993279 -3.8473057747 -0.00070657959441 -0.13606338203
          -3.8473057747 -0.00070657959441 -0.13606338203 -3.7167961597 -0.29400056601 -0.18038730323
          -3.5503668785 -0.17767935991 -0.019175993279 -3.5523664951 0.0045121996664 -0.18042999506
          -3.6243565083 0.17590141296 -0.3374350071 -3.8043015003 -0.00087310036179 -0.39245098829
          -3.8473057747 -0.00070657959441 -0.13606338203 -3.5523664951 0.0045121996664 -0.18042999506
          -3.5523664951 0.0045121996664 -0.18042999506 -3.5914151669 -0.15871548653 -0.36829999089
          -3.3023517132 0.0064315996133 -0.24028472602 -3.3833937645 -0.032667398453 -0.48868498206
          -1.2323629856 0.48578119278 -0.53944307566 -1.4487729073 0.26224949956 -0.55564618111
          -1.2542339563 0.29450172186 -0.30690699816 -1.2275027037 0.26585769653 -0.64385217428
          -3.8215641975 -0.23188085854 0.091413997114 -3.9542860985 -0.041209600866 0.17256499827
          -3.6940450668 -0.011909330264 0.12301498652 -3.7582271099 -0.17851629853 0.35762301087
          -3.9542860985 -0.041209600866 0.17256499827 -3.8654940128 0.059473201632 0.37344399095
          -3.6940450668 -0.011909330264 0.12301498652 -3.7582271099 -0.17851629853 0.35762301087
          -3.9542860985 -0.041209600866 0.17256499827 -4.0000076294 -0.12829710543 0.39358600974
          -3.8654940128 0.059473201632 0.37344399095 -3.7582271099 -0.17851629853 0.35762301087
          4.1229319572 -0.1651879102 0.30276998878 4.0834741592 -0.21439018846 0.53021103144
          4.2858800888 -0.1588639915 0.36022999883 4.1763081551 -0.404874295 0.45419001579
          -1.3103187084 -0.16647019982 -0.72021299601 -1.2913279533 -0.31723329425 -0.56081938744
          -1.2655464411 -0.30120876431 -0.88210499287 -1.2879470587 -0.50460076332 -0.71951198578
          -1.0780789852 -0.26223245263 -0.61954492331 -1.3103187084 -0.16647019982 -0.72021299601
          -1.2655464411 -0.30120876431 -0.88210499287 -1.0344099998 -0.31266370416 -0.88067400455
          2.5832331181 0.56287848949 -0.20339798927 2.7146170139 0.56399077177 0.092618003488
          2.8233048916 0.56940752268 -0.11903401464 2.7448999882 0.34383347631 0.0055840001442
          2.8233048916 0.56940752268 -0.11903401464 2.7448999882 0.34383347631 0.0055840001442
          2.977586031 0.57245218754 0.10077200085 3.0206739902 0.45230871439 -0.12432000041
          2.7146170139 0.56399077177 0.092618003488 2.8252680302 0.56484931707 0.31118530035
          2.977586031 0.57245218754 0.10077200085 2.7448999882 0.34383347631 0.0055840001442
          -0.90989202261 0.24085079134 -0.62744837999 -1.2275027037 0.26585769653 -0.64385217428
          -0.98683398962 0.4838886857 -0.57747471333 -1.0361119509 0.21812960505 -0.37398898602
          -1.2275027037 0.26585769653 -0.64385217428 -1.2323629856 0.48578119278 -0.53944307566
          -0.98683398962 0.4838886857 -0.57747471333 -1.0361119509 0.21812960505 -0.37398898602
          2.8233048916 0.56940752268 -0.11903401464 2.7146170139 0.56399077177 0.092618003488
          2.977586031 0.57245218754 0.10077200085 2.7448999882 0.34383347631 0.0055840001442
          -4.8238286972 -0.16162951291 -0.51467502117 -4.6513981819 -0.323874861 -0.5277801156
          -4.7889413834 -0.29244363308 -0.33276119828 -4.6480989456 -0.13892398775 -0.52972179651
          2.6714880466 0.016336200759 -0.27357900143 2.4399039745 -0.10959740728 -0.0052800015546
          2.7066569328 0.013594998047 0.026080995798 2.5325028896 -0.2637206018 -0.12680798769
          2.6444098949 0.20465949178 -0.2766700089 2.5194039345 0.221833691 0.014336997643
          2.7066569328 0.013594998047 0.026080995798 2.4686999321 0.064002029598 -0.14970698953
          0.6468949914 -0.072852902114 -0.91035401821 0.36064499617 -0.039502311498 -0.75520098209
          0.56008797884 0.052585806698 -0.68334698677 0.4496409893 -0.20598120987 -0.64667701721
          0.79302960634 -0.29305431247 -0.039216998965 0.98700541258 -0.19875110686 -0.078704997897
          0.97589570284 -0.18196713924 0.2518529892 0.81067937613 -0.037577752024 -0.03468298912
          -2.7248899937 -0.058732099831 -0.86423897743 -2.8155953884 -0.19327259064 -0.5224930048
          -2.819904089 0.037339199334 -0.66302698851 -2.6087565422 -0.063813298941 -0.63231498003
          3.3910770416 0.58322429657 0.34406098723 3.2744851112 0.38130360842 0.56395947933
          3.4329230785 0.25877740979 0.41826298833 3.3498690128 0.38853508234 0.25040599704
          0.30108499527 0.17071788013 -0.6524900198 0.49993100762 0.0054506729357 -0.41626721621
          0.52244597673 0.28034487367 -0.58197897673 0.56008797884 0.052585806698 -0.68334698677
          4.9568657875 -0.20041409135 1.3308819532 4.9225811958 -0.41055479646 1.0575927496
          4.8456058502 -0.1037119925 1.1854159832 4.9736399651 -0.40930470824 1.310732007
          0.52244597673 0.28034487367 -0.58197897673 0.49993100762 0.0054506729357 -0.41626721621
          0.76200997829 0.19809819758 -0.53690600395 0.56008797884 0.052585806698 -0.68334698677
          4.9568657875 -0.20041409135 1.3308819532 4.8615598679 -0.11488699913 1.489552021
          4.9993109703 -0.25089299679 1.5284099579 4.8533592224 -0.39696198702 1.5024620295
          4.9568657875 -0.20041409135 1.3308819532 4.8456058502 -0.1037119925 1.1854159832
          4.8615598679 -0.11488699913 1.489552021 4.7135901451 -0.22733098269 1.489552021
          4.9736399651 -0.40930470824 1.310732007 4.9568657875 -0.20041409135 1.3308819532
          4.9993109703 -0.25089299679 1.5284099579 4.8533592224 -0.39696198702 1.5024620295
          4.9568657875 -0.20041409135 1.3308819532 4.7135901451 -0.22733098269 1.489552021
          4.8615598679 -0.11488699913 1.489552021 4.8533592224 -0.39696198702 1.5024620295
          3.3609991074 0.066775999963 0.55516642332 3.1101438999 0.080181010067 0.45569860935
          3.1153120995 -0.17042639852 0.52375102043 3.2239820957 -0.14030811191 0.26961100101
          3.3609991074 0.066775999963 0.55516642332 3.1101438999 0.080181010067 0.45569860935
          3.3097200394 -0.10290320963 0.73021501303 3.1153120995 -0.17042639852 0.52375102043
          3.3609991074 0.066775999963 0.55516642332 3.3097200394 -0.10290320963 0.73021501303
          3.1101438999 0.080181010067 0.45569860935 3.0184175968 0.12345609814 0.73364597559
          3.3609991074 0.066775999963 0.55516642332 3.6307458878 0.097795702517 0.69470512867
          3.6680510044 -0.16187010705 0.64812618494 3.3097200394 -0.10290320963 0.73021501303
          3.3609991074 0.066775999963 0.55516642332 3.4896070957 0.099841497838 0.92870599031
          3.6307458878 0.097795702517 0.69470512867 3.3097200394 -0.10290320963 0.73021501303
          1.5854810476 0.084593199193 -0.4168010056 1.7244919538 -0.11605580151 -0.38782680035
          1.5975199938 -0.11391670257 -0.6415219903 1.4434380531 -0.14066420496 -0.32838499546
          1.4434380531 -0.14066420496 -0.32838499546 1.655272007 0.093524098396 -0.11352000386
          1.5854810476 0.084593199193 -0.4168010056 1.7244919538 -0.11605580151 -0.38782680035
          -1.4155100584 -0.21666789055 -0.40096598864 -1.2152099609 -0.081209897995 -0.31830999255
          -1.3984810114 0.086329601705 -0.26900598407 -1.4074389935 -0.049107201397 -0.5518643856
          3.0184175968 0.12345609814 0.73364597559 2.824450016 -0.10761829466 0.55310499668
          3.1101438999 0.080181010067 0.45569860935 2.8575510979 0.064445592463 0.36333754659
          2.8575510979 0.064445592463 0.36333754659 3.1101438999 0.080181010067 0.45569860935
          3.1153120995 -0.17042639852 0.52375102043 2.824450016 -0.10761829466 0.55310499668
          1.1370209455 -0.2310988009 -0.34101459384 0.91907000542 -0.28306537867 -0.28310790658
          1.0520069599 -0.24730080366 -0.58848804235 0.87655997276 -0.11350530386 -0.45971497893
          0.9440330267 -0.47934010625 -0.38176751137 0.73383498192 -0.30438300967 -0.4254899919
          1.0520069599 -0.24730080366 -0.58848804235 0.91907000542 -0.28306537867 -0.28310790658
          0.81277400255 -0.48748779297 -0.2579177916 0.91907000542 -0.28306537867 -0.28310790658
          0.73383498192 -0.30438300967 -0.4254899919 0.9440330267 -0.47934010625 -0.38176751137
          0.94738799334 0.12911939621 -0.82793599367 0.94843697548 0.30960980058 -0.61462700367
          1.1091860533 0.2945098877 -0.77885699272 0.93168497086 0.052144400775 -0.6099550128
          2.5975399017 0.036539699882 0.30856120586 2.9183690548 -0.10514099896 0.18946899474
          2.6479671001 -0.18968589604 0.18436330557 2.8575510979 0.064445592463 0.36333754659
          1.1842939854 -0.12854279578 -0.092633001506 1.4434380531 -0.14066420496 -0.32838499546
          1.3097800016 -0.27519398928 -0.1584803015 1.4162900448 0.058589901775 -0.19647470117
          3.1101438999 0.080181010067 0.45569860935 2.9183690548 -0.10514099896 0.18946899474
          3.1981549263 0.12413520366 0.16969101131 2.8575510979 0.064445592463 0.36333754659
          3.1101438999 0.080181010067 0.45569860935 2.8575510979 0.064445592463 0.36333754659
          3.1981549263 0.12413520366 0.16969101131 2.8881449699 0.23836348951 0.18792100251
          1.8809980154 0.037144001573 -0.0096619697288 1.7636737823 0.046389199793 0.32517156005
          1.8019828796 0.22406680882 0.18662501872 1.9838659763 -0.058840800077 0.22020068765
          -2.3502340317 -0.11054370552 0.087472997606 -2.2999050617 -0.0097464201972 -0.11074100435
          -2.4840130806 -0.30007189512 -0.074917010963 -2.3400249481 -0.19343669713 -0.23309500515
          -3.0154821873 -0.50680673122 -0.26073569059 -3.1080467701 -0.29268443584 -0.24082820117
          -3.1325054169 -0.50747013092 -0.43627199531 -2.8796532154 -0.32189744711 -0.3305183053
          0.84688097239 0.325525105 -0.34160640836 0.97177040577 0.064062602818 -0.1233580038
          1.0401221514 0.23939830065 -0.032525006682 0.95586800575 0.071381397545 -0.33720040321
          0.84688097239 0.325525105 -0.34160640836 0.78821092844 0.14894378185 -0.18848800659
          0.97177040577 0.064062602818 -0.1233580038 0.95586800575 0.071381397545 -0.33720040321
          -0.89386701584 0.49129199982 -0.34832200408 -0.83363598585 0.4878360033 -0.50646197796
          -1.0361119509 0.21812960505 -0.37398898602 -0.81611001492 0.30783483386 -0.27051800489
          2.1151509285 0.051999751478 0.097855910659 1.9838659763 -0.058840800077 0.22020068765
          1.8019828796 0.22406680882 0.18662501872 2.0134241581 0.082406297326 0.37211599946
          0.0696529001 -0.32972794771 -0.23890098929 -0.081785798073 -0.18698275089 -0.35594800115
          0.098207399249 -0.032019931823 -0.19597899914 0.071282997727 -0.17594109476 -0.0039079999551
          1.7244919538 -0.11605580151 -0.38782680035 1.655272007 0.093524098396 -0.11352000386
          1.5854810476 0.084593199193 -0.4168010056 1.8510379791 0.076726302505 -0.29504978657
          -0.63126498461 -0.15162830055 -0.47663301229 -0.83050501347 -0.26468807459 -0.57061237097
          -0.51817697287 -0.33874639869 -0.53937000036 -0.66083502769 -0.29501193762 -0.69995200634
          -3.4821026325 -0.046573873609 0.11716599017 -3.1989395618 -0.20423613489 -0.036946997046
          -3.5503668785 -0.17767935991 -0.019175993279 -3.3824651241 -0.30312857032 0.073741987348
          0.92705971003 0.28618240356 0.2508969903 0.85527962446 0.15694072843 0.023737987503
          0.74646031857 0.32201400399 -0.03702198714 0.75077849627 0.37738004327 0.19743099809
          -4.2235832214 -0.18397390842 -0.2816118896 -4.2843179703 -0.50610029697 -0.3169965148
          -4.4301371574 -0.28078189492 -0.098592102528 -4.2165794373 -0.29792863131 -0.10957739502
          -4.6960554123 0.49519553781 -0.24164129794 -4.907037735 0.49900719523 -0.297534585
          -4.9270887375 0.4960334301 -0.082894615829 -4.7826919556 0.30165764689 -0.29666978121
          4.4951000214 -0.40278640389 0.62707102299 4.6102437973 -0.26420500875 0.44404000044
          4.736287117 -0.4010592103 0.59583199024 4.6259679794 -0.40398031473 0.7512139678
          -0.85025602579 -0.29496991634 -0.10682400316 -1.0108540058 -0.22747680545 -0.36507099867
          -0.888019979 -0.52109897137 -0.27666097879 -0.76909697056 -0.29619181156 -0.33838999271
          -0.85025602579 -0.29496991634 -0.10682400316 -0.76909697056 -0.29619181156 -0.33838999271
          -0.888019979 -0.52109897137 -0.27666097879 -0.70222002268 -0.52214252949 -0.27207800746
          -0.70222002268 -0.52214252949 -0.27207800746 -0.76909697056 -0.29619181156 -0.33838999271
          -0.888019979 -0.52109897137 -0.27666097879 -0.80718201399 -0.50908124447 -0.54855680466
          4.1026678085 0.059743199497 1.0158569813 3.9359619617 0.090236805379 1.1565029621
          4.1932888031 -0.10509669781 1.111093998 3.9209868908 -0.049528494477 0.94006299973
          4.0511579514 -0.20270109177 0.7991797924 3.9209868908 -0.049528494477 0.94006299973
          4.1026678085 0.059743199497 1.0158569813 4.1932888031 -0.10509669781 1.111093998
          -0.76909697056 -0.29619181156 -0.33838999271 -1.0108540058 -0.22747680545 -0.36507099867
          -0.83050501347 -0.26468807459 -0.57061237097 -0.8307570219 -0.058059498668 -0.35817700624
          -0.76909697056 -0.29619181156 -0.33838999271 -0.8307570219 -0.058059498668 -0.35817700624
          -0.83050501347 -0.26468807459 -0.57061237097 -0.63126498461 -0.15162830055 -0.47663301229
          3.4282515049 0.33187240362 0.97428900003 3.550276041 0.36652091146 0.69562649727
          3.690030098 0.28598979115 0.94812899828 3.6906139851 0.57666391134 0.86979299784
          -1.5809962749 0.26638999581 -0.86372798681 -1.7826962471 0.45563310385 -1.0317989588
          -1.8121285439 0.26642638445 -0.82310700417 -1.7352849245 0.25046640635 -1.035277009
          -1.5809962749 0.26638999581 -0.86372798681 -1.8121285439 0.26642638445 -0.82310700417
          -1.6121549606 0.47708061337 -0.83065801859 -1.6599514484 0.24216479063 -0.65762501955
          -2.1485760212 0.26226508617 -0.74843597412 -2.3831152916 0.479411304 -0.7015529871
          -2.4720232487 0.27283710241 -0.72016400099 -2.3831439018 0.30391207337 -0.93155002594
          -1.4055235386 0.16061809659 -0.77410399914 -1.5809962749 0.26638999581 -0.86372798681
          -1.3401434422 0.47775200009 -0.87771999836 -1.3714095354 0.48100718856 -0.68255013227
          -3.8562464714 -0.50317251682 -0.11210159957 -3.7788000107 -0.49894934893 0.14450898767
          -3.8215641975 -0.23188085854 0.091413997114 -3.6591205597 -0.502214849 -0.015271005221
          1.5975199938 -0.11391670257 -0.6415219903 1.3132139444 -0.24616961181 -0.5035700202
          1.5054880381 -0.2863958776 -0.67730301619 1.3815850019 -0.12085030228 -0.70849198103
          2.4399039745 -0.10959740728 -0.0052800015546 2.2007000446 -0.030069796368 -0.17213380337
          2.3959000111 -0.2165030092 -0.38119700551 2.5682160854 -0.13655368984 -0.3176009953
          -2.9699292183 -0.052413102239 -0.81482702494 -3.0045845509 -0.31262481213 -0.59387999773
          -3.1794657707 -0.17824740708 -0.77178901434 -3.0660376549 -0.035237099975 -0.601772964
          -3.1758265495 0.071973100305 -0.7731680274 -3.3833937645 -0.032667398453 -0.48868498206
          -3.0660376549 -0.035237099975 -0.601772964 -3.1794657707 -0.17824740708 -0.77178901434
          -1.4535621405 -0.08741620183 -0.88498598337 -1.2481642962 0.04549119994 -0.89113599062
          -1.2013354301 -0.1661592871 -1.0883820057 -1.2655464411 -0.30120876431 -0.88210499287
          0.56008797884 0.052585806698 -0.68334698677 0.31418091059 0.094848684967 -0.98210698366
          0.36064499617 -0.039502311498 -0.75520098209 0.43230000138 -0.066396504641 -0.95820701122
          -0.43998798728 -0.035619899631 -0.082337997854 -0.46809598804 0.17155979574 -0.082805998623
          -0.62142932415 -0.09965570271 -0.097244001925 -0.6087269187 0.024860799313 -0.30977600813
          -3.1758265495 0.071973100305 -0.7731680274 -2.9699292183 -0.052413102239 -0.81482702494
          -3.1794657707 -0.17824740708 -0.77178901434 -3.0660376549 -0.035237099975 -0.601772964
          -0.6087269187 0.024860799313 -0.30977600813 -0.46809598804 0.17155979574 -0.082805998623
          -0.62142932415 -0.09965570271 -0.097244001925 -0.65999889374 0.24785794318 -0.095564998686
          -1.5252443552 0.33827269077 -1.0592859983 -1.7826962471 0.45563310385 -1.0317989588
          -1.6121549606 0.47708061337 -0.83065801859 -1.5809962749 0.26638999581 -0.86372798681
          -1.5252443552 0.33827269077 -1.0592859983 -1.5809962749 0.26638999581 -0.86372798681
          -1.2635279894 0.19011539221 -1.0803289413 -1.5627611876 0.064892105758 -1.05468297
          -4.1843628883 -0.059714950621 -0.58763289452 -4.2148256302 0.11070713401 -0.5839381218
          -4.0446949005 -0.034010000527 -0.39543700218 -4.4088745117 0.030903441831 -0.32176870108
          3.4282515049 0.33187240362 0.97428900003 3.2735610008 0.57003730536 0.75401997566
          3.0665662289 0.3753657043 0.82187402248 3.3003060818 0.23398950696 0.76375299692
          3.4282515049 0.33187240362 0.97428900003 3.2735610008 0.57003730536 0.75401997566
          3.3003060818 0.23398950696 0.76375299692 3.550276041 0.36652091146 0.69562649727
          3.4282515049 0.33187240362 0.97428900003 3.3044917583 0.12322919816 1.1306680441
          3.1853451729 0.33565509319 1.0903539658 3.5123636723 0.27264100313 1.2129739523
          3.1853451729 0.33565509319 1.0903539658 3.4282515049 0.33187240362 0.97428900003
          3.5123636723 0.27264100313 1.2129739523 3.5158138275 0.52084130049 1.2258909941
          3.4896070957 0.099841497838 0.92870599031 3.3044917583 0.12322919816 1.1306680441
          3.4282515049 0.33187240362 0.97428900003 3.5123636723 0.27264100313 1.2129739523
          3.1256771088 0.35985979438 0.17385299504 3.1546220779 0.28414210677 -0.077771998942
          2.8881449699 0.23836348951 0.18792100251 2.9649469852 0.070412486792 0.048234000802
          2.9649469852 0.070412486792 0.048234000802 2.7066569328 0.013594998047 0.026080995798
          2.9075191021 0.029458599165 -0.18439200521 2.8420228958 0.24354210496 -0.20201000571
          3.1546220779 0.28414210677 -0.077771998942 2.9649469852 0.070412486792 0.048234000802
          2.9075191021 0.029458599165 -0.18439200521 2.8420228958 0.24354210496 -0.20201000571
          1.6795022488 0.53295719624 0.087283298373 1.8019828796 0.22406680882 0.18662501872
          1.914431572 0.53861421347 0.26570081711 1.8837449551 0.53903061152 0.06517650187
          1.8837449551 0.53903061152 0.06517650187 1.8019828796 0.22406680882 0.18662501872
          1.914431572 0.53861421347 0.26570081711 2.0875871181 0.32275497913 0.17387519777
          -0.29999598861 -0.31015944481 -0.61351531744 -0.51817697287 -0.33874639869 -0.53937000036
          -0.42318299413 -0.15868732333 -0.55037420988 -0.37324941158 -0.23546770215 -0.36768600345
          2.1993765831 0.33982020617 0.69473302364 1.9014420509 0.24749788642 0.58212649822
          2.0810952187 0.34367528558 0.4289650023 2.0509207249 0.54013729095 0.59274601936
          2.3064310551 0.54786038399 0.58645904064 2.1993765831 0.33982020617 0.69473302364
          2.0810952187 0.34367528558 0.4289650023 2.0509207249 0.54013729095 0.59274601936
          2.3064310551 0.54786038399 0.58645904064 2.0810952187 0.34367528558 0.4289650023
          2.1985135078 0.54629540443 0.35489299893 2.0509207249 0.54013729095 0.59274601936
          -2.4720232487 0.27283710241 -0.72016400099 -2.6349360943 0.29374942183 -0.88281100988
          -2.6686131954 0.11487980187 -0.87576198578 -2.4843699932 0.064298801124 -0.91173398495
          -1.8348480463 -0.01922108978 -0.21806798875 -1.6200009584 -0.10922949761 -0.042343001813
          -1.5985989571 -0.27739399672 -0.2576969862 -1.8079010248 -0.20703689754 -0.34597599506
          3.8135120869 0.40065589547 0.74336141348 3.690030098 0.28598979115 0.94812899828
          3.8319048882 0.3724052906 1.1257870197 4.0205068588 0.28315189481 1.0268609524
          4.0205068588 0.28315189481 1.0268609524 3.690030098 0.28598979115 0.94812899828
          3.8319048882 0.3724052906 1.1257870197 3.9359619617 0.090236805379 1.1565029621
          1.133603096 0.5178232789 0.011582996696 1.1881120205 0.31921857595 0.10735101253
          1.0401221514 0.23939830065 -0.032525006682 1.027140975 0.51393949986 0.19080199301
          4.0205068588 0.28315189481 1.0268609524 3.8319048882 0.3724052906 1.1257870197
          3.8741321564 0.28035160899 1.3299449682 3.9359619617 0.090236805379 1.1565029621
          0.14842510223 0.040421258658 -0.80009198189 0.25168299675 0.024994578212 -0.46399909258
          0.30108499527 0.17071788013 -0.6524900198 0.13293649256 -0.12217481434 -0.6249139905
          -1.0315690041 0.001321600168 -0.39257600904 -1.0361119509 0.21812960505 -0.37398898602
          -0.75858801603 0.17240820825 -0.42690300941 -0.8307570219 -0.058059498668 -0.35817700624
          -0.65971499681 -0.068506918848 -0.89710998535 -0.78103899956 0.039071749896 -1.0954949856
          -0.85043102503 0.031999699771 -0.80896800756 -0.87940299511 -0.1013680622 -1.096660018
          0.93168497086 0.052144400775 -0.6099550128 0.76200997829 0.19809819758 -0.53690600395
          0.87655997276 -0.11350530386 -0.45971497893 0.6582840085 -0.086143799126 -0.53992497921
          0.56008797884 0.052585806698 -0.68334698677 0.6582840085 -0.086143799126 -0.53992497921
          0.73838502169 -0.23838828504 -0.67500901222 0.4496409893 -0.20598120987 -0.64667701721
          0.7164170146 -0.01385910064 -0.332908988 0.49290901423 -0.27051791549 -0.38118758798
          0.6582840085 -0.086143799126 -0.53992497921 0.49993100762 0.0054506729357 -0.41626721621
          0.7164170146 -0.01385910064 -0.332908988 0.49290901423 -0.27051791549 -0.38118758798
          0.73383498192 -0.30438300967 -0.4254899919 0.6582840085 -0.086143799126 -0.53992497921
          -0.012552999891 -0.06247812137 -1.0391819477 0.073527999222 0.1395072788 -1.023146987
          0.20461019874 -0.067686937749 -1.0017780066 0.14842510223 0.040421258658 -0.80009198189
          4.4424939156 0.089347399771 0.64447599649 4.5335330963 0.11206749827 0.92334389687
          4.5794639587 -0.095555409789 0.80211597681 4.285888195 0.099320337176 0.90528231859
          4.4424939156 0.089347399771 0.64447599649 4.548661232 0.31044599414 0.7846570015
          4.5335330963 0.11206749827 0.92334389687 4.285888195 0.099320337176 0.90528231859
          4.548661232 0.31044599414 0.7846570015 4.2772049904 0.36336359382 0.94083797932
          4.5335330963 0.11206749827 0.92334389687 4.285888195 0.099320337176 0.90528231859
          -1.6305606365 -0.29367351532 -0.52340888977 -1.8019082546 -0.50858289003 -0.56323200464
          -1.5197509527 -0.51312232018 -0.42337998748 -1.6989388466 -0.50504058599 -0.72892701626
          4.5335330963 0.11206749827 0.92334389687 4.2772049904 0.36336359382 0.94083797932
          4.4793419838 0.2869952023 1.1247149706 4.285888195 0.099320337176 0.90528231859
          4.5335330963 0.11206749827 0.92334389687 4.2345128059 0.15581940114 1.1804380417
          4.285888195 0.099320337176 0.90528231859 4.4793419838 0.2869952023 1.1247149706
          4.5335330963 0.11206749827 0.92334389687 4.4793419838 0.2869952023 1.1247149706
          4.6513729095 0.13981750607 1.2424490452 4.5119929314 -0.044536296278 1.1272319555
          4.5119929314 -0.044536296278 1.1272319555 4.5335330963 0.11206749827 0.92334389687
          4.285888195 0.099320337176 0.90528231859 4.3321962357 -0.16034509242 0.88920331001
          4.5335330963 0.11206749827 0.92334389687 4.5794639587 -0.095555409789 0.80211597681
          4.285888195 0.099320337176 0.90528231859 4.3321962357 -0.16034509242 0.88920331001
          3.3624682426 -0.19947208464 0.94604200125 3.4149284363 -0.092121005058 1.167222023
          3.465408802 -0.29649040103 1.1825380325 3.1393265724 -0.19575251639 1.0545070171
          4.4911990166 -0.39900299907 1.2523469925 4.531235218 -0.23131799698 1.462864995
          4.6833701134 -0.40567740798 1.2680499554 4.4186382294 -0.39407101274 1.4219969511
          -2.5937309265 -0.094380997121 -0.091197997332 -2.5705890656 -0.0096552502364 -0.37767747045
          -2.8009653091 0.022092198953 -0.32149419188 -2.6131467819 -0.26515978575 -0.30168119073
          -2.8796532154 -0.32189744711 -0.3305183053 -2.6131467819 -0.26515978575 -0.30168119073
          -2.9204330444 -0.13243819773 -0.19507199526 -2.8009653091 0.022092198953 -0.32149419188
          4.1377820969 0.39951202273 0.32685101032 4.1978611946 0.12986010313 0.5741019845
          4.2886710167 0.33758100867 0.66382801533 4.344326973 0.23196899891 0.38592201471
          0.12283880264 0.27401307225 -0.19243100286 0.10837440193 0.15965628624 0.013736000285
          0.34905490279 0.20103774965 0.07488899678 0.33304131031 0.20393286645 -0.24557299912
          -0.14045800269 -0.19142946601 -0.79101097584 -0.045155998319 0.014279329218 -0.54846435785
          0.13293649256 -0.12217481434 -0.6249139905 -0.055491000414 -0.26846665144 -0.58021008968
          -0.045155998319 0.014279329218 -0.54846435785 0.25168299675 0.024994578212 -0.46399909258
          0.30108499527 0.17071788013 -0.6524900198 0.14842510223 0.040421258658 -0.80009198189
          4.4424939156 0.089347399771 0.64447599649 4.285888195 0.099320337176 0.90528231859
          4.2261519432 -0.095267094672 0.65937298536 4.1978611946 0.12986010313 0.5741019845
          4.4424939156 0.089347399771 0.64447599649 4.285888195 0.099320337176 0.90528231859
          4.1978611946 0.12986010313 0.5741019845 4.2886710167 0.33758100867 0.66382801533
          4.2886710167 0.33758100867 0.66382801533 4.4424939156 0.089347399771 0.64447599649
          4.344326973 0.23196899891 0.38592201471 4.1978611946 0.12986010313 0.5741019845
          4.4777679443 0.087183900177 0.41901400685 4.6400561333 0.033197704703 0.65296798944
          4.6600642204 -0.03085799329 0.45767199993 4.4424939156 0.089347399771 0.64447599649
          4.6309452057 0.20724229515 0.45776200294 4.6400561333 0.033197704703 0.65296798944
          4.4777679443 0.087183900177 0.41901400685 4.4424939156 0.089347399771 0.64447599649
          4.4468998909 -0.11275999993 0.40511700511 4.4777679443 0.087183900177 0.41901400685
          4.6600642204 -0.03085799329 0.45767199993 4.4424939156 0.089347399771 0.64447599649
          4.6309452057 0.20724229515 0.45776200294 4.6400561333 0.033197704703 0.65296798944
          4.6600642204 -0.03085799329 0.45767199993 4.4777679443 0.087183900177 0.41901400685
          0.98700541258 -0.19875110686 -0.078704997897 1.3097800016 -0.27519398928 -0.1584803015
          1.1713650227 -0.47730788589 -0.15520529449 1.1952601671 -0.29477098584 0.064541012049
          0.98700541258 -0.19875110686 -0.078704997897 1.1370209455 -0.2310988009 -0.34101459384
          1.1713650227 -0.47730788589 -0.15520529449 1.3097800016 -0.27519398928 -0.1584803015
          1.3097800016 -0.27519398928 -0.1584803015 1.1713650227 -0.47730788589 -0.15520529449
          1.2600870132 -0.46586328745 -0.47155499458 1.1370209455 -0.2310988009 -0.34101459384
          -2.0947520733 0.29650449753 -0.21109998226 -2.1283559799 0.094898201525 0.043953001499
          -2.0529088974 0.052241001278 -0.20910900831 -2.2913610935 0.16144010425 -0.25700899959
          -2.0947520733 0.29650449753 -0.21109998226 -2.1283559799 0.094898201525 0.043953001499
          -1.9377369881 0.14763340354 0.0093440003693 -2.0529088974 0.052241001278 -0.20910900831
          -1.8079010248 -0.20703689754 -0.34597599506 -1.8710329533 -0.32551139593 -0.18849799037
          -1.9083119631 -0.51320451498 -0.2680529952 -1.9710366726 -0.33433938026 -0.42893758416
          -1.8008160591 -0.23927970231 -0.014976000413 -1.8710329533 -0.32551139593 -0.18849799037
          -1.8348480463 -0.01922108978 -0.21806798875 -1.9761929512 -0.084401905537 0.01688499935
          -2.0947520733 0.29650449753 -0.21109998226 -2.1859169006 0.48576170206 -0.060932002962
          -2.0546720028 0.3103351891 0.029857000336 -2.2799999714 0.29279088974 0.072902999818
          -2.1859169006 0.48576170206 -0.060932002962 -2.0546720028 0.3103351891 0.029857000336
          -1.8772009611 0.48616209626 -0.20101100206 -2.0947520733 0.29650449753 -0.21109998226
          0.93168497086 0.052144400775 -0.6099550128 0.95586800575 0.071381397545 -0.33720040321
          0.76200997829 0.19809819758 -0.53690600395 1.0754319429 0.25025811791 -0.42730200291
          -4.1840386391 -0.02179926075 0.21181380749 -3.9542860985 -0.041209600866 0.17256499827
          -4.0971708298 0.14169080555 0.095920503139 -4.1034150124 -0.18890102208 0.022778199986
          -4.0000076294 -0.12829710543 0.39358600974 -4.1840386391 -0.02179926075 0.21181380749
          -4.1561627388 -0.30235728621 0.4173707962 -4.0265545845 -0.28167268634 0.21848671138
          0.87655997276 -0.11350530386 -0.45971497893 1.1442159414 -0.0049022994936 -0.49735999107
          0.93168497086 0.052144400775 -0.6099550128 1.0520069599 -0.24730080366 -0.58848804235
          0.84875500202 -0.035446301103 -0.85831201077 0.93168497086 0.052144400775 -0.6099550128
          0.97156202793 -0.18440270424 -0.83044797182 0.73838502169 -0.23838828504 -0.67500901222
          1.0520069599 -0.24730080366 -0.58848804235 0.93168497086 0.052144400775 -0.6099550128
          0.97156202793 -0.18440270424 -0.83044797182 1.1848659515 -0.12604640424 -0.76831799746
          0.93168497086 0.052144400775 -0.6099550128 0.87655997276 -0.11350530386 -0.45971497893
          0.76200997829 0.19809819758 -0.53690600395 0.95586800575 0.071381397545 -0.33720040321
          1.1370209455 -0.2310988009 -0.34101459384 0.98700541258 -0.19875110686 -0.078704997897
          0.91907000542 -0.28306537867 -0.28310790658 0.87983602285 -0.093330197036 -0.22511909902
          5.1102108955 -0.40072900057 0.75134700537 5.1017589569 -0.19658398628 0.71833097935
          5.1633911133 -0.40683791041 0.92723697424 4.9700870514 -0.40666720271 0.87981498241
          -4.6010689735 -0.032954148948 -0.34019801021 -4.6480989456 -0.13892398775 -0.52972179651
          -4.8238286972 -0.16162951291 -0.51467502117 -4.7889413834 -0.29244363308 -0.33276119828
          -0.29308599234 -0.22735399008 -1.0733640194 -0.41128501296 -0.48971751332 -0.99034798145
          -0.48082599044 -0.31821736693 -1.0916539431 -0.32380700111 -0.29127669334 -0.87523800135
          -4.7578840256 0.28817969561 -0.030578099191 -5 0.15884299576 0.21330599487
          -5 0.28975299001 0.088944099844 -4.6630234718 0.13930633664 0.15250210464
          -3.1700980663 0.079973198473 0.25145700574 -3.302652359 0.038016501814 0.04223600775
          -3.0187089443 -0.037960600108 0.018444009125 -3.0849509239 0.17763519287 -0.079053997993
          -0.94496697187 0.078266300261 -1.0942200422 -1.075802207 0.17113420367 -0.81510698795
          -0.81324702501 0.26146668196 -0.86965799332 -0.85043102503 0.031999699771 -0.80896800756
          -1.1206613779 0.30866101384 -1.0912829638 -1.2560925484 0.27916309237 -0.88956099749
          -1.075802207 0.17113420367 -0.81510698795 -1.1157516241 0.10669529438 -1.088037014
          -0.75858801603 0.17240820825 -0.42690300941 -0.6164612174 0.29320520163 -0.31236797571
          -0.6087269187 0.024860799313 -0.30977600813 -0.65999889374 0.24785794318 -0.095564998686
          4.2858800888 -0.1588639915 0.36022999883 4.0834741592 -0.21439018846 0.53021103144
          4.2745900154 -0.40359979868 0.66799497604 4.1763081551 -0.404874295 0.45419001579
          -2.9779620171 0.1083374992 0.21390299499 -3.1700980663 0.079973198473 0.25145700574
          -3.0187089443 -0.037960600108 0.018444009125 -3.0849509239 0.17763519287 -0.079053997993
          2.3794255257 -0.41916438937 0.73524999619 2.2356448174 -0.32073310018 0.68389499187
          2.3304371834 -0.26972290874 0.49684798717 2.4849748611 -0.2620677948 0.78334200382
          2.4849748611 -0.2620677948 0.78334200382 2.3794255257 -0.41916438937 0.73524999619
          2.5104129314 -0.4431695044 0.58892899752 2.3304371834 -0.26972290874 0.49684798717
          -4.0514550209 0.30707678199 0.23333111405 -3.8718869686 0.28284701705 0.37479698658
          -3.8129053116 0.21391560137 0.11131499708 -3.8654940128 0.059473201632 0.37344399095
          -1.3467004299 -0.27448686957 -1.0782300234 -1.2899454832 -0.49320724607 -1.0851969719
          -1.2655464411 -0.30120876431 -0.88210499287 -1.1241190434 -0.31656226516 -1.0943260193
          4.2507781982 -0.39692500234 1.0791150331 4.1932888031 -0.10509669781 1.111093998
          4.0831799507 -0.39639300108 1.2308779955 4.0172262192 -0.24458359182 1.074458003
          4.6576151848 0.017758300528 1.462864995 4.7135901451 -0.22733098269 1.489552021
          4.8615598679 -0.11488699913 1.489552021 4.6312479973 -0.18212139606 1.2574429512
          -1.3103187084 -0.16647019982 -0.72021299601 -1.4055235386 0.16061809659 -0.77410399914
          -1.4535621405 -0.08741620183 -0.88498598337 -1.2481642962 0.04549119994 -0.89113599062
          0.35398098826 -0.14804252982 -0.47525811195 0.49993100762 0.0054506729357 -0.41626721621
          0.49290901423 -0.27051791549 -0.38118758798 0.474378407 -0.11557681859 -0.24810600281
          1.3614029884 0.52470320463 -0.1519087255 1.3844920397 0.52349030972 0.14648000896
          1.3544540405 0.20737339556 0.028903007507 1.1881120205 0.31921857595 0.10735101253
          3.9209868908 -0.049528494477 0.94006299973 4.0172262192 -0.24458359182 1.074458003
          3.7870020866 -0.19021171331 1.074723959 3.9359619617 0.090236805379 1.1565029621
          -2.4249818325 -0.50633567572 -0.6508589983 -2.3067228794 -0.32880795002 -0.94539600611
          -2.4961392879 -0.28663662076 -0.90913802385 -2.4871096611 -0.50503849983 -0.87453103065
          -2.4249818325 -0.50633567572 -0.6508589983 -2.2537591457 -0.50368404388 -0.93353700638
          -2.3067228794 -0.32880795002 -0.94539600611 -2.4871096611 -0.50503849983 -0.87453103065
          -2.1830513477 -0.50529420376 -0.71057498455 -2.2537591457 -0.50368404388 -0.93353700638
          -2.3067228794 -0.32880795002 -0.94539600611 -2.4249818325 -0.50633567572 -0.6508589983
          -1.3103187084 -0.16647019982 -0.72021299601 -1.2481642962 0.04549119994 -0.89113599062
          -1.0723729134 -0.088602088392 -0.8404250145 -1.1938619614 0.03204099834 -0.66020560265
          -1.3103187084 -0.16647019982 -0.72021299601 -1.4055235386 0.16061809659 -0.77410399914
          -1.2481642962 0.04549119994 -0.89113599062 -1.1938619614 0.03204099834 -0.66020560265
          -4.7917890549 -0.033734429628 0.26267528534 -4.7839722633 -0.32270756364 0.2961961925
          -4.6952867508 -0.18051728606 0.4779253006 -4.5753359795 -0.14313571155 0.30882889032
          -4.6952867508 -0.18051728606 0.4779253006 -4.7839722633 -0.32270756364 0.2961961925
          -4.4945139885 -0.24172013998 0.45762220025 -4.5753359795 -0.14313571155 0.30882889032
          0.85527962446 0.15694072843 0.023737987503 1.0401221514 0.23939830065 -0.032525006682
          1.1398986578 -0.010146999732 0.071502000093 0.9749379158 0.10632624477 0.26197698712
          0.92705971003 0.28618240356 0.2508969903 0.9749379158 0.10632624477 0.26197698712
          1.0401221514 0.23939830065 -0.032525006682 0.85527962446 0.15694072843 0.023737987503
          0.92705971003 0.28618240356 0.2508969903 0.85527962446 0.15694072843 0.023737987503
          1.0401221514 0.23939830065 -0.032525006682 0.74646031857 0.32201400399 -0.03702198714
          -0.83050501347 -0.26468807459 -0.57061237097 -0.88709700108 -0.50346982479 -0.72862702608
          -1.0780789852 -0.26223245263 -0.61954492331 -0.99892598391 -0.51049762964 -0.55400800705
          0.51253330708 0.2876406908 -0.10298900306 0.34905490279 0.20103774965 0.07488899678
          0.53519868851 0.048687562346 -0.13842900097 0.33304131031 0.20393286645 -0.24557299912
          0.51253330708 0.2876406908 -0.10298900306 0.34905490279 0.20103774965 0.07488899678
          0.5864264369 0.083424940705 0.13992400467 0.53519868851 0.048687562346 -0.13842900097
          1.655272007 0.093524098396 -0.11352000386 1.5727180243 0.33926710486 -0.070410497487
          1.3544540405 0.20737339556 0.028903007507 1.4162900448 0.058589901775 -0.19647470117
          1.655272007 0.093524098396 -0.11352000386 1.3544540405 0.20737339556 0.028903007507
          1.5601570606 0.064071901143 0.17068810761 1.4162900448 0.058589901775 -0.19647470117
          1.655272007 0.093524098396 -0.11352000386 1.4162900448 0.058589901775 -0.19647470117
          1.5601570606 0.064071901143 0.17068810761 1.3978904486 -0.12460799515 0.020671008155
          1.6362780333 -0.19434309006 -0.1196873039 1.3978904486 -0.12460799515 0.020671008155
          1.4162900448 0.058589901775 -0.19647470117 1.655272007 0.093524098396 -0.11352000386
          1.6362780333 -0.19434309006 -0.1196873039 1.4162900448 0.058589901775 -0.19647470117
          1.4434380531 -0.14066420496 -0.32838499546 1.655272007 0.093524098396 -0.11352000386
          1.6362780333 -0.19434309006 -0.1196873039 1.3978904486 -0.12460799515 0.020671008155
          1.4434380531 -0.14066420496 -0.32838499546 1.4162900448 0.058589901775 -0.19647470117
          1.4162900448 0.058589901775 -0.19647470117 1.4434380531 -0.14066420496 -0.32838499546
          1.3097800016 -0.27519398928 -0.1584803015 1.3978904486 -0.12460799515 0.020671008155
          1.4162900448 0.058589901775 -0.19647470117 1.3544540405 0.20737339556 0.028903007507
          1.5601570606 0.064071901143 0.17068810761 1.3978904486 -0.12460799515 0.020671008155
          1.4162900448 0.058589901775 -0.19647470117 1.1398986578 -0.010146999732 0.071502000093
          1.3544540405 0.20737339556 0.028903007507 1.3978904486 -0.12460799515 0.020671008155
          -4.0446949005 -0.034010000527 -0.39543700218 -3.8971295357 0.23590660095 -0.36395600438
          -3.8043015003 -0.00087310036179 -0.39245098829 -3.8473057747 -0.00070657959441 -0.13606338203
          -1.2542339563 0.29450172186 -0.30690699816 -1.3188999891 0.28086179495 -0.079112000763
          -1.3984810114 0.086329601705 -0.26900598407 -1.545979023 0.22976130247 -0.33403101563
          -4.0446949005 -0.034010000527 -0.39543700218 -4.1448526382 0.14308868349 -0.26994079351
          -4.2235832214 -0.18397390842 -0.2816118896 -4.4088745117 0.030903441831 -0.32176870108
          -4.4689326286 -0.28248617053 -0.54752629995 -4.4325690269 -0.50963848829 -0.48281699419
          -4.4642100334 -0.19895298779 -0.3199582994 -4.2873783112 -0.33291450143 -0.56937742233
          -4.4642100334 -0.19895298779 -0.3199582994 -4.4325690269 -0.50963848829 -0.48281699419
          -4.2843179703 -0.50610029697 -0.3169965148 -4.2873783112 -0.33291450143 -0.56937742233
          -4.2235832214 -0.18397390842 -0.2816118896 -4.4642100334 -0.19895298779 -0.3199582994
          -4.2843179703 -0.50610029697 -0.3169965148 -4.2873783112 -0.33291450143 -0.56937742233
          -4.2235832214 -0.18397390842 -0.2816118896 -4.4642100334 -0.19895298779 -0.3199582994
          -4.4301371574 -0.28078189492 -0.098592102528 -4.2843179703 -0.50610029697 -0.3169965148
          -2.4924480915 0.1497296989 -0.4765163064 -2.2913610935 0.16144010425 -0.25700899959
          -2.5705890656 -0.0096552502364 -0.37767747045 -2.5502791405 0.25031089783 -0.30732250214
          -4.4642100334 -0.19895298779 -0.3199582994 -4.4325690269 -0.50963848829 -0.48281699419
          -4.5914802551 -0.50413167477 -0.23168960214 -4.2843179703 -0.50610029697 -0.3169965148
          -4.4642100334 -0.19895298779 -0.3199582994 -4.6513981819 -0.323874861 -0.5277801156
          -4.5914802551 -0.50413167477 -0.23168960214 -4.4325690269 -0.50963848829 -0.48281699419
          4.1675348282 -0.40187141299 0.870411098 4.0511579514 -0.20270109177 0.7991797924
          4.0172262192 -0.24458359182 1.074458003 3.9864780903 -0.40239870548 0.92023420334
          -2.1005930901 -0.28334778547 0.038400001824 -2.1452450752 -0.48567259312 0.046202000231
          -2.2283110619 -0.34106051922 -0.12456599623 -2.3048820496 -0.31219279766 0.078204996884
          -2.2283110619 -0.34106051922 -0.12456599623 -2.1452450752 -0.48567259312 0.046202000231
          -1.9509960413 -0.51507622004 -0.028830006719 -2.1493499279 -0.51199901104 -0.23114798963
          -2.3048820496 -0.31219279766 0.078204996884 -2.3538520336 -0.5108473897 0.052726007998
          -2.1452450752 -0.48567259312 0.046202000231 -2.2283110619 -0.34106051922 -0.12456599623
          2.533821106 0.36376240849 -0.31047001481 2.6444098949 0.20465949178 -0.2766700089
          2.4682879448 0.38555598259 -0.10436999053 2.7383420467 0.41610860825 -0.23452399671
          2.6444098949 0.20465949178 -0.2766700089 2.533821106 0.36376240849 -0.31047001481
          2.4682879448 0.38555598259 -0.10436999053 2.4686999321 0.064002029598 -0.14970698953
          -0.055491000414 -0.26846665144 -0.58021008968 0.0696529001 -0.32972794771 -0.23890098929
          0.082827799022 -0.50211364031 -0.4565897882 -0.081785798073 -0.18698275089 -0.35594800115
          -0.055491000414 -0.26846665144 -0.58021008968 0.23998099566 -0.31517469883 -0.51127868891
          0.082827799022 -0.50211364031 -0.4565897882 0.0696529001 -0.32972794771 -0.23890098929
          0.34409999847 -0.50164806843 -0.32478198409 0.082827799022 -0.50211364031 -0.4565897882
          0.23998099566 -0.31517469883 -0.51127868891 0.0696529001 -0.32972794771 -0.23890098929
          0.34409999847 -0.50164806843 -0.32478198409 0.0696529001 -0.32972794771 -0.23890098929
          0.23998099566 -0.31517469883 -0.51127868891 0.24777440727 -0.18341463804 -0.29771098495
          0.15807649493 -0.51398259401 -0.10896699131 -0.056981399655 -0.33009880781 -0.03277400136
          -0.082211501896 -0.51397901773 -0.23908998072 0.0696529001 -0.32972794771 -0.23890098929
          0.9440330267 -0.47934010625 -0.38176751137 0.82692998648 -0.47690171003 -0.55843901634
          1.0520069599 -0.24730080366 -0.58848804235 0.73383498192 -0.30438300967 -0.4254899919
          -0.6087269187 0.024860799313 -0.30977600813 -0.81611001492 0.30783483386 -0.27051800489
          -0.75858801603 0.17240820825 -0.42690300941 -0.65999889374 0.24785794318 -0.095564998686
          0.63634902239 -0.49167880416 -0.31372991204 0.61904597282 -0.48145249486 -0.62268102169
          0.82692998648 -0.47690171003 -0.55843901634 0.73383498192 -0.30438300967 -0.4254899919
          0.63634902239 -0.49167880416 -0.31372991204 0.61904597282 -0.48145249486 -0.62268102169
          0.73383498192 -0.30438300967 -0.4254899919 0.49290901423 -0.27051791549 -0.38118758798
          0.49290901423 -0.27051791549 -0.38118758798 0.61904597282 -0.48145249486 -0.62268102169
          0.73383498192 -0.30438300967 -0.4254899919 0.4496409893 -0.20598120987 -0.64667701721
          -4.1840386391 -0.02179926075 0.21181380749 -4.394712925 -0.0063827331178 -0.052065320313
          -4.4813494682 0.022646209225 0.2389934808 -4.3568739891 -0.16453392804 0.20460030437
          -4.1840386391 -0.02179926075 0.21181380749 -4.3568739891 -0.16453392804 0.20460030437
          -4.4813494682 0.022646209225 0.2389934808 -4.2245573997 -0.0047437800094 0.42267590761
          0.73383498192 -0.30438300967 -0.4254899919 0.61904597282 -0.48145249486 -0.62268102169
          0.73838502169 -0.23838828504 -0.67500901222 0.4496409893 -0.20598120987 -0.64667701721
          0.73383498192 -0.30438300967 -0.4254899919 0.61904597282 -0.48145249486 -0.62268102169
          0.82692998648 -0.47690171003 -0.55843901634 0.73838502169 -0.23838828504 -0.67500901222
          0.73383498192 -0.30438300967 -0.4254899919 0.82692998648 -0.47690171003 -0.55843901634
          1.0520069599 -0.24730080366 -0.58848804235 0.73838502169 -0.23838828504 -0.67500901222
          -3.0187089443 -0.037960600108 0.018444009125 -3.1989395618 -0.20423613489 -0.036946997046
          -3.0590620041 0.043446499854 -0.27457588911 -3.3023517132 0.0064315996133 -0.24028472602
          -3.0849509239 0.17763519287 -0.079053997993 -3.0187089443 -0.037960600108 0.018444009125
          -3.0590620041 0.043446499854 -0.27457588911 -3.3023517132 0.0064315996133 -0.24028472602
          -3.0590620041 0.043446499854 -0.27457588911 -3.3023517132 0.0064315996133 -0.24028472602
          -3.3095912933 0.2773117125 -0.21319679916 -3.0849509239 0.17763519287 -0.079053997993
          -0.18109099567 0.051842641085 -1.0570659637 -0.22330099344 0.23585693538 -1.0619950294
          -0.091403998435 0.28790903091 -0.89287102222 -0.33919200301 0.20730000734 -0.79884600639
          -3.5693891048 0.4848459959 -0.46422702074 -3.4724879265 0.27005422115 -0.50610899925
          -3.6321229935 0.48460400105 -0.30110099912 -3.5198493004 0.28535220027 -0.20457419753
          -4.6692109108 -0.16517569125 -0.19817639887 -4.7780652046 -0.0085761295632 -0.01886684075
          -5 -0.16616299748 -0.067754097283 -4.7891550064 0.016387579963 -0.29043120146
          -4.7780652046 -0.0085761295632 -0.01886684075 -5 0.1004910022 -0.10199099779
          -5 -0.16616299748 -0.067754097283 -4.7891550064 0.016387579963 -0.29043120146
          -4.7891550064 0.016387579963 -0.29043120146 -5 0.1004910022 -0.10199099779
          -4.7578840256 0.28817969561 -0.030578099191 -4.7780652046 -0.0085761295632 -0.01886684075
          -4.6259469986 0.16757617891 -0.22007699311 -4.7891550064 0.016387579963 -0.29043120146
          -4.7578840256 0.28817969561 -0.030578099191 -4.7780652046 -0.0085761295632 -0.01886684075
          -2.9400956631 0.27705860138 -0.27815890312 -3.133988142 0.48230528831 -0.1387040019
          -2.9699950218 0.48249959946 -0.0066279866733 -2.8941919804 0.276453197 -0.0076509867795
          -2.7973310947 0.48305559158 -0.13842301071 -2.9400956631 0.27705860138 -0.27815890312
          -2.9699950218 0.48249959946 -0.0066279866733 -2.8941919804 0.276453197 -0.0076509867795
          -4.5877504349 0.083796218038 -0.033795300871 -4.7578840256 0.28817969561 -0.030578099191
          -4.5292730331 0.2915058732 0.031001500785 -4.6630234718 0.13930633664 0.15250210464
          -4.5292730331 0.2915058732 0.031001500785 -4.374229908 0.21605139971 0.18340799212
          -4.5877504349 0.083796218038 -0.033795300871 -4.6630234718 0.13930633664 0.15250210464
          -4.5292730331 0.2915058732 0.031001500785 -4.374229908 0.21605139971 0.18340799212
          -4.394712925 -0.0063827331178 -0.052065320313 -4.5877504349 0.083796218038 -0.033795300871
          -4.5877504349 0.083796218038 -0.033795300871 -4.3738183975 0.24991054833 -0.14364899695
          -4.394712925 -0.0063827331178 -0.052065320313 -4.5292730331 0.2915058732 0.031001500785
          4.6475157738 0.38701429963 1.2527079582 4.5793409348 0.44828680158 1.4775110483
          4.7225232124 0.21502579749 1.4921859503 4.5082879066 0.20863980055 1.4644019604
          4.6513729095 0.13981750607 1.2424490452 4.6475157738 0.38701429963 1.2527079582
          4.7225232124 0.21502579749 1.4921859503 4.5082879066 0.20863980055 1.4644019604
          -3.687541008 0.43435680866 -0.67268902063 -3.5693891048 0.4848459959 -0.46422702074
          -3.7273154259 0.27898979187 -0.49260097742 -3.7656788826 0.48673638701 -0.49626898766
          4.4793419838 0.2869952023 1.1247149706 4.6475157738 0.38701429963 1.2527079582
          4.5082879066 0.20863980055 1.4644019604 4.3783740997 0.40928810835 1.4540369511
          4.6475157738 0.38701429963 1.2527079582 4.3783740997 0.40928810835 1.4540369511
          4.4793419838 0.2869952023 1.1247149706 4.2713618279 0.37677168846 1.2242929935
          4.6475157738 0.38701429963 1.2527079582 4.5793409348 0.44828680158 1.4775110483
          4.5082879066 0.20863980055 1.4644019604 4.3783740997 0.40928810835 1.4540369511
          -1.6305606365 -0.29367351532 -0.52340888977 -1.6368409395 -0.014472581446 -0.55414676666
          -1.8747121096 0.0029144007713 -0.49748280644 -1.8874305487 -0.20946229994 -0.68173897266
          -1.6305606365 -0.29367351532 -0.52340888977 -1.6368409395 -0.014472581446 -0.55414676666
          -1.8079010248 -0.20703689754 -0.34597599506 -1.8747121096 0.0029144007713 -0.49748280644
          -2.0975265503 -0.075285196304 -0.43518251181 -2.1201012135 -0.050273101777 -0.70986998081
          -1.8874305487 -0.20946229994 -0.68173897266 -1.8747121096 0.0029144007713 -0.49748280644
          -2.4720232487 0.27283710241 -0.72016400099 -2.8207395077 0.30260008574 -0.65172201395
          -2.6349360943 0.29374942183 -0.88281100988 -2.7109742165 0.4802801013 -0.74906599522
          -4.6800694466 0.0018985598581 0.46689039469 -4.6333608627 0.15650126338 0.46339869499
          -4.8499131203 0.16269566119 0.48204991221 -4.7917890549 -0.033734429628 0.26267528534
          0.92705971003 0.28618240356 0.2508969903 0.9749379158 0.10632624477 0.26197698712
          0.85527962446 0.15694072843 0.023737987503 0.72277122736 0.1972938925 0.1844419986
          -4.1448526382 0.14308868349 -0.26994079351 -4.3738183975 0.24991054833 -0.14364899695
          -4.4088745117 0.030903441831 -0.32176870108 -4.2976675034 0.29178825021 -0.37512549758
          -3.0849509239 0.17763519287 -0.079053997993 -3.2902696133 0.27174562216 0.025448989123
          -3.1628189087 0.48208609223 0.07378398627 -3.0553820133 0.29404971004 0.22911499441
          -4.2742209435 0.42202806473 -0.57460540533 -4.4787201881 0.49494040012 -0.53550213575
          -4.2976675034 0.29178825021 -0.37512549758 -4.3753385544 0.16644324362 -0.56169492006
          -4.2742209435 0.42202806473 -0.57460540533 -4.4787201881 0.49494040012 -0.53550213575
          -4.4126858711 0.49212142825 -0.31948131323 -4.2976675034 0.29178825021 -0.37512549758
          -4.2976675034 0.29178825021 -0.37512549758 -4.4126858711 0.49212142825 -0.31948131323
          -4.2460803986 0.48600909114 -0.044718399644 -4.3738183975 0.24991054833 -0.14364899695
          1.6749150753 -0.47052338719 0.39508730173 1.5581665039 -0.242820099 0.18669840693
          1.7383420467 -0.46321061254 0.15311719477 1.912476182 -0.21805660427 0.34040221572
          1.9232388735 -0.45981270075 0.32396870852 1.6749150753 -0.47052338719 0.39508730173
          1.7383420467 -0.46321061254 0.15311719477 1.912476182 -0.21805660427 0.34040221572
          -0.66083502769 -0.29501193762 -0.69995200634 -0.70339399576 -0.074503429234 -0.67528831959
          -0.82459098101 -0.20698645711 -0.80915498734 -0.65971499681 -0.068506918848 -0.89710998535
          3.0461831093 0.56736302376 0.63019996881 2.9040269852 0.39754191041 0.64887100458
          3.0665662289 0.3753657043 0.82187402248 3.0947101116 0.28387919068 0.62956798077
          -4.5090827942 0.30276152492 -0.34050369263 -4.4985280037 0.48879349232 -0.082372002304
          -4.3738183975 0.24991054833 -0.14364899695 -4.6259469986 0.16757617891 -0.22007699311
          -2.1485760212 0.26226508617 -0.74843597412 -2.3224203587 0.14642329514 -0.60301297903
          -2.0933618546 0.23922790587 -0.44598591328 -2.1330692768 0.078793898225 -0.55708521605
          -4.67258358 0.49731987715 -0.45437440276 -4.4787201881 0.49494040012 -0.53550213575
          -4.6022672653 0.31213206053 -0.53499019146 -4.5090827942 0.30276152492 -0.34050369263
          2.9040269852 0.39754191041 0.64887100458 3.0947101116 0.28387919068 0.62956798077
          3.0462920666 0.35370859504 0.42864450812 2.7912619114 0.22470119596 0.5612180233
          2.2356448174 -0.32073310018 0.68389499187 2.0636451244 -0.34763351083 0.61844497919
          2.1206483841 -0.27323719859 0.41196197271 2.1238291264 -0.18699400127 0.64728599787
          3.0665662289 0.3753657043 0.82187402248 3.3003060818 0.23398950696 0.76375299692
          3.0947101116 0.28387919068 0.62956798077 3.0184175968 0.12345609814 0.73364597559
          2.2356448174 -0.32073310018 0.68389499187 2.0636451244 -0.34763351083 0.61844497919
          2.2495288849 -0.45216780901 0.5471829772 2.1206483841 -0.27323719859 0.41196197271
          3.0462920666 0.35370859504 0.42864450812 3.2137260437 0.23683209717 0.35793501139
          3.1101438999 0.080181010067 0.45569860935 3.0947101116 0.28387919068 0.62956798077
          1.9232388735 -0.45981270075 0.32396870852 2.1206483841 -0.27323719859 0.41196197271
          1.912476182 -0.21805660427 0.34040221572 2.0660989285 -0.22966709733 0.14300569892
          2.2780179977 -0.12498279661 0.35640898347 2.1206483841 -0.27323719859 0.41196197271
          2.4038360119 -0.2405732125 0.18867635727 2.0660989285 -0.22966709733 0.14300569892
          2.2780179977 -0.12498279661 0.35640898347 2.1862559319 -0.44939181209 0.30064499378
          2.4038360119 -0.2405732125 0.18867635727 2.1206483841 -0.27323719859 0.41196197271
          -0.42318299413 -0.15868732333 -0.55037420988 -0.66083502769 -0.29501193762 -0.69995200634
          -0.51817697287 -0.33874639869 -0.53937000036 -0.49614500999 -0.18467617035 -0.78485298157
          -3.5492799282 0.4825848937 -0.0015599994222 -3.7007267475 0.4836808145 -0.12965320051
          -3.7853329182 0.48204940557 0.059275992215 -3.71869874 0.25738021731 -0.13884219527
          -1.0780789852 -0.26223245263 -0.61954492331 -1.3103187084 -0.16647019982 -0.72021299601
          -1.0344099998 -0.31266370416 -0.88067400455 -1.0723729134 -0.088602088392 -0.8404250145
          -1.0780789852 -0.26223245263 -0.61954492331 -1.0723729134 -0.088602088392 -0.8404250145
          -1.0344099998 -0.31266370416 -0.88067400455 -0.82459098101 -0.20698645711 -0.80915498734
          -4.394712925 -0.0063827331178 -0.052065320313 -4.5570960045 -0.13278326392 -0.03384745121
          -4.4301371574 -0.28078189492 -0.098592102528 -4.4642100334 -0.19895298779 -0.3199582994
          -4.5570960045 -0.13278326392 -0.03384745121 -4.6692109108 -0.16517569125 -0.19817639887
          -4.4301371574 -0.28078189492 -0.098592102528 -4.4642100334 -0.19895298779 -0.3199582994
          -4.4301371574 -0.28078189492 -0.098592102528 -4.7949709892 -0.27444934845 -0.028330069035
          -4.5570960045 -0.13278326392 -0.03384745121 -4.4882779121 -0.32354712486 0.15183719993
          1.1370209455 -0.2310988009 -0.34101459384 0.9440330267 -0.47934010625 -0.38176751137
          1.0520069599 -0.24730080366 -0.58848804235 0.91907000542 -0.28306537867 -0.28310790658
          -4.6010689735 -0.032954148948 -0.34019801021 -4.6692109108 -0.16517569125 -0.19817639887
          -4.6480989456 -0.13892398775 -0.52972179651 -4.7889413834 -0.29244363308 -0.33276119828
          -1.2214440107 -0.234099105 -0.087950997055 -1.3917900324 -0.51799577475 -0.23380000889
          -1.1190869808 -0.42417049408 -0.10118299723 -1.224069953 -0.31939327717 -0.31514698267
          4.6513729095 0.13981750607 1.2424490452 4.8725390434 0.29623439908 1.2086399794
          4.7789177895 0.14037750661 0.96490341425 4.9596247673 0.084158137441 1.2836079597
          4.6513729095 0.13981750607 1.2424490452 4.7225232124 0.21502579749 1.4921859503
          4.8725390434 0.29623439908 1.2086399794 4.9596247673 0.084158137441 1.2836079597
          4.7225232124 0.21502579749 1.4921859503 4.9263429642 0.33198681474 1.4921859503
          4.8725390434 0.29623439908 1.2086399794 4.9596247673 0.084158137441 1.2836079597
          4.7225232124 0.21502579749 1.4921859503 4.9263429642 0.33198681474 1.4921859503
          4.9596247673 0.084158137441 1.2836079597 4.9073309898 0.060586899519 1.514449954
          4.8725390434 0.29623439908 1.2086399794 4.9263429642 0.33198681474 1.4921859503
          5.1688809395 0.37849900126 1.3310799599 4.9596247673 0.084158137441 1.2836079597
          5.1940898895 0.12840040028 1.2278339863 4.8725390434 0.29623439908 1.2086399794
          5.1688809395 0.37849900126 1.3310799599 4.9596247673 0.084158137441 1.2836079597
          5.1940898895 0.12840040028 1.2278339863 4.9596247673 0.084158137441 1.2836079597
          5.1688809395 0.37849900126 1.3310799599 5.1319189072 0.18058879673 1.488049984
          4.9596247673 0.084158137441 1.2836079597 4.9263429642 0.33198681474 1.4921859503
          5.1688809395 0.37849900126 1.3310799599 5.1319189072 0.18058879673 1.488049984
          4.8456058502 -0.1037119925 1.1854159832 4.9568657875 -0.20041409135 1.3308819532
          4.6833701134 -0.40567740798 1.2680499554 4.6312479973 -0.18212139606 1.2574429512
          4.9596247673 0.084158137441 1.2836079597 4.8725390434 0.29623439908 1.2086399794
          4.7789177895 0.14037750661 0.96490341425 4.9991178513 0.039471499622 1.0460796356
          4.9596247673 0.084158137441 1.2836079597 4.9073309898 0.060586899519 1.514449954
          5.1013798714 -0.05546059832 1.560379982 5.1611480713 -0.11739530414 1.3518660069
          -1.1241190434 -0.31656226516 -1.0943260193 -1.2655464411 -0.30120876431 -0.88210499287
          -1.2013354301 -0.1661592871 -1.0883820057 -1.0344099998 -0.31266370416 -0.88067400455
          -0.76909697056 -0.29619181156 -0.33838999271 -0.65379941463 -0.29078039527 -0.10148400068
          -0.62142932415 -0.09965570271 -0.097244001925 -0.56078988314 -0.3168579042 -0.30044898391
          -0.90296202898 0.47852620482 -0.86588096619 -1.1717802286 0.47396370769 -1.0808559656
          -1.0845546722 0.4788222909 -0.80185699463 -1.1206613779 0.30866101384 -1.0912829638
          3.7570819855 -0.18195958436 0.41518300772 3.9133279324 -0.075963594019 0.57894998789
          3.7211930752 0.051226999611 0.43084198236 3.8754689693 -0.016982000321 0.21258999407
          3.8754689693 -0.016982000321 0.21258999407 3.6490149498 0.068853497505 0.12046000361
          3.7211930752 0.051226999611 0.43084198236 3.7570819855 -0.18195958436 0.41518300772
          3.8754689693 -0.016982000321 0.21258999407 3.6490149498 0.068853497505 0.12046000361
          3.7570819855 -0.18195958436 0.41518300772 3.5797228813 -0.13064749539 0.085768997669
          3.7570819855 -0.18195958436 0.41518300772 3.6490149498 0.068853497505 0.12046000361
          3.7211930752 0.051226999611 0.43084198236 3.5797228813 -0.13064749539 0.085768997669
          0.87655997276 -0.11350530386 -0.45971497893 0.95586800575 0.071381397545 -0.33720040321
          1.1442159414 -0.0049022994936 -0.49735999107 1.1370209455 -0.2310988009 -0.34101459384
          -3.4652879238 0.12876489758 0.30643999577 -3.4821026325 -0.046573873609 0.11716599017
          -3.5214090347 -0.040553983301 0.31633499265 -3.3787970543 -0.14233914018 0.29122000933
          3.690030098 0.28598979115 0.94812899828 4.0205068588 0.28315189481 1.0268609524
          3.8472468853 0.14682120085 0.8287910223 3.9359619617 0.090236805379 1.1565029621
          3.8135120869 0.40065589547 0.74336141348 3.690030098 0.28598979115 0.94812899828
          4.0205068588 0.28315189481 1.0268609524 3.8472468853 0.14682120085 0.8287910223
          -0.87940299511 -0.1013680622 -1.096660018 -0.65971499681 -0.068506918848 -0.89710998535
          -0.78103899956 0.039071749896 -1.0954949856 -0.62074798346 -0.15536004305 -1.0920000076
          -4.7949709892 -0.27444934845 -0.028330069035 -4.752243042 -0.50364774466 -0.24244779348
          -4.9758749008 -0.49966689944 -0.16735000908 -4.7671570778 -0.49938252568 -0.076874218881
          4.8725390434 0.29623439908 1.2086399794 5.1688809395 0.37849900126 1.3310799599
          5.0302901268 0.43874397874 1.1967389584 5.1940898895 0.12840040028 1.2278339863
          3.6307458878 0.097795702517 0.69470512867 3.4896070957 0.099841497838 0.92870599031
          3.8472468853 0.14682120085 0.8287910223 3.7040190697 0.031617399305 1.0519629717
          -2.3289134502 -0.0023192001972 -0.42081850767 -2.0529088974 0.052241001278 -0.20910900831
          -2.2913610935 0.16144010425 -0.25700899959 -2.0975265503 -0.075285196304 -0.43518251181
          -2.3289134502 -0.0023192001972 -0.42081850767 -2.2913610935 0.16144010425 -0.25700899959
          -2.4908249378 0.11884979904 -0.11749400944 -2.5705890656 -0.0096552502364 -0.37767747045
          -3.4112770557 0.15064421296 -0.34156700969 -3.1901597977 0.0029790997505 -0.4238820076
          -3.3023517132 0.0064315996133 -0.24028472602 -3.2429180145 0.19009520113 -0.47103300691
          -0.092815898359 0.28653284907 -0.26267999411 -0.020758699626 0.49720421433 -0.34290099144
          -0.18545199931 0.22996643186 -0.47609320283 0.10719139874 0.28679504991 -0.54870027304
          0.0546566993 0.13170881569 -0.364466995 -0.092815898359 0.28653284907 -0.26267999411
          -0.18545199931 0.22996643186 -0.47609320283 0.10719139874 0.28679504991 -0.54870027304
          0.58373397589 0.27239969373 -0.33771339059 0.49993100762 0.0054506729357 -0.41626721621
          0.52244597673 0.28034487367 -0.58197897673 0.32533699274 0.30109125376 -0.45768621564
          -4.4515519142 -0.45291829109 0.45512139797 -4.4882779121 -0.32354712486 0.15183719993
          -4.5711774826 -0.48988559842 0.24580539763 -4.3543543816 -0.49132984877 0.25861698389
          -2.9620211124 -0.34429514408 0.21156999469 -3.1268720627 -0.40328606963 0.24481900036
          -2.8371300697 -0.46261897683 0.18645299971 -3.1343755722 -0.50439548492 -0.0088849952444
          1.9601919651 -0.45431318879 0.13470560312 1.8268829584 -0.45585429668 -0.0072320010513
          2.0085380077 -0.44803181291 -0.051146503538 1.8784749508 -0.24840208888 0.010538879782
          -4.5711774826 -0.48988559842 0.24580539763 -4.4882779121 -0.32354712486 0.15183719993
          -4.4945139885 -0.24172013998 0.45762220025 -4.7839722633 -0.32270756364 0.2961961925
          -4.4515519142 -0.45291829109 0.45512139797 -4.4945139885 -0.24172013998 0.45762220025
          -4.4882779121 -0.32354712486 0.15183719993 -4.3543543816 -0.49132984877 0.25861698389
          -2.9204330444 -0.13243819773 -0.19507199526 -3.0590620041 0.043446499854 -0.27457588911
          -3.1989395618 -0.20423613489 -0.036946997046 -3.1080467701 -0.29268443584 -0.24082820117
          0.10719139874 0.28679504991 -0.54870027304 0.0546566993 0.13170881569 -0.364466995
          0.12283880264 0.27401307225 -0.19243100286 0.32533699274 0.30109125376 -0.45768621564
          0.25168299675 0.024994578212 -0.46399909258 0.0546566993 0.13170881569 -0.364466995
          0.10719139874 0.28679504991 -0.54870027304 0.32533699274 0.30109125376 -0.45768621564
          0.25168299675 0.024994578212 -0.46399909258 0.0546566993 0.13170881569 -0.364466995
          0.32533699274 0.30109125376 -0.45768621564 0.33304131031 0.20393286645 -0.24557299912
          1.4941439629 -0.30191999674 -0.0081950007007 1.8784749508 -0.24840208888 0.010538879782
          1.6559460163 -0.46090990305 -0.083716340363 1.7383420467 -0.46321061254 0.15311719477
          -4.5417332649 -0.49570846558 0.045956496149 -4.4882779121 -0.32354712486 0.15183719993
          -4.5711774826 -0.48988559842 0.24580539763 -4.8250303268 -0.49250531197 0.14701525867
          0.15515929461 0.27147474885 -0.81783097982 0.31418091059 0.094848684967 -0.98210698366
          0.073762997985 0.35499945283 -1.0218420029 0.073527999222 0.1395072788 -1.023146987
          1.4941439629 -0.30191999674 -0.0081950007007 1.6559460163 -0.46090990305 -0.083716340363
          1.4299919605 -0.4650863111 -0.25022679567 1.3789390326 -0.47327530384 -0.003226995701
          0.15515929461 0.27147474885 -0.81783097982 0.30108499527 0.17071788013 -0.6524900198
          0.10719139874 0.28679504991 -0.54870027304 0.22630690038 0.49578845501 -0.65596997738
          4.0052309036 0.2497472018 0.67321902514 4.0790348053 0.052158098668 0.78453868628
          4.2886710167 0.33758100867 0.66382801533 4.1978611946 0.12986010313 0.5741019845
          -4.752243042 -0.50364774466 -0.24244779348 -4.7889413834 -0.29244363308 -0.33276119828
          -4.7781114578 -0.50555992126 -0.40374428034 -4.5914802551 -0.50413167477 -0.23168960214
          4.0790348053 0.052158098668 0.78453868628 3.8472468853 0.14682120085 0.8287910223
          3.9133279324 -0.075963594019 0.57894998789 4.0052309036 0.2497472018 0.67321902514
          4.0790348053 0.052158098668 0.78453868628 4.0052309036 0.2497472018 0.67321902514
          4.0205068588 0.28315189481 1.0268609524 3.8472468853 0.14682120085 0.8287910223
          -3.9158587456 -0.22345404327 -0.33129701018 -3.8035757542 -0.50670826435 -0.31858798862
          -3.8566205502 -0.50966030359 -0.52288502455 -4.1002011299 -0.31287899613 -0.40952581167
          -1.1206613779 0.30866101384 -1.0912829638 -0.90296202898 0.47852620482 -0.86588096619
          -1.075802207 0.17113420367 -0.81510698795 -1.0845546722 0.4788222909 -0.80185699463
          4.0790348053 0.052158098668 0.78453868628 4.285888195 0.099320337176 0.90528231859
          4.1978611946 0.12986010313 0.5741019845 4.2261519432 -0.095267094672 0.65937298536
          4.0790348053 0.052158098668 0.78453868628 4.285888195 0.099320337176 0.90528231859
          4.2886710167 0.33758100867 0.66382801533 4.1978611946 0.12986010313 0.5741019845
          -0.28265699744 -0.012162780389 -0.58007609844 -0.045155998319 0.014279329218 -0.54846435785
          -0.18545199931 0.22996643186 -0.47609320283 -0.04301200062 0.17476075888 -0.718306005
          -0.264005512 0.0059295003302 -0.30922400951 -0.045155998319 0.014279329218 -0.54846435785
          -0.18545199931 0.22996643186 -0.47609320283 -0.28265699744 -0.012162780389 -0.58007609844
          1.1713650227 -0.47730788589 -0.15520529449 1.1952601671 -0.29477098584 0.064541012049
          0.98844081163 -0.48904711008 0.035179998726 0.98700541258 -0.19875110686 -0.078704997897
          -0.045155998319 0.014279329218 -0.54846435785 0.0546566993 0.13170881569 -0.364466995
          -0.18545199931 0.22996643186 -0.47609320283 0.10719139874 0.28679504991 -0.54870027304
          -0.045155998319 0.014279329218 -0.54846435785 0.0546566993 0.13170881569 -0.364466995
          0.10719139874 0.28679504991 -0.54870027304 0.25168299675 0.024994578212 -0.46399909258
          -0.045155998319 0.014279329218 -0.54846435785 0.10719139874 0.28679504991 -0.54870027304
          0.30108499527 0.17071788013 -0.6524900198 0.25168299675 0.024994578212 -0.46399909258
          0.098207399249 -0.032019931823 -0.19597899914 0.0546566993 0.13170881569 -0.364466995
          0.25168299675 0.024994578212 -0.46399909258 0.33304131031 0.20393286645 -0.24557299912
          0.10719139874 0.28679504991 -0.54870027304 0.17703129351 0.49817833304 -0.43983438611
          0.22630690038 0.49578845501 -0.65596997738 0.32533699274 0.30109125376 -0.45768621564
          -2.1631000042 -0.090172797441 0.050840999931 -2.1283559799 0.094898201525 0.043953001499
          -2.2999050617 -0.0097464201972 -0.11074100435 -2.0529088974 0.052241001278 -0.20910900831
          -2.2999050617 -0.0097464201972 -0.11074100435 -2.1631000042 -0.090172797441 0.050840999931
          -2.3502340317 -0.11054370552 0.087472997606 -2.1283559799 0.094898201525 0.043953001499
          0.10719139874 0.28679504991 -0.54870027304 0.12283880264 0.27401307225 -0.19243100286
          0.17703129351 0.49817833304 -0.43983438611 0.32533699274 0.30109125376 -0.45768621564
          -4.8250303268 -0.49250531197 0.14701525867 -4.6583003998 -0.19147884846 0.13825491071
          -4.4882779121 -0.32354712486 0.15183719993 -4.7839722633 -0.32270756364 0.2961961925
          1.9772109985 0.2443075031 -0.15706959367 1.8098720312 0.33792459965 -0.017415300012
          2.0672409534 0.54569250345 -0.02698210068 2.111946106 0.35183390975 -0.033053901047
          -4.8250303268 -0.49250531197 0.14701525867 -4.4882779121 -0.32354712486 0.15183719993
          -4.5711774826 -0.48988559842 0.24580539763 -4.7839722633 -0.32270756364 0.2961961925
          -4.5417332649 -0.49570846558 0.045956496149 -4.6583003998 -0.19147884846 0.13825491071
          -4.4882779121 -0.32354712486 0.15183719993 -4.8250303268 -0.49250531197 0.14701525867
          -4.4515519142 -0.45291829109 0.45512139797 -4.4945139885 -0.24172013998 0.45762220025
          -4.5711774826 -0.48988559842 0.24580539763 -4.4882779121 -0.32354712486 0.15183719993
          -3.1080467701 -0.29268443584 -0.24082820117 -3.3023517132 0.0064315996133 -0.24028472602
          -3.3609697819 -0.25755804777 -0.25123178959 -3.1450257301 -0.19032800198 -0.44944301248
          -3.0154821873 -0.50680673122 -0.26073569059 -3.1080467701 -0.29268443584 -0.24082820117
          -3.251019001 -0.50599706173 -0.25622180104 -3.1325054169 -0.50747013092 -0.43627199531
          -3.0154821873 -0.50680673122 -0.26073569059 -3.1080467701 -0.29268443584 -0.24082820117
          -3.1343755722 -0.50439548492 -0.0088849952444 -3.251019001 -0.50599706173 -0.25622180104
          3.6068017483 0.56949651241 1.0521490574 3.4009900093 0.56842762232 0.97544896603
          3.4282515049 0.33187240362 0.97428900003 3.4926049709 0.5762001276 0.76709657907
          1.5581665039 -0.242820099 0.18669840693 1.7837769985 -0.11298939586 0.15795660019
          1.8784749508 -0.24840208888 0.010538879782 1.7383420467 -0.46321061254 0.15311719477
          3.6068017483 0.56949651241 1.0521490574 3.4926049709 0.5762001276 0.76709657907
          3.4282515049 0.33187240362 0.97428900003 3.6906139851 0.57666391134 0.86979299784
          -3.3482511044 -0.50422972441 -0.021191004664 -3.1343755722 -0.50439548492 -0.0088849952444
          -3.1989395618 -0.20423613489 -0.036946997046 -3.1080467701 -0.29268443584 -0.24082820117
          -3.3482511044 -0.50422972441 -0.021191004664 -3.1080467701 -0.29268443584 -0.24082820117
          -3.1989395618 -0.20423613489 -0.036946997046 -3.251019001 -0.50599706173 -0.25622180104
          -3.3482511044 -0.50422972441 -0.021191004664 -3.1343755722 -0.50439548492 -0.0088849952444
          -3.1080467701 -0.29268443584 -0.24082820117 -3.251019001 -0.50599706173 -0.25622180104
          3.7727000713 0.59062451124 0.58069598675 3.997948885 0.58768248558 0.85406768322
          3.9646220207 0.41419330239 0.50147998333 3.8135120869 0.40065589547 0.74336141348
          3.9646220207 0.41419330239 0.50147998333 4.0052309036 0.2497472018 0.67321902514
          4.2886710167 0.33758100867 0.66382801533 4.1978611946 0.12986010313 0.5741019845
          3.9646220207 0.41419330239 0.50147998333 3.7101740837 0.59498238564 0.34702202678
          3.7448599339 0.30333548784 0.49451100826 3.9061729908 0.52652400732 0.245728001
          0.84688097239 0.325525105 -0.34160640836 0.66463452578 0.50741457939 -0.17443799973
          0.70016598701 0.50710338354 -0.40990638733 0.85454148054 0.51173609495 -0.11017200351
          1.1713650227 -0.47730788589 -0.15520529449 0.98844081163 -0.48904711008 0.035179998726
          0.86059832573 -0.49077758193 -0.080404996872 0.98700541258 -0.19875110686 -0.078704997897
          4.2713618279 0.37677168846 1.2242929935 4.4337921143 0.1125216037 1.254134059
          4.4793419838 0.2869952023 1.1247149706 4.2345128059 0.15581940114 1.1804380417
          1.40358603 0.24286289513 -0.3494130075 1.5854810476 0.084593199193 -0.4168010056
          1.6285569668 0.23750409484 -0.61983597279 1.3930920362 0.21471090615 -0.69503098726
          1.5337500572 0.41599822044 -0.64482402802 1.40358603 0.24286289513 -0.3494130075
          1.6285569668 0.23750409484 -0.61983597279 1.3930920362 0.21471090615 -0.69503098726
          -0.785762012 0.48228681087 -0.72692197561 -0.90989202261 0.24085079134 -0.62744837999
          -0.5779209733 0.28877097368 -0.57027238607 -0.81324702501 0.26146668196 -0.86965799332
          -0.51817697287 -0.33874639869 -0.53937000036 -0.83050501347 -0.26468807459 -0.57061237097
          -0.76909697056 -0.29619181156 -0.33838999271 -0.80718201399 -0.50908124447 -0.54855680466
          -4.0919904709 0.29906708002 -0.39470338821 -4.1004319191 0.30029353499 -0.60041797161
          -3.8971295357 0.23590660095 -0.36395600438 -3.9273982048 0.42422729731 -0.62899297476
          -3.8971295357 0.23590660095 -0.36395600438 -4.0919904709 0.29906708002 -0.39470338821
          -3.9273982048 0.42422729731 -0.62899297476 -3.7656788826 0.48673638701 -0.49626898766
          -0.90989202261 0.24085079134 -0.62744837999 -0.75858801603 0.17240820825 -0.42690300941
          -0.5779209733 0.28877097368 -0.57027238607 -0.62419199944 0.12591390312 -0.73094600439
          -2.9699292183 -0.052413102239 -0.81482702494 -2.8155953884 -0.19327259064 -0.5224930048
          -3.0045845509 -0.31262481213 -0.59387999773 -3.0660376549 -0.035237099975 -0.601772964
          -4.4874916077 0.48258560896 0.25255030394 -4.2010884285 0.48155650496 0.20740970969
          -4.3946790695 0.48465889692 0.11185610294 -4.374229908 0.21605139971 0.18340799212
          4.0778617859 0.38755699992 0.83571088314 4.285888195 0.099320337176 0.90528231859
          4.2886710167 0.33758100867 0.66382801533 4.0790348053 0.052158098668 0.78453868628
          4.2507781982 -0.39692500234 1.0791150331 4.4776749611 -0.40230458975 1.0684930086
          4.372276783 -0.18564900756 1.2451930046 4.5186548233 -0.2072378099 0.99021959305
          -3.6321229935 0.48460400105 -0.30110099912 -3.4724879265 0.27005422115 -0.50610899925
          -3.6243565083 0.17590141296 -0.3374350071 -3.5198493004 0.28535220027 -0.20457419753
          -4.6583003998 -0.19147884846 0.13825491071 -4.7949709892 -0.27444934845 -0.028330069035
          -4.8250303268 -0.49250531197 0.14701525867 -4.5417332649 -0.49570846558 0.045956496149
          2.635833025 -0.42590990663 -0.026309985667 2.5325028896 -0.2637206018 -0.12680798769
          2.4244749546 -0.42912569642 -0.22337199748 2.7099030018 -0.25898209214 -0.27057000995
          -4.4301371574 -0.28078189492 -0.098592102528 -4.6158905029 -0.49994170666 -0.083305798471
          -4.5417332649 -0.49570846558 0.045956496149 -4.4304690361 -0.50256663561 -0.13597680628
          -4.4304690361 -0.50256663561 -0.13597680628 -4.5417332649 -0.49570846558 0.045956496149
          -4.4301371574 -0.28078189492 -0.098592102528 -4.3444986343 -0.49644988775 0.069615103304
          -1.9761929512 -0.084401905537 0.01688499935 -2.1283559799 0.094898201525 0.043953001499
          -2.1631000042 -0.090172797441 0.050840999931 -2.0529088974 0.052241001278 -0.20910900831
          -4.7949709892 -0.27444934845 -0.028330069035 -5 -0.004447159823 0.13623799384
          -4.6583003998 -0.19147884846 0.13825491071 -5 -0.26007699966 0.21836000681
          -5 -0.16616299748 -0.067754097283 -5 -0.004447159823 0.13623799384
          -4.7949709892 -0.27444934845 -0.028330069035 -5 -0.26007699966 0.21836000681
          -5 -0.16616299748 -0.067754097283 -5 -0.39700898528 0.035171099007
          -5 -0.26007699966 0.21836000681 -4.7949709892 -0.27444934845 -0.028330069035
          -5 -0.16616299748 -0.067754097283 -4.9758749008 -0.49966689944 -0.16735000908
          -5 -0.39700898528 0.035171099007 -4.7949709892 -0.27444934845 -0.028330069035
          -5 -0.16616299748 -0.067754097283 -5 -0.33370301127 -0.29875099659
          -4.9758749008 -0.49966689944 -0.16735000908 -4.7949709892 -0.27444934845 -0.028330069035
          1.1842939854 -0.12854279578 -0.092633001506 1.1370209455 -0.2310988009 -0.34101459384
          0.98700541258 -0.19875110686 -0.078704997897 1.3097800016 -0.27519398928 -0.1584803015
          -5 -0.16616299748 -0.067754097283 -4.7780652046 -0.0085761295632 -0.01886684075
          -4.6692109108 -0.16517569125 -0.19817639887 -4.7949709892 -0.27444934845 -0.028330069035
          -5 -0.16616299748 -0.067754097283 -5 -0.004447159823 0.13623799384
          -4.7780652046 -0.0085761295632 -0.01886684075 -4.7949709892 -0.27444934845 -0.028330069035
          -4.7780652046 -0.0085761295632 -0.01886684075 -5 -0.004447159823 0.13623799384
          -4.6583003998 -0.19147884846 0.13825491071 -4.7949709892 -0.27444934845 -0.028330069035
          3.9250519276 0.16208969057 0.46795699 3.8472468853 0.14682120085 0.8287910223
          4.0052309036 0.2497472018 0.67321902514 3.9133279324 -0.075963594019 0.57894998789
          -4.7949709892 -0.27444934845 -0.028330069035 -5 -0.39700898528 0.035171099007
          -5 -0.26007699966 0.21836000681 -4.8250303268 -0.49250531197 0.14701525867
          -2.3067228794 -0.32880795002 -0.94539600611 -2.0371425152 -0.34191715717 -0.78012096882
          -2.1830513477 -0.50529420376 -0.71057498455 -2.2304649353 -0.22556725144 -0.77245599031
          -2.2434971333 -0.063827201724 -0.95553797483 -2.1139371395 -0.28715011477 -0.97770702839
          -2.2304649353 -0.22556725144 -0.77245599031 -2.0257306099 -0.031649298966 -0.9920539856
          -2.2304649353 -0.22556725144 -0.77245599031 -2.1830513477 -0.50529420376 -0.71057498455
          -2.3067228794 -0.32880795002 -0.94539600611 -2.4249818325 -0.50633567572 -0.6508589983
          -2.741081953 0.32292592525 -0.24629439414 -2.5502791405 0.25031089783 -0.30732250214
          -2.6924591064 0.48232129216 -0.35847869515 -2.7821593285 0.30021998286 -0.44675600529
          -2.3067228794 -0.32880795002 -0.94539600611 -2.1139371395 -0.28715011477 -0.97770702839
          -2.0371425152 -0.34191715717 -0.78012096882 -2.2304649353 -0.22556725144 -0.77245599031
          -1.2542339563 0.29450172186 -0.30690699816 -1.3188999891 0.28086179495 -0.079112000763
          -1.0550040007 0.40813687444 -0.10020700097 -1.1158839464 0.17156629264 -0.093520998955
          -1.2542339563 0.29450172186 -0.30690699816 -1.2323629856 0.48578119278 -0.53944307566
          -1.0361119509 0.21812960505 -0.37398898602 -1.1287009716 0.49046784639 -0.31941500306
          2.0134241581 0.082406297326 0.37211599946 2.0783751011 -0.022333201021 0.63662797213
          2.2661983967 0.044934421778 0.50948798656 2.2780179977 -0.12498279661 0.35640898347
          4.6259679794 -0.40398031473 0.7512139678 4.4464259148 -0.17551660538 0.63643395901
          4.7822642326 -0.20231451094 0.72078299522 4.5794639587 -0.095555409789 0.80211597681
          4.5794639587 -0.095555409789 0.80211597681 4.4079709053 -0.40386489034 0.85058301687
          4.6259679794 -0.40398031473 0.7512139678 4.4464259148 -0.17551660538 0.63643395901
          2.3748869896 0.069039702415 0.16169330478 2.2780179977 -0.12498279661 0.35640898347
          2.2661983967 0.044934421778 0.50948798656 2.5975399017 0.036539699882 0.30856120586
          -1.9710366726 -0.33433938026 -0.42893758416 -2.0975265503 -0.075285196304 -0.43518251181
          -2.1776151657 -0.33875748515 -0.37888690829 -2.1267375946 -0.28440442681 -0.5801320076
          3.599364996 -0.13409550488 0.90844702721 3.4149284363 -0.092121005058 1.167222023
          3.7870020866 -0.19021171331 1.074723959 3.465408802 -0.29649040103 1.1825380325
          3.7870020866 -0.19021171331 1.074723959 3.4149284363 -0.092121005058 1.167222023
          3.7523159981 -0.085600093007 1.2815630436 3.465408802 -0.29649040103 1.1825380325
          2.0085380077 -0.44803181291 -0.051146503538 2.1323330402 -0.24952030182 -0.2159884125
          2.1658439636 -0.43505328894 -0.3575527072 2.2273271084 -0.43826460838 -0.11158529669
          0.0696529001 -0.32972794771 -0.23890098929 -0.056981399655 -0.33009880781 -0.03277400136
          -0.082211501896 -0.51397901773 -0.23908998072 -0.20980919898 -0.34469109774 -0.28026798368
          -1.0361119509 0.21812960505 -0.37398898602 -1.2542339563 0.29450172186 -0.30690699816
          -1.1750420332 0.11218670756 -0.27856901288 -1.293176055 0.1205618009 -0.45924699306
          4.6576151848 0.017758300528 1.462864995 4.8615598679 -0.11488699913 1.489552021
          4.8456058502 -0.1037119925 1.1854159832 4.6312479973 -0.18212139606 1.2574429512
          2.5117163658 0.16574789584 0.5378869772 2.6809933186 0.045304298401 0.64524197578
          2.5975399017 0.036539699882 0.30856120586 2.5335454941 -0.19222688675 0.50451397896
          3.0184175968 0.12345609814 0.73364597559 2.8261909485 0.28350150585 0.9414550066
          2.6809933186 0.045304298401 0.64524197578 2.7912619114 0.22470119596 0.5612180233
          2.6809933186 0.045304298401 0.64524197578 2.824450016 -0.10761829466 0.55310499668
          3.0184175968 0.12345609814 0.73364597559 2.7912619114 0.22470119596 0.5612180233
          -1.6661914587 0.0097754001617 -0.81471097469 -1.5627611876 0.064892105758 -1.05468297
          -1.4535621405 -0.08741620183 -0.88498598337 -1.4055235386 0.16061809659 -0.77410399914
          -1.5627611876 0.064892105758 -1.05468297 -1.596382618 -0.17736847699 -1.051363945
          -1.6661914587 0.0097754001617 -0.81471097469 -1.4535621405 -0.08741620183 -0.88498598337
          -1.5627611876 0.064892105758 -1.05468297 -1.596382618 -0.17736847699 -1.051363945
          -1.4535621405 -0.08741620183 -0.88498598337 -1.323502183 -0.038665849715 -1.075633049
          4.8615598679 -0.11488699913 1.489552021 4.7135901451 -0.22733098269 1.489552021
          4.8456058502 -0.1037119925 1.1854159832 4.6312479973 -0.18212139606 1.2574429512
          -1.3984810114 0.086329601705 -0.26900598407 -1.684795022 0.12831169367 -0.21073399484
          -1.5760400295 -0.030635099858 -0.29671400785 -1.545979023 0.22976130247 -0.33403101563
          -1.684795022 0.12831169367 -0.21073399484 -1.8419760466 0.17466241121 -0.33885499835
          -1.545979023 0.22976130247 -0.33403101563 -1.7097920179 0.31207630038 -0.45334500074
          -0.81324702501 0.26146668196 -0.86965799332 -0.85043102503 0.031999699771 -0.80896800756
          -0.62419199944 0.12591390312 -0.73094600439 -0.65971499681 -0.068506918848 -0.89710998535
          -2.4840130806 -0.30007189512 -0.074917010963 -2.5996620655 -0.2836445868 0.13820500672
          -2.8014369011 -0.27421984076 -0.022419007495 -2.5937309265 -0.094380997121 -0.091197997332
          -2.3502340317 -0.11054370552 0.087472997606 -2.5996620655 -0.2836445868 0.13820500672
          -2.4840130806 -0.30007189512 -0.074917010963 -2.5937309265 -0.094380997121 -0.091197997332
          -2.3477945328 -0.017081549391 -0.75131797791 -2.2434971333 -0.063827201724 -0.95553797483
          -2.1201012135 -0.050273101777 -0.70986998081 -2.188603878 0.16068729758 -0.96540898085
          -2.3502340317 -0.11054370552 0.087472997606 -2.4840130806 -0.30007189512 -0.074917010963
          -2.3048820496 -0.31219279766 0.078204996884 -2.3400249481 -0.19343669713 -0.23309500515
          -2.3502340317 -0.11054370552 0.087472997606 -2.5996620655 -0.2836445868 0.13820500672
          -2.3048820496 -0.31219279766 0.078204996884 -2.4840130806 -0.30007189512 -0.074917010963
          3.6680510044 -0.16187010705 0.64812618494 3.6307458878 0.097795702517 0.69470512867
          3.8472468853 0.14682120085 0.8287910223 3.8193171024 -0.21124768257 0.82013428211
          -1.2655464411 -0.30120876431 -0.88210499287 -1.2879470587 -0.50460076332 -0.71951198578
          -1.0943470001 -0.50438934565 -0.71723198891 -1.1810113192 -0.49926784635 -0.8929489851
          -4.0265545845 -0.28167268634 0.21848671138 -4.1561627388 -0.30235728621 0.4173707962
          -4.0000076294 -0.12829710543 0.39358600974 -3.8431739807 -0.42423200607 0.37291398644
          -4.0265545845 -0.28167268634 0.21848671138 -4.0000076294 -0.12829710543 0.39358600974
          -3.7582271099 -0.17851629853 0.35762301087 -3.8431739807 -0.42423200607 0.37291398644
          -4.0265545845 -0.28167268634 0.21848671138 -4.0000076294 -0.12829710543 0.39358600974
          -3.9542860985 -0.041209600866 0.17256499827 -3.7582271099 -0.17851629853 0.35762301087
          -1.2655464411 -0.30120876431 -0.88210499287 -1.1810113192 -0.49926784635 -0.8929489851
          -1.0344099998 -0.31266370416 -0.88067400455 -1.1241190434 -0.31656226516 -1.0943260193
          -4.0265545845 -0.28167268634 0.21848671138 -4.1561627388 -0.30235728621 0.4173707962
          -3.8431739807 -0.42423200607 0.37291398644 -4.0673441887 -0.49335995317 0.36177811027
          3.6680510044 -0.16187010705 0.64812618494 3.8472468853 0.14682120085 0.8287910223
          3.9133279324 -0.075963594019 0.57894998789 3.8193171024 -0.21124768257 0.82013428211
          0.31893050671 -0.015289099887 -0.15932199359 0.30940818787 -0.10097020119 0.057927999645
          0.53519868851 0.048687562346 -0.13842900097 0.48138740659 -0.12545976043 0.10301499814
          -1.3714095354 0.48100718856 -0.68255013227 -1.6599514484 0.24216479063 -0.65762501955
          -1.5147645473 0.48376119137 -0.53487837315 -1.4487729073 0.26224949956 -0.55564618111
          3.7448599339 0.30333548784 0.49451100826 3.4329230785 0.25877740979 0.41826298833
          3.6066539288 0.1872664988 0.30272099376 3.5936889648 0.39519989491 0.35134500265
          3.3609991074 0.066775999963 0.55516642332 3.4329230785 0.25877740979 0.41826298833
          3.4166619778 0.065547503531 0.28209301829 3.6066539288 0.1872664988 0.30272099376
          3.3609991074 0.066775999963 0.55516642332 3.6066539288 0.1872664988 0.30272099376
          3.4166619778 0.065547503531 0.28209301829 3.7211930752 0.051226999611 0.43084198236
          3.6066539288 0.1872664988 0.30272099376 3.6242129803 0.38442382216 0.12190700322
          3.4725759029 0.18676179647 0.05072100088 3.6490149498 0.068853497505 0.12046000361
          -4.7839722633 -0.32270756364 0.2961961925 -4.8936700821 -0.25269600749 0.5
          -5 -0.12896800041 0.37591099739 -4.7917890549 -0.033734429628 0.26267528534
          -4.7839722633 -0.32270756364 0.2961961925 -4.7949709892 -0.27444934845 -0.028330069035
          -5 -0.26007699966 0.21836000681 -4.8250303268 -0.49250531197 0.14701525867
          3.7907569408 0.2246016115 0.18572899699 3.7448599339 0.30333548784 0.49451100826
          3.9250519276 0.16208969057 0.46795699 3.7211930752 0.051226999611 0.43084198236
          -4.752243042 -0.50364774466 -0.24244779348 -5 -0.33370301127 -0.29875099659
          -4.9758749008 -0.49966689944 -0.16735000908 -4.7781114578 -0.50555992126 -0.40374428034
          4.7822642326 -0.20231451094 0.72078299522 4.9587922096 -0.11951480061 0.84872800112
          4.7853469849 -0.40575119853 0.83861100674 4.7351660728 -0.16101920605 0.98147392273
          4.86105299 0.0081822015345 0.50044000149 5.0733251572 -0.094601005316 0.53920000792
          4.7822642326 -0.20231451094 0.72078299522 4.9587922096 -0.11951480061 0.84872800112
          4.86105299 0.0081822015345 0.50044000149 5.0733251572 -0.094601005316 0.53920000792
          4.8261451721 -0.19942000508 0.48777401447 4.7822642326 -0.20231451094 0.72078299522
          2.0660989285 -0.22966709733 0.14300569892 2.0688860416 -0.10810660571 -0.024964602664
          2.2508289814 -0.099022090435 0.14436070621 1.9838659763 -0.058840800077 0.22020068765
          4.736287117 -0.4010592103 0.59583199024 4.8261451721 -0.19942000508 0.48777401447
          4.9794502258 -0.39840599895 0.61955702305 4.7822642326 -0.20231451094 0.72078299522
          -0.37324941158 -0.23546770215 -0.36768600345 -0.28265699744 -0.012162780389 -0.58007609844
          -0.44009780884 -0.045463498682 -0.38387098908 -0.42318299413 -0.15868732333 -0.55037420988
          -0.37324941158 -0.23546770215 -0.36768600345 -0.44009780884 -0.045463498682 -0.38387098908
          -0.63126498461 -0.15162830055 -0.47663301229 -0.42318299413 -0.15868732333 -0.55037420988
          5.0286197662 0.27560698986 1.0374772549 4.8725390434 0.29623439908 1.2086399794
          5.1940898895 0.12840040028 1.2278339863 4.9596247673 0.084158137441 1.2836079597
          -0.42318299413 -0.15868732333 -0.55037420988 -0.44009780884 -0.045463498682 -0.38387098908
          -0.63126498461 -0.15162830055 -0.47663301229 -0.51164197922 0.025980791077 -0.55774062872
          -1.7018979788 0.48639988899 -0.31914901733 -1.545979023 0.22976130247 -0.33403101563
          -1.5147645473 0.48376119137 -0.53487837315 -1.7097920179 0.31207630038 -0.45334500074
          -1.2111840248 -0.1263563931 -0.52467823029 -1.2913279533 -0.31723329425 -0.56081938744
          -1.4155100584 -0.21666789055 -0.40096598864 -1.224069953 -0.31939327717 -0.31514698267
          -1.7018979788 0.48639988899 -0.31914901733 -1.7097920179 0.31207630038 -0.45334500074
          -1.5147645473 0.48376119137 -0.53487837315 -1.7930159569 0.48152941465 -0.59363406897
          4.9800801277 0.31590399146 0.82129001617 5.2609939575 0.27832901478 0.92522102594
          5.0587530136 0.088731199503 0.75192797184 5.0286197662 0.27560698986 1.0374772549
          4.9800801277 0.31590399146 0.82129001617 5.0587530136 0.088731199503 0.75192797184
          4.9991178513 0.039471499622 1.0460796356 5.0286197662 0.27560698986 1.0374772549
          5.0286197662 0.27560698986 1.0374772549 5.0587530136 0.088731199503 0.75192797184
          4.9991178513 0.039471499622 1.0460796356 5.2330021858 0.14374749362 1.0523743629
          5.0587530136 0.088731199503 0.75192797184 5.0286197662 0.27560698986 1.0374772549
          5.2740988731 0.079818502069 0.87786698341 5.2330021858 0.14374749362 1.0523743629
          5.0587530136 0.088731199503 0.75192797184 5.2609939575 0.27832901478 0.92522102594
          5.2740988731 0.079818502069 0.87786698341 5.0286197662 0.27560698986 1.0374772549
          5.0286197662 0.27560698986 1.0374772549 5.2609939575 0.27832901478 0.92522102594
          5.2740988731 0.079818502069 0.87786698341 5.2330021858 0.14374749362 1.0523743629
          5.0286197662 0.27560698986 1.0374772549 5.2164421082 0.40284201503 1.1155520678
          5.2609939575 0.27832901478 0.92522102594 5.2330021858 0.14374749362 1.0523743629
          -0.48082599044 -0.31821736693 -1.0916539431 -0.64104998112 -0.30240130424 -0.9189350009
          -0.43940600753 -0.13465237617 -1.0850310326 -0.32380700111 -0.29127669334 -0.87523800135
          -4.0446949005 -0.034010000527 -0.39543700218 -3.9158587456 -0.22345404327 -0.33129701018
          -4.2235832214 -0.18397390842 -0.2816118896 -4.0808696747 -0.048765938729 -0.15966640413
          -4.0446949005 -0.034010000527 -0.39543700218 -3.9158587456 -0.22345404327 -0.33129701018
          -4.0808696747 -0.048765938729 -0.15966640413 -3.8473057747 -0.00070657959441 -0.13606338203
          -2.3289134502 -0.0023192001972 -0.42081850767 -2.0975265503 -0.075285196304 -0.43518251181
          -2.3716421127 -0.18197050691 -0.6025840044 -2.3835964203 -0.32359841466 -0.41965642571
          -2.3716421127 -0.18197050691 -0.6025840044 -2.1267375946 -0.28440442681 -0.5801320076
          -2.4249818325 -0.50633567572 -0.6508589983 -2.3835964203 -0.32359841466 -0.41965642571
          -2.3716421127 -0.18197050691 -0.6025840044 -2.5882301331 -0.30685323477 -0.65421998501
          -2.3835964203 -0.32359841466 -0.41965642571 -2.4249818325 -0.50633567572 -0.6508589983
          -2.5882301331 -0.30685323477 -0.65421998501 -2.6578717232 -0.50742650032 -0.52386301756
          -2.3835964203 -0.32359841466 -0.41965642571 -2.4249818325 -0.50633567572 -0.6508589983
          -2.3835964203 -0.32359841466 -0.41965642571 -2.6578717232 -0.50742650032 -0.52386301756
          -2.4960739613 -0.50847524405 -0.33113560081 -2.4249818325 -0.50633567572 -0.6508589983
          -2.2481837273 -0.50829571486 -0.4661166966 -2.3835964203 -0.32359841466 -0.41965642571
          -2.4960739613 -0.50847524405 -0.33113560081 -2.4249818325 -0.50633567572 -0.6508589983
          -2.3835964203 -0.32359841466 -0.41965642571 -2.1267375946 -0.28440442681 -0.5801320076
          -2.4249818325 -0.50633567572 -0.6508589983 -2.2481837273 -0.50829571486 -0.4661166966
          0.78821092844 0.14894378185 -0.18848800659 0.7164170146 -0.01385910064 -0.332908988
          0.95586800575 0.071381397545 -0.33720040321 0.76200997829 0.19809819758 -0.53690600395
          0.54373598099 -0.25898191333 -0.94053697586 0.37125998735 -0.47539919615 -0.97635698318
          0.48899298906 -0.47851881385 -0.81525802612 0.65387302637 -0.44024658203 -0.92117100954
          -2.3400249481 -0.19343669713 -0.23309500515 -2.4840130806 -0.30007189512 -0.074917010963
          -2.3604021072 -0.51019489765 -0.16444499791 -2.3835964203 -0.32359841466 -0.41965642571
          -2.3400249481 -0.19343669713 -0.23309500515 -2.6131467819 -0.26515978575 -0.30168119073
          -2.4840130806 -0.30007189512 -0.074917010963 -2.3835964203 -0.32359841466 -0.41965642571
          3.7040190697 0.031617399305 1.0519629717 3.599364996 -0.13409550488 0.90844702721
          3.4896070957 0.099841497838 0.92870599031 3.4149284363 -0.092121005058 1.167222023
          3.599364996 -0.13409550488 0.90844702721 3.4149284363 -0.092121005058 1.167222023
          3.7040190697 0.031617399305 1.0519629717 3.7870020866 -0.19021171331 1.074723959
          0.84688097239 0.325525105 -0.34160640836 0.95586800575 0.071381397545 -0.33720040321
          1.0401221514 0.23939830065 -0.032525006682 1.0754319429 0.25025811791 -0.42730200291
          0.84688097239 0.325525105 -0.34160640836 0.95586800575 0.071381397545 -0.33720040321
          1.0754319429 0.25025811791 -0.42730200291 0.76200997829 0.19809819758 -0.53690600395
          0.84688097239 0.325525105 -0.34160640836 0.78821092844 0.14894378185 -0.18848800659
          0.95586800575 0.071381397545 -0.33720040321 0.76200997829 0.19809819758 -0.53690600395
          -2.2283110619 -0.34106051922 -0.12456599623 -2.3835964203 -0.32359841466 -0.41965642571
          -2.3604021072 -0.51019489765 -0.16444499791 -2.1776151657 -0.33875748515 -0.37888690829
          2.5975399017 0.036539699882 0.30856120586 2.2780179977 -0.12498279661 0.35640898347
          2.2661983967 0.044934421778 0.50948798656 2.5335454941 -0.19222688675 0.50451397896
          1.9772109985 0.2443075031 -0.15706959367 2.111946106 0.35183390975 -0.033053901047
          2.2439339161 0.21964900196 0.058875899762 2.1151509285 0.051999751478 0.097855910659
          3.0947101116 0.28387919068 0.62956798077 3.3003060818 0.23398950696 0.76375299692
          3.1101438999 0.080181010067 0.45569860935 3.0184175968 0.12345609814 0.73364597559
          0.95586800575 0.071381397545 -0.33720040321 1.2022919655 0.33101278543 -0.21015967429
          1.0754319429 0.25025811791 -0.42730200291 1.1638020277 0.033433400095 -0.21218000352
          2.7572391033 -0.22472290695 -0.032116010785 2.635833025 -0.42590990663 -0.026309985667
          2.9632070065 -0.41506269574 -0.063951998949 2.7099030018 -0.25898209214 -0.27057000995
          -2.3224203587 0.14642329514 -0.60301297903 -2.3477945328 -0.017081549391 -0.75131797791
          -2.6087565422 -0.063813298941 -0.63231498003 -2.3289134502 -0.0023192001972 -0.42081850767
          2.6479671001 -0.18968589604 0.18436330557 2.7957570553 -0.42637899518 0.25317001343
          2.7572391033 -0.22472290695 -0.032116010785 2.635833025 -0.42590990663 -0.026309985667
          4.4468998909 -0.11275999993 0.40511700511 4.2261519432 -0.095267094672 0.65937298536
          4.4424939156 0.089347399771 0.64447599649 4.4464259148 -0.17551660538 0.63643395901
          4.4468998909 -0.11275999993 0.40511700511 4.4424939156 0.089347399771 0.64447599649
          4.6600642204 -0.03085799329 0.45767199993 4.4464259148 -0.17551660538 0.63643395901
          4.4468998909 -0.11275999993 0.40511700511 4.6600642204 -0.03085799329 0.45767199993
          4.6102437973 -0.26420500875 0.44404000044 4.4464259148 -0.17551660538 0.63643395901
          4.6102437973 -0.26420500875 0.44404000044 4.7822642326 -0.20231451094 0.72078299522
          4.4464259148 -0.17551660538 0.63643395901 4.6600642204 -0.03085799329 0.45767199993
          1.9838659763 -0.058840800077 0.22020068765 1.8784749508 -0.24840208888 0.010538879782
          2.0660989285 -0.22966709733 0.14300569892 2.0688860416 -0.10810660571 -0.024964602664
          2.0085380077 -0.44803181291 -0.051146503538 2.0688860416 -0.10810660571 -0.024964602664
          2.2454249859 -0.24175401032 -0.0085900025442 2.0660989285 -0.22966709733 0.14300569892
          4.3321962357 -0.16034509242 0.88920331001 4.4079709053 -0.40386489034 0.85058301687
          4.4464259148 -0.17551660538 0.63643395901 4.2745900154 -0.40359979868 0.66799497604
          4.4464259148 -0.17551660538 0.63643395901 4.4079709053 -0.40386489034 0.85058301687
          4.4951000214 -0.40278640389 0.62707102299 4.2745900154 -0.40359979868 0.66799497604
          4.4112458229 -0.36157390475 0.39370900393 4.4464259148 -0.17551660538 0.63643395901
          4.4951000214 -0.40278640389 0.62707102299 4.2745900154 -0.40359979868 0.66799497604
          3.4854989052 0.014852097258 0.049800999463 3.4725759029 0.18676179647 0.05072100088
          3.6490149498 0.068853497505 0.12046000361 3.4166619778 0.065547503531 0.28209301829
          3.4854989052 0.014852097258 0.049800999463 3.4725759029 0.18676179647 0.05072100088
          3.4166619778 0.065547503531 0.28209301829 3.3039441109 0.08869034797 -0.023718999699
          3.4854989052 0.014852097258 0.049800999463 3.4166619778 0.065547503531 0.28209301829
          3.1981549263 0.12413520366 0.16969101131 3.3039441109 0.08869034797 -0.023718999699
          3.4854989052 0.014852097258 0.049800999463 3.1981549263 0.12413520366 0.16969101131
          3.4166619778 0.065547503531 0.28209301829 3.3469219208 -0.1246156022 -0.013377999887
          -4.1034150124 -0.18890102208 0.022778199986 -4.0265545845 -0.28167268634 0.21848671138
          -4.0447149277 -0.49747499824 0.14612358809 -4.2297291756 -0.32805991173 0.13521359861
          3.4166619778 0.065547503531 0.28209301829 3.1981549263 0.12413520366 0.16969101131
          3.2239820957 -0.14030811191 0.26961100101 3.3469219208 -0.1246156022 -0.013377999887
          3.1981549263 0.12413520366 0.16969101131 3.2239820957 -0.14030811191 0.26961100101
          3.1101438999 0.080181010067 0.45569860935 3.4166619778 0.065547503531 0.28209301829
          3.4166619778 0.065547503531 0.28209301829 3.2239820957 -0.14030811191 0.26961100101
          3.1101438999 0.080181010067 0.45569860935 3.3609991074 0.066775999963 0.55516642332
          3.4166619778 0.065547503531 0.28209301829 3.4725759029 0.18676179647 0.05072100088
          3.1981549263 0.12413520366 0.16969101131 3.3039441109 0.08869034797 -0.023718999699
          3.4964818954 -0.10279240459 0.43279200792 3.3609991074 0.066775999963 0.55516642332
          3.3867809772 -0.23781871796 0.5709104538 3.1153120995 -0.17042639852 0.52375102043
          4.7499132156 0.39788281918 1.4921859503 4.7883992195 0.58720839024 1.4859639406
          4.9485001564 0.60167902708 1.3511019945 4.9263429642 0.33198681474 1.4921859503
          -3.8562464714 -0.50317251682 -0.11210159957 -4.0447149277 -0.49747499824 0.14612358809
          -3.9980287552 -0.32266074419 -0.13652320206 -3.8215641975 -0.23188085854 0.091413997114
          -3.9980287552 -0.32266074419 -0.13652320206 -4.0447149277 -0.49747499824 0.14612358809
          -3.8562464714 -0.50317251682 -0.11210159957 -4.2421140671 -0.50075817108 -0.098954796791
          -4.0492649078 -0.50518339872 -0.26489710808 -3.9980287552 -0.32266074419 -0.13652320206
          -3.8562464714 -0.50317251682 -0.11210159957 -4.2421140671 -0.50075817108 -0.098954796791
          -3.9980287552 -0.32266074419 -0.13652320206 -3.8035757542 -0.50670826435 -0.31858798862
          -4.0492649078 -0.50518339872 -0.26489710808 -3.8562464714 -0.50317251682 -0.11210159957
          -3.9980287552 -0.32266074419 -0.13652320206 -3.8215641975 -0.23188085854 0.091413997114
          -4.0265545845 -0.28167268634 0.21848671138 -4.1034150124 -0.18890102208 0.022778199986
          -3.9980287552 -0.32266074419 -0.13652320206 -3.8473057747 -0.00070657959441 -0.13606338203
          -3.8215641975 -0.23188085854 0.091413997114 -4.1034150124 -0.18890102208 0.022778199986
          -4.1034150124 -0.18890102208 0.022778199986 -3.8473057747 -0.00070657959441 -0.13606338203
          -4.0808696747 -0.048765938729 -0.15966640413 -3.9980287552 -0.32266074419 -0.13652320206
          -1.8959770203 0.26786220074 -0.15826401114 -2.0546720028 0.3103351891 0.029857000336
          -1.9377369881 0.14763340354 0.0093440003693 -2.0947520733 0.29650449753 -0.21109998226
          -3.9980287552 -0.32266074419 -0.13652320206 -4.0808696747 -0.048765938729 -0.15966640413
          -4.2235832214 -0.18397390842 -0.2816118896 -3.9158587456 -0.22345404327 -0.33129701018
          -3.9980287552 -0.32266074419 -0.13652320206 -3.8473057747 -0.00070657959441 -0.13606338203
          -4.0808696747 -0.048765938729 -0.15966640413 -3.9158587456 -0.22345404327 -0.33129701018
          -3.9158587456 -0.22345404327 -0.33129701018 -3.8473057747 -0.00070657959441 -0.13606338203
          -3.7167961597 -0.29400056601 -0.18038730323 -3.9980287552 -0.32266074419 -0.13652320206
          -3.7167961597 -0.29400056601 -0.18038730323 -3.8473057747 -0.00070657959441 -0.13606338203
          -3.8215641975 -0.23188085854 0.091413997114 -3.9980287552 -0.32266074419 -0.13652320206
          -4.7880673409 0.48487520218 0.48341411352 -4.9696040154 0.31183549762 0.46324345469
          -4.7025990486 0.30048549175 0.47185480595 -4.745464325 0.3263682127 0.25227379799
          -4.7880673409 0.48487520218 0.48341411352 -4.9696040154 0.31183549762 0.46324345469
          -4.745464325 0.3263682127 0.25227379799 -4.8927183151 0.49172759056 0.30637028813
          2.3748869896 0.069039702415 0.16169330478 2.4686999321 0.064002029598 -0.14970698953
          2.2439339161 0.21964900196 0.058875899762 2.2007000446 -0.030069796368 -0.17213380337
          -4.6132879257 0.48546689749 0.14135861397 -4.8927183151 0.49172759056 0.30637028813
          -4.745464325 0.3263682127 0.25227379799 -4.8276562691 0.49022433162 0.10507963598
          -4.8276562691 0.49022433162 0.10507963598 -4.7578840256 0.28817969561 -0.030578099191
          -4.745464325 0.3263682127 0.25227379799 -4.6132879257 0.48546689749 0.14135861397
          -4.745464325 0.3263682127 0.25227379799 -4.7578840256 0.28817969561 -0.030578099191
          -4.8276562691 0.49022433162 0.10507963598 -5 0.28975299001 0.088944099844
          -5 0.32793700695 0.27663400769 -4.745464325 0.3263682127 0.25227379799
          -4.8276562691 0.49022433162 0.10507963598 -5 0.28975299001 0.088944099844
          -4.6630234718 0.13930633664 0.15250210464 -4.7578840256 0.28817969561 -0.030578099191
          -4.745464325 0.3263682127 0.25227379799 -5 0.28975299001 0.088944099844
          -4.7578840256 0.28817969561 -0.030578099191 -4.5292730331 0.2915058732 0.031001500785
          -4.6630234718 0.13930633664 0.15250210464 -4.745464325 0.3263682127 0.25227379799
          -4.7578840256 0.28817969561 -0.030578099191 -4.5292730331 0.2915058732 0.031001500785
          -4.745464325 0.3263682127 0.25227379799 -4.6132879257 0.48546689749 0.14135861397
          -4.6692109108 -0.16517569125 -0.19817639887 -4.6158905029 -0.49994170666 -0.083305798471
          -4.7949709892 -0.27444934845 -0.028330069035 -4.4301371574 -0.28078189492 -0.098592102528
          -2.4924480915 0.1497296989 -0.4765163064 -2.6538431644 0.18475399911 -0.59675198793
          -2.4720232487 0.27283710241 -0.72016400099 -2.6084048748 0.48110160232 -0.5615530014
          -4.745464325 0.3263682127 0.25227379799 -4.8927183151 0.49172759056 0.30637028813
          -5 0.32793700695 0.27663400769 -4.8276562691 0.49022433162 0.10507963598
          1.4319980145 -0.45352560282 -0.70679199696 1.3132139444 -0.24616961181 -0.5035700202
          1.2166980505 -0.46223008633 -0.67697501183 1.3129299879 -0.29227387905 -0.73667401075
          1.5054880381 -0.2863958776 -0.67730301619 1.3132139444 -0.24616961181 -0.5035700202
          1.4319980145 -0.45352560282 -0.70679199696 1.3129299879 -0.29227387905 -0.73667401075
          1.5054880381 -0.2863958776 -0.67730301619 1.3132139444 -0.24616961181 -0.5035700202
          1.3129299879 -0.29227387905 -0.73667401075 1.3815850019 -0.12085030228 -0.70849198103
          1.3129299879 -0.29227387905 -0.73667401075 1.3132139444 -0.24616961181 -0.5035700202
          1.1848659515 -0.12604640424 -0.76831799746 1.3815850019 -0.12085030228 -0.70849198103
          1.3129299879 -0.29227387905 -0.73667401075 1.0520069599 -0.24730080366 -0.58848804235
          1.1848659515 -0.12604640424 -0.76831799746 1.3132139444 -0.24616961181 -0.5035700202
          1.3129299879 -0.29227387905 -0.73667401075 1.3132139444 -0.24616961181 -0.5035700202
          1.2166980505 -0.46223008633 -0.67697501183 1.0520069599 -0.24730080366 -0.58848804235
          1.3132139444 -0.24616961181 -0.5035700202 1.2600870132 -0.46586328745 -0.47155499458
          1.2166980505 -0.46223008633 -0.67697501183 1.0520069599 -0.24730080366 -0.58848804235
          -3.8562464714 -0.50317251682 -0.11210159957 -3.6591205597 -0.502214849 -0.015271005221
          -3.7167961597 -0.29400056601 -0.18038730323 -3.5096030235 -0.50470131636 -0.15045179427
          -2.9699292183 -0.052413102239 -0.81482702494 -2.9465870857 -0.28584861755 -0.81910002232
          -3.1794657707 -0.17824740708 -0.77178901434 -3.0045845509 -0.31262481213 -0.59387999773
          -2.9465870857 -0.28584861755 -0.81910002232 -3.2359466553 -0.42429992557 -0.7593640089
          -3.1794657707 -0.17824740708 -0.77178901434 -3.0045845509 -0.31262481213 -0.59387999773
          0.98700541258 -0.19875110686 -0.078704997897 0.97177040577 0.064062602818 -0.1233580038
          0.87983602285 -0.093330197036 -0.22511909902 1.1638020277 0.033433400095 -0.21218000352
          3.5423920155 -0.34106731415 0.063364997506 3.5444030762 -0.40834650397 0.28405502439
          3.3482620716 -0.41061788797 0.17992399633 3.4389131069 -0.21940618753 0.24159599841
          3.3262090683 -0.35399842262 -0.029642999172 3.3482620716 -0.41061788797 0.17992399633
          3.4389131069 -0.21940618753 0.24159599841 3.5423920155 -0.34106731415 0.063364997506
          3.5444030762 -0.40834650397 0.28405502439 3.4389131069 -0.21940618753 0.24159599841
          3.3344159126 -0.41385099292 0.43574500084 3.3482620716 -0.41061788797 0.17992399633
          3.3262090683 -0.35399842262 -0.029642999172 3.4389131069 -0.21940618753 0.24159599841
          3.3469219208 -0.1246156022 -0.013377999887 3.5423920155 -0.34106731415 0.063364997506
          -3.71869874 0.25738021731 -0.13884219527 -3.6243565083 0.17590141296 -0.3374350071
          -3.8473057747 -0.00070657959441 -0.13606338203 -3.5523664951 0.0045121996664 -0.18042999506
          3.0461831093 0.56736302376 0.63019996881 3.0462920666 0.35370859504 0.42864450812
          2.9040269852 0.39754191041 0.64887100458 3.0947101116 0.28387919068 0.62956798077
          2.4307379723 -0.44270971417 0.40620398521 2.1862559319 -0.44939181209 0.30064499378
          2.3360071182 -0.43899869919 0.085661202669 2.4038360119 -0.2405732125 0.18867635727
          2.4038360119 -0.2405732125 0.18867635727 2.1862559319 -0.44939181209 0.30064499378
          2.3360071182 -0.43899869919 0.085661202669 2.0660989285 -0.22966709733 0.14300569892
          -4.5090827942 0.30276152492 -0.34050369263 -4.6259469986 0.16757617891 -0.22007699311
          -4.3738183975 0.24991054833 -0.14364899695 -4.4088745117 0.030903441831 -0.32176870108
          -4.7826919556 0.30165764689 -0.29666978121 -4.8738484383 0.47361603379 -0.50984418392
          -4.9899616241 0.27313753963 -0.50233417749 -4.792386055 0.26623538136 -0.51841771603
          -4.792386055 0.26623538136 -0.51841771603 -4.9899616241 0.27313753963 -0.50233417749
          -4.7826919556 0.30165764689 -0.29666978121 -5 0.09418129921 -0.34129801393
          2.2780179977 -0.12498279661 0.35640898347 2.5975399017 0.036539699882 0.30856120586
          2.3748869896 0.069039702415 0.16169330478 2.4038360119 -0.2405732125 0.18867635727
          2.2780179977 -0.12498279661 0.35640898347 2.5975399017 0.036539699882 0.30856120586
          2.4038360119 -0.2405732125 0.18867635727 2.5335454941 -0.19222688675 0.50451397896
          2.4038360119 -0.2405732125 0.18867635727 2.5975399017 0.036539699882 0.30856120586
          2.6479671001 -0.18968589604 0.18436330557 2.5335454941 -0.19222688675 0.50451397896
          2.4038360119 -0.2405732125 0.18867635727 2.5975399017 0.036539699882 0.30856120586
          2.3748869896 0.069039702415 0.16169330478 2.6479671001 -0.18968589604 0.18436330557
          -0.75858801603 0.17240820825 -0.42690300941 -0.62419199944 0.12591390312 -0.73094600439
          -0.51164197922 0.025980791077 -0.55774062872 -0.5779209733 0.28877097368 -0.57027238607
          0.44537511468 -0.27799990773 -0.12429698557 0.30940818787 -0.10097020119 0.057927999645
          0.31893050671 -0.015289099887 -0.15932199359 0.48138740659 -0.12545976043 0.10301499814
          -2.5705890656 -0.0096552502364 -0.37767747045 -2.8155953884 -0.19327259064 -0.5224930048
          -2.6131467819 -0.26515978575 -0.30168119073 -2.5529778004 -0.19498869777 -0.48805639148
          -2.5705890656 -0.0096552502364 -0.37767747045 -2.5529778004 -0.19498869777 -0.48805639148
          -2.6131467819 -0.26515978575 -0.30168119073 -2.3400249481 -0.19343669713 -0.23309500515
          4.2914719582 -0.39629501104 1.270524025 4.1932888031 -0.10509669781 1.111093998
          4.372276783 -0.18564900756 1.2451930046 4.0831799507 -0.39639300108 1.2308779955
          -4.4301371574 -0.28078189492 -0.098592102528 -4.6158905029 -0.49994170666 -0.083305798471
          -4.7949709892 -0.27444934845 -0.028330069035 -4.5417332649 -0.49570846558 0.045956496149
          -4.2148256302 0.11070713401 -0.5839381218 -4.0438446999 0.094188794494 -0.60962402821
          -4.0446949005 -0.034010000527 -0.39543700218 -4.1448526382 0.14308868349 -0.26994079351
          0.56493777037 0.3193680346 0.1386000067 0.51253330708 0.2876406908 -0.10298900306
          0.5864264369 0.083424940705 0.13992400467 0.74646031857 0.32201400399 -0.03702198714
          0.51253330708 0.2876406908 -0.10298900306 0.53519868851 0.048687562346 -0.13842900097
          0.5864264369 0.083424940705 0.13992400467 0.74646031857 0.32201400399 -0.03702198714
          0.51253330708 0.2876406908 -0.10298900306 0.53519868851 0.048687562346 -0.13842900097
          0.74646031857 0.32201400399 -0.03702198714 0.78821092844 0.14894378185 -0.18848800659
          0.51253330708 0.2876406908 -0.10298900306 0.78821092844 0.14894378185 -0.18848800659
          0.74646031857 0.32201400399 -0.03702198714 0.58373397589 0.27239969373 -0.33771339059
          0.51253330708 0.2876406908 -0.10298900306 0.74646031857 0.32201400399 -0.03702198714
          0.66463452578 0.50741457939 -0.17443799973 0.58373397589 0.27239969373 -0.33771339059
          0.66463452578 0.50741457939 -0.17443799973 0.74646031857 0.32201400399 -0.03702198714
          0.84688097239 0.325525105 -0.34160640836 0.58373397589 0.27239969373 -0.33771339059
          0.85454148054 0.51173609495 -0.11017200351 0.74646031857 0.32201400399 -0.03702198714
          0.84688097239 0.325525105 -0.34160640836 0.66463452578 0.50741457939 -0.17443799973
          0.85454148054 0.51173609495 -0.11017200351 0.66463452578 0.50741457939 -0.17443799973
          0.64910101891 0.50723767281 0.064737014472 0.74646031857 0.32201400399 -0.03702198714
          0.86728978157 0.51141232252 0.092799015343 0.85454148054 0.51173609495 -0.11017200351
          0.64910101891 0.50723767281 0.064737014472 0.74646031857 0.32201400399 -0.03702198714
          0.86728978157 0.51141232252 0.092799015343 0.74646031857 0.32201400399 -0.03702198714
          0.64910101891 0.50723767281 0.064737014472 0.75077849627 0.37738004327 0.19743099809
          1.0401221514 0.23939830065 -0.032525006682 0.85454148054 0.51173609495 -0.11017200351
          0.86728978157 0.51141232252 0.092799015343 0.74646031857 0.32201400399 -0.03702198714
          0.85454148054 0.51173609495 -0.11017200351 0.74646031857 0.32201400399 -0.03702198714
          1.0401221514 0.23939830065 -0.032525006682 0.84688097239 0.325525105 -0.34160640836
          0.74646031857 0.32201400399 -0.03702198714 0.78821092844 0.14894378185 -0.18848800659
          1.0401221514 0.23939830065 -0.032525006682 0.84688097239 0.325525105 -0.34160640836
          0.74646031857 0.32201400399 -0.03702198714 0.78821092844 0.14894378185 -0.18848800659
          0.84688097239 0.325525105 -0.34160640836 0.58373397589 0.27239969373 -0.33771339059
          -2.3289134502 -0.0023192001972 -0.42081850767 -2.1776151657 -0.33875748515 -0.37888690829
          -2.3835964203 -0.32359841466 -0.41965642571 -2.3400249481 -0.19343669713 -0.23309500515
          -0.89386701584 0.49129199982 -0.34832200408 -0.98683398962 0.4838886857 -0.57747471333
          -1.0361119509 0.21812960505 -0.37398898602 -0.83363598585 0.4878360033 -0.50646197796
          0.85527962446 0.15694072843 0.023737987503 0.9749379158 0.10632624477 0.26197698712
          1.1398986578 -0.010146999732 0.071502000093 0.807526052 0.036346398294 0.20567299426
          0.17703129351 0.49817833304 -0.43983438611 0.12283880264 0.27401307225 -0.19243100286
          0.15476429462 0.49982050061 -0.22475299239 0.32533699274 0.30109125376 -0.45768621564
          0.32533699274 0.30109125376 -0.45768621564 0.12283880264 0.27401307225 -0.19243100286
          0.15476429462 0.49982050061 -0.22475299239 0.33304131031 0.20393286645 -0.24557299912
          0.32533699274 0.30109125376 -0.45768621564 0.33304131031 0.20393286645 -0.24557299912
          0.15476429462 0.49982050061 -0.22475299239 0.36727958918 0.50212621689 -0.31630799174
          0.32533699274 0.30109125376 -0.45768621564 0.0546566993 0.13170881569 -0.364466995
          0.12283880264 0.27401307225 -0.19243100286 0.33304131031 0.20393286645 -0.24557299912
          0.32533699274 0.30109125376 -0.45768621564 0.49993100762 0.0054506729357 -0.41626721621
          0.30108499527 0.17071788013 -0.6524900198 0.25168299675 0.024994578212 -0.46399909258
          4.4053249359 -0.07816299051 1.462864995 4.531235218 -0.23131799698 1.462864995
          4.372276783 -0.18564900756 1.2451930046 4.4186382294 -0.39407101274 1.4219969511
          3.4149284363 -0.092121005058 1.167222023 3.3624682426 -0.19947208464 0.94604200125
          3.599364996 -0.13409550488 0.90844702721 3.4896070957 0.099841497838 0.92870599031
          -3.7273154259 0.27898979187 -0.49260097742 -3.5693891048 0.4848459959 -0.46422702074
          -3.4724879265 0.27005422115 -0.50610899925 -3.6243565083 0.17590141296 -0.3374350071
          2.3748869896 0.069039702415 0.16169330478 2.2780179977 -0.12498279661 0.35640898347
          2.2508289814 -0.099022090435 0.14436070621 2.1151509285 0.051999751478 0.097855910659
          -0.70339399576 -0.074503429234 -0.67528831959 -0.96610802412 -0.023699499667 -0.59952700138
          -0.83050501347 -0.26468807459 -0.57061237097 -0.82459098101 -0.20698645711 -0.80915498734
          -0.83050501347 -0.26468807459 -0.57061237097 -0.8307570219 -0.058059498668 -0.35817700624
          -0.96610802412 -0.023699499667 -0.59952700138 -0.70339399576 -0.074503429234 -0.67528831959
          -4.8607320786 0.078173696995 -0.5131021142 -4.7891550064 0.016387579963 -0.29043120146
          -4.6480989456 -0.13892398775 -0.52972179651 -4.8238286972 -0.16162951291 -0.51467502117
          3.599364996 -0.13409550488 0.90844702721 3.4149284363 -0.092121005058 1.167222023
          3.465408802 -0.29649040103 1.1825380325 3.3624682426 -0.19947208464 0.94604200125
          4.531235218 -0.23131799698 1.462864995 4.4911990166 -0.39900299907 1.2523469925
          4.372276783 -0.18564900756 1.2451930046 4.4186382294 -0.39407101274 1.4219969511
          0.35398098826 -0.14804252982 -0.47525811195 0.36064499617 -0.039502311498 -0.75520098209
          0.25168299675 0.024994578212 -0.46399909258 0.13293649256 -0.12217481434 -0.6249139905
          4.372276783 -0.18564900756 1.2451930046 4.1932888031 -0.10509669781 1.111093998
          4.1478528976 -0.20111000538 1.3932329416 4.0831799507 -0.39639300108 1.2308779955
          -3.0590620041 0.043446499854 -0.27457588911 -2.7577950954 0.15421199799 -0.14046099782
          -2.9400956631 0.27705860138 -0.27815890312 -2.8009653091 0.022092198953 -0.32149419188
          -2.7577950954 0.15421199799 -0.14046099782 -2.5705890656 -0.0096552502364 -0.37767747045
          -2.5502791405 0.25031089783 -0.30732250214 -2.8009653091 0.022092198953 -0.32149419188
          -2.6538431644 0.18475399911 -0.59675198793 -2.6087565422 -0.063813298941 -0.63231498003
          -2.819904089 0.037339199334 -0.66302698851 -2.8009653091 0.022092198953 -0.32149419188
          -2.6087565422 -0.063813298941 -0.63231498003 -2.8155953884 -0.19327259064 -0.5224930048
          -2.819904089 0.037339199334 -0.66302698851 -2.8009653091 0.022092198953 -0.32149419188
          4.2713618279 0.37677168846 1.2242929935 4.0558829308 0.27783259749 1.3923959732
          4.0298194885 0.42154958844 1.3837649822 4.2366080284 0.27729278803 1.4644019604
          -4.4689326286 -0.28248617053 -0.54752629995 -4.6513981819 -0.323874861 -0.5277801156
          -4.6480989456 -0.13892398775 -0.52972179651 -4.4642100334 -0.19895298779 -0.3199582994
          -4.6480989456 -0.13892398775 -0.52972179651 -4.6513981819 -0.323874861 -0.5277801156
          -4.7889413834 -0.29244363308 -0.33276119828 -4.4642100334 -0.19895298779 -0.3199582994
          -0.15025900304 -0.48696991801 -0.053991999477 -0.056981399655 -0.33009880781 -0.03277400136
          -0.082211501896 -0.51397901773 -0.23908998072 0.15807649493 -0.51398259401 -0.10896699131
          -3.5145463943 -0.50127327442 0.11511399597 -3.6205406189 -0.31749200821 0.12511700392
          -3.6591205597 -0.502214849 -0.015271005221 -3.3824651241 -0.30312857032 0.073741987348
          3.1675219536 -0.22371681035 -0.091278001666 3.0793170929 -0.24457119405 0.11937200278
          3.3262090683 -0.35399842262 -0.029642999172 2.9632070065 -0.41506269574 -0.063951998949
          0.24777440727 -0.18341463804 -0.29771098495 0.096351802349 -0.10763604939 -0.42178741097
          0.23998099566 -0.31517469883 -0.51127868891 0.35398098826 -0.14804252982 -0.47525811195
          0.35398098826 -0.14804252982 -0.47525811195 0.25168299675 0.024994578212 -0.46399909258
          0.49993100762 0.0054506729357 -0.41626721621 0.474378407 -0.11557681859 -0.24810600281
          2.4725689888 0.38891109824 0.53518199921 2.7912619114 0.22470119596 0.5612180233
          2.6138679981 0.31076711416 0.28303608298 2.5117163658 0.16574789584 0.5378869772
          2.2926232815 0.21838380396 0.36620301008 2.5117163658 0.16574789584 0.5378869772
          2.4725689888 0.38891109824 0.53518199921 2.6138679981 0.31076711416 0.28303608298
          2.4725689888 0.38891109824 0.53518199921 2.2926232815 0.21838380396 0.36620301008
          2.6138679981 0.31076711416 0.28303608298 2.3807709217 0.34840109944 0.17629000545
          2.4725689888 0.38891109824 0.53518199921 2.1985135078 0.54629540443 0.35489299893
          2.2926232815 0.21838380396 0.36620301008 2.3807709217 0.34840109944 0.17629000545
          2.2926232815 0.21838380396 0.36620301008 2.0810952187 0.34367528558 0.4289650023
          2.1985135078 0.54629540443 0.35489299893 2.4725689888 0.38891109824 0.53518199921
          2.2926232815 0.21838380396 0.36620301008 2.1993765831 0.33982020617 0.69473302364
          2.0810952187 0.34367528558 0.4289650023 2.4725689888 0.38891109824 0.53518199921
          2.5117163658 0.16574789584 0.5378869772 2.1993765831 0.33982020617 0.69473302364
          2.2926232815 0.21838380396 0.36620301008 2.4725689888 0.38891109824 0.53518199921
          2.3105502129 0.12302970141 0.72935801744 2.1993765831 0.33982020617 0.69473302364
          2.5117163658 0.16574789584 0.5378869772 2.4725689888 0.38891109824 0.53518199921
          2.3105502129 0.12302970141 0.72935801744 2.4725689888 0.38891109824 0.53518199921
          2.5117163658 0.16574789584 0.5378869772 2.4447433949 0.34735611081 0.78896600008
          2.3105502129 0.12302970141 0.72935801744 2.1993765831 0.33982020617 0.69473302364
          2.4725689888 0.38891109824 0.53518199921 2.4447433949 0.34735611081 0.78896600008
          -2.0529088974 0.052241001278 -0.20910900831 -1.8348480463 -0.01922108978 -0.21806798875
          -1.8747121096 0.0029144007713 -0.49748280644 -2.0975265503 -0.075285196304 -0.43518251181
          -2.0529088974 0.052241001278 -0.20910900831 -1.8348480463 -0.01922108978 -0.21806798875
          -1.8419760466 0.17466241121 -0.33885499835 -1.8747121096 0.0029144007713 -0.49748280644
          0.066189996898 -0.13907346129 -0.85989201069 0.08132699877 -0.24986088276 -1.0299509764
          -0.14045800269 -0.19142946601 -0.79101097584 0.084794998169 -0.48656210303 -0.82398599386
          -0.50009101629 0.076063752174 -0.91057896614 -0.81324702501 0.26146668196 -0.86965799332
          -0.65971499681 -0.068506918848 -0.89710998535 -0.78103899956 0.039071749896 -1.0954949856
          -4.4813494682 0.022646209225 0.2389934808 -4.7917890549 -0.033734429628 0.26267528534
          -4.6583003998 -0.19147884846 0.13825491071 -4.6630234718 0.13930633664 0.15250210464
          3.7448599339 0.30333548784 0.49451100826 3.5936889648 0.39519989491 0.35134500265
          3.6066539288 0.1872664988 0.30272099376 3.7907569408 0.2246016115 0.18572899699
          2.0672409534 0.54569250345 -0.02698210068 2.2603468895 0.54986870289 0.12335199863
          2.111946106 0.35183390975 -0.033053901047 2.0875871181 0.32275497913 0.17387519777
          -4.374229908 0.21605139971 0.18340799212 -4.4532856941 0.16817709804 0.44724240899
          -4.2245573997 -0.0047437800094 0.42267590761 -4.4813494682 0.022646209225 0.2389934808
          -2.5937309265 -0.094380997121 -0.091197997332 -2.8014369011 -0.27421984076 -0.022419007495
          -2.7996120453 -0.02800030075 -0.034934002906 -2.5996620655 -0.2836445868 0.13820500672
          4.3783740997 0.40928810835 1.4540369511 4.2366080284 0.27729278803 1.4644019604
          4.5082879066 0.20863980055 1.4644019604 4.4337921143 0.1125216037 1.254134059
          4.1932888031 -0.10509669781 1.111093998 4.5119929314 -0.044536296278 1.1272319555
          4.4337921143 0.1125216037 1.254134059 4.2345128059 0.15581940114 1.1804380417
          0.35398098826 -0.14804252982 -0.47525811195 0.13293649256 -0.12217481434 -0.6249139905
          0.23998099566 -0.31517469883 -0.51127868891 0.4496409893 -0.20598120987 -0.64667701721
          3.1393265724 -0.19575251639 1.0545070171 3.245980978 0.052640799433 0.88878798485
          3.0447850227 0.06147922948 1.0241279602 3.0500233173 -0.10988160223 0.76281303167
          -0.33919200301 0.20730000734 -0.79884600639 -0.55084097385 0.27224868536 -0.88415497541
          -0.5779209733 0.28877097368 -0.57027238607 -0.62419199944 0.12591390312 -0.73094600439
          4.5828242302 0.39658501744 0.96988636255 4.2772049904 0.36336359382 0.94083797932
          4.4793419838 0.2869952023 1.1247149706 4.5335330963 0.11206749827 0.92334389687
          -4.4301371574 -0.28078189492 -0.098592102528 -4.3568739891 -0.16453392804 0.20460030437
          -4.394712925 -0.0063827331178 -0.052065320313 -4.2165794373 -0.29792863131 -0.10957739502
          4.7970080376 0.40450099111 0.99685043097 4.6236991882 0.60261398554 0.97155320644
          4.5828242302 0.39658501744 0.96988636255 4.7657809258 0.38576200604 0.78052300215
          -0.81324702501 0.26146668196 -0.86965799332 -0.55084097385 0.27224868536 -0.88415497541
          -0.62419199944 0.12591390312 -0.73094600439 -0.5779209733 0.28877097368 -0.57027238607
          -0.81324702501 0.26146668196 -0.86965799332 -0.55084097385 0.27224868536 -0.88415497541
          -0.5779209733 0.28877097368 -0.57027238607 -0.785762012 0.48228681087 -0.72692197561
          -3.5914151669 -0.15871548653 -0.36829999089 -3.733959198 -0.32337343693 -0.43397399783
          -3.5462591648 -0.3417108953 -0.29696801305 -3.4071218967 -0.27582120895 -0.49657699466
          -3.5096030235 -0.50470131636 -0.15045179427 -3.5503668785 -0.17767935991 -0.019175993279
          -3.7167961597 -0.29400056601 -0.18038730323 -3.5462591648 -0.3417108953 -0.29696801305
          -3.3609697819 -0.25755804777 -0.25123178959 -3.5462591648 -0.3417108953 -0.29696801305
          -3.5096030235 -0.50470131636 -0.15045179427 -3.251019001 -0.50599706173 -0.25622180104
          -0.55084097385 0.27224868536 -0.88415497541 -0.50065600872 0.48602038622 -0.66250771284
          -0.5779209733 0.28877097368 -0.57027238607 -0.785762012 0.48228681087 -0.72692197561
          2.4686999321 0.064002029598 -0.14970698953 2.5194039345 0.221833691 0.014336997643
          2.7066569328 0.013594998047 0.026080995798 2.4399039745 -0.10959740728 -0.0052800015546
          -2.4720232487 0.27283710241 -0.72016400099 -2.6087565422 -0.063813298941 -0.63231498003
          -2.4843699932 0.064298801124 -0.91173398495 -2.6538431644 0.18475399911 -0.59675198793
          0.81067937613 -0.037577752024 -0.03468298912 0.85527962446 0.15694072843 0.023737987503
          1.1398986578 -0.010146999732 0.071502000093 0.807526052 0.036346398294 0.20567299426
          -3.6243565083 0.17590141296 -0.3374350071 -3.5941543579 0.02097989805 -0.47818499804
          -3.5523664951 0.0045121996664 -0.18042999506 -3.4112770557 0.15064421296 -0.34156700969
          -2.5130262375 0.47851529717 -0.88141399622 -2.7109742165 0.4802801013 -0.74906599522
          -2.4720232487 0.27283710241 -0.72016400099 -2.6349360943 0.29374942183 -0.88281100988
          -2.5130262375 0.47851529717 -0.88141399622 -2.7109742165 0.4802801013 -0.74906599522
          -2.3831152916 0.479411304 -0.7015529871 -2.4720232487 0.27283710241 -0.72016400099
          -2.6084048748 0.48110160232 -0.5615530014 -2.4720232487 0.27283710241 -0.72016400099
          -2.3831152916 0.479411304 -0.7015529871 -2.7109742165 0.4802801013 -0.74906599522
          -2.6084048748 0.48110160232 -0.5615530014 -2.6538431644 0.18475399911 -0.59675198793
          -2.4720232487 0.27283710241 -0.72016400099 -2.7109742165 0.4802801013 -0.74906599522
          4.7351660728 -0.16101920605 0.98147392273 4.7766752243 -0.0062490031123 0.81723797321
          4.9587922096 -0.11951480061 0.84872800112 4.9991178513 0.039471499622 1.0460796356
          4.2886710167 0.33758100867 0.66382801533 4.4424939156 0.089347399771 0.64447599649
          4.4729690552 0.34756699204 0.42458799481 4.344326973 0.23196899891 0.38592201471
          -0.20980919898 -0.34469109774 -0.28026798368 -0.056981399655 -0.33009880781 -0.03277400136
          -0.22414989769 -0.31539151073 -0.059500001371 -0.081785798073 -0.18698275089 -0.35594800115
          -3.3609697819 -0.25755804777 -0.25123178959 -3.3824651241 -0.30312857032 0.073741987348
          -3.5503668785 -0.17767935991 -0.019175993279 -3.1989395618 -0.20423613489 -0.036946997046
          -3.3609697819 -0.25755804777 -0.25123178959 -3.3482511044 -0.50422972441 -0.021191004664
          -3.3824651241 -0.30312857032 0.073741987348 -3.1989395618 -0.20423613489 -0.036946997046
          -3.5096030235 -0.50470131636 -0.15045179427 -3.3482511044 -0.50422972441 -0.021191004664
          -3.3824651241 -0.30312857032 0.073741987348 -3.3609697819 -0.25755804777 -0.25123178959
          -3.5096030235 -0.50470131636 -0.15045179427 -3.3824651241 -0.30312857032 0.073741987348
          -3.5503668785 -0.17767935991 -0.019175993279 -3.3609697819 -0.25755804777 -0.25123178959
          3.49279809 -0.41079649329 0.65922492743 3.599364996 -0.13409550488 0.90844702721
          3.5705780983 -0.40920200944 0.84491300583 3.3624682426 -0.19947208464 0.94604200125
          -3.5145463943 -0.50127327442 0.11511399597 -3.3824651241 -0.30312857032 0.073741987348
          -3.5096030235 -0.50470131636 -0.15045179427 -3.3482511044 -0.50422972441 -0.021191004664
          -3.5145463943 -0.50127327442 0.11511399597 -3.334307909 -0.50118452311 0.24856700003
          -3.3824651241 -0.30312857032 0.073741987348 -3.3482511044 -0.50422972441 -0.021191004664
          -3.5145463943 -0.50127327442 0.11511399597 -3.334307909 -0.50118452311 0.24856700003
          -3.4147019386 -0.30549126863 0.2988910079 -3.3824651241 -0.30312857032 0.073741987348
          4.3783740997 0.40928810835 1.4540369511 4.2366080284 0.27729278803 1.4644019604
          4.4337921143 0.1125216037 1.254134059 4.2713618279 0.37677168846 1.2242929935
          4.372276783 -0.18564900756 1.2451930046 4.5119929314 -0.044536296278 1.1272319555
          4.4053249359 -0.07816299051 1.462864995 4.4337921143 0.1125216037 1.254134059
          4.3783740997 0.40928810835 1.4540369511 4.2713618279 0.37677168846 1.2242929935
          4.4337921143 0.1125216037 1.254134059 4.4793419838 0.2869952023 1.1247149706
          -3.334307909 -0.50118452311 0.24856700003 -3.1268720627 -0.40328606963 0.24481900036
          -3.4147019386 -0.30549126863 0.2988910079 -3.3824651241 -0.30312857032 0.073741987348
          -3.334307909 -0.50118452311 0.24856700003 -3.1268720627 -0.40328606963 0.24481900036
          -3.3824651241 -0.30312857032 0.073741987348 -3.1343755722 -0.50439548492 -0.0088849952444
          -3.334307909 -0.50118452311 0.24856700003 -3.3824651241 -0.30312857032 0.073741987348
          -3.3482511044 -0.50422972441 -0.021191004664 -3.1343755722 -0.50439548492 -0.0088849952444
          -3.3482511044 -0.50422972441 -0.021191004664 -3.3824651241 -0.30312857032 0.073741987348
          -3.1989395618 -0.20423613489 -0.036946997046 -3.1343755722 -0.50439548492 -0.0088849952444
          -3.3824651241 -0.30312857032 0.073741987348 -3.1268720627 -0.40328606963 0.24481900036
          -3.1989395618 -0.20423613489 -0.036946997046 -3.1343755722 -0.50439548492 -0.0088849952444
          -3.3824651241 -0.30312857032 0.073741987348 -3.1268720627 -0.40328606963 0.24481900036
          -3.0995531082 -0.23698805273 0.23871299624 -3.1989395618 -0.20423613489 -0.036946997046
          -3.3824651241 -0.30312857032 0.073741987348 -3.0995531082 -0.23698805273 0.23871299624
          -3.2058420181 -0.10112692416 0.25872200727 -3.1989395618 -0.20423613489 -0.036946997046
          4.7351660728 -0.16101920605 0.98147392273 4.7789177895 0.14037750661 0.96490341425
          4.7766752243 -0.0062490031123 0.81723797321 4.9991178513 0.039471499622 1.0460796356
          2.1323330402 -0.24952030182 -0.2159884125 1.9164220095 -0.13674210012 -0.17615103722
          2.0688860416 -0.10810660571 -0.024964602664 1.8784749508 -0.24840208888 0.010538879782
          -3.4147019386 -0.30549126863 0.2988910079 -3.1268720627 -0.40328606963 0.24481900036
          -3.0995531082 -0.23698805273 0.23871299624 -3.3824651241 -0.30312857032 0.073741987348
          -0.89977502823 -0.26588141918 -1.0985300541 -1.0344099998 -0.31266370416 -0.88067400455
          -0.82459098101 -0.20698645711 -0.80915498734 -0.64104998112 -0.30240130424 -0.9189350009
          -0.64104998112 -0.30240130424 -0.9189350009 -0.48082599044 -0.31821736693 -1.0916539431
          -0.62074798346 -0.15536004305 -1.0920000076 -0.66408002377 -0.41804593801 -1.1008930206
          1.7900329828 0.53836679459 -0.22017219663 1.6795022488 0.53295719624 0.087283298373
          1.8837449551 0.53903061152 0.06517650187 1.8098720312 0.33792459965 -0.017415300012
          1.7900329828 0.53836679459 -0.22017219663 1.8837449551 0.53903061152 0.06517650187
          2.0672409534 0.54569250345 -0.02698210068 1.8098720312 0.33792459965 -0.017415300012
          1.5727180243 0.33926710486 -0.070410497487 1.8098720312 0.33792459965 -0.017415300012
          1.543838501 0.32068037987 0.19921569526 1.6795022488 0.53295719624 0.087283298373
          1.5727180243 0.33926710486 -0.070410497487 1.8019828796 0.22406680882 0.18662501872
          1.543838501 0.32068037987 0.19921569526 1.8098720312 0.33792459965 -0.017415300012
          1.8098720312 0.33792459965 -0.017415300012 1.8019828796 0.22406680882 0.18662501872
          1.543838501 0.32068037987 0.19921569526 1.6795022488 0.53295719624 0.087283298373
          1.8098720312 0.33792459965 -0.017415300012 1.8019828796 0.22406680882 0.18662501872
          2.0875871181 0.32275497913 0.17387519777 1.8809980154 0.037144001573 -0.0096619697288
          3.1546220779 0.28414210677 -0.077771998942 3.1981549263 0.12413520366 0.16969101131
          3.3039441109 0.08869034797 -0.023718999699 2.9649469852 0.070412486792 0.048234000802
          3.1546220779 0.28414210677 -0.077771998942 2.9649469852 0.070412486792 0.048234000802
          3.3039441109 0.08869034797 -0.023718999699 3.1375620365 -0.015359799378 -0.09573700279
          3.1546220779 0.28414210677 -0.077771998942 2.9649469852 0.070412486792 0.048234000802
          3.1375620365 -0.015359799378 -0.09573700279 2.9075191021 0.029458599165 -0.18439200521
          2.9649469852 0.070412486792 0.048234000802 3.1981549263 0.12413520366 0.16969101131
          3.3039441109 0.08869034797 -0.023718999699 3.1375620365 -0.015359799378 -0.09573700279
          2.8575510979 0.064445592463 0.36333754659 2.9649469852 0.070412486792 0.048234000802
          3.1981549263 0.12413520366 0.16969101131 2.8881449699 0.23836348951 0.18792100251
          2.7066569328 0.013594998047 0.026080995798 2.8575510979 0.064445592463 0.36333754659
          2.8881449699 0.23836348951 0.18792100251 2.9649469852 0.070412486792 0.048234000802
          2.8881449699 0.23836348951 0.18792100251 2.7448999882 0.34383347631 0.0055840001442
          2.7066569328 0.013594998047 0.026080995798 2.9649469852 0.070412486792 0.048234000802
          2.8881449699 0.23836348951 0.18792100251 2.7448999882 0.34383347631 0.0055840001442
          2.9649469852 0.070412486792 0.048234000802 2.8420228958 0.24354210496 -0.20201000571
          2.9649469852 0.070412486792 0.048234000802 2.7448999882 0.34383347631 0.0055840001442
          2.7066569328 0.013594998047 0.026080995798 2.8420228958 0.24354210496 -0.20201000571
          2.7066569328 0.013594998047 0.026080995798 2.8575510979 0.064445592463 0.36333754659
          2.9649469852 0.070412486792 0.048234000802 2.9183690548 -0.10514099896 0.18946899474
          2.9649469852 0.070412486792 0.048234000802 2.9183690548 -0.10514099896 0.18946899474
          2.7572391033 -0.22472290695 -0.032116010785 2.7066569328 0.013594998047 0.026080995798
          2.9649469852 0.070412486792 0.048234000802 2.9183690548 -0.10514099896 0.18946899474
          2.9599170685 -0.19250740111 -0.1730210036 2.7572391033 -0.22472290695 -0.032116010785
          2.8575510979 0.064445592463 0.36333754659 2.9183690548 -0.10514099896 0.18946899474
          3.1981549263 0.12413520366 0.16969101131 2.9649469852 0.070412486792 0.048234000802
          -3.7473104 -0.28769311309 -0.66039299965 -3.5324959755 -0.49818360806 -0.69915002584
          -3.8566205502 -0.50966030359 -0.52288502455 -3.733959198 -0.32337343693 -0.43397399783
          -3.5520818233 -0.30605709553 -0.697009027 -3.7473104 -0.28769311309 -0.66039299965
          -3.733959198 -0.32337343693 -0.43397399783 -3.5324959755 -0.49818360806 -0.69915002584
          -3.5520818233 -0.30605709553 -0.697009027 -3.733959198 -0.32337343693 -0.43397399783
          -3.600661993 -0.50759500265 -0.39991500974 -3.5324959755 -0.49818360806 -0.69915002584
          -3.733959198 -0.32337343693 -0.43397399783 -3.5520818233 -0.30605709553 -0.697009027
          -3.600661993 -0.50759500265 -0.39991500974 -3.4071218967 -0.27582120895 -0.49657699466
          1.9479429722 -0.26660808921 -0.33822989464 1.7291409969 -0.28722119331 -0.28180330992
          1.7244919538 -0.11605580151 -0.38782680035 1.9164220095 -0.13674210012 -0.17615103722
          -3.5914151669 -0.15871548653 -0.36829999089 -3.5520818233 -0.30605709553 -0.697009027
          -3.733959198 -0.32337343693 -0.43397399783 -3.4071218967 -0.27582120895 -0.49657699466
          -3.5914151669 -0.15871548653 -0.36829999089 -3.7473104 -0.28769311309 -0.66039299965
          -3.733959198 -0.32337343693 -0.43397399783 -3.5520818233 -0.30605709553 -0.697009027
          -3.7273154259 0.27898979187 -0.49260097742 -3.5693891048 0.4848459959 -0.46422702074
          -3.6243565083 0.17590141296 -0.3374350071 -3.6321229935 0.48460400105 -0.30110099912
          1.6362780333 -0.19434309006 -0.1196873039 1.4299919605 -0.4650863111 -0.25022679567
          1.7291409969 -0.28722119331 -0.28180330992 1.5643210411 -0.27857810259 -0.44123601913
          -3.733959198 -0.32337343693 -0.43397399783 -3.8566205502 -0.50966030359 -0.52288502455
          -3.8035757542 -0.50670826435 -0.31858798862 -3.600661993 -0.50759500265 -0.39991500974
          -3.733959198 -0.32337343693 -0.43397399783 -3.5324959755 -0.49818360806 -0.69915002584
          -3.8566205502 -0.50966030359 -0.52288502455 -3.600661993 -0.50759500265 -0.39991500974
          -1.293176055 0.1205618009 -0.45924699306 -1.4487729073 0.26224949956 -0.55564618111
          -1.4074389935 -0.049107201397 -0.5518643856 -1.4055235386 0.16061809659 -0.77410399914
          -1.293176055 0.1205618009 -0.45924699306 -1.4055235386 0.16061809659 -0.77410399914
          -1.4074389935 -0.049107201397 -0.5518643856 -1.1938619614 0.03204099834 -0.66020560265
          -1.4074389935 -0.049107201397 -0.5518643856 -1.4487729073 0.26224949956 -0.55564618111
          -1.6368409395 -0.014472581446 -0.55414676666 -1.4055235386 0.16061809659 -0.77410399914
          -1.4055235386 0.16061809659 -0.77410399914 -1.6661914587 0.0097754001617 -0.81471097469
          -1.6368409395 -0.014472581446 -0.55414676666 -1.4074389935 -0.049107201397 -0.5518643856
          -1.4074389935 -0.049107201397 -0.5518643856 -1.545979023 0.22976130247 -0.33403101563
          -1.6368409395 -0.014472581446 -0.55414676666 -1.4487729073 0.26224949956 -0.55564618111
          -1.4074389935 -0.049107201397 -0.5518643856 -1.545979023 0.22976130247 -0.33403101563
          -1.5760400295 -0.030635099858 -0.29671400785 -1.6368409395 -0.014472581446 -0.55414676666
          -2.3716421127 -0.18197050691 -0.6025840044 -2.2304649353 -0.22556725144 -0.77245599031
          -2.1267375946 -0.28440442681 -0.5801320076 -2.1201012135 -0.050273101777 -0.70986998081
          -2.9424054623 0.1131972 -0.47736001015 -2.7821593285 0.30021998286 -0.44675600529
          -2.9400956631 0.27705860138 -0.27815890312 -3.0509493351 0.29688620567 -0.58453899622
          -1.4074389935 -0.049107201397 -0.5518643856 -1.5961900949 -0.24007625878 -0.77421802282
          -1.6305606365 -0.29367351532 -0.52340888977 -1.3103187084 -0.16647019982 -0.72021299601
          -1.4535621405 -0.08741620183 -0.88498598337 -1.5961900949 -0.24007625878 -0.77421802282
          -1.4074389935 -0.049107201397 -0.5518643856 -1.3103187084 -0.16647019982 -0.72021299601
          4.7789177895 0.14037750661 0.96490341425 4.5828242302 0.39658501744 0.96988636255
          4.5335330963 0.11206749827 0.92334389687 4.548661232 0.31044599414 0.7846570015
          2.533821106 0.36376240849 -0.31047001481 2.4682879448 0.38555598259 -0.10436999053
          2.5832331181 0.56287848949 -0.20339798927 2.7383420467 0.41610860825 -0.23452399671
          4.7657809258 0.38576200604 0.78052300215 4.6236991882 0.60261398554 0.97155320644
          4.5828242302 0.39658501744 0.96988636255 4.7377829552 0.60829901695 0.77481901646
          4.548661232 0.31044599414 0.7846570015 4.7789177895 0.14037750661 0.96490341425
          4.5828242302 0.39658501744 0.96988636255 4.7657809258 0.38576200604 0.78052300215
          -4.2297291756 -0.32805991173 0.13521359861 -4.3568739891 -0.16453392804 0.20460030437
          -4.2165794373 -0.29792863131 -0.10957739502 -4.1034150124 -0.18890102208 0.022778199986
          4.344326973 0.23196899891 0.38592201471 4.2886710167 0.33758100867 0.66382801533
          4.4331560135 0.52280199528 0.42006701231 4.4729690552 0.34756699204 0.42458799481
          0.24777440727 -0.18341463804 -0.29771098495 0.098207399249 -0.032019931823 -0.19597899914
          0.25168299675 0.024994578212 -0.46399909258 0.31893050671 -0.015289099887 -0.15932199359
          -1.6121549606 0.47708061337 -0.83065801859 -1.8121285439 0.26642638445 -0.82310700417
          -1.7930159569 0.48152941465 -0.59363406897 -1.6599514484 0.24216479063 -0.65762501955
          -1.8121285439 0.26642638445 -0.82310700417 -2.0292806625 0.11994799972 -0.99204802513
          -1.9367829561 0.15483479202 -0.66529297829 -1.901250124 -0.024264600128 -0.80353200436
          -1.8121285439 0.26642638445 -0.82310700417 -1.9367829561 0.15483479202 -0.66529297829
          -1.6599514484 0.24216479063 -0.65762501955 -1.6661914587 0.0097754001617 -0.81471097469
          1.914431572 0.53861421347 0.26570081711 2.0810952187 0.34367528558 0.4289650023
          2.0875871181 0.32275497913 0.17387519777 1.8545037508 0.351865381 0.36945268512
          4.5335330963 0.11206749827 0.92334389687 4.6400561333 0.033197704703 0.65296798944
          4.5794639587 -0.095555409789 0.80211597681 4.7766752243 -0.0062490031123 0.81723797321
          1.8809980154 0.037144001573 -0.0096619697288 1.7837769985 -0.11298939586 0.15795660019
          1.8019828796 0.22406680882 0.18662501872 1.7636737823 0.046389199793 0.32517156005
          2.4307379723 -0.44270971417 0.40620398521 2.5335454941 -0.19222688675 0.50451397896
          2.3304371834 -0.26972290874 0.49684798717 2.4038360119 -0.2405732125 0.18867635727
          -1.8841609955 0.47777590156 -0.81263101101 -2.1485760212 0.26226508617 -0.74843597412
          -1.9367829561 0.15483479202 -0.66529297829 -1.8121285439 0.26642638445 -0.82310700417
          -1.8121285439 0.26642638445 -0.82310700417 -2.1485760212 0.26226508617 -0.74843597412
          -1.9367829561 0.15483479202 -0.66529297829 -2.0292806625 0.11994799972 -0.99204802513
          0.86059832573 -0.49077758193 -0.080404996872 0.91907000542 -0.28306537867 -0.28310790658
          0.79302960634 -0.29305431247 -0.039216998965 0.81277400255 -0.48748779297 -0.2579177916
          -1.1938619614 0.03204099834 -0.66020560265 -1.4055235386 0.16061809659 -0.77410399914
          -1.2481642962 0.04549119994 -0.89113599062 -1.075802207 0.17113420367 -0.81510698795
          -2.0257306099 -0.031649298966 -0.9920539856 -2.1139371395 -0.28715011477 -0.97770702839
          -1.901250124 -0.024264600128 -0.80353200436 -1.8654859066 -0.17263565958 -1.0173939466
          -2.1201012135 -0.050273101777 -0.70986998081 -2.1139371395 -0.28715011477 -0.97770702839
          -1.901250124 -0.024264600128 -0.80353200436 -2.0257306099 -0.031649298966 -0.9920539856
          4.6576151848 0.017758300528 1.462864995 4.9596247673 0.084158137441 1.2836079597
          4.8456058502 -0.1037119925 1.1854159832 4.8615598679 -0.11488699913 1.489552021
          -1.8747121096 0.0029144007713 -0.49748280644 -2.1201012135 -0.050273101777 -0.70986998081
          -1.8874305487 -0.20946229994 -0.68173897266 -1.901250124 -0.024264600128 -0.80353200436
          -1.901250124 -0.024264600128 -0.80353200436 -1.8747121096 0.0029144007713 -0.49748280644
          -1.6368409395 -0.014472581446 -0.55414676666 -1.8874305487 -0.20946229994 -0.68173897266
          -1.8747121096 0.0029144007713 -0.49748280644 -2.1201012135 -0.050273101777 -0.70986998081
          -1.901250124 -0.024264600128 -0.80353200436 -1.9367829561 0.15483479202 -0.66529297829
          2.4849748611 -0.2620677948 0.78334200382 2.3304371834 -0.26972290874 0.49684798717
          2.5104129314 -0.4431695044 0.58892899752 2.5335454941 -0.19222688675 0.50451397896
          2.4849748611 -0.2620677948 0.78334200382 2.3304371834 -0.26972290874 0.49684798717
          2.5335454941 -0.19222688675 0.50451397896 2.3686749935 -0.11354149133 0.74313497543
          2.4849748611 -0.2620677948 0.78334200382 2.2356448174 -0.32073310018 0.68389499187
          2.3304371834 -0.26972290874 0.49684798717 2.3686749935 -0.11354149133 0.74313497543
          2.3794255257 -0.41916438937 0.73524999619 2.2495288849 -0.45216780901 0.5471829772
          2.3304371834 -0.26972290874 0.49684798717 2.2356448174 -0.32073310018 0.68389499187
          -0.44009780884 -0.045463498682 -0.38387098908 -0.28265699744 -0.012162780389 -0.58007609844
          -0.264005512 0.0059295003302 -0.30922400951 -0.45164808631 0.18338213861 -0.40235000849
          -0.42318299413 -0.15868732333 -0.55037420988 -0.28265699744 -0.012162780389 -0.58007609844
          -0.44009780884 -0.045463498682 -0.38387098908 -0.51164197922 0.025980791077 -0.55774062872
          -0.33919200301 0.20730000734 -0.79884600639 -0.35219299793 0.31618493795 -0.60427820683
          -0.51164197922 0.025980791077 -0.55774062872 -0.62419199944 0.12591390312 -0.73094600439
          -0.33919200301 0.20730000734 -0.79884600639 -0.35219299793 0.31618493795 -0.60427820683
          -0.28265699744 -0.012162780389 -0.58007609844 -0.51164197922 0.025980791077 -0.55774062872
          -0.35219299793 0.31618493795 -0.60427820683 -0.45164808631 0.18338213861 -0.40235000849
          -0.28265699744 -0.012162780389 -0.58007609844 -0.51164197922 0.025980791077 -0.55774062872
          -0.35219299793 0.31618493795 -0.60427820683 -0.45164808631 0.18338213861 -0.40235000849
          -0.51164197922 0.025980791077 -0.55774062872 -0.5779209733 0.28877097368 -0.57027238607
          -0.35219299793 0.31618493795 -0.60427820683 -0.5779209733 0.28877097368 -0.57027238607
          -0.51164197922 0.025980791077 -0.55774062872 -0.62419199944 0.12591390312 -0.73094600439
          -0.35219299793 0.31618493795 -0.60427820683 -0.40303009748 0.49246281385 -0.4396699965
          -0.45164808631 0.18338213861 -0.40235000849 -0.5779209733 0.28877097368 -0.57027238607
          -0.35219299793 0.31618493795 -0.60427820683 -0.40303009748 0.49246281385 -0.4396699965
          -0.5779209733 0.28877097368 -0.57027238607 -0.50065600872 0.48602038622 -0.66250771284
          -0.35219299793 0.31618493795 -0.60427820683 -0.50065600872 0.48602038622 -0.66250771284
          -0.5779209733 0.28877097368 -0.57027238607 -0.55084097385 0.27224868536 -0.88415497541
          3.245980978 0.052640799433 0.88878798485 3.4896070957 0.099841497838 0.92870599031
          3.3609991074 0.066775999963 0.55516642332 3.3097200394 -0.10290320963 0.73021501303
          3.245980978 0.052640799433 0.88878798485 3.3097200394 -0.10290320963 0.73021501303
          3.3609991074 0.066775999963 0.55516642332 3.0184175968 0.12345609814 0.73364597559
          3.3003060818 0.23398950696 0.76375299692 3.245980978 0.052640799433 0.88878798485
          3.3609991074 0.066775999963 0.55516642332 3.0184175968 0.12345609814 0.73364597559
          3.3003060818 0.23398950696 0.76375299692 3.4896070957 0.099841497838 0.92870599031
          3.3609991074 0.066775999963 0.55516642332 3.245980978 0.052640799433 0.88878798485
          3.3003060818 0.23398950696 0.76375299692 3.245980978 0.052640799433 0.88878798485
          3.4282515049 0.33187240362 0.97428900003 3.4896070957 0.099841497838 0.92870599031
          3.3003060818 0.23398950696 0.76375299692 3.245980978 0.052640799433 0.88878798485
          3.1853451729 0.33565509319 1.0903539658 3.4282515049 0.33187240362 0.97428900003
          3.245980978 0.052640799433 0.88878798485 3.3044917583 0.12322919816 1.1306680441
          3.1853451729 0.33565509319 1.0903539658 3.4282515049 0.33187240362 0.97428900003
          3.245980978 0.052640799433 0.88878798485 3.3044917583 0.12322919816 1.1306680441
          3.4282515049 0.33187240362 0.97428900003 3.4896070957 0.099841497838 0.92870599031
          -0.8307570219 -0.058059498668 -0.35817700624 -0.75858801603 0.17240820825 -0.42690300941
          -0.70339399576 -0.074503429234 -0.67528831959 -0.63126498461 -0.15162830055 -0.47663301229
          -0.51164197922 0.025980791077 -0.55774062872 -0.75858801603 0.17240820825 -0.42690300941
          -0.63126498461 -0.15162830055 -0.47663301229 -0.70339399576 -0.074503429234 -0.67528831959
          -3.3206231594 -0.27725860476 -0.74263799191 -3.2359466553 -0.42429992557 -0.7593640089
          -3.3306560516 -0.50790274143 -0.51511698961 -3.1707112789 -0.50821882486 -0.61334198713
          -3.3833937645 -0.032667398453 -0.48868498206 -3.4071218967 -0.27582120895 -0.49657699466
          -3.1450257301 -0.19032800198 -0.44944301248 -3.3206231594 -0.27725860476 -0.74263799191
          -3.3206231594 -0.27725860476 -0.74263799191 -3.5324959755 -0.49818360806 -0.69915002584
          -3.3306560516 -0.50790274143 -0.51511698961 -3.2359466553 -0.42429992557 -0.7593640089
          0.31893050671 -0.015289099887 -0.15932199359 0.33304131031 0.20393286645 -0.24557299912
          0.49993100762 0.0054506729357 -0.41626721621 0.53519868851 0.048687562346 -0.13842900097
          0.31893050671 -0.015289099887 -0.15932199359 0.25168299675 0.024994578212 -0.46399909258
          0.49993100762 0.0054506729357 -0.41626721621 0.33304131031 0.20393286645 -0.24557299912
          0.31893050671 -0.015289099887 -0.15932199359 0.098207399249 -0.032019931823 -0.19597899914
          0.25168299675 0.024994578212 -0.46399909258 0.33304131031 0.20393286645 -0.24557299912
          0.33304131031 0.20393286645 -0.24557299912 0.31893050671 -0.015289099887 -0.15932199359
          0.098207399249 -0.032019931823 -0.19597899914 0.12283880264 0.27401307225 -0.19243100286
          0.33304131031 0.20393286645 -0.24557299912 0.10837440193 0.15965628624 0.013736000285
          0.31893050671 -0.015289099887 -0.15932199359 0.12283880264 0.27401307225 -0.19243100286
          0.31893050671 -0.015289099887 -0.15932199359 0.10837440193 0.15965628624 0.013736000285
          0.098207399249 -0.032019931823 -0.19597899914 0.12283880264 0.27401307225 -0.19243100286
          0.31893050671 -0.015289099887 -0.15932199359 0.10837440193 0.15965628624 0.013736000285
          0.1771903038 0.016279280186 0.027272000909 0.098207399249 -0.032019931823 -0.19597899914
          -2.2999050617 -0.0097464201972 -0.11074100435 -2.0529088974 0.052241001278 -0.20910900831
          -2.2913610935 0.16144010425 -0.25700899959 -2.3289134502 -0.0023192001972 -0.42081850767
          -2.2999050617 -0.0097464201972 -0.11074100435 -2.0529088974 0.052241001278 -0.20910900831
          -2.3289134502 -0.0023192001972 -0.42081850767 -2.0975265503 -0.075285196304 -0.43518251181
          -2.2999050617 -0.0097464201972 -0.11074100435 -2.1283559799 0.094898201525 0.043953001499
          -2.2913610935 0.16144010425 -0.25700899959 -2.0529088974 0.052241001278 -0.20910900831
          -2.2913610935 0.16144010425 -0.25700899959 -2.2799999714 0.29279088974 0.072902999818
          -2.1283559799 0.094898201525 0.043953001499 -2.2999050617 -0.0097464201972 -0.11074100435
          3.9250519276 0.16208969057 0.46795699 3.7448599339 0.30333548784 0.49451100826
          4.0052309036 0.2497472018 0.67321902514 3.8472468853 0.14682120085 0.8287910223
          3.7448599339 0.30333548784 0.49451100826 3.9250519276 0.16208969057 0.46795699
          4.0052309036 0.2497472018 0.67321902514 3.9646220207 0.41419330239 0.50147998333
          3.7448599339 0.30333548784 0.49451100826 3.9765019417 0.28852498531 0.26302400231
          3.9250519276 0.16208969057 0.46795699 3.9646220207 0.41419330239 0.50147998333
          3.9765019417 0.28852498531 0.26302400231 3.9646220207 0.41419330239 0.50147998333
          4.1377820969 0.39951202273 0.32685101032 3.9250519276 0.16208969057 0.46795699
          3.9765019417 0.28852498531 0.26302400231 3.9250519276 0.16208969057 0.46795699
          4.1377820969 0.39951202273 0.32685101032 4.0827860832 0.11810979992 0.29750001431
          3.9765019417 0.28852498531 0.26302400231 3.9250519276 0.16208969057 0.46795699
          4.0827860832 0.11810979992 0.29750001431 3.8754689693 -0.016982000321 0.21258999407
          -0.95145201683 0.22650431097 -1.0941970348 -0.83175802231 0.47526419163 -1.0315499306
          -0.90296202898 0.47852620482 -0.86588096619 -1.1206613779 0.30866101384 -1.0912829638
          4.0827860832 0.11810979992 0.29750001431 3.9250519276 0.16208969057 0.46795699
          4.1377820969 0.39951202273 0.32685101032 4.1978611946 0.12986010313 0.5741019845
          3.9250519276 0.16208969057 0.46795699 3.9646220207 0.41419330239 0.50147998333
          4.1377820969 0.39951202273 0.32685101032 4.1978611946 0.12986010313 0.5741019845
          3.9250519276 0.16208969057 0.46795699 4.0052309036 0.2497472018 0.67321902514
          3.9646220207 0.41419330239 0.50147998333 4.1978611946 0.12986010313 0.5741019845
          -0.90296202898 0.47852620482 -0.86588096619 -0.81324702501 0.26146668196 -0.86965799332
          -1.075802207 0.17113420367 -0.81510698795 -1.0845546722 0.4788222909 -0.80185699463
          -5 -0.16616299748 -0.067754097283 -5 -0.33370301127 -0.29875099659
          -4.7949709892 -0.27444934845 -0.028330069035 -4.7889413834 -0.29244363308 -0.33276119828
          -5 -0.16616299748 -0.067754097283 -4.7889413834 -0.29244363308 -0.33276119828
          -4.7949709892 -0.27444934845 -0.028330069035 -4.6692109108 -0.16517569125 -0.19817639887
          -4.6692109108 -0.16517569125 -0.19817639887 -4.7891550064 0.016387579963 -0.29043120146
          -5 -0.16616299748 -0.067754097283 -4.7889413834 -0.29244363308 -0.33276119828
          -4.7949709892 -0.27444934845 -0.028330069035 -4.7889413834 -0.29244363308 -0.33276119828
          -4.752243042 -0.50364774466 -0.24244779348 -4.6692109108 -0.16517569125 -0.19817639887
          -4.7949709892 -0.27444934845 -0.028330069035 -4.7889413834 -0.29244363308 -0.33276119828
          -4.9758749008 -0.49966689944 -0.16735000908 -4.752243042 -0.50364774466 -0.24244779348
          -4.7949709892 -0.27444934845 -0.028330069035 -5 -0.33370301127 -0.29875099659
          -4.9758749008 -0.49966689944 -0.16735000908 -4.7889413834 -0.29244363308 -0.33276119828
          -4.7889413834 -0.29244363308 -0.33276119828 -5 -0.33370301127 -0.29875099659
          -4.9758749008 -0.49966689944 -0.16735000908 -4.752243042 -0.50364774466 -0.24244779348
          -5 -0.13075700402 -0.36378800869 -4.9843082428 -0.39623063803 -0.50203496218
          -5 -0.33370301127 -0.29875099659 -4.7889413834 -0.29244363308 -0.33276119828
          -5 -0.13075700402 -0.36378800869 -4.9843082428 -0.39623063803 -0.50203496218
          -4.7889413834 -0.29244363308 -0.33276119828 -4.8238286972 -0.16162951291 -0.51467502117
          -4.8238286972 -0.16162951291 -0.51467502117 -4.9843082428 -0.39623063803 -0.50203496218
          -4.7889413834 -0.29244363308 -0.33276119828 -4.6513981819 -0.323874861 -0.5277801156
          -4.7889413834 -0.29244363308 -0.33276119828 -4.9843082428 -0.39623063803 -0.50203496218
          -4.7781114578 -0.50555992126 -0.40374428034 -4.6513981819 -0.323874861 -0.5277801156
          -4.7889413834 -0.29244363308 -0.33276119828 -4.6513981819 -0.323874861 -0.5277801156
          -4.7781114578 -0.50555992126 -0.40374428034 -4.5914802551 -0.50413167477 -0.23168960214
          -4.7889413834 -0.29244363308 -0.33276119828 -4.6513981819 -0.323874861 -0.5277801156
          -4.5914802551 -0.50413167477 -0.23168960214 -4.4642100334 -0.19895298779 -0.3199582994
          -5 -0.33370301127 -0.29875099659 -4.9843082428 -0.39623063803 -0.50203496218
          -4.7781114578 -0.50555992126 -0.40374428034 -4.7889413834 -0.29244363308 -0.33276119828
          1.8784749508 -0.24840208888 0.010538879782 1.9164220095 -0.13674210012 -0.17615103722
          2.0688860416 -0.10810660571 -0.024964602664 1.8809980154 0.037144001573 -0.0096619697288
          -2.1485760212 0.26226508617 -0.74843597412 -2.3477945328 -0.017081549391 -0.75131797791
          -2.188603878 0.16068729758 -0.96540898085 -2.3831439018 0.30391207337 -0.93155002594
          -2.1485760212 0.26226508617 -0.74843597412 -2.4720232487 0.27283710241 -0.72016400099
          -2.3477945328 -0.017081549391 -0.75131797791 -2.3831439018 0.30391207337 -0.93155002594
          -2.1485760212 0.26226508617 -0.74843597412 -2.3224203587 0.14642329514 -0.60301297903
          -2.3477945328 -0.017081549391 -0.75131797791 -2.4720232487 0.27283710241 -0.72016400099
          -2.3224203587 0.14642329514 -0.60301297903 -2.1201012135 -0.050273101777 -0.70986998081
          -2.1485760212 0.26226508617 -0.74843597412 -2.3477945328 -0.017081549391 -0.75131797791
          -2.3224203587 0.14642329514 -0.60301297903 -2.3477945328 -0.017081549391 -0.75131797791
          -2.4720232487 0.27283710241 -0.72016400099 -2.6538431644 0.18475399911 -0.59675198793
          -2.3224203587 0.14642329514 -0.60301297903 -2.6087565422 -0.063813298941 -0.63231498003
          -2.3477945328 -0.017081549391 -0.75131797791 -2.6538431644 0.18475399911 -0.59675198793
          -2.3477945328 -0.017081549391 -0.75131797791 -2.6087565422 -0.063813298941 -0.63231498003
          -2.4720232487 0.27283710241 -0.72016400099 -2.6538431644 0.18475399911 -0.59675198793
          -2.3477945328 -0.017081549391 -0.75131797791 -2.6087565422 -0.063813298941 -0.63231498003
          -2.4843699932 0.064298801124 -0.91173398495 -2.4720232487 0.27283710241 -0.72016400099
          -2.3477945328 -0.017081549391 -0.75131797791 -2.4720232487 0.27283710241 -0.72016400099
          -2.4843699932 0.064298801124 -0.91173398495 -2.3831439018 0.30391207337 -0.93155002594
          -2.188603878 0.16068729758 -0.96540898085 -2.3477945328 -0.017081549391 -0.75131797791
          -2.4843699932 0.064298801124 -0.91173398495 -2.3831439018 0.30391207337 -0.93155002594
          -2.3477945328 -0.017081549391 -0.75131797791 -2.4843699932 0.064298801124 -0.91173398495
          -2.2434971333 -0.063827201724 -0.95553797483 -2.188603878 0.16068729758 -0.96540898085
          -0.68241202831 0.47980180383 -0.89547097683 -0.50065600872 0.48602038622 -0.66250771284
          -0.55084097385 0.27224868536 -0.88415497541 -0.785762012 0.48228681087 -0.72692197561
          4.0511579514 -0.20270109177 0.7991797924 3.9209868908 -0.049528494477 0.94006299973
          4.1932888031 -0.10509669781 1.111093998 4.0172262192 -0.24458359182 1.074458003
          1.1398986578 -0.010146999732 0.071502000093 1.3329657316 0.04662720114 0.17705599964
          1.3978904486 -0.12460799515 0.020671008155 1.2453129292 -0.22395838797 0.33866900206
          -2.2434971333 -0.063827201724 -0.95553797483 -2.4353275299 -0.11288639903 -0.92088502645
          -2.4843699932 0.064298801124 -0.91173398495 -2.3477945328 -0.017081549391 -0.75131797791
          -2.2434971333 -0.063827201724 -0.95553797483 -2.3067228794 -0.32880795002 -0.94539600611
          -2.4353275299 -0.11288639903 -0.92088502645 -2.2304649353 -0.22556725144 -0.77245599031
          3.8757009506 -0.27522069216 0.20697000623 4.1229319572 -0.1651879102 0.30276998878
          3.9752399921 -0.40516790748 0.36332198977 4.0834741592 -0.21439018846 0.53021103144
          3.9752399921 -0.40516790748 0.36332198977 4.0834741592 -0.21439018846 0.53021103144
          4.1763081551 -0.404874295 0.45419001579 4.0488052368 -0.40442740917 0.66158497334
          3.8355340958 -0.40645951033 0.54560798407 4.0834741592 -0.21439018846 0.53021103144
          3.9752399921 -0.40516790748 0.36332198977 4.0488052368 -0.40442740917 0.66158497334
          -4.0514550209 0.30707678199 0.23333111405 -3.9883553982 0.47970271111 0.36896401644
          -4.2010884285 0.48155650496 0.20740970969 -4.0038924217 0.48269051313 0.10539000481
          -3.1758265495 0.071973100305 -0.7731680274 -3.2429180145 0.19009520113 -0.47103300691
          -3.1901597977 0.0029790997505 -0.4238820076 -3.3833937645 -0.032667398453 -0.48868498206
          4.8725390434 0.29623439908 1.2086399794 5.0302901268 0.43874397874 1.1967389584
          5.0286197662 0.27560698986 1.0374772549 5.1940898895 0.12840040028 1.2278339863
          -2.0933618546 0.23922790587 -0.44598591328 -2.3289134502 -0.0023192001972 -0.42081850767
          -2.3340997696 0.29154390097 -0.43325453997 -2.2913610935 0.16144010425 -0.25700899959
          -2.0933618546 0.23922790587 -0.44598591328 -2.2913610935 0.16144010425 -0.25700899959
          -2.3340997696 0.29154390097 -0.43325453997 -2.0947520733 0.29650449753 -0.21109998226
          -2.0933618546 0.23922790587 -0.44598591328 -2.3340997696 0.29154390097 -0.43325453997
          -2.2193543911 0.4817315042 -0.46778970957 -2.0947520733 0.29650449753 -0.21109998226
          -2.0947520733 0.29650449753 -0.21109998226 -2.3905160427 0.48403820395 -0.18478998542
          -2.3340997696 0.29154390097 -0.43325453997 -2.2193543911 0.4817315042 -0.46778970957
          -2.0947520733 0.29650449753 -0.21109998226 -2.3905160427 0.48403820395 -0.18478998542
          -2.2913610935 0.16144010425 -0.25700899959 -2.3340997696 0.29154390097 -0.43325453997
          -2.3340997696 0.29154390097 -0.43325453997 -2.5502791405 0.25031089783 -0.30732250214
          -2.3905160427 0.48403820395 -0.18478998542 -2.2913610935 0.16144010425 -0.25700899959
          -3.4112770557 0.15064421296 -0.34156700969 -3.3833937645 -0.032667398453 -0.48868498206
          -3.3023517132 0.0064315996133 -0.24028472602 -3.1901597977 0.0029790997505 -0.4238820076
          2.4399039745 -0.10959740728 -0.0052800015546 2.2508289814 -0.099022090435 0.14436070621
          2.4038360119 -0.2405732125 0.18867635727 2.2454249859 -0.24175401032 -0.0085900025442
          2.1151509285 0.051999751478 0.097855910659 2.2007000446 -0.030069796368 -0.17213380337
          2.2508289814 -0.099022090435 0.14436070621 2.3748869896 0.069039702415 0.16169330478
          -0.17038999498 0.33329957724 -0.6997410059 0.10719139874 0.28679504991 -0.54870027304
          -0.17106099427 0.49157705903 -0.57271128893 0.014425000176 0.49165633321 -0.66029900312
          -1.1717802286 0.47396370769 -1.0808559656 -1.2560925484 0.27916309237 -0.88956099749
          -1.1206613779 0.30866101384 -1.0912829638 -1.2635279894 0.19011539221 -1.0803289413
          -1.2560925484 0.27916309237 -0.88956099749 -1.3401434422 0.47775200009 -0.87771999836
          -1.3714095354 0.48100718856 -0.68255013227 -1.4055235386 0.16061809659 -0.77410399914
          0.014425000176 0.49165633321 -0.66029900312 -0.17038999498 0.33329957724 -0.6997410059
          -0.10962300003 0.48779779673 -0.82918798923 -0.17106099427 0.49157705903 -0.57271128893
          -0.04301200062 0.17476075888 -0.718306005 0.10719139874 0.28679504991 -0.54870027304
          -0.17038999498 0.33329957724 -0.6997410059 0.014425000176 0.49165633321 -0.66029900312
          -1.2152099609 -0.081209897995 -0.31830999255 -1.2111840248 -0.1263563931 -0.52467823029
          -1.0108540058 -0.22747680545 -0.36507099867 -1.0315690041 0.001321600168 -0.39257600904
          -1.293176055 0.1205618009 -0.45924699306 -1.1938619614 0.03204099834 -0.66020560265
          -1.4074389935 -0.049107201397 -0.5518643856 -1.2111840248 -0.1263563931 -0.52467823029
          -1.293176055 0.1205618009 -0.45924699306 -1.2111840248 -0.1263563931 -0.52467823029
          -1.2152099609 -0.081209897995 -0.31830999255 -1.0315690041 0.001321600168 -0.39257600904
          -1.2152099609 -0.081209897995 -0.31830999255 -1.2111840248 -0.1263563931 -0.52467823029
          -1.224069953 -0.31939327717 -0.31514698267 -1.0108540058 -0.22747680545 -0.36507099867
          2.6677677631 -0.20719739795 0.85902500153 2.5335454941 -0.19222688675 0.50451397896
          2.8574714661 -0.22937789559 0.73542100191 2.824450016 -0.10761829466 0.55310499668
          2.7232918739 -0.43851751089 0.85738897324 2.7102086544 -0.435593009 0.59967702627
          2.8574714661 -0.22937789559 0.73542100191 2.6677677631 -0.20719739795 0.85902500153
          2.9585413933 -0.41264221072 0.97368997335 2.7232918739 -0.43851751089 0.85738897324
          2.8574714661 -0.22937789559 0.73542100191 2.900462389 -0.18088708818 0.95662897825
          -1.6305606365 -0.29367351532 -0.52340888977 -1.8874305487 -0.20946229994 -0.68173897266
          -1.8079010248 -0.20703689754 -0.34597599506 -1.9710366726 -0.33433938026 -0.42893758416
          -1.6305606365 -0.29367351532 -0.52340888977 -1.8874305487 -0.20946229994 -0.68173897266
          -1.9710366726 -0.33433938026 -0.42893758416 -1.8019082546 -0.50858289003 -0.56323200464
          -1.9710366726 -0.33433938026 -0.42893758416 -1.8747121096 0.0029144007713 -0.49748280644
          -2.0975265503 -0.075285196304 -0.43518251181 -1.8874305487 -0.20946229994 -0.68173897266
          -1.8874305487 -0.20946229994 -0.68173897266 -2.0975265503 -0.075285196304 -0.43518251181
          -1.9710366726 -0.33433938026 -0.42893758416 -2.1267375946 -0.28440442681 -0.5801320076
          1.1396989822 0.51905441284 -0.65952801704 1.23584795 0.52147328854 -0.44651499391
          1.3801549673 0.52707129717 -0.58447301388 1.323251009 0.38888579607 -0.71256399155
          1.2660080194 0.1764563024 -0.51763701439 1.23584795 0.52147328854 -0.44651499391
          1.323251009 0.38888579607 -0.71256399155 1.3801549673 0.52707129717 -0.58447301388
          -1.9083119631 -0.51320451498 -0.2680529952 -2.0592620373 -0.25566390157 -0.23402400315
          -2.1493499279 -0.51199901104 -0.23114798963 -1.9710366726 -0.33433938026 -0.42893758416
          -1.9083119631 -0.51320451498 -0.2680529952 -1.9710366726 -0.33433938026 -0.42893758416
          -2.1493499279 -0.51199901104 -0.23114798963 -1.9995814562 -0.50839465857 -0.5625320673
          0.67708927393 -0.18054930866 -0.18623100221 0.49290901423 -0.27051791549 -0.38118758798
          0.73383498192 -0.30438300967 -0.4254899919 0.7164170146 -0.01385910064 -0.332908988
          -3.5458295345 0.1751678884 -0.0069859996438 -3.4821026325 -0.046573873609 0.11716599017
          -3.4652879238 0.12876489758 0.30643999577 -3.302652359 0.038016501814 0.04223600775
          -4.1795921326 0.26754778624 0.41782468557 -4.1840386391 -0.02179926075 0.21181380749
          -4.374229908 0.21605139971 0.18340799212 -4.2245573997 -0.0047437800094 0.42267590761
          2.1993765831 0.33982020617 0.69473302364 2.0865969658 0.17642100155 0.64691102505
          2.0810952187 0.34367528558 0.4289650023 1.9014420509 0.24749788642 0.58212649822
          -4.1840386391 -0.02179926075 0.21181380749 -4.4813494682 0.022646209225 0.2389934808
          -4.374229908 0.21605139971 0.18340799212 -4.2245573997 -0.0047437800094 0.42267590761
          2.0810952187 0.34367528558 0.4289650023 2.0865969658 0.17642100155 0.64691102505
          2.0134241581 0.082406297326 0.37211599946 1.9014420509 0.24749788642 0.58212649822
          2.0865969658 0.17642100155 0.64691102505 2.0783751011 -0.022333201021 0.63662797213
          2.0134241581 0.082406297326 0.37211599946 1.9014420509 0.24749788642 0.58212649822
          2.3105502129 0.12302970141 0.72935801744 2.2661983967 0.044934421778 0.50948798656
          2.2926232815 0.21838380396 0.36620301008 2.1993765831 0.33982020617 0.69473302364
          2.5117163658 0.16574789584 0.5378869772 2.2926232815 0.21838380396 0.36620301008
          2.3105502129 0.12302970141 0.72935801744 2.2661983967 0.044934421778 0.50948798656
          2.2661983967 0.044934421778 0.50948798656 2.1238291264 -0.18699400127 0.64728599787
          2.2780179977 -0.12498279661 0.35640898347 2.0783751011 -0.022333201021 0.63662797213
          2.3686749935 -0.11354149133 0.74313497543 2.1238291264 -0.18699400127 0.64728599787
          2.2661983967 0.044934421778 0.50948798656 2.0783751011 -0.022333201021 0.63662797213
          3.0947101116 0.28387919068 0.62956798077 3.0184175968 0.12345609814 0.73364597559
          3.1101438999 0.080181010067 0.45569860935 2.7912619114 0.22470119596 0.5612180233
          3.8319048882 0.3724052906 1.1257870197 3.5123636723 0.27264100313 1.2129739523
          3.5158138275 0.52084130049 1.2258909941 3.8741321564 0.28035160899 1.3299449682
          3.8319048882 0.3724052906 1.1257870197 3.5123636723 0.27264100313 1.2129739523
          3.8741321564 0.28035160899 1.3299449682 3.6909389496 0.12423589826 1.2709879875
          3.9359619617 0.090236805379 1.1565029621 3.8319048882 0.3724052906 1.1257870197
          3.8741321564 0.28035160899 1.3299449682 3.6909389496 0.12423589826 1.2709879875
          3.8319048882 0.3724052906 1.1257870197 3.6909389496 0.12423589826 1.2709879875
          3.9359619617 0.090236805379 1.1565029621 3.7040190697 0.031617399305 1.0519629717
          3.690030098 0.28598979115 0.94812899828 3.8319048882 0.3724052906 1.1257870197
          3.9359619617 0.090236805379 1.1565029621 3.7040190697 0.031617399305 1.0519629717
          3.690030098 0.28598979115 0.94812899828 3.6909389496 0.12423589826 1.2709879875
          3.8319048882 0.3724052906 1.1257870197 3.7040190697 0.031617399305 1.0519629717
          3.690030098 0.28598979115 0.94812899828 3.5123636723 0.27264100313 1.2129739523
          3.8319048882 0.3724052906 1.1257870197 3.6909389496 0.12423589826 1.2709879875
          -0.2487116009 0.11720266938 -0.055061001331 -0.088332302868 0.076261751354 -0.21729001403
          -0.080558300018 0.23630402982 -0.025882000104 -0.092815898359 0.28653284907 -0.26267999411
          -0.2487116009 0.11720266938 -0.055061001331 -0.264005512 0.0059295003302 -0.30922400951
          -0.088332302868 0.076261751354 -0.21729001403 -0.30593618751 0.24488276243 -0.24136300385
          -1.0780789852 -0.26223245263 -0.61954492331 -1.2879470587 -0.50460076332 -0.71951198578
          -1.2913279533 -0.31723329425 -0.56081938744 -1.0943470001 -0.50438934565 -0.71723198891
          -1.2913279533 -0.31723329425 -0.56081938744 -1.2879470587 -0.50460076332 -0.71951198578
          -1.1271990538 -0.51521211863 -0.40683698654 -1.0943470001 -0.50438934565 -0.71723198891
          -1.2913279533 -0.31723329425 -0.56081938744 -1.4011659622 -0.51028960943 -0.56537860632
          -1.1271990538 -0.51521211863 -0.40683698654 -1.2879470587 -0.50460076332 -0.71951198578
          -2.8126263618 -0.50702655315 -0.63701498508 -2.8155953884 -0.19327259064 -0.5224930048
          -2.9167158604 -0.50708723068 -0.47135400772 -3.0045845509 -0.31262481213 -0.59387999773
          -3.0045845509 -0.31262481213 -0.59387999773 -2.9944975376 -0.5079087019 -0.71235400438
          -2.9167158604 -0.50708723068 -0.47135400772 -2.8126263618 -0.50702655315 -0.63701498508
          1.6559460163 -0.46090990305 -0.083716340363 1.4299919605 -0.4650863111 -0.25022679567
          1.6287219524 -0.45572260022 -0.34583300352 1.7291409969 -0.28722119331 -0.28180330992
          1.7291409969 -0.28722119331 -0.28180330992 1.6362780333 -0.19434309006 -0.1196873039
          1.7244919538 -0.11605580151 -0.38782680035 1.9164220095 -0.13674210012 -0.17615103722
          -3.4112770557 0.15064421296 -0.34156700969 -3.5941543579 0.02097989805 -0.47818499804
          -3.5523664951 0.0045121996664 -0.18042999506 -3.3833937645 -0.032667398453 -0.48868498206
          -3.3833937645 -0.032667398453 -0.48868498206 -3.4724879265 0.27005422115 -0.50610899925
          -3.4112770557 0.15064421296 -0.34156700969 -3.5941543579 0.02097989805 -0.47818499804
          -3.4724879265 0.27005422115 -0.50610899925 -3.4112770557 0.15064421296 -0.34156700969
          -3.2429180145 0.19009520113 -0.47103300691 -3.3833937645 -0.032667398453 -0.48868498206
          -3.5693891048 0.4848459959 -0.46422702074 -3.5198493004 0.28535220027 -0.20457419753
          -3.6321229935 0.48460400105 -0.30110099912 -3.4978125095 0.48323321342 -0.19416743517
          1.7291409969 -0.28722119331 -0.28180330992 1.4299919605 -0.4650863111 -0.25022679567
          1.6287219524 -0.45572260022 -0.34583300352 1.5643210411 -0.27857810259 -0.44123601913
          -3.4724879265 0.27005422115 -0.50610899925 -3.3095912933 0.2773117125 -0.21319679916
          -3.2429180145 0.19009520113 -0.47103300691 -3.4112770557 0.15064421296 -0.34156700969
          -2.6924591064 0.48232129216 -0.35847869515 -2.9112796783 0.48190781474 -0.45949801803
          -2.7821593285 0.30021998286 -0.44675600529 -2.6084048748 0.48110160232 -0.5615530014
          -2.7821593285 0.30021998286 -0.44675600529 -2.9112796783 0.48190781474 -0.45949801803
          -2.9400956631 0.27705860138 -0.27815890312 -3.0509493351 0.29688620567 -0.58453899622
          -2.0371425152 -0.34191715717 -0.78012096882 -2.2537591457 -0.50368404388 -0.93353700638
          -2.3067228794 -0.32880795002 -0.94539600611 -2.1830513477 -0.50529420376 -0.71057498455
          -2.0371425152 -0.34191715717 -0.78012096882 -2.2537591457 -0.50368404388 -0.93353700638
          -2.1830513477 -0.50529420376 -0.71057498455 -1.9412852526 -0.50214797258 -0.90207898617
          -2.1139371395 -0.28715011477 -0.97770702839 -2.2537591457 -0.50368404388 -0.93353700638
          -2.0371425152 -0.34191715717 -0.78012096882 -1.9412852526 -0.50214797258 -0.90207898617
          -2.0371425152 -0.34191715717 -0.78012096882 -2.1139371395 -0.28715011477 -0.97770702839
          -1.9412852526 -0.50214797258 -0.90207898617 -1.8414185047 -0.36941739917 -1.0222549438
          0.79302960634 -0.29305431247 -0.039216998965 0.44537511468 -0.27799990773 -0.12429698557
          0.67708927393 -0.18054930866 -0.18623100221 0.54733449221 -0.32747480273 0.11482799798
          -2.1139371395 -0.28715011477 -0.97770702839 -2.2537591457 -0.50368404388 -0.93353700638
          -2.3067228794 -0.32880795002 -0.94539600611 -2.0371425152 -0.34191715717 -0.78012096882
          -2.1267375946 -0.28440442681 -0.5801320076 -2.0371425152 -0.34191715717 -0.78012096882
          -2.1830513477 -0.50529420376 -0.71057498455 -1.9995814562 -0.50839465857 -0.5625320673
          -2.1267375946 -0.28440442681 -0.5801320076 -1.8874305487 -0.20946229994 -0.68173897266
          -2.0371425152 -0.34191715717 -0.78012096882 -1.9995814562 -0.50839465857 -0.5625320673
          -2.1201012135 -0.050273101777 -0.70986998081 -2.0371425152 -0.34191715717 -0.78012096882
          -2.1267375946 -0.28440442681 -0.5801320076 -1.8874305487 -0.20946229994 -0.68173897266
          -1.8874305487 -0.20946229994 -0.68173897266 -1.9995814562 -0.50839465857 -0.5625320673
          -1.8019082546 -0.50858289003 -0.56323200464 -2.0371425152 -0.34191715717 -0.78012096882
          3.0184175968 0.12345609814 0.73364597559 2.8261909485 0.28350150585 0.9414550066
          2.7863173485 0.018803799525 0.9157999754 2.6809933186 0.045304298401 0.64524197578
          2.7863173485 0.018803799525 0.9157999754 2.824450016 -0.10761829466 0.55310499668
          3.0184175968 0.12345609814 0.73364597559 2.6809933186 0.045304298401 0.64524197578
          2.7863173485 0.018803799525 0.9157999754 2.6677677631 -0.20719739795 0.85902500153
          2.6809933186 0.045304298401 0.64524197578 2.5507669449 -0.059395201504 0.81727099419
          2.6677677631 -0.20719739795 0.85902500153 2.5335454941 -0.19222688675 0.50451397896
          2.6809933186 0.045304298401 0.64524197578 2.5507669449 -0.059395201504 0.81727099419
          2.6677677631 -0.20719739795 0.85902500153 2.5335454941 -0.19222688675 0.50451397896
          2.824450016 -0.10761829466 0.55310499668 2.6809933186 0.045304298401 0.64524197578
          2.6809933186 0.045304298401 0.64524197578 2.824450016 -0.10761829466 0.55310499668
          2.5975399017 0.036539699882 0.30856120586 2.5335454941 -0.19222688675 0.50451397896
          2.6809933186 0.045304298401 0.64524197578 2.5975399017 0.036539699882 0.30856120586
          2.824450016 -0.10761829466 0.55310499668 2.8575510979 0.064445592463 0.36333754659
          2.5507669449 -0.059395201504 0.81727099419 2.3686749935 -0.11354149133 0.74313497543
          2.5335454941 -0.19222688675 0.50451397896 2.6809933186 0.045304298401 0.64524197578
          5.2039008141 -0.31573709846 1.1745685339 5.0362038612 -0.1984565109 1.0518586636
          4.9568657875 -0.20041409135 1.3308819532 4.9736399651 -0.40930470824 1.310732007
          0.9641879797 0.46827450395 -0.81677001715 0.94843697548 0.30960980058 -0.61462700367
          1.1091860533 0.2945098877 -0.77885699272 0.8415030241 0.30299159884 -0.85388797522
          0.9641879797 0.46827450395 -0.81677001715 1.1396989822 0.51905441284 -0.65952801704
          1.1091860533 0.2945098877 -0.77885699272 0.94843697548 0.30960980058 -0.61462700367
          1.1396989822 0.51905441284 -0.65952801704 1.0754319429 0.25025811791 -0.42730200291
          1.1091860533 0.2945098877 -0.77885699272 0.94843697548 0.30960980058 -0.61462700367
          1.1396989822 0.51905441284 -0.65952801704 1.23584795 0.52147328854 -0.44651499391
          1.0754319429 0.25025811791 -0.42730200291 0.94843697548 0.30960980058 -0.61462700367
          1.0754319429 0.25025811791 -0.42730200291 0.84688097239 0.325525105 -0.34160640836
          0.76200997829 0.19809819758 -0.53690600395 0.94843697548 0.30960980058 -0.61462700367
          -1.0344099998 -0.31266370416 -0.88067400455 -1.1810113192 -0.49926784635 -0.8929489851
          -0.88709700108 -0.50346982479 -0.72862702608 -1.0406808853 -0.49340972304 -1.0401200056
          -1.0344099998 -0.31266370416 -0.88067400455 -1.0406808853 -0.49340972304 -1.0401200056
          -0.88709700108 -0.50346982479 -0.72862702608 -0.74040699005 -0.49768507481 -0.86798501015
          -1.0344099998 -0.31266370416 -0.88067400455 -1.1810113192 -0.49926784635 -0.8929489851
          -1.0943470001 -0.50438934565 -0.71723198891 -0.88709700108 -0.50346982479 -0.72862702608
          -1.0344099998 -0.31266370416 -0.88067400455 -1.0943470001 -0.50438934565 -0.71723198891
          -1.0780789852 -0.26223245263 -0.61954492331 -0.88709700108 -0.50346982479 -0.72862702608
          -4.3568739891 -0.16453392804 0.20460030437 -4.4882779121 -0.32354712486 0.15183719993
          -4.4301371574 -0.28078189492 -0.098592102528 -4.5570960045 -0.13278326392 -0.03384745121
          2.2454249859 -0.24175401032 -0.0085900025442 2.4038360119 -0.2405732125 0.18867635727
          2.3360071182 -0.43899869919 0.085661202669 2.0660989285 -0.22966709733 0.14300569892
          2.3360071182 -0.43899869919 0.085661202669 2.0085380077 -0.44803181291 -0.051146503538
          2.2454249859 -0.24175401032 -0.0085900025442 2.0660989285 -0.22966709733 0.14300569892
          2.3360071182 -0.43899869919 0.085661202669 2.0085380077 -0.44803181291 -0.051146503538
          2.2273271084 -0.43826460838 -0.11158529669 2.2454249859 -0.24175401032 -0.0085900025442
          -0.64104998112 -0.30240130424 -0.9189350009 -0.74040699005 -0.49768507481 -0.86798501015
          -0.66083502769 -0.29501193762 -0.69995200634 -0.67207598686 -0.50358366966 -0.68930828571
          2.2454249859 -0.24175401032 -0.0085900025442 2.2273271084 -0.43826460838 -0.11158529669
          2.4244749546 -0.42912569642 -0.22337199748 2.1323330402 -0.24952030182 -0.2159884125
          -0.80718201399 -0.50908124447 -0.54855680466 -0.51817697287 -0.33874639869 -0.53937000036
          -0.66083502769 -0.29501193762 -0.69995200634 -0.67207598686 -0.50358366966 -0.68930828571
          2.1323330402 -0.24952030182 -0.2159884125 2.2007000446 -0.030069796368 -0.17213380337
          2.3959000111 -0.2165030092 -0.38119700551 2.2454249859 -0.24175401032 -0.0085900025442
          2.1238291264 -0.18699400127 0.64728599787 2.1206483841 -0.27323719859 0.41196197271
          2.2780179977 -0.12498279661 0.35640898347 2.0783751011 -0.022333201021 0.63662797213
          2.1238291264 -0.18699400127 0.64728599787 1.9537478685 -0.17958140373 0.5853844285
          2.1206483841 -0.27323719859 0.41196197271 2.0783751011 -0.022333201021 0.63662797213
          2.0085380077 -0.44803181291 -0.051146503538 2.1323330402 -0.24952030182 -0.2159884125
          2.2273271084 -0.43826460838 -0.11158529669 2.2454249859 -0.24175401032 -0.0085900025442
          -0.62074798346 -0.15536004305 -1.0920000076 -0.58885598183 0.011368970387 -1.0877560377
          -0.43940600753 -0.13465237617 -1.0850310326 -0.65971499681 -0.068506918848 -0.89710998535
          -4.7891550064 0.016387579963 -0.29043120146 -4.7826919556 0.30165764689 -0.29666978121
          -5 0.1004910022 -0.10199099779 -5 0.09418129921 -0.34129801393
          -4.7826919556 0.30165764689 -0.29666978121 -5 0.30918601155 -0.271468997
          -5 0.1004910022 -0.10199099779 -5 0.09418129921 -0.34129801393
          -4.7826919556 0.30165764689 -0.29666978121 -4.9899616241 0.27313753963 -0.50233417749
          -5 0.30918601155 -0.271468997 -5 0.09418129921 -0.34129801393
          -4.7826919556 0.30165764689 -0.29666978121 -4.9899616241 0.27313753963 -0.50233417749
          -4.907037735 0.49900719523 -0.297534585 -5 0.30918601155 -0.271468997
          -4.7826919556 0.30165764689 -0.29666978121 -4.907037735 0.49900719523 -0.297534585
          -4.9270887375 0.4960334301 -0.082894615829 -5 0.30918601155 -0.271468997
          -4.7578840256 0.28817969561 -0.030578099191 -4.7826919556 0.30165764689 -0.29666978121
          -4.9270887375 0.4960334301 -0.082894615829 -5 0.30918601155 -0.271468997
          -4.7826919556 0.30165764689 -0.29666978121 -4.7578840256 0.28817969561 -0.030578099191
          -5 0.1004910022 -0.10199099779 -5 0.30918601155 -0.271468997
          -4.8738484383 0.47361603379 -0.50984418392 -4.9899616241 0.27313753963 -0.50233417749
          -4.907037735 0.49900719523 -0.297534585 -4.7826919556 0.30165764689 -0.29666978121
          -4.67258358 0.49731987715 -0.45437440276 -4.8738484383 0.47361603379 -0.50984418392
          -4.907037735 0.49900719523 -0.297534585 -4.7826919556 0.30165764689 -0.29666978121
          0.18558773398 0.49153119326 -0.87829899788 -0.091403998435 0.28790903091 -0.89287102222
          -0.10962300003 0.48779779673 -0.82918798923 0.15515929461 0.27147474885 -0.81783097982
          -2.761079073 0.3002846241 0.17035700381 -2.9699950218 0.48249959946 -0.0066279866733
          -2.9876549244 0.48245361447 0.20254100859 -2.8941919804 0.276453197 -0.0076509867795
          -2.761079073 0.3002846241 0.17035700381 -2.8941919804 0.276453197 -0.0076509867795
          -2.9876549244 0.48245361447 0.20254100859 -3.0553820133 0.29404971004 0.22911499441
          -2.8941919804 0.276453197 -0.0076509867795 -2.9699950218 0.48249959946 -0.0066279866733
          -2.9876549244 0.48245361447 0.20254100859 -3.0553820133 0.29404971004 0.22911499441
          2.7102086544 -0.435593009 0.59967702627 2.824450016 -0.10761829466 0.55310499668
          2.8154499531 -0.22758620977 0.35329309106 2.8791120052 -0.42745420337 0.46121960878
          2.7102086544 -0.435593009 0.59967702627 2.8154499531 -0.22758620977 0.35329309106
          2.6416110992 -0.43433389068 0.39271500707 2.8791120052 -0.42745420337 0.46121960878
          2.7102086544 -0.435593009 0.59967702627 2.8154499531 -0.22758620977 0.35329309106
          2.5335454941 -0.19222688675 0.50451397896 2.6416110992 -0.43433389068 0.39271500707
          2.7102086544 -0.435593009 0.59967702627 2.824450016 -0.10761829466 0.55310499668
          2.5335454941 -0.19222688675 0.50451397896 2.8154499531 -0.22758620977 0.35329309106
          2.5335454941 -0.19222688675 0.50451397896 2.6479671001 -0.18968589604 0.18436330557
          2.6416110992 -0.43433389068 0.39271500707 2.8154499531 -0.22758620977 0.35329309106
          2.6416110992 -0.43433389068 0.39271500707 2.6479671001 -0.18968589604 0.18436330557
          2.7957570553 -0.42637899518 0.25317001343 2.8154499531 -0.22758620977 0.35329309106
          2.6416110992 -0.43433389068 0.39271500707 2.8154499531 -0.22758620977 0.35329309106
          2.7957570553 -0.42637899518 0.25317001343 2.8791120052 -0.42745420337 0.46121960878
          2.8154499531 -0.22758620977 0.35329309106 2.7957570553 -0.42637899518 0.25317001343
          2.9301850796 -0.41978639364 0.12177300453 2.6479671001 -0.18968589604 0.18436330557
          -3.0509493351 0.29688620567 -0.58453899622 -2.819904089 0.037339199334 -0.66302698851
          -3.0065186024 0.11188069731 -0.80747801065 -2.9424054623 0.1131972 -0.47736001015
          -3.4821026325 -0.046573873609 0.11716599017 -3.1989395618 -0.20423613489 -0.036946997046
          -3.3824651241 -0.30312857032 0.073741987348 -3.2058420181 -0.10112692416 0.25872200727
          -2.0592620373 -0.25566390157 -0.23402400315 -2.1776151657 -0.33875748515 -0.37888690829
          -2.1493499279 -0.51199901104 -0.23114798963 -1.9710366726 -0.33433938026 -0.42893758416
          -3.4652879238 0.12876489758 0.30643999577 -3.6940450668 -0.011909330264 0.12301498652
          -3.5214090347 -0.040553983301 0.31633499265 -3.4821026325 -0.046573873609 0.11716599017
          0.36064499617 -0.039502311498 -0.75520098209 0.4496409893 -0.20598120987 -0.64667701721
          0.54373598099 -0.25898191333 -0.94053697586 0.31595930457 -0.22976750135 -0.98769599199
          -0.40303009748 0.49246281385 -0.4396699965 -0.6164612174 0.29320520163 -0.31236797571
          -0.5779209733 0.28877097368 -0.57027238607 -0.66691201925 0.49013388157 -0.48518800735
          -0.40303009748 0.49246281385 -0.4396699965 -0.54038512707 0.49495917559 -0.25420597196
          -0.6164612174 0.29320520163 -0.31236797571 -0.66691201925 0.49013388157 -0.48518800735
          -0.40303009748 0.49246281385 -0.4396699965 -0.45164808631 0.18338213861 -0.40235000849
          -0.6164612174 0.29320520163 -0.31236797571 -0.54038512707 0.49495917559 -0.25420597196
          -0.40303009748 0.49246281385 -0.4396699965 -0.45164808631 0.18338213861 -0.40235000849
          -0.5779209733 0.28877097368 -0.57027238607 -0.6164612174 0.29320520163 -0.31236797571
          -0.5779209733 0.28877097368 -0.57027238607 -0.6164612174 0.29320520163 -0.31236797571
          -0.45164808631 0.18338213861 -0.40235000849 -0.75858801603 0.17240820825 -0.42690300941
          -0.66691201925 0.49013388157 -0.48518800735 -0.70233458281 0.49317741394 -0.27365800738
          -0.54038512707 0.49495917559 -0.25420597196 -0.6164612174 0.29320520163 -0.31236797571
          -0.70233458281 0.49317741394 -0.27365800738 -0.54038512707 0.49495917559 -0.25420597196
          -0.6164612174 0.29320520163 -0.31236797571 -0.59276729822 0.46036344767 -0.093910999596
          -0.70233458281 0.49317741394 -0.27365800738 -0.6164612174 0.29320520163 -0.31236797571
          -0.65999889374 0.24785794318 -0.095564998686 -0.59276729822 0.46036344767 -0.093910999596
          -5 -0.004447159823 0.13623799384 -5 0.15884299576 0.21330599487
          -4.6630234718 0.13930633664 0.15250210464 -4.7917890549 -0.033734429628 0.26267528534
          -4.7917890549 -0.033734429628 0.26267528534 -4.6630234718 0.13930633664 0.15250210464
          -4.745464325 0.3263682127 0.25227379799 -5 0.15884299576 0.21330599487
          -1.2542339563 0.29450172186 -0.30690699816 -1.3188999891 0.28086179495 -0.079112000763
          -1.1750420332 0.11218670756 -0.27856901288 -1.3984810114 0.086329601705 -0.26900598407
          -0.65999889374 0.24785794318 -0.095564998686 -0.6164612174 0.29320520163 -0.31236797571
          -0.46809598804 0.17155979574 -0.082805998623 -0.59276729822 0.46036344767 -0.093910999596
          -0.6164612174 0.29320520163 -0.31236797571 -0.46809598804 0.17155979574 -0.082805998623
          -0.6087269187 0.024860799313 -0.30977600813 -0.65999889374 0.24785794318 -0.095564998686
          -0.6164612174 0.29320520163 -0.31236797571 -0.54038512707 0.49495917559 -0.25420597196
          -0.46809598804 0.17155979574 -0.082805998623 -0.59276729822 0.46036344767 -0.093910999596
          -0.6164612174 0.29320520163 -0.31236797571 -0.46809598804 0.17155979574 -0.082805998623
          -0.54038512707 0.49495917559 -0.25420597196 -0.38844299316 0.49596226215 -0.19252300262
          -4.1721348763 0.28047949076 -0.053690198809 -4.2976675034 0.29178825021 -0.37512549758
          -4.3738183975 0.24991054833 -0.14364899695 -4.1448526382 0.14308868349 -0.26994079351
          0.44537511468 -0.27799990773 -0.12429698557 0.31893050671 -0.015289099887 -0.15932199359
          0.474378407 -0.11557681859 -0.24810600281 0.48138740659 -0.12545976043 0.10301499814
          0.474378407 -0.11557681859 -0.24810600281 0.25168299675 0.024994578212 -0.46399909258
          0.49993100762 0.0054506729357 -0.41626721621 0.31893050671 -0.015289099887 -0.15932199359
          0.31893050671 -0.015289099887 -0.15932199359 0.49993100762 0.0054506729357 -0.41626721621
          0.474378407 -0.11557681859 -0.24810600281 0.53519868851 0.048687562346 -0.13842900097
          0.474378407 -0.11557681859 -0.24810600281 0.49290901423 -0.27051791549 -0.38118758798
          0.7164170146 -0.01385910064 -0.332908988 0.49993100762 0.0054506729357 -0.41626721621
          0.7164170146 -0.01385910064 -0.332908988 0.474378407 -0.11557681859 -0.24810600281
          0.49993100762 0.0054506729357 -0.41626721621 0.53519868851 0.048687562346 -0.13842900097
          0.24777440727 -0.18341463804 -0.29771098495 0.25168299675 0.024994578212 -0.46399909258
          0.474378407 -0.11557681859 -0.24810600281 0.31893050671 -0.015289099887 -0.15932199359
          0.24777440727 -0.18341463804 -0.29771098495 0.31893050671 -0.015289099887 -0.15932199359
          0.474378407 -0.11557681859 -0.24810600281 0.44537511468 -0.27799990773 -0.12429698557
          -4.0514550209 0.30707678199 0.23333111405 -4.0971708298 0.14169080555 0.095920503139
          -4.1721348763 0.28047949076 -0.053690198809 -4.374229908 0.21605139971 0.18340799212
          -4.0514550209 0.30707678199 0.23333111405 -4.1721348763 0.28047949076 -0.053690198809
          -4.2010884285 0.48155650496 0.20740970969 -4.374229908 0.21605139971 0.18340799212
          -4.1721348763 0.28047949076 -0.053690198809 -4.0514550209 0.30707678199 0.23333111405
          -4.2010884285 0.48155650496 0.20740970969 -4.0038924217 0.48269051313 0.10539000481
          -3.9548974037 0.23137070239 -0.10864424706 -4.0038924217 0.48269051313 0.10539000481
          -4.0514550209 0.30707678199 0.23333111405 -4.1721348763 0.28047949076 -0.053690198809
          -3.9548974037 0.23137070239 -0.10864424706 -4.1721348763 0.28047949076 -0.053690198809
          -4.0514550209 0.30707678199 0.23333111405 -4.0971708298 0.14169080555 0.095920503139
          -4.1721348763 0.28047949076 -0.053690198809 -4.0038924217 0.48269051313 0.10539000481
          -3.9854476452 0.48504701257 -0.10422489792 -3.9548974037 0.23137070239 -0.10864424706
          -1.1206613779 0.30866101384 -1.0912829638 -0.81324702501 0.26146668196 -0.86965799332
          -1.075802207 0.17113420367 -0.81510698795 -0.90296202898 0.47852620482 -0.86588096619
          3.7570819855 -0.18195958436 0.41518300772 4.1229319572 -0.1651879102 0.30276998878
          4.0834741592 -0.21439018846 0.53021103144 3.9133279324 -0.075963594019 0.57894998789
          -0.81324702501 0.26146668196 -0.86965799332 -0.90296202898 0.47852620482 -0.86588096619
          -0.785762012 0.48228681087 -0.72692197561 -0.90989202261 0.24085079134 -0.62744837999
          3.7570819855 -0.18195958436 0.41518300772 3.8754689693 -0.016982000321 0.21258999407
          4.1229319572 -0.1651879102 0.30276998878 4.0860438347 -0.014925898984 0.46736100316
          3.8754689693 -0.016982000321 0.21258999407 4.0827860832 0.11810979992 0.29750001431
          4.1229319572 -0.1651879102 0.30276998878 4.0860438347 -0.014925898984 0.46736100316
          3.9250519276 0.16208969057 0.46795699 4.0860438347 -0.014925898984 0.46736100316
          4.0790348053 0.052158098668 0.78453868628 4.0052309036 0.2497472018 0.67321902514
          -1.5809962749 0.26638999581 -0.86372798681 -1.6599514484 0.24216479063 -0.65762501955
          -1.4487729073 0.26224949956 -0.55564618111 -1.4055235386 0.16061809659 -0.77410399914
          -1.5809962749 0.26638999581 -0.86372798681 -1.6599514484 0.24216479063 -0.65762501955
          -1.4055235386 0.16061809659 -0.77410399914 -1.6661914587 0.0097754001617 -0.81471097469
          -1.5809962749 0.26638999581 -0.86372798681 -1.6661914587 0.0097754001617 -0.81471097469
          -1.4055235386 0.16061809659 -0.77410399914 -1.5627611876 0.064892105758 -1.05468297
          -1.5809962749 0.26638999581 -0.86372798681 -1.4055235386 0.16061809659 -0.77410399914
          -1.2635279894 0.19011539221 -1.0803289413 -1.5627611876 0.064892105758 -1.05468297
          1.8545037508 0.351865381 0.36945268512 1.9014420509 0.24749788642 0.58212649822
          2.0810952187 0.34367528558 0.4289650023 2.0134241581 0.082406297326 0.37211599946
          1.8545037508 0.351865381 0.36945268512 2.0810952187 0.34367528558 0.4289650023
          2.0875871181 0.32275497913 0.17387519777 2.0134241581 0.082406297326 0.37211599946
          2.0810952187 0.34367528558 0.4289650023 1.8545037508 0.351865381 0.36945268512
          2.0509207249 0.54013729095 0.59274601936 1.9014420509 0.24749788642 0.58212649822
          1.8545037508 0.351865381 0.36945268512 1.7791023254 0.53241348267 0.52594411373
          2.0509207249 0.54013729095 0.59274601936 1.9014420509 0.24749788642 0.58212649822
          1.8545037508 0.351865381 0.36945268512 1.7791023254 0.53241348267 0.52594411373
          1.9014420509 0.24749788642 0.58212649822 1.662907958 0.3483915925 0.50106751919
          1.8545037508 0.351865381 0.36945268512 1.662907958 0.3483915925 0.50106751919
          1.9014420509 0.24749788642 0.58212649822 1.6081655025 0.1408970952 0.47529900074
          1.8545037508 0.351865381 0.36945268512 1.7791023254 0.53241348267 0.52594411373
          1.662907958 0.3483915925 0.50106751919 1.6495490074 0.52970409393 0.32440179586
          1.6495490074 0.52970409393 0.32440179586 1.543838501 0.32068037987 0.19921569526
          1.662907958 0.3483915925 0.50106751919 1.8545037508 0.351865381 0.36945268512
          -0.44009780884 -0.045463498682 -0.38387098908 -0.264005512 0.0059295003302 -0.30922400951
          -0.46809598804 0.17155979574 -0.082805998623 -0.45164808631 0.18338213861 -0.40235000849
          -1.4487729073 0.26224949956 -0.55564618111 -1.5147645473 0.48376119137 -0.53487837315
          -1.7097920179 0.31207630038 -0.45334500074 -1.6599514484 0.24216479063 -0.65762501955
          -1.4487729073 0.26224949956 -0.55564618111 -1.5147645473 0.48376119137 -0.53487837315
          -1.545979023 0.22976130247 -0.33403101563 -1.7097920179 0.31207630038 -0.45334500074
          -1.7097920179 0.31207630038 -0.45334500074 -1.6599514484 0.24216479063 -0.65762501955
          -1.5147645473 0.48376119137 -0.53487837315 -1.7930159569 0.48152941465 -0.59363406897
          -1.8121285439 0.26642638445 -0.82310700417 -2.0292806625 0.11994799972 -0.99204802513
          -1.901250124 -0.024264600128 -0.80353200436 -1.825833559 0.060503903776 -1.0222599506
          -1.2111840248 -0.1263563931 -0.52467823029 -1.0780789852 -0.26223245263 -0.61954492331
          -1.2913279533 -0.31723329425 -0.56081938744 -1.224069953 -0.31939327717 -0.31514698267
          -1.2152099609 -0.081209897995 -0.31830999255 -1.4074389935 -0.049107201397 -0.5518643856
          -1.4155100584 -0.21666789055 -0.40096598864 -1.2111840248 -0.1263563931 -0.52467823029
          -1.8121285439 0.26642638445 -0.82310700417 -1.9643406868 0.25973030925 -1.0027730465
          -2.0292806625 0.11994799972 -0.99204802513 -1.825833559 0.060503903776 -1.0222599506
          -1.7097920179 0.31207630038 -0.45334500074 -1.8747121096 0.0029144007713 -0.49748280644
          -1.6368409395 -0.014472581446 -0.55414676666 -1.6599514484 0.24216479063 -0.65762501955
          1.3815850019 -0.12085030228 -0.70849198103 1.3132139444 -0.24616961181 -0.5035700202
          1.1442159414 -0.0049022994936 -0.49735999107 1.3804830313 -0.0036427995656 -0.4926970005
          0.61904597282 -0.48145249486 -0.62268102169 0.41597700119 -0.49056598544 -0.53072541952
          0.48899298906 -0.47851881385 -0.81525802612 0.4496409893 -0.20598120987 -0.64667701721
          0.48899298906 -0.47851881385 -0.81525802612 0.41597700119 -0.49056598544 -0.53072541952
          0.31029599905 -0.48520949483 -0.72552001476 0.4496409893 -0.20598120987 -0.64667701721
          0.48899298906 -0.47851881385 -0.81525802612 0.4496409893 -0.20598120987 -0.64667701721
          0.31029599905 -0.48520949483 -0.72552001476 0.20165160298 -0.28208371997 -0.78509497643
          1.4162900448 0.058589901775 -0.19647470117 1.5854810476 0.084593199193 -0.4168010056
          1.40358603 0.24286289513 -0.3494130075 1.3804830313 -0.0036427995656 -0.4926970005
          0.61904597282 -0.48145249486 -0.62268102169 0.48899298906 -0.47851881385 -0.81525802612
          0.73838502169 -0.23838828504 -0.67500901222 0.4496409893 -0.20598120987 -0.64667701721
          0.20165160298 -0.28208371997 -0.78509497643 0.37125998735 -0.47539919615 -0.97635698318
          0.31029599905 -0.48520949483 -0.72552001476 0.48899298906 -0.47851881385 -0.81525802612
          0.31595930457 -0.22976750135 -0.98769599199 0.37125998735 -0.47539919615 -0.97635698318
          0.20165160298 -0.28208371997 -0.78509497643 0.48899298906 -0.47851881385 -0.81525802612
          1.5145740509 0.068407997489 -0.66118901968 1.5854810476 0.084593199193 -0.4168010056
          1.5975199938 -0.11391670257 -0.6415219903 1.3804830313 -0.0036427995656 -0.4926970005
          5.1102108955 -0.40072900057 0.75134700537 5.2886118889 -0.19004799426 0.81414800882
          5.2994370461 -0.39753201604 0.75672501326 5.1633911133 -0.40683791041 0.92723697424
          -4.4874916077 0.48258560896 0.25255030394 -4.6132879257 0.48546689749 0.14135861397
          -4.745464325 0.3263682127 0.25227379799 -4.5572566986 0.23751859367 0.2899813056
          0.14842510223 0.040421258658 -0.80009198189 -0.045155998319 0.014279329218 -0.54846435785
          0.13293649256 -0.12217481434 -0.6249139905 -0.084298998117 0.0080306082964 -0.84863698483
          0.14842510223 0.040421258658 -0.80009198189 -0.04301200062 0.17476075888 -0.718306005
          -0.045155998319 0.014279329218 -0.54846435785 -0.084298998117 0.0080306082964 -0.84863698483
          -0.084298998117 0.0080306082964 -0.84863698483 0.073527999222 0.1395072788 -1.023146987
          0.14842510223 0.040421258658 -0.80009198189 -0.04301200062 0.17476075888 -0.718306005
          3.1256771088 0.35985979438 0.17385299504 2.8252680302 0.56484931707 0.31118530035
          3.0462920666 0.35370859504 0.42864450812 2.8127799034 0.36863431334 0.39534589648
          3.1256771088 0.35985979438 0.17385299504 2.8252680302 0.56484931707 0.31118530035
          2.8127799034 0.36863431334 0.39534589648 2.8881449699 0.23836348951 0.18792100251
          3.0461831093 0.56736302376 0.63019996881 2.8127799034 0.36863431334 0.39534589648
          3.0462920666 0.35370859504 0.42864450812 2.8252680302 0.56484931707 0.31118530035
          -0.18109099567 0.051842641085 -1.0570659637 -0.084298998117 0.0080306082964 -0.84863698483
          -0.31712800264 -0.025899430737 -0.85415101051 -0.33919200301 0.20730000734 -0.79884600639
          -0.31712800264 -0.025899430737 -0.85415101051 -0.084298998117 0.0080306082964 -0.84863698483
          -0.28265699744 -0.012162780389 -0.58007609844 -0.33919200301 0.20730000734 -0.79884600639
          -0.14045800269 -0.19142946601 -0.79101097584 -0.084298998117 0.0080306082964 -0.84863698483
          -0.28265699744 -0.012162780389 -0.58007609844 -0.31712800264 -0.025899430737 -0.85415101051
          -0.14045800269 -0.19142946601 -0.79101097584 -0.084298998117 0.0080306082964 -0.84863698483
          -0.045155998319 0.014279329218 -0.54846435785 -0.28265699744 -0.012162780389 -0.58007609844
          -0.084298998117 0.0080306082964 -0.84863698483 -0.045155998319 0.014279329218 -0.54846435785
          0.13293649256 -0.12217481434 -0.6249139905 -0.14045800269 -0.19142946601 -0.79101097584
          -0.084298998117 0.0080306082964 -0.84863698483 -0.04301200062 0.17476075888 -0.718306005
          -0.045155998319 0.014279329218 -0.54846435785 -0.28265699744 -0.012162780389 -0.58007609844
          -0.084298998117 0.0080306082964 -0.84863698483 -0.04301200062 0.17476075888 -0.718306005
          -0.28265699744 -0.012162780389 -0.58007609844 -0.33919200301 0.20730000734 -0.79884600639
          3.0461831093 0.56736302376 0.63019996881 2.7275784016 0.56002151966 0.53235000372
          2.8127799034 0.36863431334 0.39534589648 2.8252680302 0.56484931707 0.31118530035
          0.49290901423 -0.27051791549 -0.38118758798 0.4496409893 -0.20598120987 -0.64667701721
          0.73383498192 -0.30438300967 -0.4254899919 0.6582840085 -0.086143799126 -0.53992497921
          2.0660989285 -0.22966709733 0.14300569892 2.1206483841 -0.27323719859 0.41196197271
          1.912476182 -0.21805660427 0.34040221572 1.9838659763 -0.058840800077 0.22020068765
          -4.1840386391 -0.02179926075 0.21181380749 -4.2245573997 -0.0047437800094 0.42267590761
          -4.1561627388 -0.30235728621 0.4173707962 -4.3568739891 -0.16453392804 0.20460030437
          -4.1840386391 -0.02179926075 0.21181380749 -4.3568739891 -0.16453392804 0.20460030437
          -4.1561627388 -0.30235728621 0.4173707962 -4.0265545845 -0.28167268634 0.21848671138
          3.8193171024 -0.21124768257 0.82013428211 3.8355340958 -0.40645951033 0.54560798407
          3.6680510044 -0.16187010705 0.64812618494 3.7057540417 -0.40722391009 0.7109375596
          -4.0265545845 -0.28167268634 0.21848671138 -3.9542860985 -0.041209600866 0.17256499827
          -4.1840386391 -0.02179926075 0.21181380749 -4.1034150124 -0.18890102208 0.022778199986
          -4.1795921326 0.26754778624 0.41782468557 -4.0971708298 0.14169080555 0.095920503139
          -4.374229908 0.21605139971 0.18340799212 -4.1840386391 -0.02179926075 0.21181380749
          0.24777440727 -0.18341463804 -0.29771098495 0.474378407 -0.11557681859 -0.24810600281
          0.49290901423 -0.27051791549 -0.38118758798 0.44537511468 -0.27799990773 -0.12429698557
          -4.1840386391 -0.02179926075 0.21181380749 -4.394712925 -0.0063827331178 -0.052065320313
          -4.374229908 0.21605139971 0.18340799212 -4.4813494682 0.022646209225 0.2389934808
          -1.0780789852 -0.26223245263 -0.61954492331 -1.2655464411 -0.30120876431 -0.88210499287
          -1.0943470001 -0.50438934565 -0.71723198891 -1.0344099998 -0.31266370416 -0.88067400455
          -1.0780789852 -0.26223245263 -0.61954492331 -1.2879470587 -0.50460076332 -0.71951198578
          -1.0943470001 -0.50438934565 -0.71723198891 -1.2655464411 -0.30120876431 -0.88210499287
          -1.2655464411 -0.30120876431 -0.88210499287 -1.2913279533 -0.31723329425 -0.56081938744
          -1.0780789852 -0.26223245263 -0.61954492331 -1.2879470587 -0.50460076332 -0.71951198578
          -1.0344099998 -0.31266370416 -0.88067400455 -1.2655464411 -0.30120876431 -0.88210499287
          -1.0723729134 -0.088602088392 -0.8404250145 -1.3103187084 -0.16647019982 -0.72021299601
          -1.3103187084 -0.16647019982 -0.72021299601 -1.2655464411 -0.30120876431 -0.88210499287
          -1.0723729134 -0.088602088392 -0.8404250145 -1.2481642962 0.04549119994 -0.89113599062
          -1.3103187084 -0.16647019982 -0.72021299601 -1.4535621405 -0.08741620183 -0.88498598337
          -1.2655464411 -0.30120876431 -0.88210499287 -1.2481642962 0.04549119994 -0.89113599062
          -3.1700980663 0.079973198473 0.25145700574 -3.2058420181 -0.10112692416 0.25872200727
          -3.0187089443 -0.037960600108 0.018444009125 -3.302652359 0.038016501814 0.04223600775
          -3.1700980663 0.079973198473 0.25145700574 -3.0849509239 0.17763519287 -0.079053997993
          -3.2902696133 0.27174562216 0.025448989123 -3.302652359 0.038016501814 0.04223600775
          -2.7225356102 -0.3007414341 -0.86474698782 -2.8126263618 -0.50702655315 -0.63701498508
          -2.8155953884 -0.19327259064 -0.5224930048 -2.5882301331 -0.30685323477 -0.65421998501
          -1.2655464411 -0.30120876431 -0.88210499287 -1.2899454832 -0.49320724607 -1.0851969719
          -1.3901776075 -0.50089198351 -0.8744109869 -1.1810113192 -0.49926784635 -0.8929489851
          -1.2655464411 -0.30120876431 -0.88210499287 -1.2899454832 -0.49320724607 -1.0851969719
          -1.1810113192 -0.49926784635 -0.8929489851 -1.1241190434 -0.31656226516 -1.0943260193
          -0.42318299413 -0.15868732333 -0.55037420988 -0.70339399576 -0.074503429234 -0.67528831959
          -0.66083502769 -0.29501193762 -0.69995200634 -0.49614500999 -0.18467617035 -0.78485298157
          1.85224998 -0.44815999269 -0.31117022038 1.6978210211 -0.28733319044 -0.61622899771
          1.7291409969 -0.28722119331 -0.28180330992 1.6287219524 -0.45572260022 -0.34583300352
          -1.075802207 0.17113420367 -0.81510698795 -1.2560925484 0.27916309237 -0.88956099749
          -1.2275027037 0.26585769653 -0.64385217428 -1.4055235386 0.16061809659 -0.77410399914
          -1.4055235386 0.16061809659 -0.77410399914 -1.2560925484 0.27916309237 -0.88956099749
          -1.2481642962 0.04549119994 -0.89113599062 -1.075802207 0.17113420367 -0.81510698795
          -1.4055235386 0.16061809659 -0.77410399914 -1.2635279894 0.19011539221 -1.0803289413
          -1.2481642962 0.04549119994 -0.89113599062 -1.2560925484 0.27916309237 -0.88956099749
          -2.9779620171 0.1083374992 0.21390299499 -3.2058420181 -0.10112692416 0.25872200727
          -3.0187089443 -0.037960600108 0.018444009125 -3.1700980663 0.079973198473 0.25145700574
          -1.1206613779 0.30866101384 -1.0912829638 -1.2560925484 0.27916309237 -0.88956099749
          -1.0845546722 0.4788222909 -0.80185699463 -1.075802207 0.17113420367 -0.81510698795
          -1.0845546722 0.4788222909 -0.80185699463 -1.2560925484 0.27916309237 -0.88956099749
          -1.2275027037 0.26585769653 -0.64385217428 -1.075802207 0.17113420367 -0.81510698795
          -1.0845546722 0.4788222909 -0.80185699463 -1.2560925484 0.27916309237 -0.88956099749
          -1.3714095354 0.48100718856 -0.68255013227 -1.2275027037 0.26585769653 -0.64385217428
          -1.0845546722 0.4788222909 -0.80185699463 -1.3401434422 0.47775200009 -0.87771999836
          -1.3714095354 0.48100718856 -0.68255013227 -1.2560925484 0.27916309237 -0.88956099749
          0.56008797884 0.052585806698 -0.68334698677 0.25168299675 0.024994578212 -0.46399909258
          0.49993100762 0.0054506729357 -0.41626721621 0.36064499617 -0.039502311498 -0.75520098209
          0.56008797884 0.052585806698 -0.68334698677 0.30108499527 0.17071788013 -0.6524900198
          0.25168299675 0.024994578212 -0.46399909258 0.36064499617 -0.039502311498 -0.75520098209
          1.5581665039 -0.242820099 0.18669840693 1.4941439629 -0.30191999674 -0.0081950007007
          1.6362780333 -0.19434309006 -0.1196873039 1.3978904486 -0.12460799515 0.020671008155
          0.31418091059 0.094848684967 -0.98210698366 0.36064499617 -0.039502311498 -0.75520098209
          0.43729901314 0.24008713663 -0.95277100801 0.56008797884 0.052585806698 -0.68334698677
          1.5581665039 -0.242820099 0.18669840693 1.1952601671 -0.29477098584 0.064541012049
          1.4941439629 -0.30191999674 -0.0081950007007 1.3978904486 -0.12460799515 0.020671008155
          0.36064499617 -0.039502311498 -0.75520098209 0.31418091059 0.094848684967 -0.98210698366
          0.30108499527 0.17071788013 -0.6524900198 0.14842510223 0.040421258658 -0.80009198189
          0.30108499527 0.17071788013 -0.6524900198 0.14842510223 0.040421258658 -0.80009198189
          0.13293649256 -0.12217481434 -0.6249139905 0.36064499617 -0.039502311498 -0.75520098209
          0.36064499617 -0.039502311498 -0.75520098209 0.30108499527 0.17071788013 -0.6524900198
          0.25168299675 0.024994578212 -0.46399909258 0.13293649256 -0.12217481434 -0.6249139905
          -0.32380700111 -0.29127669334 -0.87523800135 -0.43940600753 -0.13465237617 -1.0850310326
          -0.29308599234 -0.22735399008 -1.0733640194 -0.31712800264 -0.025899430737 -0.85415101051
          2.0660989285 -0.22966709733 0.14300569892 2.1206483841 -0.27323719859 0.41196197271
          1.9838659763 -0.058840800077 0.22020068765 2.2780179977 -0.12498279661 0.35640898347
          0.36064499617 -0.039502311498 -0.75520098209 0.31418091059 0.094848684967 -0.98210698366
          0.14842510223 0.040421258658 -0.80009198189 0.20461019874 -0.067686937749 -1.0017780066
          0.36064499617 -0.039502311498 -0.75520098209 0.20461019874 -0.067686937749 -1.0017780066
          0.20165160298 -0.28208371997 -0.78509497643 0.31595930457 -0.22976750135 -0.98769599199
          -2.7577950954 0.15421199799 -0.14046099782 -2.741081953 0.32292592525 -0.24629439414
          -2.9400956631 0.27705860138 -0.27815890312 -2.8009653091 0.022092198953 -0.32149419188
          -2.7577950954 0.15421199799 -0.14046099782 -2.5502791405 0.25031089783 -0.30732250214
          -2.741081953 0.32292592525 -0.24629439414 -2.8009653091 0.022092198953 -0.32149419188
          3.8637049198 0.57652932405 1.0168390274 3.8319048882 0.3724052906 1.1257870197
          4.0632171631 0.57045120001 1.2416960001 4.065433979 0.57982081175 1.038596034
          -3.0509493351 0.29688620567 -0.58453899622 -2.923997879 0.48139628768 -0.67437797785
          -2.8732545376 0.220630005 -0.8351380229 -2.8207395077 0.30260008574 -0.65172201395
          3.8135120869 0.40065589547 0.74336141348 4.0778617859 0.38755699992 0.83571088314
          3.9646220207 0.41419330239 0.50147998333 4.0052309036 0.2497472018 0.67321902514
          3.8135120869 0.40065589547 0.74336141348 3.8472468853 0.14682120085 0.8287910223
          4.0778617859 0.38755699992 0.83571088314 4.0052309036 0.2497472018 0.67321902514
          3.8135120869 0.40065589547 0.74336141348 3.8472468853 0.14682120085 0.8287910223
          4.0205068588 0.28315189481 1.0268609524 4.0778617859 0.38755699992 0.83571088314
          4.0778617859 0.38755699992 0.83571088314 3.8135120869 0.40065589547 0.74336141348
          3.8637049198 0.57652932405 1.0168390274 4.0205068588 0.28315189481 1.0268609524
          4.0778617859 0.38755699992 0.83571088314 3.8472468853 0.14682120085 0.8287910223
          4.0205068588 0.28315189481 1.0268609524 4.0052309036 0.2497472018 0.67321902514
          3.9646220207 0.41419330239 0.50147998333 4.0052309036 0.2497472018 0.67321902514
          4.0778617859 0.38755699992 0.83571088314 4.2886710167 0.33758100867 0.66382801533
          3.9646220207 0.41419330239 0.50147998333 4.0778617859 0.38755699992 0.83571088314
          4.1542201042 0.59776520729 0.72164899111 4.2886710167 0.33758100867 0.66382801533
          4.0778617859 0.38755699992 0.83571088314 3.997948885 0.58768248558 0.85406768322
          3.9646220207 0.41419330239 0.50147998333 4.1542201042 0.59776520729 0.72164899111
          -3.9332222939 -0.36795258522 -0.62505298853 -3.733959198 -0.32337343693 -0.43397399783
          -3.8566205502 -0.50966030359 -0.52288502455 -3.9158587456 -0.22345404327 -0.33129701018
          -4.1002011299 -0.31287899613 -0.40952581167 -3.8035757542 -0.50670826435 -0.31858798862
          -3.8566205502 -0.50966030359 -0.52288502455 -4.0492649078 -0.50518339872 -0.26489710808
          -4.1002011299 -0.31287899613 -0.40952581167 -3.8566205502 -0.50966030359 -0.52288502455
          -4.1405329704 -0.51005542278 -0.4925802052 -4.0492649078 -0.50518339872 -0.26489710808
          -4.1002011299 -0.31287899613 -0.40952581167 -4.0492649078 -0.50518339872 -0.26489710808
          -4.1405329704 -0.51005542278 -0.4925802052 -4.2843179703 -0.50610029697 -0.3169965148
          -1.8519480228 0.40634250641 -0.0071279997937 -2.0546720028 0.3103351891 0.029857000336
          -1.8959770203 0.26786220074 -0.15826401114 -1.8772009611 0.48616209626 -0.20101100206
          -2.7973310947 0.48305559158 -0.13842301071 -2.741081953 0.32292592525 -0.24629439414
          -2.6924591064 0.48232129216 -0.35847869515 -2.9112796783 0.48190781474 -0.45949801803
          -1.545979023 0.22976130247 -0.33403101563 -1.3188999891 0.28086179495 -0.079112000763
          -1.3984810114 0.086329601705 -0.26900598407 -1.5091439486 0.10905019939 -0.055601000786
          -0.49614500999 -0.18467617035 -0.78485298157 -0.62419199944 0.12591390312 -0.73094600439
          -0.50009101629 0.076063752174 -0.91057896614 -0.51164197922 0.025980791077 -0.55774062872
          -1.3984810114 0.086329601705 -0.26900598407 -1.545979023 0.22976130247 -0.33403101563
          -1.5760400295 -0.030635099858 -0.29671400785 -1.4074389935 -0.049107201397 -0.5518643856
          -1.3984810114 0.086329601705 -0.26900598407 -1.5091439486 0.10905019939 -0.055601000786
          -1.4041509628 -0.13285940886 -0.071116998792 -1.5760400295 -0.030635099858 -0.29671400785
          -1.2953740358 0.05793229863 -0.080146998167 -1.5091439486 0.10905019939 -0.055601000786
          -1.4041509628 -0.13285940886 -0.071116998792 -1.3984810114 0.086329601705 -0.26900598407
          -1.3984810114 0.086329601705 -0.26900598407 -1.3188999891 0.28086179495 -0.079112000763
          -1.2953740358 0.05793229863 -0.080146998167 -1.5091439486 0.10905019939 -0.055601000786
          -2.2304649353 -0.22556725144 -0.77245599031 -2.4961392879 -0.28663662076 -0.90913802385
          -2.3716421127 -0.18197050691 -0.6025840044 -2.5882301331 -0.30685323477 -0.65421998501
          -2.2304649353 -0.22556725144 -0.77245599031 -2.1139371395 -0.28715011477 -0.97770702839
          -2.1201012135 -0.050273101777 -0.70986998081 -2.0257306099 -0.031649298966 -0.9920539856
          -2.2304649353 -0.22556725144 -0.77245599031 -2.1139371395 -0.28715011477 -0.97770702839
          -2.0371425152 -0.34191715717 -0.78012096882 -2.1201012135 -0.050273101777 -0.70986998081
          -2.2304649353 -0.22556725144 -0.77245599031 -2.0371425152 -0.34191715717 -0.78012096882
          -2.1267375946 -0.28440442681 -0.5801320076 -2.1201012135 -0.050273101777 -0.70986998081
          -2.2304649353 -0.22556725144 -0.77245599031 -2.0371425152 -0.34191715717 -0.78012096882
          -2.1830513477 -0.50529420376 -0.71057498455 -2.1267375946 -0.28440442681 -0.5801320076
          -2.2304649353 -0.22556725144 -0.77245599031 -2.1830513477 -0.50529420376 -0.71057498455
          -2.4249818325 -0.50633567572 -0.6508589983 -2.1267375946 -0.28440442681 -0.5801320076
          1.5581665039 -0.242820099 0.18669840693 1.2453129292 -0.22395838797 0.33866900206
          1.3329657316 0.04662720114 0.17705599964 1.3826347589 0.0027236009482 0.39376598597
          1.5581665039 -0.242820099 0.18669840693 1.3329657316 0.04662720114 0.17705599964
          1.3978904486 -0.12460799515 0.020671008155 1.5601570606 0.064071901143 0.17068810761
          3.9864780903 -0.40239870548 0.92023420334 4.0172262192 -0.24458359182 1.074458003
          3.8676540852 -0.40032818913 1.1280800104 3.7946639061 -0.40322849154 0.91091799736
          3.9864780903 -0.40239870548 0.92023420334 4.0172262192 -0.24458359182 1.074458003
          4.0831799507 -0.39639300108 1.2308779955 3.8676540852 -0.40032818913 1.1280800104
          3.8676540852 -0.40032818913 1.1280800104 4.0172262192 -0.24458359182 1.074458003
          4.0831799507 -0.39639300108 1.2308779955 3.8999164104 -0.26179867983 1.3262170553
          3.8676540852 -0.40032818913 1.1280800104 3.7870020866 -0.19021171331 1.074723959
          4.0172262192 -0.24458359182 1.074458003 3.8999164104 -0.26179867983 1.3262170553
          4.0172262192 -0.24458359182 1.074458003 3.7870020866 -0.19021171331 1.074723959
          3.8676540852 -0.40032818913 1.1280800104 3.7946639061 -0.40322849154 0.91091799736
          1.3844920397 0.52349030972 0.14648000896 1.2691779137 0.37699308991 0.36733099818
          1.543838501 0.32068037987 0.19921569526 1.1881120205 0.31921857595 0.10735101253
          1.2129423618 0.51908618212 0.16832698882 1.1881120205 0.31921857595 0.10735101253
          1.1094706059 0.31878361106 0.31281399727 1.2691779137 0.37699308991 0.36733099818
          3.9359619617 0.090236805379 1.1565029621 3.6909389496 0.12423589826 1.2709879875
          3.8712925911 0.060066998005 1.3235830069 3.7040190697 0.031617399305 1.0519629717
          3.9359619617 0.090236805379 1.1565029621 3.8741321564 0.28035160899 1.3299449682
          3.8712925911 0.060066998005 1.3235830069 3.6909389496 0.12423589826 1.2709879875
          4.0172262192 -0.24458359182 1.074458003 4.1932888031 -0.10509669781 1.111093998
          4.0831799507 -0.39639300108 1.2308779955 4.1478528976 -0.20111000538 1.3932329416
          4.6259679794 -0.40398031473 0.7512139678 4.4079709053 -0.40386489034 0.85058301687
          4.4951000214 -0.40278640389 0.62707102299 4.4464259148 -0.17551660538 0.63643395901
          -0.33674499393 -0.49515008926 -0.82062500715 -0.64104998112 -0.30240130424 -0.9189350009
          -0.32380700111 -0.29127669334 -0.87523800135 -0.47170200944 -0.50193786621 -0.68685621023
          -0.32380700111 -0.29127669334 -0.87523800135 -0.64104998112 -0.30240130424 -0.9189350009
          -0.49614500999 -0.18467617035 -0.78485298157 -0.47170200944 -0.50193786621 -0.68685621023
          -0.41128501296 -0.48971751332 -0.99034798145 -0.20478600264 -0.4216414988 -1.0713649988
          -0.29308599234 -0.22735399008 -1.0733640194 -0.48082599044 -0.31821736693 -1.0916539431
          -0.20980919898 -0.34469109774 -0.28026798368 -0.081785798073 -0.18698275089 -0.35594800115
          -0.264005512 0.0059295003302 -0.30922400951 -0.37324941158 -0.23546770215 -0.36768600345
          -0.37324941158 -0.23546770215 -0.36768600345 -0.29999598861 -0.31015944481 -0.61351531744
          -0.20980919898 -0.34469109774 -0.28026798368 -0.081785798073 -0.18698275089 -0.35594800115
          -0.37324941158 -0.23546770215 -0.36768600345 -0.29999598861 -0.31015944481 -0.61351531744
          -0.26617699862 -0.50942438841 -0.44230300188 -0.20980919898 -0.34469109774 -0.28026798368
          -0.39079099894 -0.51813417673 -0.27170100808 -0.37324941158 -0.23546770215 -0.36768600345
          -0.26617699862 -0.50942438841 -0.44230300188 -0.20980919898 -0.34469109774 -0.28026798368
          -0.39079099894 -0.51813417673 -0.27170100808 -0.20980919898 -0.34469109774 -0.28026798368
          -0.26617699862 -0.50942438841 -0.44230300188 -0.082211501896 -0.51397901773 -0.23908998072
          -0.39079099894 -0.51813417673 -0.27170100808 -0.32340180874 -0.46025699377 -0.078377000988
          -0.20980919898 -0.34469109774 -0.28026798368 -0.082211501896 -0.51397901773 -0.23908998072
          -0.32340180874 -0.46025699377 -0.078377000988 -0.20980919898 -0.34469109774 -0.28026798368
          -0.082211501896 -0.51397901773 -0.23908998072 -0.15025900304 -0.48696991801 -0.053991999477
          -0.32340180874 -0.46025699377 -0.078377000988 -0.22414989769 -0.31539151073 -0.059500001371
          -0.20980919898 -0.34469109774 -0.28026798368 -0.15025900304 -0.48696991801 -0.053991999477
          -0.15025900304 -0.48696991801 -0.053991999477 -0.22414989769 -0.31539151073 -0.059500001371
          -0.20980919898 -0.34469109774 -0.28026798368 -0.056981399655 -0.33009880781 -0.03277400136
          -0.15025900304 -0.48696991801 -0.053991999477 -0.20980919898 -0.34469109774 -0.28026798368
          -0.082211501896 -0.51397901773 -0.23908998072 -0.056981399655 -0.33009880781 -0.03277400136
          -0.20980919898 -0.34469109774 -0.28026798368 -0.096773996949 -0.50181341171 -0.56035459042
          -0.26617699862 -0.50942438841 -0.44230300188 -0.082211501896 -0.51397901773 -0.23908998072
          -0.096773996949 -0.50181341171 -0.56035459042 -0.20980919898 -0.34469109774 -0.28026798368
          0.082827799022 -0.50211364031 -0.4565897882 -0.082211501896 -0.51397901773 -0.23908998072
          -0.096773996949 -0.50181341171 -0.56035459042 -0.081785798073 -0.18698275089 -0.35594800115
          0.082827799022 -0.50211364031 -0.4565897882 -0.20980919898 -0.34469109774 -0.28026798368
          -0.055491000414 -0.26846665144 -0.58021008968 -0.096773996949 -0.50181341171 -0.56035459042
          -0.20980919898 -0.34469109774 -0.28026798368 -0.081785798073 -0.18698275089 -0.35594800115
          -0.29999598861 -0.31015944481 -0.61351531744 -0.055491000414 -0.26846665144 -0.58021008968
          -0.20980919898 -0.34469109774 -0.28026798368 -0.081785798073 -0.18698275089 -0.35594800115
          -0.29999598861 -0.31015944481 -0.61351531744 -0.055491000414 -0.26846665144 -0.58021008968
          -0.26617699862 -0.50942438841 -0.44230300188 -0.20980919898 -0.34469109774 -0.28026798368
          -0.055491000414 -0.26846665144 -0.58021008968 -0.096773996949 -0.50181341171 -0.56035459042
          -0.26617699862 -0.50942438841 -0.44230300188 -0.20980919898 -0.34469109774 -0.28026798368
          4.0205068588 0.28315189481 1.0268609524 4.0558829308 0.27783259749 1.3923959732
          4.0298194885 0.42154958844 1.3837649822 4.2713618279 0.37677168846 1.2242929935
          4.0205068588 0.28315189481 1.0268609524 4.0558829308 0.27783259749 1.3923959732
          4.2345128059 0.15581940114 1.1804380417 3.9359619617 0.090236805379 1.1565029621
          4.0205068588 0.28315189481 1.0268609524 4.0558829308 0.27783259749 1.3923959732
          4.2713618279 0.37677168846 1.2242929935 4.2345128059 0.15581940114 1.1804380417
          4.0205068588 0.28315189481 1.0268609524 3.8319048882 0.3724052906 1.1257870197
          4.0298194885 0.42154958844 1.3837649822 4.0558829308 0.27783259749 1.3923959732
          4.0205068588 0.28315189481 1.0268609524 3.8319048882 0.3724052906 1.1257870197
          4.0558829308 0.27783259749 1.3923959732 3.8741321564 0.28035160899 1.3299449682
          0.31029599905 -0.48520949483 -0.72552001476 0.0033680000342 -0.49371635914 -0.68691200018
          0.23998099566 -0.31517469883 -0.51127868891 0.082827799022 -0.50211364031 -0.4565897882
          1.1398986578 -0.010146999732 0.071502000093 1.1881120205 0.31921857595 0.10735101253
          1.3544540405 0.20737339556 0.028903007507 1.3329657316 0.04662720114 0.17705599964
          3.3482620716 -0.41061788797 0.17992399633 3.4389131069 -0.21940618753 0.24159599841
          3.3344159126 -0.41385099292 0.43574500084 3.2239820957 -0.14030811191 0.26961100101
          3.4389131069 -0.21940618753 0.24159599841 3.3482620716 -0.41061788797 0.17992399633
          3.3262090683 -0.35399842262 -0.029642999172 3.2239820957 -0.14030811191 0.26961100101
          -4.0265545845 -0.28167268634 0.21848671138 -4.1561627388 -0.30235728621 0.4173707962
          -4.0673441887 -0.49335995317 0.36177811027 -4.2297291756 -0.32805991173 0.13521359861
          -4.2297291756 -0.32805991173 0.13521359861 -4.1840386391 -0.02179926075 0.21181380749
          -4.3568739891 -0.16453392804 0.20460030437 -4.1034150124 -0.18890102208 0.022778199986
          -1.8959770203 0.26786220074 -0.15826401114 -2.0947520733 0.29650449753 -0.21109998226
          -1.8419760466 0.17466241121 -0.33885499835 -2.0245499611 0.48440909386 -0.34754398465
          2.5682160854 -0.13655368984 -0.3176009953 2.3959000111 -0.2165030092 -0.38119700551
          2.5325028896 -0.2637206018 -0.12680798769 2.7099030018 -0.25898209214 -0.27057000995
          -1.8772009611 0.48616209626 -0.20101100206 -2.0947520733 0.29650449753 -0.21109998226
          -1.8959770203 0.26786220074 -0.15826401114 -2.0245499611 0.48440909386 -0.34754398465
          3.8910729885 -0.40569660068 0.7535443902 3.8193171024 -0.21124768257 0.82013428211
          4.0511579514 -0.20270109177 0.7991797924 3.9864780903 -0.40239870548 0.92023420334
          4.0511579514 -0.20270109177 0.7991797924 3.8193171024 -0.21124768257 0.82013428211
          4.0172262192 -0.24458359182 1.074458003 3.9864780903 -0.40239870548 0.92023420334
          4.0511579514 -0.20270109177 0.7991797924 3.8193171024 -0.21124768257 0.82013428211
          3.9209868908 -0.049528494477 0.94006299973 4.0172262192 -0.24458359182 1.074458003
          3.8193171024 -0.21124768257 0.82013428211 3.7870020866 -0.19021171331 1.074723959
          3.9209868908 -0.049528494477 0.94006299973 4.0172262192 -0.24458359182 1.074458003
          3.8193171024 -0.21124768257 0.82013428211 3.7870020866 -0.19021171331 1.074723959
          4.0172262192 -0.24458359182 1.074458003 3.7946639061 -0.40322849154 0.91091799736
          3.9864780903 -0.40239870548 0.92023420334 3.8193171024 -0.21124768257 0.82013428211
          4.0172262192 -0.24458359182 1.074458003 3.7946639061 -0.40322849154 0.91091799736
          3.7946639061 -0.40322849154 0.91091799736 3.599364996 -0.13409550488 0.90844702721
          3.8193171024 -0.21124768257 0.82013428211 3.7870020866 -0.19021171331 1.074723959
          4.9471430779 0.61130398512 0.85095900297 4.9800801277 0.31590399146 0.82129001617
          5.0476732254 0.61224198341 1.0092389584 5.250415802 0.44116699696 0.96342402697
          3.8193171024 -0.21124768257 0.82013428211 3.599364996 -0.13409550488 0.90844702721
          3.9209868908 -0.049528494477 0.94006299973 3.7870020866 -0.19021171331 1.074723959
          3.599364996 -0.13409550488 0.90844702721 3.6307458878 0.097795702517 0.69470512867
          3.8193171024 -0.21124768257 0.82013428211 3.9209868908 -0.049528494477 0.94006299973
          3.8193171024 -0.21124768257 0.82013428211 3.6307458878 0.097795702517 0.69470512867
          3.8472468853 0.14682120085 0.8287910223 3.9209868908 -0.049528494477 0.94006299973
          3.8193171024 -0.21124768257 0.82013428211 3.8472468853 0.14682120085 0.8287910223
          3.9133279324 -0.075963594019 0.57894998789 3.9209868908 -0.049528494477 0.94006299973
          -1.6661914587 0.0097754001617 -0.81471097469 -1.7870930433 -0.33796232939 -0.8220590353
          -1.901250124 -0.024264600128 -0.80353200436 -1.5961900949 -0.24007625878 -0.77421802282
          3.3910770416 0.58322429657 0.34406098723 3.3937470913 0.42309600115 0.025817999616
          3.3498690128 0.38853508234 0.25040599704 3.5310690403 0.59044080973 0.18322899938
          3.3498690128 0.38853508234 0.25040599704 3.3937470913 0.42309600115 0.025817999616
          3.6242129803 0.38442382216 0.12190700322 3.5310690403 0.59044080973 0.18322899938
          -1.6661914587 0.0097754001617 -0.81471097469 -1.8654859066 -0.17263565958 -1.0173939466
          -1.901250124 -0.024264600128 -0.80353200436 -1.7870930433 -0.33796232939 -0.8220590353
          3.3498690128 0.38853508234 0.25040599704 3.3937470913 0.42309600115 0.025817999616
          3.4725759029 0.18676179647 0.05072100088 3.6242129803 0.38442382216 0.12190700322
          3.3498690128 0.38853508234 0.25040599704 3.1981549263 0.12413520366 0.16969101131
          3.4725759029 0.18676179647 0.05072100088 3.3937470913 0.42309600115 0.025817999616
          3.3498690128 0.38853508234 0.25040599704 3.4725759029 0.18676179647 0.05072100088
          3.1981549263 0.12413520366 0.16969101131 3.4166619778 0.065547503531 0.28209301829
          1.2129423618 0.51908618212 0.16832698882 1.1526219845 0.50362443924 0.33146899939
          1.1094706059 0.31878361106 0.31281399727 1.027140975 0.51393949986 0.19080199301
          2.5104129314 -0.4431695044 0.58892899752 2.4307379723 -0.44270971417 0.40620398521
          2.6416110992 -0.43433389068 0.39271500707 2.5335454941 -0.19222688675 0.50451397896
          1.027140975 0.51393949986 0.19080199301 0.86728978157 0.51141232252 0.092799015343
          0.92705971003 0.28618240356 0.2508969903 1.0401221514 0.23939830065 -0.032525006682
          1.027140975 0.51393949986 0.19080199301 0.92705971003 0.28618240356 0.2508969903
          0.86728978157 0.51141232252 0.092799015343 0.75077849627 0.37738004327 0.19743099809
          3.6680510044 -0.16187010705 0.64812618494 3.599364996 -0.13409550488 0.90844702721
          3.49279809 -0.41079649329 0.65922492743 3.3867809772 -0.23781871796 0.5709104538
          3.6680510044 -0.16187010705 0.64812618494 3.599364996 -0.13409550488 0.90844702721
          3.3867809772 -0.23781871796 0.5709104538 3.3097200394 -0.10290320963 0.73021501303
          -2.7288138866 0.4837333858 0.065889015794 -2.761079073 0.3002846241 0.17035700381
          -2.5757539272 0.34280958772 0.13254100084 -2.8941919804 0.276453197 -0.0076509867795
          -2.7288138866 0.4837333858 0.065889015794 -2.5757539272 0.34280958772 0.13254100084
          -2.638958931 0.48359829187 -0.078652016819 -2.8941919804 0.276453197 -0.0076509867795
          -2.7288138866 0.4837333858 0.065889015794 -2.5757539272 0.34280958772 0.13254100084
          -2.5093328953 0.4845136106 0.027746003121 -2.638958931 0.48359829187 -0.078652016819
          0.9641879797 0.46827450395 -0.81677001715 0.89502197504 0.51158940792 -0.54344600439
          0.94843697548 0.30960980058 -0.61462700367 0.70296800137 0.32958817482 -0.69135397673
          0.9641879797 0.46827450395 -0.81677001715 0.70296800137 0.32958817482 -0.69135397673
          0.94843697548 0.30960980058 -0.61462700367 0.8415030241 0.30299159884 -0.85388797522
          -2.4908249378 0.11884979904 -0.11749400944 -2.7577950954 0.15421199799 -0.14046099782
          -2.5757539272 0.34280958772 0.13254100084 -2.5005450249 0.17306339741 0.11759500206
          0.70296800137 0.32958817482 -0.69135397673 0.76200997829 0.19809819758 -0.53690600395
          0.94843697548 0.30960980058 -0.61462700367 0.94738799334 0.12911939621 -0.82793599367
          0.89502197504 0.51158940792 -0.54344600439 0.76200997829 0.19809819758 -0.53690600395
          0.94843697548 0.30960980058 -0.61462700367 0.70296800137 0.32958817482 -0.69135397673
          -2.8941919804 0.276453197 -0.0076509867795 -2.5757539272 0.34280958772 0.13254100084
          -2.638958931 0.48359829187 -0.078652016819 -2.7577950954 0.15421199799 -0.14046099782
          -2.8941919804 0.276453197 -0.0076509867795 -2.761079073 0.3002846241 0.17035700381
          -2.5757539272 0.34280958772 0.13254100084 -2.7577950954 0.15421199799 -0.14046099782
          -2.7577950954 0.15421199799 -0.14046099782 -2.761079073 0.3002846241 0.17035700381
          -2.5757539272 0.34280958772 0.13254100084 -2.5005450249 0.17306339741 0.11759500206
          1.1638020277 0.033433400095 -0.21218000352 1.4434380531 -0.14066420496 -0.32838499546
          1.1370209455 -0.2310988009 -0.34101459384 1.1842939854 -0.12854279578 -0.092633001506
          3.0793170929 -0.24457119405 0.11937200278 3.1400530338 -0.41660821438 0.24456399679
          3.3262090683 -0.35399842262 -0.029642999172 2.9632070065 -0.41506269574 -0.063951998949
          3.3482620716 -0.41061788797 0.17992399633 3.1400530338 -0.41660821438 0.24456399679
          3.3262090683 -0.35399842262 -0.029642999172 3.0793170929 -0.24457119405 0.11937200278
          3.3482620716 -0.41061788797 0.17992399633 3.0793170929 -0.24457119405 0.11937200278
          3.3262090683 -0.35399842262 -0.029642999172 3.2239820957 -0.14030811191 0.26961100101
          3.3482620716 -0.41061788797 0.17992399633 3.1400530338 -0.41660821438 0.24456399679
          3.0793170929 -0.24457119405 0.11937200278 3.2239820957 -0.14030811191 0.26961100101
          0.98700541258 -0.19875110686 -0.078704997897 0.97177040577 0.064062602818 -0.1233580038
          1.1842939854 -0.12854279578 -0.092633001506 1.1398986578 -0.010146999732 0.071502000093
          3.3469219208 -0.1246156022 -0.013377999887 3.2239820957 -0.14030811191 0.26961100101
          3.3262090683 -0.35399842262 -0.029642999172 3.0793170929 -0.24457119405 0.11937200278
          3.3469219208 -0.1246156022 -0.013377999887 3.0793170929 -0.24457119405 0.11937200278
          3.3262090683 -0.35399842262 -0.029642999172 3.1675219536 -0.22371681035 -0.091278001666
          3.0793170929 -0.24457119405 0.11937200278 2.9183690548 -0.10514099896 0.18946899474
          3.1375620365 -0.015359799378 -0.09573700279 2.9649469852 0.070412486792 0.048234000802
          1.7837769985 -0.11298939586 0.15795660019 1.8784749508 -0.24840208888 0.010538879782
          1.9838659763 -0.058840800077 0.22020068765 2.0688860416 -0.10810660571 -0.024964602664
          -3.0187089443 -0.037960600108 0.018444009125 -2.9013741016 -0.1873832345 0.19913700223
          -2.7196071148 0.012619300745 0.16217699647 -2.7996120453 -0.02800030075 -0.034934002906
          -3.0187089443 -0.037960600108 0.018444009125 -2.9013741016 -0.1873832345 0.19913700223
          -2.7996120453 -0.02800030075 -0.034934002906 -2.8014369011 -0.27421984076 -0.022419007495
          -2.9204330444 -0.13243819773 -0.19507199526 -2.8014369011 -0.27421984076 -0.022419007495
          -3.0187089443 -0.037960600108 0.018444009125 -2.7996120453 -0.02800030075 -0.034934002906
          -2.7996120453 -0.02800030075 -0.034934002906 -2.9013741016 -0.1873832345 0.19913700223
          -2.7196071148 0.012619300745 0.16217699647 -2.8014369011 -0.27421984076 -0.022419007495
          -2.7996120453 -0.02800030075 -0.034934002906 -2.8014369011 -0.27421984076 -0.022419007495
          -2.7196071148 0.012619300745 0.16217699647 -2.5996620655 -0.2836445868 0.13820500672
          -2.4908249378 0.11884979904 -0.11749400944 -2.7196071148 0.012619300745 0.16217699647
          -2.7996120453 -0.02800030075 -0.034934002906 -2.7577950954 0.15421199799 -0.14046099782
          -2.4908249378 0.11884979904 -0.11749400944 -2.7996120453 -0.02800030075 -0.034934002906
          -2.5937309265 -0.094380997121 -0.091197997332 -2.7577950954 0.15421199799 -0.14046099782
          -2.4908249378 0.11884979904 -0.11749400944 -2.7196071148 0.012619300745 0.16217699647
          -2.5937309265 -0.094380997121 -0.091197997332 -2.7996120453 -0.02800030075 -0.034934002906
          0.073762997985 0.35499945283 -1.0218420029 -0.091403998435 0.28790903091 -0.89287102222
          -0.22330099344 0.23585693538 -1.0619950294 -0.25258800387 0.48134300113 -1.0479999781
          0.073762997985 0.35499945283 -1.0218420029 0.073527999222 0.1395072788 -1.023146987
          -0.22330099344 0.23585693538 -1.0619950294 -0.091403998435 0.28790903091 -0.89287102222
          0.15515929461 0.27147474885 -0.81783097982 0.073527999222 0.1395072788 -1.023146987
          0.073762997985 0.35499945283 -1.0218420029 -0.091403998435 0.28790903091 -0.89287102222
          -0.25258800387 0.48134300113 -1.0479999781 -0.091403998435 0.28790903091 -0.89287102222
          -0.22330099344 0.23585693538 -1.0619950294 -0.33919200301 0.20730000734 -0.79884600639
          -0.25258800387 0.48134300113 -1.0479999781 -0.091403998435 0.28790903091 -0.89287102222
          -0.33919200301 0.20730000734 -0.79884600639 -0.3020440042 0.48588180542 -0.73787802458
          -0.25258800387 0.48134300113 -1.0479999781 -0.10962300003 0.48779779673 -0.82918798923
          -0.091403998435 0.28790903091 -0.89287102222 -0.3020440042 0.48588180542 -0.73787802458
          -1.7018979788 0.48639988899 -0.31914901733 -2.0245499611 0.48440909386 -0.34754398465
          -1.9025046825 0.29032579064 -0.52002221346 -1.9671391249 0.48218691349 -0.52298557758
          -1.7018979788 0.48639988899 -0.31914901733 -2.0245499611 0.48440909386 -0.34754398465
          -1.7097920179 0.31207630038 -0.45334500074 -1.9025046825 0.29032579064 -0.52002221346
          -1.7097920179 0.31207630038 -0.45334500074 -1.9025046825 0.29032579064 -0.52002221346
          -1.8747121096 0.0029144007713 -0.49748280644 -1.6599514484 0.24216479063 -0.65762501955
          -1.9025046825 0.29032579064 -0.52002221346 -2.0245499611 0.48440909386 -0.34754398465
          -2.0933618546 0.23922790587 -0.44598591328 -1.9671391249 0.48218691349 -0.52298557758
          -1.9671391249 0.48218691349 -0.52298557758 -2.0836164951 0.47975090146 -0.66095596552
          -2.0933618546 0.23922790587 -0.44598591328 -1.9025046825 0.29032579064 -0.52002221346
          2.5151159763 0.5552688241 0.37893998623 2.8252680302 0.56484931707 0.31118530035
          2.6138679981 0.31076711416 0.28303608298 2.8127799034 0.36863431334 0.39534589648
          2.7146170139 0.56399077177 0.092618003488 2.6138679981 0.31076711416 0.28303608298
          2.8252680302 0.56484931707 0.31118530035 2.8127799034 0.36863431334 0.39534589648
          2.7146170139 0.56399077177 0.092618003488 2.8127799034 0.36863431334 0.39534589648
          2.8252680302 0.56484931707 0.31118530035 2.7448999882 0.34383347631 0.0055840001442
          2.7146170139 0.56399077177 0.092618003488 2.6138679981 0.31076711416 0.28303608298
          2.8127799034 0.36863431334 0.39534589648 2.7448999882 0.34383347631 0.0055840001442
          2.7448999882 0.34383347631 0.0055840001442 2.6138679981 0.31076711416 0.28303608298
          2.8127799034 0.36863431334 0.39534589648 2.8881449699 0.23836348951 0.18792100251
          2.7448999882 0.34383347631 0.0055840001442 2.8127799034 0.36863431334 0.39534589648
          2.8252680302 0.56484931707 0.31118530035 2.8881449699 0.23836348951 0.18792100251
          2.6138679981 0.31076711416 0.28303608298 2.8881449699 0.23836348951 0.18792100251
          2.8575510979 0.064445592463 0.36333754659 2.8127799034 0.36863431334 0.39534589648
          2.6138679981 0.31076711416 0.28303608298 2.8127799034 0.36863431334 0.39534589648
          2.8575510979 0.064445592463 0.36333754659 2.7912619114 0.22470119596 0.5612180233
          -2.9620211124 -0.34429514408 0.21156999469 -3.0995531082 -0.23698805273 0.23871299624
          -3.1268720627 -0.40328606963 0.24481900036 -3.0159440041 -0.32825475931 -0.049925994128
          -2.9620211124 -0.34429514408 0.21156999469 -3.0159440041 -0.32825475931 -0.049925994128
          -3.1268720627 -0.40328606963 0.24481900036 -3.1343755722 -0.50439548492 -0.0088849952444
          -2.9620211124 -0.34429514408 0.21156999469 -3.1343755722 -0.50439548492 -0.0088849952444
          -2.8371300697 -0.46261897683 0.18645299971 -3.0159440041 -0.32825475931 -0.049925994128
          -2.8014369011 -0.27421984076 -0.022419007495 -2.9620211124 -0.34429514408 0.21156999469
          -2.8371300697 -0.46261897683 0.18645299971 -3.0159440041 -0.32825475931 -0.049925994128
          -2.8014369011 -0.27421984076 -0.022419007495 -3.0159440041 -0.32825475931 -0.049925994128
          -2.8371300697 -0.46261897683 0.18645299971 -2.8594679832 -0.50669443607 -0.096579000354
          -3.0159440041 -0.32825475931 -0.049925994128 -3.1343755722 -0.50439548492 -0.0088849952444
          -2.8371300697 -0.46261897683 0.18645299971 -2.8594679832 -0.50669443607 -0.096579000354
          -3.0159440041 -0.32825475931 -0.049925994128 -3.1989395618 -0.20423613489 -0.036946997046
          -3.1268720627 -0.40328606963 0.24481900036 -3.1343755722 -0.50439548492 -0.0088849952444
          -3.0159440041 -0.32825475931 -0.049925994128 -3.0995531082 -0.23698805273 0.23871299624
          -3.1268720627 -0.40328606963 0.24481900036 -3.1989395618 -0.20423613489 -0.036946997046
          1.8784749508 -0.24840208888 0.010538879782 1.6362780333 -0.19434309006 -0.1196873039
          1.9164220095 -0.13674210012 -0.17615103722 1.8809980154 0.037144001573 -0.0096619697288
          4.7822642326 -0.20231451094 0.72078299522 4.9587922096 -0.11951480061 0.84872800112
          4.9700870514 -0.40666720271 0.87981498241 4.7853469849 -0.40575119853 0.83861100674
          4.6309452057 0.20724229515 0.45776200294 4.548661232 0.31044599414 0.7846570015
          4.7792887688 0.17319969833 0.70396101475 4.6400561333 0.033197704703 0.65296798944
          1.7837769985 -0.11298939586 0.15795660019 1.6362780333 -0.19434309006 -0.1196873039
          1.8784749508 -0.24840208888 0.010538879782 1.8809980154 0.037144001573 -0.0096619697288
          2.1206483841 -0.27323719859 0.41196197271 1.8317303658 -0.34591260552 0.53505861759
          1.912476182 -0.21805660427 0.34040221572 1.9537478685 -0.17958140373 0.5853844285
          1.912476182 -0.21805660427 0.34040221572 2.1206483841 -0.27323719859 0.41196197271
          1.9537478685 -0.17958140373 0.5853844285 2.0134241581 0.082406297326 0.37211599946
          4.6309452057 0.20724229515 0.45776200294 4.86105299 0.0081822015345 0.50044000149
          4.6400561333 0.033197704703 0.65296798944 4.7792887688 0.17319969833 0.70396101475
          2.1206483841 -0.27323719859 0.41196197271 2.2780179977 -0.12498279661 0.35640898347
          2.0783751011 -0.022333201021 0.63662797213 2.0134241581 0.082406297326 0.37211599946
          1.9537478685 -0.17958140373 0.5853844285 2.1206483841 -0.27323719859 0.41196197271
          2.0783751011 -0.022333201021 0.63662797213 2.0134241581 0.082406297326 0.37211599946
          2.1206483841 -0.27323719859 0.41196197271 2.1862559319 -0.44939181209 0.30064499378
          2.4038360119 -0.2405732125 0.18867635727 2.0660989285 -0.22966709733 0.14300569892
          -4.5090827942 0.30276152492 -0.34050369263 -4.6960554123 0.49519553781 -0.24164129794
          -4.4126858711 0.49212142825 -0.31948131323 -4.4985280037 0.48879349232 -0.082372002304
          -4.4126858711 0.49212142825 -0.31948131323 -4.4985280037 0.48879349232 -0.082372002304
          -4.3738183975 0.24991054833 -0.14364899695 -4.5090827942 0.30276152492 -0.34050369263
          -4.67258358 0.49731987715 -0.45437440276 -4.4787201881 0.49494040012 -0.53550213575
          -4.5090827942 0.30276152492 -0.34050369263 -4.4126858711 0.49212142825 -0.31948131323
          -4.4787201881 0.49494040012 -0.53550213575 -4.5090827942 0.30276152492 -0.34050369263
          -4.4126858711 0.49212142825 -0.31948131323 -4.2976675034 0.29178825021 -0.37512549758
          -1.5839049816 -0.51631599665 -0.24902200699 -1.5985989571 -0.27739399672 -0.2576969862
          -1.6751329899 -0.51861619949 -0.069551989436 -1.8229030371 -0.51682400703 -0.13109901547
          -2.6538431644 0.18475399911 -0.59675198793 -2.8732545376 0.220630005 -0.8351380229
          -2.819904089 0.037339199334 -0.66302698851 -2.6686131954 0.11487980187 -0.87576198578
          2.2603468895 0.54986870289 0.12335199863 2.4791090488 0.55759829283 0.014952993952
          2.4682879448 0.38555598259 -0.10436999053 2.3807709217 0.34840109944 0.17629000545
          1.1713650227 -0.47730788589 -0.15520529449 1.178434968 -0.4816032052 0.03579299897
          0.98844081163 -0.48904711008 0.035179998726 1.1952601671 -0.29477098584 0.064541012049
          -2.8941919804 0.276453197 -0.0076509867795 -2.9699950218 0.48249959946 -0.0066279866733
          -3.1628189087 0.48208609223 0.07378398627 -3.0849509239 0.17763519287 -0.079053997993
          -2.3400249481 -0.19343669713 -0.23309500515 -2.2283110619 -0.34106051922 -0.12456599623
          -2.3502340317 -0.11054370552 0.087472997606 -2.2999050617 -0.0097464201972 -0.11074100435
          -2.2283110619 -0.34106051922 -0.12456599623 -2.2999050617 -0.0097464201972 -0.11074100435
          -2.3400249481 -0.19343669713 -0.23309500515 -2.0592620373 -0.25566390157 -0.23402400315
          1.5337500572 0.41599822044 -0.64482402802 1.3801549673 0.52707129717 -0.58447301388
          1.40358603 0.24286289513 -0.3494130075 1.323251009 0.38888579607 -0.71256399155
          -2.3400249481 -0.19343669713 -0.23309500515 -2.3835964203 -0.32359841466 -0.41965642571
          -2.3604021072 -0.51019489765 -0.16444499791 -2.2283110619 -0.34106051922 -0.12456599623
          -2.1631000042 -0.090172797441 0.050840999931 -2.2999050617 -0.0097464201972 -0.11074100435
          -2.2283110619 -0.34106051922 -0.12456599623 -2.0592620373 -0.25566390157 -0.23402400315
          -2.2283110619 -0.34106051922 -0.12456599623 -2.1631000042 -0.090172797441 0.050840999931
          -2.3502340317 -0.11054370552 0.087472997606 -2.2999050617 -0.0097464201972 -0.11074100435
          -2.1631000042 -0.090172797441 0.050840999931 -2.3048820496 -0.31219279766 0.078204996884
          -2.2283110619 -0.34106051922 -0.12456599623 -2.3502340317 -0.11054370552 0.087472997606
          -2.2283110619 -0.34106051922 -0.12456599623 -2.3538520336 -0.5108473897 0.052726007998
          -2.1452450752 -0.48567259312 0.046202000231 -2.3604021072 -0.51019489765 -0.16444499791
          0.31595930457 -0.22976750135 -0.98769599199 0.37125998735 -0.47539919615 -0.97635698318
          0.48899298906 -0.47851881385 -0.81525802612 0.54373598099 -0.25898191333 -0.94053697586
          0.93168497086 0.052144400775 -0.6099550128 0.94843697548 0.30960980058 -0.61462700367
          1.1091860533 0.2945098877 -0.77885699272 1.2272870541 0.18516859412 -0.74592202902
          1.3034750223 0.047147899866 -0.72722101212 1.1848659515 -0.12604640424 -0.76831799746
          1.1139479876 0.04362449795 -0.78375899792 1.1442159414 -0.0049022994936 -0.49735999107
          1.1139479876 0.04362449795 -0.78375899792 1.1442159414 -0.0049022994936 -0.49735999107
          1.2272870541 0.18516859412 -0.74592202902 1.3034750223 0.047147899866 -0.72722101212
          2.4686999321 0.064002029598 -0.14970698953 2.3845460415 0.082077801228 -0.37291699648
          2.3959000111 -0.2165030092 -0.38119700551 2.5682160854 -0.13655368984 -0.3176009953
          2.5682160854 -0.13655368984 -0.3176009953 2.2007000446 -0.030069796368 -0.17213380337
          2.3959000111 -0.2165030092 -0.38119700551 2.4686999321 0.064002029598 -0.14970698953
          2.4686999321 0.064002029598 -0.14970698953 2.3845460415 0.082077801228 -0.37291699648
          2.5682160854 -0.13655368984 -0.3176009953 2.6714880466 0.016336200759 -0.27357900143
          1.1091860533 0.2945098877 -0.77885699272 1.2660080194 0.1764563024 -0.51763701439
          1.323251009 0.38888579607 -0.71256399155 1.2272870541 0.18516859412 -0.74592202902
          1.2272870541 0.18516859412 -0.74592202902 0.94843697548 0.30960980058 -0.61462700367
          1.1091860533 0.2945098877 -0.77885699272 1.2660080194 0.1764563024 -0.51763701439
          0.93168497086 0.052144400775 -0.6099550128 0.94843697548 0.30960980058 -0.61462700367
          1.2272870541 0.18516859412 -0.74592202902 1.2660080194 0.1764563024 -0.51763701439
          0.93168497086 0.052144400775 -0.6099550128 1.2660080194 0.1764563024 -0.51763701439
          1.2272870541 0.18516859412 -0.74592202902 1.1442159414 -0.0049022994936 -0.49735999107
          0.93168497086 0.052144400775 -0.6099550128 1.0754319429 0.25025811791 -0.42730200291
          1.2660080194 0.1764563024 -0.51763701439 1.1442159414 -0.0049022994936 -0.49735999107
          0.93168497086 0.052144400775 -0.6099550128 0.94843697548 0.30960980058 -0.61462700367
          1.2660080194 0.1764563024 -0.51763701439 1.0754319429 0.25025811791 -0.42730200291
          1.2660080194 0.1764563024 -0.51763701439 0.94843697548 0.30960980058 -0.61462700367
          1.1091860533 0.2945098877 -0.77885699272 1.0754319429 0.25025811791 -0.42730200291
          1.0754319429 0.25025811791 -0.42730200291 1.1638020277 0.033433400095 -0.21218000352
          1.2660080194 0.1764563024 -0.51763701439 1.1442159414 -0.0049022994936 -0.49735999107
          1.3804830313 -0.0036427995656 -0.4926970005 1.2660080194 0.1764563024 -0.51763701439
          1.1638020277 0.033433400095 -0.21218000352 1.1442159414 -0.0049022994936 -0.49735999107
          1.1442159414 -0.0049022994936 -0.49735999107 1.3804830313 -0.0036427995656 -0.4926970005
          1.2660080194 0.1764563024 -0.51763701439 1.3034750223 0.047147899866 -0.72722101212
          1.1442159414 -0.0049022994936 -0.49735999107 1.2660080194 0.1764563024 -0.51763701439
          1.2272870541 0.18516859412 -0.74592202902 1.3034750223 0.047147899866 -0.72722101212
          1.2272870541 0.18516859412 -0.74592202902 1.2660080194 0.1764563024 -0.51763701439
          1.3930920362 0.21471090615 -0.69503098726 1.3034750223 0.047147899866 -0.72722101212
          1.2272870541 0.18516859412 -0.74592202902 1.2660080194 0.1764563024 -0.51763701439
          1.323251009 0.38888579607 -0.71256399155 1.3930920362 0.21471090615 -0.69503098726
          1.5337500572 0.41599822044 -0.64482402802 1.2660080194 0.1764563024 -0.51763701439
          1.3930920362 0.21471090615 -0.69503098726 1.323251009 0.38888579607 -0.71256399155
          1.5337500572 0.41599822044 -0.64482402802 1.40358603 0.24286289513 -0.3494130075
          1.2660080194 0.1764563024 -0.51763701439 1.323251009 0.38888579607 -0.71256399155
          1.5337500572 0.41599822044 -0.64482402802 1.40358603 0.24286289513 -0.3494130075
          1.3930920362 0.21471090615 -0.69503098726 1.2660080194 0.1764563024 -0.51763701439
          1.40358603 0.24286289513 -0.3494130075 1.5854810476 0.084593199193 -0.4168010056
          1.3930920362 0.21471090615 -0.69503098726 1.2660080194 0.1764563024 -0.51763701439
          1.2660080194 0.1764563024 -0.51763701439 1.5854810476 0.084593199193 -0.4168010056
          1.3930920362 0.21471090615 -0.69503098726 1.5145740509 0.068407997489 -0.66118901968
          1.2660080194 0.1764563024 -0.51763701439 1.5145740509 0.068407997489 -0.66118901968
          1.3930920362 0.21471090615 -0.69503098726 1.3034750223 0.047147899866 -0.72722101212
          1.3804830313 -0.0036427995656 -0.4926970005 1.5145740509 0.068407997489 -0.66118901968
          1.2660080194 0.1764563024 -0.51763701439 1.3034750223 0.047147899866 -0.72722101212
          1.3804830313 -0.0036427995656 -0.4926970005 1.5854810476 0.084593199193 -0.4168010056
          1.2660080194 0.1764563024 -0.51763701439 1.5145740509 0.068407997489 -0.66118901968
          -2.2913610935 0.16144010425 -0.25700899959 -2.2799999714 0.29279088974 0.072902999818
          -2.2999050617 -0.0097464201972 -0.11074100435 -2.4349720478 0.31375589967 -0.069557994604
          -2.3905160427 0.48403820395 -0.18478998542 -2.1859169006 0.48576170206 -0.060932002962
          -2.0947520733 0.29650449753 -0.21109998226 -2.4349720478 0.31375589967 -0.069557994604
          -2.5502791405 0.25031089783 -0.30732250214 -2.7577950954 0.15421199799 -0.14046099782
          -2.4349720478 0.31375589967 -0.069557994604 -2.4908249378 0.11884979904 -0.11749400944
          -2.3905160427 0.48403820395 -0.18478998542 -2.5502791405 0.25031089783 -0.30732250214
          -2.638958931 0.48359829187 -0.078652016819 -2.4349720478 0.31375589967 -0.069557994604
          -2.3905160427 0.48403820395 -0.18478998542 -2.638958931 0.48359829187 -0.078652016819
          -2.5093328953 0.4845136106 0.027746003121 -2.4349720478 0.31375589967 -0.069557994604
          -2.3905160427 0.48403820395 -0.18478998542 -2.4349720478 0.31375589967 -0.069557994604
          -2.2913610935 0.16144010425 -0.25700899959 -2.5502791405 0.25031089783 -0.30732250214
          3.3498690128 0.38853508234 0.25040599704 3.5310690403 0.59044080973 0.18322899938
          3.6242129803 0.38442382216 0.12190700322 3.5936889648 0.39519989491 0.35134500265
          3.3910770416 0.58322429657 0.34406098723 3.5310690403 0.59044080973 0.18322899938
          3.3498690128 0.38853508234 0.25040599704 3.5936889648 0.39519989491 0.35134500265
          3.4329230785 0.25877740979 0.41826298833 3.3910770416 0.58322429657 0.34406098723
          3.3498690128 0.38853508234 0.25040599704 3.5936889648 0.39519989491 0.35134500265
          -2.4349720478 0.31375589967 -0.069557994604 -2.4908249378 0.11884979904 -0.11749400944
          -2.2913610935 0.16144010425 -0.25700899959 -2.5502791405 0.25031089783 -0.30732250214
          3.4191789627 0.57933980227 0.56054317951 3.3910770416 0.58322429657 0.34406098723
          3.4329230785 0.25877740979 0.41826298833 3.5936889648 0.39519989491 0.35134500265
          3.4191789627 0.57933980227 0.56054317951 3.3910770416 0.58322429657 0.34406098723
          3.5936889648 0.39519989491 0.35134500265 3.5548529625 0.58682149649 0.44130200148
          3.3910770416 0.58322429657 0.34406098723 3.5310690403 0.59044080973 0.18322899938
          3.5936889648 0.39519989491 0.35134500265 3.5548529625 0.58682149649 0.44130200148
          3.5936889648 0.39519989491 0.35134500265 3.7101740837 0.59498238564 0.34702202678
          3.7448599339 0.30333548784 0.49451100826 3.7727000713 0.59062451124 0.58069598675
          -1.7870930433 -0.33796232939 -0.8220590353 -1.9995814562 -0.50839465857 -0.5625320673
          -1.8019082546 -0.50858289003 -0.56323200464 -1.6989388466 -0.50504058599 -0.72892701626
          -1.7870930433 -0.33796232939 -0.8220590353 -1.8019082546 -0.50858289003 -0.56323200464
          -1.6305606365 -0.29367351532 -0.52340888977 -1.6989388466 -0.50504058599 -0.72892701626
          -1.8874305487 -0.20946229994 -0.68173897266 -1.8019082546 -0.50858289003 -0.56323200464
          -1.6305606365 -0.29367351532 -0.52340888977 -1.7870930433 -0.33796232939 -0.8220590353
          -1.8874305487 -0.20946229994 -0.68173897266 -2.0371425152 -0.34191715717 -0.78012096882
          -1.8019082546 -0.50858289003 -0.56323200464 -1.7870930433 -0.33796232939 -0.8220590353
          -1.8654859066 -0.17263565958 -1.0173939466 -2.0371425152 -0.34191715717 -0.78012096882
          -1.8874305487 -0.20946229994 -0.68173897266 -1.7870930433 -0.33796232939 -0.8220590353
          -2.0371425152 -0.34191715717 -0.78012096882 -1.9995814562 -0.50839465857 -0.5625320673
          -1.8019082546 -0.50858289003 -0.56323200464 -1.7870930433 -0.33796232939 -0.8220590353
          -2.0371425152 -0.34191715717 -0.78012096882 -1.9412852526 -0.50214797258 -0.90207898617
          -1.9995814562 -0.50839465857 -0.5625320673 -1.7870930433 -0.33796232939 -0.8220590353
          0.68045121431 -0.49612438679 -0.13406600058 0.44537511468 -0.27799990773 -0.12429698557
          0.67708927393 -0.18054930866 -0.18623100221 0.79302960634 -0.29305431247 -0.039216998965
          0.79302960634 -0.29305431247 -0.039216998965 0.68045121431 -0.49612438679 -0.13406600058
          0.81277400255 -0.48748779297 -0.2579177916 0.67708927393 -0.18054930866 -0.18623100221
          0.79302960634 -0.29305431247 -0.039216998965 0.91907000542 -0.28306537867 -0.28310790658
          0.67708927393 -0.18054930866 -0.18623100221 0.81277400255 -0.48748779297 -0.2579177916
          -3.0509493351 0.29688620567 -0.58453899622 -3.0065186024 0.11188069731 -0.80747801065
          -3.0660376549 -0.035237099975 -0.601772964 -2.9424054623 0.1131972 -0.47736001015
          -3.4821026325 -0.046573873609 0.11716599017 -3.3824651241 -0.30312857032 0.073741987348
          -3.3787970543 -0.14233914018 0.29122000933 -3.2058420181 -0.10112692416 0.25872200727
          -0.81611001492 0.30783483386 -0.27051800489 -1.0361119509 0.21812960505 -0.37398898602
          -1.0550040007 0.40813687444 -0.10020700097 -0.85646498203 0.17925000191 -0.10178700089
          -0.81611001492 0.30783483386 -0.27051800489 -0.90989202261 0.24085079134 -0.62744837999
          -1.0361119509 0.21812960505 -0.37398898602 -0.75858801603 0.17240820825 -0.42690300941
          -0.70233458281 0.49317741394 -0.27365800738 -0.82669299841 0.46579259634 -0.102669999
          -0.65999889374 0.24785794318 -0.095564998686 -0.81611001492 0.30783483386 -0.27051800489
          -0.70233458281 0.49317741394 -0.27365800738 -0.81611001492 0.30783483386 -0.27051800489
          -0.65999889374 0.24785794318 -0.095564998686 -0.6164612174 0.29320520163 -0.31236797571
          -0.81611001492 0.30783483386 -0.27051800489 -0.70233458281 0.49317741394 -0.27365800738
          -0.66691201925 0.49013388157 -0.48518800735 -0.6164612174 0.29320520163 -0.31236797571
          -4.2742209435 0.42202806473 -0.57460540533 -4.1004319191 0.30029353499 -0.60041797161
          -4.2976675034 0.29178825021 -0.37512549758 -4.0919904709 0.29906708002 -0.39470338821
          -0.89386701584 0.49129199982 -0.34832200408 -0.82669299841 0.46579259634 -0.102669999
          -0.70233458281 0.49317741394 -0.27365800738 -0.81611001492 0.30783483386 -0.27051800489
          -4.7578840256 0.28817969561 -0.030578099191 -4.7780652046 -0.0085761295632 -0.01886684075
          -5 0.15884299576 0.21330599487 -4.6630234718 0.13930633664 0.15250210464
          -4.7578840256 0.28817969561 -0.030578099191 -4.7780652046 -0.0085761295632 -0.01886684075
          -5 0.28975299001 0.088944099844 -5 0.15884299576 0.21330599487
          -0.83420801163 -0.058261297643 -0.10190299898 -1.0854450464 -0.072821497917 -0.097055003047
          -1.0252319574 -0.25830030441 -0.10159199685 -1.0108540058 -0.22747680545 -0.36507099867
          2.2763319016 0.28125241399 -0.14818999171 2.2012159824 0.29154539108 -0.42888310552
          2.2626259327 0.55465871096 -0.37340500951 2.1508929729 0.55003911257 -0.24668708444
          2.1508929729 0.55003911257 -0.24668708444 2.2012159824 0.29154539108 -0.42888310552
          2.2626259327 0.55465871096 -0.37340500951 2.0072319508 0.54592597485 -0.34398621321
          4.527215004 0.58946532011 1.2835580111 4.3038268089 0.57868987322 1.2739549875
          4.3783740997 0.40928810835 1.4540369511 4.2713618279 0.37677168846 1.2242929935
          3.807289362 0.56469881535 1.2195600271 3.5158138275 0.52084130049 1.2258909941
          3.8319048882 0.3724052906 1.1257870197 3.6068017483 0.56949651241 1.0521490574
          3.807289362 0.56469881535 1.2195600271 3.8319048882 0.3724052906 1.1257870197
          3.8637049198 0.57652932405 1.0168390274 3.6068017483 0.56949651241 1.0521490574
          -3.0660376549 -0.035237099975 -0.601772964 -2.9648208618 -0.08248540014 -0.41598600149
          -3.0045845509 -0.31262481213 -0.59387999773 -3.1450257301 -0.19032800198 -0.44944301248
          -1.0361119509 0.21812960505 -0.37398898602 -1.1158839464 0.17156629264 -0.093520998955
          -1.1750420332 0.11218670756 -0.27856901288 -1.2542339563 0.29450172186 -0.30690699816
          3.6068017483 0.56949651241 1.0521490574 3.4282515049 0.33187240362 0.97428900003
          3.690030098 0.28598979115 0.94812899828 3.6906139851 0.57666391134 0.86979299784
          3.6068017483 0.56949651241 1.0521490574 3.4282515049 0.33187240362 0.97428900003
          3.5123636723 0.27264100313 1.2129739523 3.690030098 0.28598979115 0.94812899828
          0.97177040577 0.064062602818 -0.1233580038 1.0401221514 0.23939830065 -0.032525006682
          1.1638020277 0.033433400095 -0.21218000352 1.1398986578 -0.010146999732 0.071502000093
          -0.081785798073 -0.18698275089 -0.35594800115 0.0546566993 0.13170881569 -0.364466995
          -0.088332302868 0.076261751354 -0.21729001403 -0.045155998319 0.014279329218 -0.54846435785
          -0.081785798073 -0.18698275089 -0.35594800115 -0.088332302868 0.076261751354 -0.21729001403
          -0.264005512 0.0059295003302 -0.30922400951 -0.045155998319 0.014279329218 -0.54846435785
          -0.264005512 0.0059295003302 -0.30922400951 -0.088332302868 0.076261751354 -0.21729001403
          -0.18545199931 0.22996643186 -0.47609320283 -0.045155998319 0.014279329218 -0.54846435785
          -0.088332302868 0.076261751354 -0.21729001403 -0.264005512 0.0059295003302 -0.30922400951
          -0.18545199931 0.22996643186 -0.47609320283 -0.30593618751 0.24488276243 -0.24136300385
          -0.092815898359 0.28653284907 -0.26267999411 -0.088332302868 0.076261751354 -0.21729001403
          -0.18545199931 0.22996643186 -0.47609320283 -0.30593618751 0.24488276243 -0.24136300385
          -0.18545199931 0.22996643186 -0.47609320283 -0.088332302868 0.076261751354 -0.21729001403
          -0.092815898359 0.28653284907 -0.26267999411 0.0546566993 0.13170881569 -0.364466995
          -0.088332302868 0.076261751354 -0.21729001403 0.0546566993 0.13170881569 -0.364466995
          -0.18545199931 0.22996643186 -0.47609320283 -0.045155998319 0.014279329218 -0.54846435785
          -0.088332302868 0.076261751354 -0.21729001403 0.12283880264 0.27401307225 -0.19243100286
          -0.092815898359 0.28653284907 -0.26267999411 0.0546566993 0.13170881569 -0.364466995
          -0.088332302868 0.076261751354 -0.21729001403 0.098207399249 -0.032019931823 -0.19597899914
          0.12283880264 0.27401307225 -0.19243100286 0.0546566993 0.13170881569 -0.364466995
          -0.088332302868 0.076261751354 -0.21729001403 0.098207399249 -0.032019931823 -0.19597899914
          0.10837440193 0.15965628624 0.013736000285 0.12283880264 0.27401307225 -0.19243100286
          -0.088332302868 0.076261751354 -0.21729001403 -0.062883600593 -0.026130199432 -0.024199999869
          0.10837440193 0.15965628624 0.013736000285 0.098207399249 -0.032019931823 -0.19597899914
          -4.3568739891 -0.16453392804 0.20460030437 -4.4882779121 -0.32354712486 0.15183719993
          -4.4945139885 -0.24172013998 0.45762220025 -4.3543543816 -0.49132984877 0.25861698389
          -4.4882779121 -0.32354712486 0.15183719993 -4.3568739891 -0.16453392804 0.20460030437
          -4.2297291756 -0.32805991173 0.13521359861 -4.3543543816 -0.49132984877 0.25861698389
          2.2454249859 -0.24175401032 -0.0085900025442 2.1323330402 -0.24952030182 -0.2159884125
          2.5325028896 -0.2637206018 -0.12680798769 2.3959000111 -0.2165030092 -0.38119700551
          2.2454249859 -0.24175401032 -0.0085900025442 2.1323330402 -0.24952030182 -0.2159884125
          2.4244749546 -0.42912569642 -0.22337199748 2.5325028896 -0.2637206018 -0.12680798769
          2.5325028896 -0.2637206018 -0.12680798769 2.2273271084 -0.43826460838 -0.11158529669
          2.4244749546 -0.42912569642 -0.22337199748 2.2454249859 -0.24175401032 -0.0085900025442
          2.3360071182 -0.43899869919 0.085661202669 2.2273271084 -0.43826460838 -0.11158529669
          2.5325028896 -0.2637206018 -0.12680798769 2.2454249859 -0.24175401032 -0.0085900025442
          2.5325028896 -0.2637206018 -0.12680798769 2.4038360119 -0.2405732125 0.18867635727
          2.3360071182 -0.43899869919 0.085661202669 2.2454249859 -0.24175401032 -0.0085900025442
          2.3360071182 -0.43899869919 0.085661202669 2.635833025 -0.42590990663 -0.026309985667
          2.4038360119 -0.2405732125 0.18867635727 2.5325028896 -0.2637206018 -0.12680798769
          2.3360071182 -0.43899869919 0.085661202669 2.5325028896 -0.2637206018 -0.12680798769
          2.4244749546 -0.42912569642 -0.22337199748 2.635833025 -0.42590990663 -0.026309985667
          2.3360071182 -0.43899869919 0.085661202669 2.2273271084 -0.43826460838 -0.11158529669
          2.4244749546 -0.42912569642 -0.22337199748 2.5325028896 -0.2637206018 -0.12680798769
          2.4038360119 -0.2405732125 0.18867635727 2.6479671001 -0.18968589604 0.18436330557
          2.5325028896 -0.2637206018 -0.12680798769 2.635833025 -0.42590990663 -0.026309985667
          2.5325028896 -0.2637206018 -0.12680798769 2.635833025 -0.42590990663 -0.026309985667
          2.6479671001 -0.18968589604 0.18436330557 2.7572391033 -0.22472290695 -0.032116010785
          2.5325028896 -0.2637206018 -0.12680798769 2.1323330402 -0.24952030182 -0.2159884125
          2.4244749546 -0.42912569642 -0.22337199748 2.3959000111 -0.2165030092 -0.38119700551
          2.5325028896 -0.2637206018 -0.12680798769 2.3959000111 -0.2165030092 -0.38119700551
          2.4244749546 -0.42912569642 -0.22337199748 2.7099030018 -0.25898209214 -0.27057000995
          -0.49614500999 -0.18467617035 -0.78485298157 -0.70339399576 -0.074503429234 -0.67528831959
          -0.66083502769 -0.29501193762 -0.69995200634 -0.65971499681 -0.068506918848 -0.89710998535
          -0.49614500999 -0.18467617035 -0.78485298157 -0.64104998112 -0.30240130424 -0.9189350009
          -0.66083502769 -0.29501193762 -0.69995200634 -0.47170200944 -0.50193786621 -0.68685621023
          -0.64104998112 -0.30240130424 -0.9189350009 -0.74040699005 -0.49768507481 -0.86798501015
          -0.82459098101 -0.20698645711 -0.80915498734 -0.66083502769 -0.29501193762 -0.69995200634
          2.8127799034 0.36863431334 0.39534589648 2.6725535393 0.38265278935 0.65312898159
          2.6138679981 0.31076711416 0.28303608298 2.4725689888 0.38891109824 0.53518199921
          2.8127799034 0.36863431334 0.39534589648 2.7912619114 0.22470119596 0.5612180233
          2.6138679981 0.31076711416 0.28303608298 2.6725535393 0.38265278935 0.65312898159
          2.6725535393 0.38265278935 0.65312898159 2.7912619114 0.22470119596 0.5612180233
          2.6138679981 0.31076711416 0.28303608298 2.4725689888 0.38891109824 0.53518199921
          2.7912619114 0.22470119596 0.5612180233 2.6725535393 0.38265278935 0.65312898159
          2.5117163658 0.16574789584 0.5378869772 2.4725689888 0.38891109824 0.53518199921
          2.7912619114 0.22470119596 0.5612180233 2.6809933186 0.045304298401 0.64524197578
          2.5117163658 0.16574789584 0.5378869772 2.6725535393 0.38265278935 0.65312898159
          2.7912619114 0.22470119596 0.5612180233 2.6809933186 0.045304298401 0.64524197578
          2.6725535393 0.38265278935 0.65312898159 2.5544810295 0.1293092072 0.82531297207
          2.6725535393 0.38265278935 0.65312898159 2.6809933186 0.045304298401 0.64524197578
          2.5117163658 0.16574789584 0.5378869772 2.5544810295 0.1293092072 0.82531297207
          2.5544810295 0.1293092072 0.82531297207 2.5117163658 0.16574789584 0.5378869772
          2.6725535393 0.38265278935 0.65312898159 2.4447433949 0.34735611081 0.78896600008
          2.6725535393 0.38265278935 0.65312898159 2.4447433949 0.34735611081 0.78896600008
          2.5117163658 0.16574789584 0.5378869772 2.4725689888 0.38891109824 0.53518199921
          3.7870020866 -0.19021171331 1.074723959 3.9359619617 0.090236805379 1.1565029621
          3.947902441 -0.095926292241 1.3428709507 3.7523159981 -0.085600093007 1.2815630436
          3.7870020866 -0.19021171331 1.074723959 3.9359619617 0.090236805379 1.1565029621
          4.0172262192 -0.24458359182 1.074458003 3.947902441 -0.095926292241 1.3428709507
          4.1932888031 -0.10509669781 1.111093998 3.947902441 -0.095926292241 1.3428709507
          4.0172262192 -0.24458359182 1.074458003 3.9359619617 0.090236805379 1.1565029621
          4.1932888031 -0.10509669781 1.111093998 4.0751972198 0.034389801323 1.3754040003
          3.947902441 -0.095926292241 1.3428709507 3.9359619617 0.090236805379 1.1565029621
          -3.7788000107 -0.49894934893 0.14450898767 -3.8431739807 -0.42423200607 0.37291398644
          -3.8215641975 -0.23188085854 0.091413997114 -3.6205406189 -0.31749200821 0.12511700392
          -3.7788000107 -0.49894934893 0.14450898767 -3.8431739807 -0.42423200607 0.37291398644
          -3.6205406189 -0.31749200821 0.12511700392 -3.5967168808 -0.45885637403 0.3317900002
          -3.6205406189 -0.31749200821 0.12511700392 -3.8431739807 -0.42423200607 0.37291398644
          -3.6042940617 -0.28407350183 0.332062006 -3.5967168808 -0.45885637403 0.3317900002
          -3.6205406189 -0.31749200821 0.12511700392 -3.5967168808 -0.45885637403 0.3317900002
          -3.6042940617 -0.28407350183 0.332062006 -3.4147019386 -0.30549126863 0.2988910079
          5.0587530136 0.088731199503 0.75192797184 4.9991178513 0.039471499622 1.0460796356
          4.9587922096 -0.11951480061 0.84872800112 4.7766752243 -0.0062490031123 0.81723797321
          5.0587530136 0.088731199503 0.75192797184 4.7766752243 -0.0062490031123 0.81723797321
          4.9587922096 -0.11951480061 0.84872800112 4.86105299 0.0081822015345 0.50044000149
          -3.6205406189 -0.31749200821 0.12511700392 -3.6940450668 -0.011909330264 0.12301498652
          -3.5214090347 -0.040553983301 0.31633499265 -3.6042940617 -0.28407350183 0.332062006
          -3.6042940617 -0.28407350183 0.332062006 -3.6205406189 -0.31749200821 0.12511700392
          -3.6940450668 -0.011909330264 0.12301498652 -3.7582271099 -0.17851629853 0.35762301087
          -3.6205406189 -0.31749200821 0.12511700392 -3.8431739807 -0.42423200607 0.37291398644
          -3.7582271099 -0.17851629853 0.35762301087 -3.6042940617 -0.28407350183 0.332062006
          -3.8215641975 -0.23188085854 0.091413997114 -3.8431739807 -0.42423200607 0.37291398644
          -3.7582271099 -0.17851629853 0.35762301087 -3.6205406189 -0.31749200821 0.12511700392
          -3.6205406189 -0.31749200821 0.12511700392 -3.8215641975 -0.23188085854 0.091413997114
          -3.6940450668 -0.011909330264 0.12301498652 -3.7582271099 -0.17851629853 0.35762301087
          4.4053249359 -0.07816299051 1.462864995 4.33537817 0.096284002066 1.4644019604
          4.4337921143 0.1125216037 1.254134059 4.5082879066 0.20863980055 1.4644019604
          4.5082879066 0.20863980055 1.4644019604 4.6576151848 0.017758300528 1.462864995
          4.4337921143 0.1125216037 1.254134059 4.4053249359 -0.07816299051 1.462864995
          4.5082879066 0.20863980055 1.4644019604 4.6576151848 0.017758300528 1.462864995
          4.6513729095 0.13981750607 1.2424490452 4.4337921143 0.1125216037 1.254134059
          4.4337921143 0.1125216037 1.254134059 4.6475157738 0.38701429963 1.2527079582
          4.6513729095 0.13981750607 1.2424490452 4.5082879066 0.20863980055 1.4644019604
          4.6576151848 0.017758300528 1.462864995 4.6513729095 0.13981750607 1.2424490452
          4.4337921143 0.1125216037 1.254134059 4.6312479973 -0.18212139606 1.2574429512
          4.6576151848 0.017758300528 1.462864995 4.6312479973 -0.18212139606 1.2574429512
          4.4337921143 0.1125216037 1.254134059 4.4053249359 -0.07816299051 1.462864995
          4.4337921143 0.1125216037 1.254134059 4.6312479973 -0.18212139606 1.2574429512
          4.5119929314 -0.044536296278 1.1272319555 4.4053249359 -0.07816299051 1.462864995
          4.4337921143 0.1125216037 1.254134059 4.6513729095 0.13981750607 1.2424490452
          4.5119929314 -0.044536296278 1.1272319555 4.6312479973 -0.18212139606 1.2574429512
          4.4337921143 0.1125216037 1.254134059 4.2345128059 0.15581940114 1.1804380417
          4.285888195 0.099320337176 0.90528231859 4.5335330963 0.11206749827 0.92334389687
          4.4337921143 0.1125216037 1.254134059 4.2345128059 0.15581940114 1.1804380417
          4.5335330963 0.11206749827 0.92334389687 4.4793419838 0.2869952023 1.1247149706
          3.1153120995 -0.17042639852 0.52375102043 2.824450016 -0.10761829466 0.55310499668
          2.8574714661 -0.22937789559 0.73542100191 2.8791120052 -0.42745420337 0.46121960878
          2.8574714661 -0.22937789559 0.73542100191 2.7102086544 -0.435593009 0.59967702627
          2.8791120052 -0.42745420337 0.46121960878 2.824450016 -0.10761829466 0.55310499668
          2.8574714661 -0.22937789559 0.73542100191 2.5335454941 -0.19222688675 0.50451397896
          2.7102086544 -0.435593009 0.59967702627 2.824450016 -0.10761829466 0.55310499668
          2.6677677631 -0.20719739795 0.85902500153 2.5335454941 -0.19222688675 0.50451397896
          2.7102086544 -0.435593009 0.59967702627 2.8574714661 -0.22937789559 0.73542100191
          2.9244709015 -0.4294475019 0.74562698603 2.7102086544 -0.435593009 0.59967702627
          2.8791120052 -0.42745420337 0.46121960878 2.8574714661 -0.22937789559 0.73542100191
          2.8574714661 -0.22937789559 0.73542100191 2.9244709015 -0.4294475019 0.74562698603
          3.0756709576 -0.422498703 0.57748502493 2.8791120052 -0.42745420337 0.46121960878
          2.9244709015 -0.4294475019 0.74562698603 3.0756709576 -0.422498703 0.57748502493
          3.0500233173 -0.10988160223 0.76281303167 2.8574714661 -0.22937789559 0.73542100191
          2.9244709015 -0.4294475019 0.74562698603 3.0500233173 -0.10988160223 0.76281303167
          3.167424202 -0.4212833941 0.82355499268 2.8574714661 -0.22937789559 0.73542100191
          -0.85025602579 -0.29496991634 -0.10682400316 -1.1190869808 -0.42417049408 -0.10118299723
          -0.888019979 -0.52109897137 -0.27666097879 -1.0252319574 -0.25830030441 -0.10159199685
          2.1993765831 0.33982020617 0.69473302364 2.2661983967 0.044934421778 0.50948798656
          2.2926232815 0.21838380396 0.36620301008 2.0865969658 0.17642100155 0.64691102505
          2.0810952187 0.34367528558 0.4289650023 2.0865969658 0.17642100155 0.64691102505
          2.2926232815 0.21838380396 0.36620301008 2.0134241581 0.082406297326 0.37211599946
          1.8266550303 0.23588789999 -0.55572861433 1.8998550177 0.038344699889 -0.53832769394
          1.5854810476 0.084593199193 -0.4168010056 1.8510379791 0.076726302505 -0.29504978657
          1.7981909513 0.54004788399 -0.43759217858 1.7200000286 0.27868279815 -0.33277949691
          1.932314992 0.39315280318 -0.51564007998 1.7333580256 0.4014698863 -0.58095270395
          1.5734430552 0.53300869465 -0.47562000155 1.7333580256 0.4014698863 -0.58095270395
          1.7200000286 0.27868279815 -0.33277949691 1.7981909513 0.54004788399 -0.43759217858
          1.5734430552 0.53300869465 -0.47562000155 1.7333580256 0.4014698863 -0.58095270395
          1.5337500572 0.41599822044 -0.64482402802 1.6285569668 0.23750409484 -0.61983597279
          1.5734430552 0.53300869465 -0.47562000155 1.6285569668 0.23750409484 -0.61983597279
          1.7200000286 0.27868279815 -0.33277949691 1.7333580256 0.4014698863 -0.58095270395
          1.7333580256 0.4014698863 -0.58095270395 1.7200000286 0.27868279815 -0.33277949691
          1.8266550303 0.23588789999 -0.55572861433 1.6285569668 0.23750409484 -0.61983597279
          1.7333580256 0.4014698863 -0.58095270395 1.7200000286 0.27868279815 -0.33277949691
          1.932314992 0.39315280318 -0.51564007998 1.8266550303 0.23588789999 -0.55572861433
          -4.8499131203 0.16269566119 0.48204991221 -4.6630234718 0.13930633664 0.15250210464
          -4.6333608627 0.15650126338 0.46339869499 -4.745464325 0.3263682127 0.25227379799
          -4.4532856941 0.16817709804 0.44724240899 -4.4813494682 0.022646209225 0.2389934808
          -4.6333608627 0.15650126338 0.46339869499 -4.4548616409 -0.039748691022 0.44836860895
          -4.373114109 0.48056659102 0.41136088967 -4.374229908 0.21605139971 0.18340799212
          -4.5035572052 0.34405878186 0.45431670547 -4.1795921326 0.26754778624 0.41782468557
          -4.6692109108 -0.16517569125 -0.19817639887 -4.5914802551 -0.50413167477 -0.23168960214
          -4.752243042 -0.50364774466 -0.24244779348 -4.6158905029 -0.49994170666 -0.083305798471
          -2.4518558979 0.48177570105 -0.4138597846 -2.5502791405 0.25031089783 -0.30732250214
          -2.4924480915 0.1497296989 -0.4765163064 -2.6084048748 0.48110160232 -0.5615530014
          -3.5941543579 0.02097989805 -0.47818499804 -3.5914151669 -0.15871548653 -0.36829999089
          -3.3833937645 -0.032667398453 -0.48868498206 -3.4071218967 -0.27582120895 -0.49657699466
          -3.4343647957 -0.1506202966 -0.72061800957 -3.5941543579 0.02097989805 -0.47818499804
          -3.3833937645 -0.032667398453 -0.48868498206 -3.4071218967 -0.27582120895 -0.49657699466
          -3.4343647957 -0.1506202966 -0.72061800957 -3.5914151669 -0.15871548653 -0.36829999089
          -3.5941543579 0.02097989805 -0.47818499804 -3.4071218967 -0.27582120895 -0.49657699466
          -3.5941543579 0.02097989805 -0.47818499804 -3.7473104 -0.28769311309 -0.66039299965
          -3.8068175316 -0.027711499482 -0.64996302128 -3.5914151669 -0.15871548653 -0.36829999089
          2.3686749935 -0.11354149133 0.74313497543 2.1238291264 -0.18699400127 0.64728599787
          2.3304371834 -0.26972290874 0.49684798717 2.2661983967 0.044934421778 0.50948798656
          -1.901250124 -0.024264600128 -0.80353200436 -2.1201012135 -0.050273101777 -0.70986998081
          -2.0257306099 -0.031649298966 -0.9920539856 -2.0292806625 0.11994799972 -0.99204802513
          -1.4074389935 -0.049107201397 -0.5518643856 -1.3103187084 -0.16647019982 -0.72021299601
          -1.2913279533 -0.31723329425 -0.56081938744 -1.2111840248 -0.1263563931 -0.52467823029
          -1.4074389935 -0.049107201397 -0.5518643856 -1.3103187084 -0.16647019982 -0.72021299601
          -1.2111840248 -0.1263563931 -0.52467823029 -1.1938619614 0.03204099834 -0.66020560265
          -1.2111840248 -0.1263563931 -0.52467823029 -1.3103187084 -0.16647019982 -0.72021299601
          -1.0780789852 -0.26223245263 -0.61954492331 -1.1938619614 0.03204099834 -0.66020560265
          -1.2111840248 -0.1263563931 -0.52467823029 -1.1938619614 0.03204099834 -0.66020560265
          -1.0780789852 -0.26223245263 -0.61954492331 -0.96610802412 -0.023699499667 -0.59952700138
          -1.2111840248 -0.1263563931 -0.52467823029 -1.0780789852 -0.26223245263 -0.61954492331
          -1.0108540058 -0.22747680545 -0.36507099867 -0.96610802412 -0.023699499667 -0.59952700138
          -1.0315690041 0.001321600168 -0.39257600904 -1.2111840248 -0.1263563931 -0.52467823029
          -1.0108540058 -0.22747680545 -0.36507099867 -0.96610802412 -0.023699499667 -0.59952700138
          -1.0315690041 0.001321600168 -0.39257600904 -1.1938619614 0.03204099834 -0.66020560265
          -1.2111840248 -0.1263563931 -0.52467823029 -0.96610802412 -0.023699499667 -0.59952700138
          -1.2111840248 -0.1263563931 -0.52467823029 -1.0780789852 -0.26223245263 -0.61954492331
          -1.224069953 -0.31939327717 -0.31514698267 -1.0108540058 -0.22747680545 -0.36507099867
          4.065433979 0.57982081175 1.038596034 4.0205068588 0.28315189481 1.0268609524
          4.0632171631 0.57045120001 1.2416960001 4.2713618279 0.37677168846 1.2242929935
          4.2772049904 0.36336359382 0.94083797932 4.2713618279 0.37677168846 1.2242929935
          4.0205068588 0.28315189481 1.0268609524 4.065433979 0.57982081175 1.038596034
          3.997948885 0.58768248558 0.85406768322 4.0778617859 0.38755699992 0.83571088314
          3.8637049198 0.57652932405 1.0168390274 4.065433979 0.57982081175 1.038596034
          1.4434380531 -0.14066420496 -0.32838499546 1.5975199938 -0.11391670257 -0.6415219903
          1.5643210411 -0.27857810259 -0.44123601913 1.7244919538 -0.11605580151 -0.38782680035
          1.5975199938 -0.11391670257 -0.6415219903 1.4434380531 -0.14066420496 -0.32838499546
          1.5643210411 -0.27857810259 -0.44123601913 1.3804830313 -0.0036427995656 -0.4926970005
          1.5975199938 -0.11391670257 -0.6415219903 1.5643210411 -0.27857810259 -0.44123601913
          1.3132139444 -0.24616961181 -0.5035700202 1.3804830313 -0.0036427995656 -0.4926970005
          1.5975199938 -0.11391670257 -0.6415219903 1.5643210411 -0.27857810259 -0.44123601913
          1.5054880381 -0.2863958776 -0.67730301619 1.3132139444 -0.24616961181 -0.5035700202
          1.5643210411 -0.27857810259 -0.44123601913 1.5054880381 -0.2863958776 -0.67730301619
          1.6978210211 -0.28733319044 -0.61622899771 1.5975199938 -0.11391670257 -0.6415219903
          1.5643210411 -0.27857810259 -0.44123601913 1.5975199938 -0.11391670257 -0.6415219903
          1.6978210211 -0.28733319044 -0.61622899771 1.7244919538 -0.11605580151 -0.38782680035
          3.4926049709 0.5762001276 0.76709657907 3.2735610008 0.57003730536 0.75401997566
          3.4282515049 0.33187240362 0.97428900003 3.550276041 0.36652091146 0.69562649727
          1.5643210411 -0.27857810259 -0.44123601913 1.5894249678 -0.45208120346 -0.55978298187
          1.6978210211 -0.28733319044 -0.61622899771 1.5054880381 -0.2863958776 -0.67730301619
          1.5894249678 -0.45208120346 -0.55978298187 1.3132139444 -0.24616961181 -0.5035700202
          1.5054880381 -0.2863958776 -0.67730301619 1.5643210411 -0.27857810259 -0.44123601913
          1.3132139444 -0.24616961181 -0.5035700202 1.5894249678 -0.45208120346 -0.55978298187
          1.2600870132 -0.46586328745 -0.47155499458 1.5643210411 -0.27857810259 -0.44123601913
          1.3132139444 -0.24616961181 -0.5035700202 1.5643210411 -0.27857810259 -0.44123601913
          1.2600870132 -0.46586328745 -0.47155499458 1.4299919605 -0.4650863111 -0.25022679567
          1.4299919605 -0.4650863111 -0.25022679567 1.3132139444 -0.24616961181 -0.5035700202
          1.5643210411 -0.27857810259 -0.44123601913 1.4434380531 -0.14066420496 -0.32838499546
          1.5643210411 -0.27857810259 -0.44123601913 1.4434380531 -0.14066420496 -0.32838499546
          1.3132139444 -0.24616961181 -0.5035700202 1.3804830313 -0.0036427995656 -0.4926970005
          1.5643210411 -0.27857810259 -0.44123601913 1.5894249678 -0.45208120346 -0.55978298187
          1.2600870132 -0.46586328745 -0.47155499458 1.4299919605 -0.4650863111 -0.25022679567
          1.4299919605 -0.4650863111 -0.25022679567 1.5894249678 -0.45208120346 -0.55978298187
          1.6287219524 -0.45572260022 -0.34583300352 1.5643210411 -0.27857810259 -0.44123601913
          0.30108499527 0.17071788013 -0.6524900198 0.22630690038 0.49578845501 -0.65596997738
          0.15515929461 0.27147474885 -0.81783097982 0.41305398941 0.29973137379 -0.76187801361
          0.41305398941 0.29973137379 -0.76187801361 0.22630690038 0.49578845501 -0.65596997738
          0.41060099006 0.50051188469 -0.52816462517 0.32533699274 0.30109125376 -0.45768621564
          0.41876199841 0.49852332473 -0.76524400711 0.52244597673 0.28034487367 -0.58197897673
          0.60414099693 0.50304430723 -0.62985301018 0.41305398941 0.29973137379 -0.76187801361
          0.41876199841 0.49852332473 -0.76524400711 0.41305398941 0.29973137379 -0.76187801361
          0.41060099006 0.50051188469 -0.52816462517 0.52244597673 0.28034487367 -0.58197897673
          4.7766752243 -0.0062490031123 0.81723797321 4.9587922096 -0.11951480061 0.84872800112
          4.7822642326 -0.20231451094 0.72078299522 4.7351660728 -0.16101920605 0.98147392273
          0.51253330708 0.2876406908 -0.10298900306 0.31266918778 0.50222033262 -0.13974998891
          0.34905490279 0.20103774965 0.07488899678 0.33304131031 0.20393286645 -0.24557299912
          -1.0108540058 -0.22747680545 -0.36507099867 -1.0780789852 -0.26223245263 -0.61954492331
          -1.1271990538 -0.51521211863 -0.40683698654 -0.99892598391 -0.51049762964 -0.55400800705
          -1.0780789852 -0.26223245263 -0.61954492331 -1.2913279533 -0.31723329425 -0.56081938744
          -1.1271990538 -0.51521211863 -0.40683698654 -0.99892598391 -0.51049762964 -0.55400800705
          -1.0780789852 -0.26223245263 -0.61954492331 -1.2913279533 -0.31723329425 -0.56081938744
          -0.99892598391 -0.51049762964 -0.55400800705 -1.0943470001 -0.50438934565 -0.71723198891
          -0.88709700108 -0.50346982479 -0.72862702608 -1.0943470001 -0.50438934565 -0.71723198891
          -1.0780789852 -0.26223245263 -0.61954492331 -0.99892598391 -0.51049762964 -0.55400800705
          -0.99892598391 -0.51049762964 -0.55400800705 -1.2913279533 -0.31723329425 -0.56081938744
          -1.1271990538 -0.51521211863 -0.40683698654 -1.0943470001 -0.50438934565 -0.71723198891
          4.285888195 0.099320337176 0.90528231859 4.0205068588 0.28315189481 1.0268609524
          4.2345128059 0.15581940114 1.1804380417 4.1026678085 0.059743199497 1.0158569813
          4.285888195 0.099320337176 0.90528231859 4.2345128059 0.15581940114 1.1804380417
          4.1932888031 -0.10509669781 1.111093998 4.1026678085 0.059743199497 1.0158569813
          4.1026678085 0.059743199497 1.0158569813 4.2345128059 0.15581940114 1.1804380417
          4.1932888031 -0.10509669781 1.111093998 3.9359619617 0.090236805379 1.1565029621
          4.1026678085 0.059743199497 1.0158569813 4.0205068588 0.28315189481 1.0268609524
          4.2345128059 0.15581940114 1.1804380417 3.9359619617 0.090236805379 1.1565029621
          3.8472468853 0.14682120085 0.8287910223 4.0205068588 0.28315189481 1.0268609524
          4.1026678085 0.059743199497 1.0158569813 3.9359619617 0.090236805379 1.1565029621
          3.8472468853 0.14682120085 0.8287910223 4.1026678085 0.059743199497 1.0158569813
          3.9209868908 -0.049528494477 0.94006299973 3.9359619617 0.090236805379 1.1565029621
          -1.0723729134 -0.088602088392 -0.8404250145 -1.0344099998 -0.31266370416 -0.88067400455
          -0.82459098101 -0.20698645711 -0.80915498734 -0.87940299511 -0.1013680622 -1.096660018
          -1.0507317781 -0.037540301681 -1.0923370123 -1.0344099998 -0.31266370416 -0.88067400455
          -1.0723729134 -0.088602088392 -0.8404250145 -0.87940299511 -0.1013680622 -1.096660018
          -1.0507317781 -0.037540301681 -1.0923370123 -1.0344099998 -0.31266370416 -0.88067400455
          -0.87940299511 -0.1013680622 -1.096660018 -0.89977502823 -0.26588141918 -1.0985300541
          -0.87940299511 -0.1013680622 -1.096660018 -1.0344099998 -0.31266370416 -0.88067400455
          -0.82459098101 -0.20698645711 -0.80915498734 -0.89977502823 -0.26588141918 -1.0985300541
          -0.87940299511 -0.1013680622 -1.096660018 -0.89977502823 -0.26588141918 -1.0985300541
          -0.82459098101 -0.20698645711 -0.80915498734 -0.64104998112 -0.30240130424 -0.9189350009
          -0.62074798346 -0.15536004305 -1.0920000076 -0.89977502823 -0.26588141918 -1.0985300541
          -0.87940299511 -0.1013680622 -1.096660018 -0.64104998112 -0.30240130424 -0.9189350009
          -2.1330692768 0.078793898225 -0.55708521605 -2.1201012135 -0.050273101777 -0.70986998081
          -1.9367829561 0.15483479202 -0.66529297829 -2.1485760212 0.26226508617 -0.74843597412
          0.034777998924 -0.452539891 -1.0440080166 -0.20478600264 -0.4216414988 -1.0713649988
          0.08132699877 -0.24986088276 -1.0299509764 -0.11249899864 -0.48702061176 -0.93265897036
          -0.20478600264 -0.4216414988 -1.0713649988 -0.41128501296 -0.48971751332 -0.99034798145
          -0.33674499393 -0.49515008926 -0.82062500715 -0.11249899864 -0.48702061176 -0.93265897036
          -0.20478600264 -0.4216414988 -1.0713649988 -0.33674499393 -0.49515008926 -0.82062500715
          -0.32380700111 -0.29127669334 -0.87523800135 -0.11249899864 -0.48702061176 -0.93265897036
          -0.20478600264 -0.4216414988 -1.0713649988 -0.32380700111 -0.29127669334 -0.87523800135
          -0.14045800269 -0.19142946601 -0.79101097584 -0.11249899864 -0.48702061176 -0.93265897036
          -0.11249899864 -0.48702061176 -0.93265897036 -0.20478600264 -0.4216414988 -1.0713649988
          0.08132699877 -0.24986088276 -1.0299509764 -0.14045800269 -0.19142946601 -0.79101097584
          2.2763319016 0.28125241399 -0.14818999171 2.4682879448 0.38555598259 -0.10436999053
          2.5194039345 0.221833691 0.014336997643 2.2439339161 0.21964900196 0.058875899762
          2.3807709217 0.34840109944 0.17629000545 2.4791090488 0.55759829283 0.014952993952
          2.4682879448 0.38555598259 -0.10436999053 2.5194039345 0.221833691 0.014336997643
          2.2603468895 0.54986870289 0.12335199863 2.4791090488 0.55759829283 0.014952993952
          2.2839529514 0.55297267437 -0.13702598214 2.4682879448 0.38555598259 -0.10436999053
          -1.0361119509 0.21812960505 -0.37398898602 -1.1750420332 0.11218670756 -0.27856901288
          -0.96485602856 0.047094900161 -0.10023099929 -1.0315690041 0.001321600168 -0.39257600904
          -1.0361119509 0.21812960505 -0.37398898602 -1.1158839464 0.17156629264 -0.093520998955
          -0.96485602856 0.047094900161 -0.10023099929 -1.1750420332 0.11218670756 -0.27856901288
          4.4798941612 0.42885500193 0.6264359951 4.2772049904 0.36336359382 0.94083797932
          4.548661232 0.31044599414 0.7846570015 4.2886710167 0.33758100867 0.66382801533
          4.548661232 0.31044599414 0.7846570015 4.4424939156 0.089347399771 0.64447599649
          4.4798941612 0.42885500193 0.6264359951 4.2886710167 0.33758100867 0.66382801533
          4.548661232 0.31044599414 0.7846570015 4.4424939156 0.089347399771 0.64447599649
          4.6309452057 0.20724229515 0.45776200294 4.4798941612 0.42885500193 0.6264359951
          -4.7917890549 -0.033734429628 0.26267528534 -5 0.15884299576 0.21330599487
          -4.745464325 0.3263682127 0.25227379799 -4.8499131203 0.16269566119 0.48204991221
          -5 0.15884299576 0.21330599487 -5 0.32793700695 0.27663400769
          -4.745464325 0.3263682127 0.25227379799 -4.8499131203 0.16269566119 0.48204991221
          -5 0.32793700695 0.27663400769 -4.9696040154 0.31183549762 0.46324345469
          -4.745464325 0.3263682127 0.25227379799 -4.8499131203 0.16269566119 0.48204991221
          -4.745464325 0.3263682127 0.25227379799 -4.9696040154 0.31183549762 0.46324345469
          -4.7025990486 0.30048549175 0.47185480595 -4.8499131203 0.16269566119 0.48204991221
          -3.4652879238 0.12876489758 0.30643999577 -3.5273160934 0.29413831234 0.15600700676
          -3.6309099197 0.31252777576 0.33574199677 -3.6565101147 0.11428040266 0.33922699094
          2.2439339161 0.21964900196 0.058875899762 2.5194039345 0.221833691 0.014336997643
          2.2763319016 0.28125241399 -0.14818999171 2.4686999321 0.064002029598 -0.14970698953
          2.2439339161 0.21964900196 0.058875899762 2.2926232815 0.21838380396 0.36620301008
          2.1151509285 0.051999751478 0.097855910659 2.0875871181 0.32275497913 0.17387519777
          -4.1795921326 0.26754778624 0.41782468557 -3.8718869686 0.28284701705 0.37479698658
          -4.0514550209 0.30707678199 0.23333111405 -4.0624485016 0.11422649771 0.40121608973
          -4.1840386391 -0.02179926075 0.21181380749 -4.1795921326 0.26754778624 0.41782468557
          -4.0624485016 0.11422649771 0.40121608973 -4.2245573997 -0.0047437800094 0.42267590761
          2.2661983967 0.044934421778 0.50948798656 2.0783751011 -0.022333201021 0.63662797213
          2.0134241581 0.082406297326 0.37211599946 2.0865969658 0.17642100155 0.64691102505
          2.0672409534 0.54569250345 -0.02698210068 2.2603468895 0.54986870289 0.12335199863
          2.2839529514 0.55297267437 -0.13702598214 2.111946106 0.35183390975 -0.033053901047
          2.111946106 0.35183390975 -0.033053901047 1.8837449551 0.53903061152 0.06517650187
          2.0672409534 0.54569250345 -0.02698210068 2.0875871181 0.32275497913 0.17387519777
          2.0672409534 0.54569250345 -0.02698210068 2.111946106 0.35183390975 -0.033053901047
          2.1508929729 0.55003911257 -0.24668708444 1.9153610468 0.36894521117 -0.30883604288
          1.9772109985 0.2443075031 -0.15706959367 2.111946106 0.35183390975 -0.033053901047
          2.2763319016 0.28125241399 -0.14818999171 2.2439339161 0.21964900196 0.058875899762
          -4.7917890549 -0.033734429628 0.26267528534 -4.6952867508 -0.18051728606 0.4779253006
          -5 -0.12896800041 0.37591099739 -4.6800694466 0.0018985598581 0.46689039469
          -4.7917890549 -0.033734429628 0.26267528534 -4.8936700821 -0.25269600749 0.5
          -5 -0.12896800041 0.37591099739 -4.6952867508 -0.18051728606 0.4779253006
          -4.6952867508 -0.18051728606 0.4779253006 -4.8936700821 -0.25269600749 0.5
          -5 -0.12896800041 0.37591099739 -4.6800694466 0.0018985598581 0.46689039469
          3.5936889648 0.39519989491 0.35134500265 3.3498690128 0.38853508234 0.25040599704
          3.6066539288 0.1872664988 0.30272099376 3.6242129803 0.38442382216 0.12190700322
          3.4329230785 0.25877740979 0.41826298833 3.3498690128 0.38853508234 0.25040599704
          3.6066539288 0.1872664988 0.30272099376 3.5936889648 0.39519989491 0.35134500265
          3.4329230785 0.25877740979 0.41826298833 3.3498690128 0.38853508234 0.25040599704
          3.4725759029 0.18676179647 0.05072100088 3.6066539288 0.1872664988 0.30272099376
          3.6066539288 0.1872664988 0.30272099376 3.3498690128 0.38853508234 0.25040599704
          3.4725759029 0.18676179647 0.05072100088 3.6242129803 0.38442382216 0.12190700322
          -2.4349720478 0.31375589967 -0.069557994604 -2.2799999714 0.29279088974 0.072902999818
          -2.2999050617 -0.0097464201972 -0.11074100435 -2.4908249378 0.11884979904 -0.11749400944
          -2.4349720478 0.31375589967 -0.069557994604 -2.1859169006 0.48576170206 -0.060932002962
          -2.0947520733 0.29650449753 -0.21109998226 -2.2799999714 0.29279088974 0.072902999818
          -2.4349720478 0.31375589967 -0.069557994604 -2.5093328953 0.4845136106 0.027746003121
          -2.1859169006 0.48576170206 -0.060932002962 -2.2799999714 0.29279088974 0.072902999818
          -2.2799999714 0.29279088974 0.072902999818 -2.5093328953 0.4845136106 0.027746003121
          -2.5757539272 0.34280958772 0.13254100084 -2.4349720478 0.31375589967 -0.069557994604
          -2.2799999714 0.29279088974 0.072902999818 -2.4349720478 0.31375589967 -0.069557994604
          -2.5757539272 0.34280958772 0.13254100084 -2.5005450249 0.17306339741 0.11759500206
          -2.4349720478 0.31375589967 -0.069557994604 -2.638958931 0.48359829187 -0.078652016819
          -2.5093328953 0.4845136106 0.027746003121 -2.5757539272 0.34280958772 0.13254100084
          -2.4349720478 0.31375589967 -0.069557994604 -2.7577950954 0.15421199799 -0.14046099782
          -2.638958931 0.48359829187 -0.078652016819 -2.5757539272 0.34280958772 0.13254100084
          1.4743545055 -0.47509750724 0.23366600275 1.5581665039 -0.242820099 0.18669840693
          1.4941439629 -0.30191999674 -0.0081950007007 1.7383420467 -0.46321061254 0.15311719477
          0.41876199841 0.49852332473 -0.76524400711 0.60414099693 0.50304430723 -0.62985301018
          0.67563098669 0.48699307442 -0.89504599571 0.70296800137 0.32958817482 -0.69135397673
          0.67563098669 0.48699307442 -0.89504599571 0.60414099693 0.50304430723 -0.62985301018
          0.9641879797 0.46827450395 -0.81677001715 0.70296800137 0.32958817482 -0.69135397673
          0.70296800137 0.32958817482 -0.69135397673 0.60414099693 0.50304430723 -0.62985301018
          0.9641879797 0.46827450395 -0.81677001715 0.89502197504 0.51158940792 -0.54344600439
          0.89502197504 0.51158940792 -0.54344600439 0.70016598701 0.50710338354 -0.40990638733
          0.70296800137 0.32958817482 -0.69135397673 0.60414099693 0.50304430723 -0.62985301018
          0.89502197504 0.51158940792 -0.54344600439 0.70016598701 0.50710338354 -0.40990638733
          0.76200997829 0.19809819758 -0.53690600395 0.70296800137 0.32958817482 -0.69135397673
          0.76200997829 0.19809819758 -0.53690600395 0.70296800137 0.32958817482 -0.69135397673
          0.70016598701 0.50710338354 -0.40990638733 0.52244597673 0.28034487367 -0.58197897673
          0.70296800137 0.32958817482 -0.69135397673 0.60414099693 0.50304430723 -0.62985301018
          0.70016598701 0.50710338354 -0.40990638733 0.52244597673 0.28034487367 -0.58197897673
          5.1458821297 -0.319552809 1.3943560123 4.9568657875 -0.20041409135 1.3308819532
          4.9993109703 -0.25089299679 1.5284099579 4.9736399651 -0.40930470824 1.310732007
          5.1458821297 -0.319552809 1.3943560123 5.1611480713 -0.11739530414 1.3518660069
          4.9993109703 -0.25089299679 1.5284099579 4.9568657875 -0.20041409135 1.3308819532
          5.1013798714 -0.05546059832 1.560379982 4.9568657875 -0.20041409135 1.3308819532
          4.9993109703 -0.25089299679 1.5284099579 5.1611480713 -0.11739530414 1.3518660069
          5.1013798714 -0.05546059832 1.560379982 4.9073309898 0.060586899519 1.514449954
          4.9568657875 -0.20041409135 1.3308819532 5.1611480713 -0.11739530414 1.3518660069
          5.1013798714 -0.05546059832 1.560379982 4.9073309898 0.060586899519 1.514449954
          4.8615598679 -0.11488699913 1.489552021 4.9568657875 -0.20041409135 1.3308819532
          5.1013798714 -0.05546059832 1.560379982 4.8615598679 -0.11488699913 1.489552021
          4.9993109703 -0.25089299679 1.5284099579 4.9568657875 -0.20041409135 1.3308819532
          4.8615598679 -0.11488699913 1.489552021 4.9073309898 0.060586899519 1.514449954
          4.9596247673 0.084158137441 1.2836079597 4.9568657875 -0.20041409135 1.3308819532
          4.8456058502 -0.1037119925 1.1854159832 4.8615598679 -0.11488699913 1.489552021
          4.9596247673 0.084158137441 1.2836079597 4.9568657875 -0.20041409135 1.3308819532
          4.9568657875 -0.20041409135 1.3308819532 4.9073309898 0.060586899519 1.514449954
          4.9596247673 0.084158137441 1.2836079597 5.1611480713 -0.11739530414 1.3518660069
          -1.684795022 0.12831169367 -0.21073399484 -1.545979023 0.22976130247 -0.33403101563
          -1.5091439486 0.10905019939 -0.055601000786 -1.6865179539 0.27380079031 -0.033339001238
          -1.7572649717 0.069237500429 -0.019905999303 -1.684795022 0.12831169367 -0.21073399484
          -1.5091439486 0.10905019939 -0.055601000786 -1.6865179539 0.27380079031 -0.033339001238
          -1.5091439486 0.10905019939 -0.055601000786 -1.7572649717 0.069237500429 -0.019905999303
          -1.6200009584 -0.10922949761 -0.042343001813 -1.684795022 0.12831169367 -0.21073399484
          -1.684795022 0.12831169367 -0.21073399484 -1.7018979788 0.48639988899 -0.31914901733
          -1.545979023 0.22976130247 -0.33403101563 -1.6865179539 0.27380079031 -0.033339001238
          -0.012552999891 -0.06247812137 -1.0391819477 0.08132699877 -0.24986088276 -1.0299509764
          -0.14045800269 -0.19142946601 -0.79101097584 0.066189996898 -0.13907346129 -0.85989201069
          -0.22330099344 0.23585693538 -1.0619950294 -0.33919200301 0.20730000734 -0.79884600639
          -0.50009101629 0.076063752174 -0.91057896614 -0.42215698957 0.32589438558 -1.0801579952
          -0.22330099344 0.23585693538 -1.0619950294 -0.50009101629 0.076063752174 -0.91057896614
          -0.3908880055 0.018037790433 -1.0773969889 -0.42215698957 0.32589438558 -1.0801579952
          -0.22330099344 0.23585693538 -1.0619950294 -0.33919200301 0.20730000734 -0.79884600639
          -0.3908880055 0.018037790433 -1.0773969889 -0.50009101629 0.076063752174 -0.91057896614
          -0.31712800264 -0.025899430737 -0.85415101051 -0.50009101629 0.076063752174 -0.91057896614
          -0.3908880055 0.018037790433 -1.0773969889 -0.33919200301 0.20730000734 -0.79884600639
          -0.31712800264 -0.025899430737 -0.85415101051 -0.62419199944 0.12591390312 -0.73094600439
          -0.50009101629 0.076063752174 -0.91057896614 -0.33919200301 0.20730000734 -0.79884600639
          -0.50009101629 0.076063752174 -0.91057896614 -0.62419199944 0.12591390312 -0.73094600439
          -0.31712800264 -0.025899430737 -0.85415101051 -0.51164197922 0.025980791077 -0.55774062872
          -0.50009101629 0.076063752174 -0.91057896614 -0.62419199944 0.12591390312 -0.73094600439
          -0.55084097385 0.27224868536 -0.88415497541 -0.33919200301 0.20730000734 -0.79884600639
          -0.55084097385 0.27224868536 -0.88415497541 -0.81324702501 0.26146668196 -0.86965799332
          -0.62419199944 0.12591390312 -0.73094600439 -0.50009101629 0.076063752174 -0.91057896614
          -0.42215698957 0.32589438558 -1.0801579952 -0.3908880055 0.018037790433 -1.0773969889
          -0.62441599369 0.23691308498 -1.0922019482 -0.50009101629 0.076063752174 -0.91057896614
          -0.50009101629 0.076063752174 -0.91057896614 -0.3908880055 0.018037790433 -1.0773969889
          -0.62441599369 0.23691308498 -1.0922019482 -0.58885598183 0.011368970387 -1.0877560377
          -0.29308599234 -0.22735399008 -1.0733640194 -0.48082599044 -0.31821736693 -1.0916539431
          -0.43940600753 -0.13465237617 -1.0850310326 -0.32380700111 -0.29127669334 -0.87523800135
          4.6236991882 0.60261398554 0.97155320644 4.5828242302 0.39658501744 0.96988636255
          4.7051949501 0.60293000937 1.1564450264 4.7970080376 0.40450099111 0.99685043097
          4.5828242302 0.39658501744 0.96988636255 4.6475157738 0.38701429963 1.2527079582
          4.7051949501 0.60293000937 1.1564450264 4.7970080376 0.40450099111 0.99685043097
          4.5828242302 0.39658501744 0.96988636255 4.4793419838 0.2869952023 1.1247149706
          4.6475157738 0.38701429963 1.2527079582 4.7970080376 0.40450099111 0.99685043097
          2.8881449699 0.23836348951 0.18792100251 3.1981549263 0.12413520366 0.16969101131
          3.1101438999 0.080181010067 0.45569860935 3.2137260437 0.23683209717 0.35793501139
          3.1256771088 0.35985979438 0.17385299504 3.1981549263 0.12413520366 0.16969101131
          2.8881449699 0.23836348951 0.18792100251 3.2137260437 0.23683209717 0.35793501139
          2.5194039345 0.221833691 0.014336997643 2.4682879448 0.38555598259 -0.10436999053
          2.2763319016 0.28125241399 -0.14818999171 2.4686999321 0.064002029598 -0.14970698953
          -1.5197509527 -0.51312232018 -0.42337998748 -1.4011659622 -0.51028960943 -0.56537860632
          -1.3917900324 -0.51799577475 -0.23380000889 -1.224069953 -0.31939327717 -0.31514698267
          -1.4155100584 -0.21666789055 -0.40096598864 -1.5197509527 -0.51312232018 -0.42337998748
          -1.3917900324 -0.51799577475 -0.23380000889 -1.224069953 -0.31939327717 -0.31514698267
          -1.4155100584 -0.21666789055 -0.40096598864 -1.5197509527 -0.51312232018 -0.42337998748
          -1.224069953 -0.31939327717 -0.31514698267 -1.2913279533 -0.31723329425 -0.56081938744
          -1.4155100584 -0.21666789055 -0.40096598864 -1.4011659622 -0.51028960943 -0.56537860632
          -1.5197509527 -0.51312232018 -0.42337998748 -1.2913279533 -0.31723329425 -0.56081938744
          -1.5197509527 -0.51312232018 -0.42337998748 -1.4011659622 -0.51028960943 -0.56537860632
          -1.224069953 -0.31939327717 -0.31514698267 -1.2913279533 -0.31723329425 -0.56081938744
          1.1881120205 0.31921857595 0.10735101253 1.0401221514 0.23939830065 -0.032525006682
          1.1398986578 -0.010146999732 0.071502000093 1.3544540405 0.20737339556 0.028903007507
          1.2022919655 0.33101278543 -0.21015967429 1.3544540405 0.20737339556 0.028903007507
          1.0401221514 0.23939830065 -0.032525006682 1.1881120205 0.31921857595 0.10735101253
          1.2022919655 0.33101278543 -0.21015967429 1.1881120205 0.31921857595 0.10735101253
          1.0401221514 0.23939830065 -0.032525006682 1.133603096 0.5178232789 0.011582996696
          1.3544540405 0.20737339556 0.028903007507 1.1881120205 0.31921857595 0.10735101253
          1.359737277 0.23038239777 0.39317399263 1.3329657316 0.04662720114 0.17705599964
          1.1881120205 0.31921857595 0.10735101253 1.359737277 0.23038239777 0.39317399263
          1.543838501 0.32068037987 0.19921569526 1.3544540405 0.20737339556 0.028903007507
          1.2691779137 0.37699308991 0.36733099818 1.359737277 0.23038239777 0.39317399263
          1.543838501 0.32068037987 0.19921569526 1.1881120205 0.31921857595 0.10735101253
          1.1881120205 0.31921857595 0.10735101253 1.1546875238 0.13383899629 0.32170900702
          1.2691779137 0.37699308991 0.36733099818 1.359737277 0.23038239777 0.39317399263
          1.1881120205 0.31921857595 0.10735101253 1.1546875238 0.13383899629 0.32170900702
          1.359737277 0.23038239777 0.39317399263 1.3329657316 0.04662720114 0.17705599964
          1.1881120205 0.31921857595 0.10735101253 1.1546875238 0.13383899629 0.32170900702
          1.1094706059 0.31878361106 0.31281399727 1.2691779137 0.37699308991 0.36733099818
          0.0033680000342 -0.49371635914 -0.68691200018 -0.096773996949 -0.50181341171 -0.56035459042
          -0.055491000414 -0.26846665144 -0.58021008968 0.082827799022 -0.50211364031 -0.4565897882
          -4.3738183975 0.24991054833 -0.14364899695 -4.6259469986 0.16757617891 -0.22007699311
          -4.5877504349 0.083796218038 -0.033795300871 -4.4088745117 0.030903441831 -0.32176870108
          -4.3738183975 0.24991054833 -0.14364899695 -4.5877504349 0.083796218038 -0.033795300871
          -4.394712925 -0.0063827331178 -0.052065320313 -4.4088745117 0.030903441831 -0.32176870108
          2.4849748611 -0.2620677948 0.78334200382 2.5104129314 -0.4431695044 0.58892899752
          2.7102086544 -0.435593009 0.59967702627 2.5335454941 -0.19222688675 0.50451397896
          0.98844081163 -0.48904711008 0.035179998726 0.86573559046 -0.49677124619 0.15245500207
          0.86059832573 -0.49077758193 -0.080404996872 0.79302960634 -0.29305431247 -0.039216998965
          -3.1628189087 0.48208609223 0.07378398627 -3.2902696133 0.27174562216 0.025448989123
          -3.2128009796 0.42603981495 0.26003301144 -3.0553820133 0.29404971004 0.22911499441
          -4.5877504349 0.083796218038 -0.033795300871 -4.7780652046 -0.0085761295632 -0.01886684075
          -4.6692109108 -0.16517569125 -0.19817639887 -4.7891550064 0.016387579963 -0.29043120146
          0.98700541258 -0.19875110686 -0.078704997897 0.98844081163 -0.48904711008 0.035179998726
          0.86059832573 -0.49077758193 -0.080404996872 0.79302960634 -0.29305431247 -0.039216998965
          -4.374229908 0.21605139971 0.18340799212 -4.394712925 -0.0063827331178 -0.052065320313
          -4.5877504349 0.083796218038 -0.033795300871 -4.4813494682 0.022646209225 0.2389934808
          -4.374229908 0.21605139971 0.18340799212 -4.5877504349 0.083796218038 -0.033795300871
          -4.6630234718 0.13930633664 0.15250210464 -4.4813494682 0.022646209225 0.2389934808
          -4.4813494682 0.022646209225 0.2389934808 -4.6630234718 0.13930633664 0.15250210464
          -4.6583003998 -0.19147884846 0.13825491071 -4.5877504349 0.083796218038 -0.033795300871
          1.2453129292 -0.22395838797 0.33866900206 1.2560261488 -0.45418319106 0.33257600665
          1.0654981136 -0.48984488845 0.18946000934 0.95090967417 -0.35872739553 0.2368170023
          1.2453129292 -0.22395838797 0.33866900206 1.0654981136 -0.48984488845 0.18946000934
          1.1952601671 -0.29477098584 0.064541012049 0.95090967417 -0.35872739553 0.2368170023
          1.178434968 -0.4816032052 0.03579299897 1.0654981136 -0.48984488845 0.18946000934
          0.98844081163 -0.48904711008 0.035179998726 1.1952601671 -0.29477098584 0.064541012049
          -2.8009653091 0.022092198953 -0.32149419188 -2.9204330444 -0.13243819773 -0.19507199526
          -2.9648208618 -0.08248540014 -0.41598600149 -3.0590620041 0.043446499854 -0.27457588911
          -3.5198493004 0.28535220027 -0.20457419753 -3.2644114494 0.48313009739 -0.43453800678
          -3.3095912933 0.2773117125 -0.21319679916 -3.4978125095 0.48323321342 -0.19416743517
          -2.9424054623 0.1131972 -0.47736001015 -2.8009653091 0.022092198953 -0.32149419188
          -2.9648208618 -0.08248540014 -0.41598600149 -3.0590620041 0.043446499854 -0.27457588911
          -2.8796532154 -0.32189744711 -0.3305183053 -2.8155953884 -0.19327259064 -0.5224930048
          -2.9648208618 -0.08248540014 -0.41598600149 -3.0045845509 -0.31262481213 -0.59387999773
          4.527215004 0.58946532011 1.2835580111 4.2713618279 0.37677168846 1.2242929935
          4.4793419838 0.2869952023 1.1247149706 4.4358549118 0.59034252167 1.1339720488
          4.527215004 0.58946532011 1.2835580111 4.6475157738 0.38701429963 1.2527079582
          4.4358549118 0.59034252167 1.1339720488 4.4793419838 0.2869952023 1.1247149706
          4.527215004 0.58946532011 1.2835580111 4.6475157738 0.38701429963 1.2527079582
          4.7051949501 0.60293000937 1.1564450264 4.4358549118 0.59034252167 1.1339720488
          4.4358549118 0.59034252167 1.1339720488 4.6475157738 0.38701429963 1.2527079582
          4.7051949501 0.60293000937 1.1564450264 4.5828242302 0.39658501744 0.96988636255
          4.6236991882 0.60261398554 0.97155320644 4.4358549118 0.59034252167 1.1339720488
          4.7051949501 0.60293000937 1.1564450264 4.5828242302 0.39658501744 0.96988636255
          4.6236991882 0.60261398554 0.97155320644 4.4358549118 0.59034252167 1.1339720488
          4.5828242302 0.39658501744 0.96988636255 4.4149041176 0.59745812416 0.95439249277
          4.5828242302 0.39658501744 0.96988636255 4.4149041176 0.59745812416 0.95439249277
          4.4358549118 0.59034252167 1.1339720488 4.2772049904 0.36336359382 0.94083797932
          4.5828242302 0.39658501744 0.96988636255 4.4358549118 0.59034252167 1.1339720488
          4.4793419838 0.2869952023 1.1247149706 4.2772049904 0.36336359382 0.94083797932
          4.4358549118 0.59034252167 1.1339720488 4.6475157738 0.38701429963 1.2527079582
          4.5828242302 0.39658501744 0.96988636255 4.4793419838 0.2869952023 1.1247149706
          4.4358549118 0.59034252167 1.1339720488 4.4793419838 0.2869952023 1.1247149706
          4.2772049904 0.36336359382 0.94083797932 4.2713618279 0.37677168846 1.2242929935
          4.4358549118 0.59034252167 1.1339720488 4.2713618279 0.37677168846 1.2242929935
          4.2772049904 0.36336359382 0.94083797932 4.2535729408 0.58250921965 1.0972069502
          4.4149041176 0.59745812416 0.95439249277 4.4358549118 0.59034252167 1.1339720488
          4.2772049904 0.36336359382 0.94083797932 4.2535729408 0.58250921965 1.0972069502
          1.9153610468 0.36894521117 -0.30883604288 1.8098720312 0.33792459965 -0.017415300012
          2.0672409534 0.54569250345 -0.02698210068 1.9772109985 0.2443075031 -0.15706959367
          1.9153610468 0.36894521117 -0.30883604288 1.8098720312 0.33792459965 -0.017415300012
          1.9772109985 0.2443075031 -0.15706959367 1.7200000286 0.27868279815 -0.33277949691
          1.7981909513 0.54004788399 -0.43759217858 1.7200000286 0.27868279815 -0.33277949691
          1.9153610468 0.36894521117 -0.30883604288 1.932314992 0.39315280318 -0.51564007998
          1.8266550303 0.23588789999 -0.55572861433 1.7200000286 0.27868279815 -0.33277949691
          1.9153610468 0.36894521117 -0.30883604288 2.0239698887 0.24268069863 -0.49068275094
          1.9153610468 0.36894521117 -0.30883604288 1.9772109985 0.2443075031 -0.15706959367
          1.8510379791 0.076726302505 -0.29504978657 1.7200000286 0.27868279815 -0.33277949691
          -4.2057743073 0.083515927196 -0.063847601414 -4.1840386391 -0.02179926075 0.21181380749
          -4.0971708298 0.14169080555 0.095920503139 -4.1034150124 -0.18890102208 0.022778199986
          -4.2057743073 0.083515927196 -0.063847601414 -4.394712925 -0.0063827331178 -0.052065320313
          -4.374229908 0.21605139971 0.18340799212 -4.1840386391 -0.02179926075 0.21181380749
          -4.394712925 -0.0063827331178 -0.052065320313 -4.1840386391 -0.02179926075 0.21181380749
          -4.2057743073 0.083515927196 -0.063847601414 -4.1034150124 -0.18890102208 0.022778199986
          -2.8796532154 -0.32189744711 -0.3305183053 -2.9648208618 -0.08248540014 -0.41598600149
          -3.1450257301 -0.19032800198 -0.44944301248 -3.0045845509 -0.31262481213 -0.59387999773
          4.0860438347 -0.014925898984 0.46736100316 4.1978611946 0.12986010313 0.5741019845
          4.0790348053 0.052158098668 0.78453868628 4.0052309036 0.2497472018 0.67321902514
          4.0860438347 -0.014925898984 0.46736100316 4.0827860832 0.11810979992 0.29750001431
          4.2723498344 0.019195003435 0.35912799835 4.1978611946 0.12986010313 0.5741019845
          4.1229319572 -0.1651879102 0.30276998878 4.0827860832 0.11810979992 0.29750001431
          4.2723498344 0.019195003435 0.35912799835 4.0860438347 -0.014925898984 0.46736100316
          4.0860438347 -0.014925898984 0.46736100316 4.1229319572 -0.1651879102 0.30276998878
          4.2858800888 -0.1588639915 0.36022999883 4.2723498344 0.019195003435 0.35912799835
          -0.90989202261 0.24085079134 -0.62744837999 -1.0845546722 0.4788222909 -0.80185699463
          -0.90296202898 0.47852620482 -0.86588096619 -0.98683398962 0.4838886857 -0.57747471333
          -0.90989202261 0.24085079134 -0.62744837999 -0.90296202898 0.47852620482 -0.86588096619
          -0.785762012 0.48228681087 -0.72692197561 -0.98683398962 0.4838886857 -0.57747471333
          -3.0045845509 -0.31262481213 -0.59387999773 -2.9944975376 -0.5079087019 -0.71235400438
          -3.1707112789 -0.50821882486 -0.61334198713 -2.9167158604 -0.50708723068 -0.47135400772
          -3.0045845509 -0.31262481213 -0.59387999773 -3.1707112789 -0.50821882486 -0.61334198713
          -3.1325054169 -0.50747013092 -0.43627199531 -2.9167158604 -0.50708723068 -0.47135400772
          -2.9944975376 -0.5079087019 -0.71235400438 -3.2359466553 -0.42429992557 -0.7593640089
          -3.0045845509 -0.31262481213 -0.59387999773 -3.1707112789 -0.50821882486 -0.61334198713
          -2.1267375946 -0.28440442681 -0.5801320076 -2.1776151657 -0.33875748515 -0.37888690829
          -1.9710366726 -0.33433938026 -0.42893758416 -1.9995814562 -0.50839465857 -0.5625320673
          -0.83363598585 0.4878360033 -0.50646197796 -0.81611001492 0.30783483386 -0.27051800489
          -0.66691201925 0.49013388157 -0.48518800735 -0.75858801603 0.17240820825 -0.42690300941
          -2.1267375946 -0.28440442681 -0.5801320076 -2.2481837273 -0.50829571486 -0.4661166966
          -2.1776151657 -0.33875748515 -0.37888690829 -1.9995814562 -0.50839465857 -0.5625320673
          0.9749379158 0.10632624477 0.26197698712 1.0401221514 0.23939830065 -0.032525006682
          1.1398986578 -0.010146999732 0.071502000093 1.1881120205 0.31921857595 0.10735101253
          1.1546875238 0.13383899629 0.32170900702 0.9749379158 0.10632624477 0.26197698712
          1.1398986578 -0.010146999732 0.071502000093 1.1881120205 0.31921857595 0.10735101253
          1.1881120205 0.31921857595 0.10735101253 1.1094706059 0.31878361106 0.31281399727
          1.1546875238 0.13383899629 0.32170900702 0.9749379158 0.10632624477 0.26197698712
          2.0239698887 0.24268069863 -0.49068275094 2.1437630653 0.14836460352 -0.25723919272
          2.2012159824 0.29154539108 -0.42888310552 2.1178569794 0.093814596534 -0.4642611146
          -0.85025602579 -0.29496991634 -0.10682400316 -1.0252319574 -0.25830030441 -0.10159199685
          -0.888019979 -0.52109897137 -0.27666097879 -1.0108540058 -0.22747680545 -0.36507099867
          1.9772109985 0.2443075031 -0.15706959367 2.2763319016 0.28125241399 -0.14818999171
          2.2012159824 0.29154539108 -0.42888310552 2.1437630653 0.14836460352 -0.25723919272
          2.2439339161 0.21964900196 0.058875899762 2.2763319016 0.28125241399 -0.14818999171
          1.9772109985 0.2443075031 -0.15706959367 2.1437630653 0.14836460352 -0.25723919272
          2.2439339161 0.21964900196 0.058875899762 2.2763319016 0.28125241399 -0.14818999171
          2.1437630653 0.14836460352 -0.25723919272 2.2007000446 -0.030069796368 -0.17213380337
          2.2007000446 -0.030069796368 -0.17213380337 2.4686999321 0.064002029598 -0.14970698953
          2.2763319016 0.28125241399 -0.14818999171 2.1437630653 0.14836460352 -0.25723919272
          2.2007000446 -0.030069796368 -0.17213380337 2.4686999321 0.064002029598 -0.14970698953
          2.1437630653 0.14836460352 -0.25723919272 2.3845460415 0.082077801228 -0.37291699648
          2.1437630653 0.14836460352 -0.25723919272 2.4686999321 0.064002029598 -0.14970698953
          2.2763319016 0.28125241399 -0.14818999171 2.3845460415 0.082077801228 -0.37291699648
          2.2763319016 0.28125241399 -0.14818999171 2.3845460415 0.082077801228 -0.37291699648
          2.2012159824 0.29154539108 -0.42888310552 2.1437630653 0.14836460352 -0.25723919272
          2.1437630653 0.14836460352 -0.25723919272 2.3845460415 0.082077801228 -0.37291699648
          2.2012159824 0.29154539108 -0.42888310552 2.1178569794 0.093814596534 -0.4642611146
          5.1017589569 -0.19658398628 0.71833097935 5.2886118889 -0.19004799426 0.81414800882
          5.2478318214 -0.29952001572 0.57194000483 5.2994370461 -0.39753201604 0.75672501326
          5.1102108955 -0.40072900057 0.75134700537 5.1017589569 -0.19658398628 0.71833097935
          5.2478318214 -0.29952001572 0.57194000483 5.2994370461 -0.39753201604 0.75672501326
          5.1102108955 -0.40072900057 0.75134700537 5.2886118889 -0.19004799426 0.81414800882
          5.1017589569 -0.19658398628 0.71833097935 5.2994370461 -0.39753201604 0.75672501326
          5.1102108955 -0.40072900057 0.75134700537 5.2886118889 -0.19004799426 0.81414800882
          5.1633911133 -0.40683791041 0.92723697424 5.1017589569 -0.19658398628 0.71833097935
          -4.6145296097 0.48269069195 0.36654379964 -4.5572566986 0.23751859367 0.2899813056
          -4.7025990486 0.30048549175 0.47185480595 -4.5035572052 0.34405878186 0.45431670547
          5.1017589569 -0.19658398628 0.71833097935 5.0362038612 -0.1984565109 1.0518586636
          5.1633911133 -0.40683791041 0.92723697424 4.9587922096 -0.11951480061 0.84872800112
          5.2886118889 -0.19004799426 0.81414800882 5.0362038612 -0.1984565109 1.0518586636
          5.1017589569 -0.19658398628 0.71833097935 4.9587922096 -0.11951480061 0.84872800112
          4.9587922096 -0.11951480061 0.84872800112 5.2740988731 0.079818502069 0.87786698341
          5.1017589569 -0.19658398628 0.71833097935 5.2886118889 -0.19004799426 0.81414800882
          4.9587922096 -0.11951480061 0.84872800112 5.2740988731 0.079818502069 0.87786698341
          5.0587530136 0.088731199503 0.75192797184 5.1017589569 -0.19658398628 0.71833097935
          5.1017589569 -0.19658398628 0.71833097935 5.2740988731 0.079818502069 0.87786698341
          5.0587530136 0.088731199503 0.75192797184 5.2886118889 -0.19004799426 0.81414800882
          5.2886118889 -0.19004799426 0.81414800882 5.0362038612 -0.1984565109 1.0518586636
          5.1633911133 -0.40683791041 0.92723697424 5.1017589569 -0.19658398628 0.71833097935
          3.5705780983 -0.40920200944 0.84491300583 3.599364996 -0.13409550488 0.90844702721
          3.6017444134 -0.40726909041 1.038525939 3.3624682426 -0.19947208464 0.94604200125
          3.5705780983 -0.40920200944 0.84491300583 3.3624682426 -0.19947208464 0.94604200125
          3.6017444134 -0.40726909041 1.038525939 3.3577077389 -0.41411450505 1.0120899677
          3.3577077389 -0.41411450505 1.0120899677 3.2812619209 -0.41720849276 0.63608801365
          3.5705780983 -0.40920200944 0.84491300583 3.3624682426 -0.19947208464 0.94604200125
          5.0286197662 0.27560698986 1.0374772549 5.2164421082 0.40284201503 1.1155520678
          5.0476732254 0.61224198341 1.0092389584 5.250415802 0.44116699696 0.96342402697
          5.0476732254 0.61224198341 1.0092389584 5.2164421082 0.40284201503 1.1155520678
          5.2397999763 0.61484199762 0.9742590189 5.250415802 0.44116699696 0.96342402697
          0.096351802349 -0.10763604939 -0.42178741097 0.13293649256 -0.12217481434 -0.6249139905
          0.25168299675 0.024994578212 -0.46399909258 -0.045155998319 0.014279329218 -0.54846435785
          0.096351802349 -0.10763604939 -0.42178741097 -0.045155998319 0.014279329218 -0.54846435785
          0.25168299675 0.024994578212 -0.46399909258 0.0546566993 0.13170881569 -0.364466995
          0.096351802349 -0.10763604939 -0.42178741097 0.25168299675 0.024994578212 -0.46399909258
          0.098207399249 -0.032019931823 -0.19597899914 0.0546566993 0.13170881569 -0.364466995
          0.096351802349 -0.10763604939 -0.42178741097 0.098207399249 -0.032019931823 -0.19597899914
          -0.088332302868 0.076261751354 -0.21729001403 0.0546566993 0.13170881569 -0.364466995
          -0.081785798073 -0.18698275089 -0.35594800115 0.096351802349 -0.10763604939 -0.42178741097
          -0.088332302868 0.076261751354 -0.21729001403 0.0546566993 0.13170881569 -0.364466995
          -0.081785798073 -0.18698275089 -0.35594800115 -0.045155998319 0.014279329218 -0.54846435785
          0.096351802349 -0.10763604939 -0.42178741097 0.0546566993 0.13170881569 -0.364466995
          -0.081785798073 -0.18698275089 -0.35594800115 0.098207399249 -0.032019931823 -0.19597899914
          -0.088332302868 0.076261751354 -0.21729001403 0.096351802349 -0.10763604939 -0.42178741097
          1.0401221514 0.23939830065 -0.032525006682 1.2022919655 0.33101278543 -0.21015967429
          0.95586800575 0.071381397545 -0.33720040321 0.97177040577 0.064062602818 -0.1233580038
          1.0401221514 0.23939830065 -0.032525006682 1.2022919655 0.33101278543 -0.21015967429
          0.97177040577 0.064062602818 -0.1233580038 1.1638020277 0.033433400095 -0.21218000352
          0.97177040577 0.064062602818 -0.1233580038 1.2022919655 0.33101278543 -0.21015967429
          0.95586800575 0.071381397545 -0.33720040321 1.1638020277 0.033433400095 -0.21218000352
          -3.4821026325 -0.046573873609 0.11716599017 -3.6940450668 -0.011909330264 0.12301498652
          -3.5214090347 -0.040553983301 0.31633499265 -3.6205406189 -0.31749200821 0.12511700392
          -3.5503668785 -0.17767935991 -0.019175993279 -3.6940450668 -0.011909330264 0.12301498652
          -3.4821026325 -0.046573873609 0.11716599017 -3.6205406189 -0.31749200821 0.12511700392
          -4.1448526382 0.14308868349 -0.26994079351 -4.0438446999 0.094188794494 -0.60962402821
          -4.0446949005 -0.034010000527 -0.39543700218 -4.0919904709 0.29906708002 -0.39470338821
          -4.1448526382 0.14308868349 -0.26994079351 -4.0919904709 0.29906708002 -0.39470338821
          -4.0446949005 -0.034010000527 -0.39543700218 -3.8971295357 0.23590660095 -0.36395600438
          -0.90989202261 0.24085079134 -0.62744837999 -0.75858801603 0.17240820825 -0.42690300941
          -0.83363598585 0.4878360033 -0.50646197796 -0.5779209733 0.28877097368 -0.57027238607
          -0.83363598585 0.4878360033 -0.50646197796 -0.90989202261 0.24085079134 -0.62744837999
          -0.81611001492 0.30783483386 -0.27051800489 -0.75858801603 0.17240820825 -0.42690300941
          -0.785762012 0.48228681087 -0.72692197561 -0.90989202261 0.24085079134 -0.62744837999
          -0.83363598585 0.4878360033 -0.50646197796 -0.5779209733 0.28877097368 -0.57027238607
          -0.83363598585 0.4878360033 -0.50646197796 -0.75858801603 0.17240820825 -0.42690300941
          -0.66691201925 0.49013388157 -0.48518800735 -0.5779209733 0.28877097368 -0.57027238607
          -0.785762012 0.48228681087 -0.72692197561 -0.83363598585 0.4878360033 -0.50646197796
          -0.66691201925 0.49013388157 -0.48518800735 -0.5779209733 0.28877097368 -0.57027238607
          -0.785762012 0.48228681087 -0.72692197561 -0.98683398962 0.4838886857 -0.57747471333
          -0.83363598585 0.4878360033 -0.50646197796 -0.90989202261 0.24085079134 -0.62744837999
          -2.0975265503 -0.075285196304 -0.43518251181 -2.1776151657 -0.33875748515 -0.37888690829
          -2.3400249481 -0.19343669713 -0.23309500515 -2.0592620373 -0.25566390157 -0.23402400315
          -2.0592620373 -0.25566390157 -0.23402400315 -2.1776151657 -0.33875748515 -0.37888690829
          -2.3400249481 -0.19343669713 -0.23309500515 -2.2283110619 -0.34106051922 -0.12456599623
          -2.1776151657 -0.33875748515 -0.37888690829 -2.3835964203 -0.32359841466 -0.41965642571
          -2.3400249481 -0.19343669713 -0.23309500515 -2.2283110619 -0.34106051922 -0.12456599623
          -2.0975265503 -0.075285196304 -0.43518251181 -2.1267375946 -0.28440442681 -0.5801320076
          -2.3716421127 -0.18197050691 -0.6025840044 -2.1776151657 -0.33875748515 -0.37888690829
          -2.1776151657 -0.33875748515 -0.37888690829 -2.2481837273 -0.50829571486 -0.4661166966
          -2.1493499279 -0.51199901104 -0.23114798963 -1.9995814562 -0.50839465857 -0.5625320673
          -1.9710366726 -0.33433938026 -0.42893758416 -2.1776151657 -0.33875748515 -0.37888690829
          -2.1493499279 -0.51199901104 -0.23114798963 -1.9995814562 -0.50839465857 -0.5625320673
          -2.1776151657 -0.33875748515 -0.37888690829 -2.2481837273 -0.50829571486 -0.4661166966
          -2.3604021072 -0.51019489765 -0.16444499791 -2.1493499279 -0.51199901104 -0.23114798963
          1.2660080194 0.1764563024 -0.51763701439 1.3801549673 0.52707129717 -0.58447301388
          1.323251009 0.38888579607 -0.71256399155 1.40358603 0.24286289513 -0.3494130075
          1.2660080194 0.1764563024 -0.51763701439 1.23584795 0.52147328854 -0.44651499391
          1.3801549673 0.52707129717 -0.58447301388 1.40358603 0.24286289513 -0.3494130075
          0.32351368666 -0.50792455673 -0.14887700975 0.24777440727 -0.18341463804 -0.29771098495
          0.0696529001 -0.32972794771 -0.23890098929 0.34409999847 -0.50164806843 -0.32478198409
          0.0696529001 -0.32972794771 -0.23890098929 0.24357970059 -0.27066677809 0.034074999392
          0.24777440727 -0.18341463804 -0.29771098495 0.32351368666 -0.50792455673 -0.14887700975
          0.32351368666 -0.50792455673 -0.14887700975 0.44537511468 -0.27799990773 -0.12429698557
          0.4930306077 -0.50028795004 -0.18466299772 0.48393589258 -0.50734382868 0.013009998947
          1.7900329828 0.53836679459 -0.22017219663 1.8098720312 0.33792459965 -0.017415300012
          1.9153610468 0.36894521117 -0.30883604288 1.7200000286 0.27868279815 -0.33277949691
          3.4926049709 0.5762001276 0.76709657907 3.550276041 0.36652091146 0.69562649727
          3.4282515049 0.33187240362 0.97428900003 3.6906139851 0.57666391134 0.86979299784
          1.7244919538 -0.11605580151 -0.38782680035 1.90753901 -0.28872641921 -0.54777610302
          1.9479429722 -0.26660808921 -0.33822989464 1.8998550177 0.038344699889 -0.53832769394
          1.8510379791 0.076726302505 -0.29504978657 1.7244919538 -0.11605580151 -0.38782680035
          1.9479429722 -0.26660808921 -0.33822989464 1.8998550177 0.038344699889 -0.53832769394
          1.8510379791 0.076726302505 -0.29504978657 1.9479429722 -0.26660808921 -0.33822989464
          2.1296679974 -0.11873139441 -0.46822568774 1.8998550177 0.038344699889 -0.53832769394
          1.9479429722 -0.26660808921 -0.33822989464 1.90753901 -0.28872641921 -0.54777610302
          2.1296679974 -0.11873139441 -0.46822568774 1.8998550177 0.038344699889 -0.53832769394
          1.9479429722 -0.26660808921 -0.33822989464 1.90753901 -0.28872641921 -0.54777610302
          2.1658439636 -0.43505328894 -0.3575527072 2.1296679974 -0.11873139441 -0.46822568774
          2.1323330402 -0.24952030182 -0.2159884125 1.9479429722 -0.26660808921 -0.33822989464
          2.1658439636 -0.43505328894 -0.3575527072 2.1296679974 -0.11873139441 -0.46822568774
          1.9479429722 -0.26660808921 -0.33822989464 1.9164220095 -0.13674210012 -0.17615103722
          2.1323330402 -0.24952030182 -0.2159884125 2.0085380077 -0.44803181291 -0.051146503538
          -3.8068175316 -0.027711499482 -0.64996302128 -3.7473104 -0.28769311309 -0.66039299965
          -3.8867964745 -0.18341259658 -0.63530302048 -3.733959198 -0.32337343693 -0.43397399783
          0.63849902153 0.22250783443 -0.90636301041 0.70296800137 0.32958817482 -0.69135397673
          0.8415030241 0.30299159884 -0.85388797522 0.76892197132 0.11045709997 -0.87638199329
          0.63849902153 0.22250783443 -0.90636301041 0.70296800137 0.32958817482 -0.69135397673
          0.76892197132 0.11045709997 -0.87638199329 0.56008797884 0.052585806698 -0.68334698677
          0.63849902153 0.22250783443 -0.90636301041 0.56008797884 0.052585806698 -0.68334698677
          0.76892197132 0.11045709997 -0.87638199329 0.6468949914 -0.072852902114 -0.91035401821
          -3.8867964745 -0.18341259658 -0.63530302048 -3.7473104 -0.28769311309 -0.66039299965
          -3.9332222939 -0.36795258522 -0.62505298853 -3.733959198 -0.32337343693 -0.43397399783
          -3.8867964745 -0.18341259658 -0.63530302048 -3.733959198 -0.32337343693 -0.43397399783
          -3.9332222939 -0.36795258522 -0.62505298853 -3.9158587456 -0.22345404327 -0.33129701018
          -1.8710329533 -0.32551139593 -0.18849799037 -1.8008160591 -0.23927970231 -0.014976000413
          -1.6751329899 -0.51861619949 -0.069551989436 -1.8229030371 -0.51682400703 -0.13109901547
          -1.5985989571 -0.27739399672 -0.2576969862 -1.8710329533 -0.32551139593 -0.18849799037
          -1.6751329899 -0.51861619949 -0.069551989436 -1.8229030371 -0.51682400703 -0.13109901547
          -1.8710329533 -0.32551139593 -0.18849799037 -1.5985989571 -0.27739399672 -0.2576969862
          -1.5839049816 -0.51631599665 -0.24902200699 -1.8229030371 -0.51682400703 -0.13109901547
          -1.7037880421 -0.51201498508 -0.40343299508 -1.8710329533 -0.32551139593 -0.18849799037
          -1.5839049816 -0.51631599665 -0.24902200699 -1.8229030371 -0.51682400703 -0.13109901547
          -1.7037880421 -0.51201498508 -0.40343299508 -1.8710329533 -0.32551139593 -0.18849799037
          -1.8229030371 -0.51682400703 -0.13109901547 -1.9083119631 -0.51320451498 -0.2680529952
          -1.7037880421 -0.51201498508 -0.40343299508 -1.8079010248 -0.20703689754 -0.34597599506
          -1.8710329533 -0.32551139593 -0.18849799037 -1.9083119631 -0.51320451498 -0.2680529952
          -1.7037880421 -0.51201498508 -0.40343299508 -1.8079010248 -0.20703689754 -0.34597599506
          -1.5985989571 -0.27739399672 -0.2576969862 -1.8710329533 -0.32551139593 -0.18849799037
          -1.7037880421 -0.51201498508 -0.40343299508 -1.5985989571 -0.27739399672 -0.2576969862
          -1.5839049816 -0.51631599665 -0.24902200699 -1.8710329533 -0.32551139593 -0.18849799037
          -1.8079010248 -0.20703689754 -0.34597599506 -1.8008160591 -0.23927970231 -0.014976000413
          -1.5985989571 -0.27739399672 -0.2576969862 -1.8710329533 -0.32551139593 -0.18849799037
          -1.5985989571 -0.27739399672 -0.2576969862 -1.8008160591 -0.23927970231 -0.014976000413
          -1.6751329899 -0.51861619949 -0.069551989436 -1.8710329533 -0.32551139593 -0.18849799037
          -1.8229030371 -0.51682400703 -0.13109901547 -1.8710329533 -0.32551139593 -0.18849799037
          -1.9509960413 -0.51507622004 -0.028830006719 -1.9083119631 -0.51320451498 -0.2680529952
          -1.9083119631 -0.51320451498 -0.2680529952 -1.8710329533 -0.32551139593 -0.18849799037
          -1.9509960413 -0.51507622004 -0.028830006719 -2.1493499279 -0.51199901104 -0.23114798963
          -1.9083119631 -0.51320451498 -0.2680529952 -2.0592620373 -0.25566390157 -0.23402400315
          -1.8710329533 -0.32551139593 -0.18849799037 -2.1493499279 -0.51199901104 -0.23114798963
          -1.8710329533 -0.32551139593 -0.18849799037 -2.0592620373 -0.25566390157 -0.23402400315
          -1.9083119631 -0.51320451498 -0.2680529952 -1.9710366726 -0.33433938026 -0.42893758416
          -1.8710329533 -0.32551139593 -0.18849799037 -2.0592620373 -0.25566390157 -0.23402400315
          -1.9509960413 -0.51507622004 -0.028830006719 -2.1493499279 -0.51199901104 -0.23114798963
          -1.8710329533 -0.32551139593 -0.18849799037 -2.1005930901 -0.28334778547 0.038400001824
          -1.9509960413 -0.51507622004 -0.028830006719 -2.0592620373 -0.25566390157 -0.23402400315
          -1.8710329533 -0.32551139593 -0.18849799037 -2.1005930901 -0.28334778547 0.038400001824
          -2.0592620373 -0.25566390157 -0.23402400315 -1.9761929512 -0.084401905537 0.01688499935
          -1.8710329533 -0.32551139593 -0.18849799037 -2.0592620373 -0.25566390157 -0.23402400315
          -1.8348480463 -0.01922108978 -0.21806798875 -1.9761929512 -0.084401905537 0.01688499935
          -2.6686131954 0.11487980187 -0.87576198578 -2.6087565422 -0.063813298941 -0.63231498003
          -2.7248899937 -0.058732099831 -0.86423897743 -2.819904089 0.037339199334 -0.66302698851
          -2.819904089 0.037339199334 -0.66302698851 -2.8732545376 0.220630005 -0.8351380229
          -2.7248899937 -0.058732099831 -0.86423897743 -2.6686131954 0.11487980187 -0.87576198578
          0.81067937613 -0.037577752024 -0.03468298912 0.53519868851 0.048687562346 -0.13842900097
          0.78821092844 0.14894378185 -0.18848800659 0.85527962446 0.15694072843 0.023737987503
          0.78821092844 0.14894378185 -0.18848800659 0.97177040577 0.064062602818 -0.1233580038
          0.81067937613 -0.037577752024 -0.03468298912 0.85527962446 0.15694072843 0.023737987503
          0.78821092844 0.14894378185 -0.18848800659 1.0401221514 0.23939830065 -0.032525006682
          0.97177040577 0.064062602818 -0.1233580038 0.85527962446 0.15694072843 0.023737987503
          0.78821092844 0.14894378185 -0.18848800659 1.0401221514 0.23939830065 -0.032525006682
          0.85527962446 0.15694072843 0.023737987503 0.74646031857 0.32201400399 -0.03702198714
          0.74646031857 0.32201400399 -0.03702198714 0.53519868851 0.048687562346 -0.13842900097
          0.85527962446 0.15694072843 0.023737987503 0.78821092844 0.14894378185 -0.18848800659
          0.74646031857 0.32201400399 -0.03702198714 0.53519868851 0.048687562346 -0.13842900097
          0.5864264369 0.083424940705 0.13992400467 0.85527962446 0.15694072843 0.023737987503
          0.72277122736 0.1972938925 0.1844419986 0.74646031857 0.32201400399 -0.03702198714
          0.5864264369 0.083424940705 0.13992400467 0.85527962446 0.15694072843 0.023737987503
          0.72277122736 0.1972938925 0.1844419986 0.807526052 0.036346398294 0.20567299426
          0.85527962446 0.15694072843 0.023737987503 0.5864264369 0.083424940705 0.13992400467
          0.85527962446 0.15694072843 0.023737987503 0.72277122736 0.1972938925 0.1844419986
          0.74646031857 0.32201400399 -0.03702198714 0.75077849627 0.37738004327 0.19743099809
          0.97177040577 0.064062602818 -0.1233580038 1.0401221514 0.23939830065 -0.032525006682
          1.1398986578 -0.010146999732 0.071502000093 0.85527962446 0.15694072843 0.023737987503
          0.81067937613 -0.037577752024 -0.03468298912 0.97177040577 0.064062602818 -0.1233580038
          1.1398986578 -0.010146999732 0.071502000093 0.85527962446 0.15694072843 0.023737987503
          -4.0438446999 0.094188794494 -0.60962402821 -4.0919904709 0.29906708002 -0.39470338821
          -4.1448526382 0.14308868349 -0.26994079351 -4.2148256302 0.11070713401 -0.5839381218
          -4.0438446999 0.094188794494 -0.60962402821 -4.1004319191 0.30029353499 -0.60041797161
          -4.0919904709 0.29906708002 -0.39470338821 -4.2148256302 0.11070713401 -0.5839381218
          -4.2148256302 0.11070713401 -0.5839381218 -4.1004319191 0.30029353499 -0.60041797161
          -4.0919904709 0.29906708002 -0.39470338821 -4.2976675034 0.29178825021 -0.37512549758
          -4.2148256302 0.11070713401 -0.5839381218 -4.0919904709 0.29906708002 -0.39470338821
          -4.1448526382 0.14308868349 -0.26994079351 -4.2976675034 0.29178825021 -0.37512549758
          -4.0919904709 0.29906708002 -0.39470338821 -4.2976675034 0.29178825021 -0.37512549758
          -4.1721348763 0.28047949076 -0.053690198809 -4.1448526382 0.14308868349 -0.26994079351
          -4.0919904709 0.29906708002 -0.39470338821 -4.1721348763 0.28047949076 -0.053690198809
          -3.9548974037 0.23137070239 -0.10864424706 -4.1448526382 0.14308868349 -0.26994079351
          -4.0919904709 0.29906708002 -0.39470338821 -4.0438446999 0.094188794494 -0.60962402821
          -4.0446949005 -0.034010000527 -0.39543700218 -3.8971295357 0.23590660095 -0.36395600438
          -3.8971295357 0.23590660095 -0.36395600438 -4.1157817841 0.48770108819 -0.3238914907
          -3.9854476452 0.48504701257 -0.10422489792 -4.0919904709 0.29906708002 -0.39470338821
          -4.0913190842 0.49074068666 -0.52665829659 -4.1004319191 0.30029353499 -0.60041797161
          -4.0919904709 0.29906708002 -0.39470338821 -3.9273982048 0.42422729731 -0.62899297476
          -4.0919904709 0.29906708002 -0.39470338821 -4.0913190842 0.49074068666 -0.52665829659
          -3.9273982048 0.42422729731 -0.62899297476 -3.7656788826 0.48673638701 -0.49626898766
          -4.0919904709 0.29906708002 -0.39470338821 -4.0913190842 0.49074068666 -0.52665829659
          -3.7656788826 0.48673638701 -0.49626898766 -3.8077201843 0.48553070426 -0.30209600925
          -3.302652359 0.038016501814 0.04223600775 -3.2997620106 0.21736480296 0.27584698796
          -3.4652879238 0.12876489758 0.30643999577 -3.5273160934 0.29413831234 0.15600700676
          -3.302652359 0.038016501814 0.04223600775 -3.4652879238 0.12876489758 0.30643999577
          -3.5458295345 0.1751678884 -0.0069859996438 -3.5273160934 0.29413831234 0.15600700676
          -3.302652359 0.038016501814 0.04223600775 -3.5273160934 0.29413831234 0.15600700676
          -3.5458295345 0.1751678884 -0.0069859996438 -3.2902696133 0.27174562216 0.025448989123
          -3.302652359 0.038016501814 0.04223600775 -3.2997620106 0.21736480296 0.27584698796
          -3.5273160934 0.29413831234 0.15600700676 -3.2902696133 0.27174562216 0.025448989123
          -3.5273160934 0.29413831234 0.15600700676 -3.3706200123 0.48187199235 0.10127900541
          -3.4292929173 0.39982169867 0.30081498623 -3.5950241089 0.48102658987 0.19185300171
          -3.5273160934 0.29413831234 0.15600700676 -3.3706200123 0.48187199235 0.10127900541
          -3.5950241089 0.48102658987 0.19185300171 -3.5492799282 0.4825848937 -0.0015599994222
          -3.5950241089 0.48102658987 0.19185300171 -3.5273160934 0.29413831234 0.15600700676
          -3.5492799282 0.4825848937 -0.0015599994222 -3.7853329182 0.48204940557 0.059275992215
          -3.5950241089 0.48102658987 0.19185300171 -3.8129053116 0.21391560137 0.11131499708
          -3.5273160934 0.29413831234 0.15600700676 -3.7853329182 0.48204940557 0.059275992215
          -3.5950241089 0.48102658987 0.19185300171 -3.6309099197 0.31252777576 0.33574199677
          -3.5273160934 0.29413831234 0.15600700676 -3.8129053116 0.21391560137 0.11131499708
          -3.5273160934 0.29413831234 0.15600700676 -3.8129053116 0.21391560137 0.11131499708
          -3.6309099197 0.31252777576 0.33574199677 -3.6565101147 0.11428040266 0.33922699094
          -3.5273160934 0.29413831234 0.15600700676 -3.6565101147 0.11428040266 0.33922699094
          -3.6940450668 -0.011909330264 0.12301498652 -3.8129053116 0.21391560137 0.11131499708
          -3.5273160934 0.29413831234 0.15600700676 -3.71869874 0.25738021731 -0.13884219527
          -3.7853329182 0.48204940557 0.059275992215 -3.8129053116 0.21391560137 0.11131499708
          -3.5492799282 0.4825848937 -0.0015599994222 -3.71869874 0.25738021731 -0.13884219527
          -3.7853329182 0.48204940557 0.059275992215 -3.5273160934 0.29413831234 0.15600700676
          -2.5529778004 -0.19498869777 -0.48805639148 -2.5882301331 -0.30685323477 -0.65421998501
          -2.3835964203 -0.32359841466 -0.41965642571 -2.3716421127 -0.18197050691 -0.6025840044
          -2.5529778004 -0.19498869777 -0.48805639148 -2.6578717232 -0.50742650032 -0.52386301756
          -2.3835964203 -0.32359841466 -0.41965642571 -2.5882301331 -0.30685323477 -0.65421998501
          -4.1448526382 0.14308868349 -0.26994079351 -4.3738183975 0.24991054833 -0.14364899695
          -4.1721348763 0.28047949076 -0.053690198809 -4.2057743073 0.083515927196 -0.063847601414
          -4.2235832214 -0.18397390842 -0.2816118896 -4.2057743073 0.083515927196 -0.063847601414
          -4.394712925 -0.0063827331178 -0.052065320313 -4.4088745117 0.030903441831 -0.32176870108
          4.2476382256 0.56425100565 0.3695769906 4.2886710167 0.33758100867 0.66382801533
          4.4331560135 0.52280199528 0.42006701231 4.344326973 0.23196899891 0.38592201471
          4.1377820969 0.39951202273 0.32685101032 4.2886710167 0.33758100867 0.66382801533
          4.2476382256 0.56425100565 0.3695769906 4.344326973 0.23196899891 0.38592201471
          4.1377820969 0.39951202273 0.32685101032 4.1101632118 0.60391497612 0.52134698629
          4.2476382256 0.56425100565 0.3695769906 4.2886710167 0.33758100867 0.66382801533
          3.9061729908 0.52652400732 0.245728001 4.1101632118 0.60391497612 0.52134698629
          4.2476382256 0.56425100565 0.3695769906 4.1377820969 0.39951202273 0.32685101032
          -4.3738183975 0.24991054833 -0.14364899695 -4.374229908 0.21605139971 0.18340799212
          -4.1721348763 0.28047949076 -0.053690198809 -4.2057743073 0.083515927196 -0.063847601414
          -4.3738183975 0.24991054833 -0.14364899695 -4.374229908 0.21605139971 0.18340799212
          -4.2057743073 0.083515927196 -0.063847601414 -4.394712925 -0.0063827331178 -0.052065320313
          -4.2057743073 0.083515927196 -0.063847601414 -4.3738183975 0.24991054833 -0.14364899695
          -4.394712925 -0.0063827331178 -0.052065320313 -4.4088745117 0.030903441831 -0.32176870108
          -0.81324702501 0.26146668196 -0.86965799332 -0.83175802231 0.47526419163 -1.0315499306
          -0.68241202831 0.47980180383 -0.89547097683 -0.90296202898 0.47852620482 -0.86588096619
          -0.81324702501 0.26146668196 -0.86965799332 -0.68241202831 0.47980180383 -0.89547097683
          -0.785762012 0.48228681087 -0.72692197561 -0.90296202898 0.47852620482 -0.86588096619
          -3.733959198 -0.32337343693 -0.43397399783 -3.8035757542 -0.50670826435 -0.31858798862
          -3.7167961597 -0.29400056601 -0.18038730323 -3.5462591648 -0.3417108953 -0.29696801305
          -3.5914151669 -0.15871548653 -0.36829999089 -3.733959198 -0.32337343693 -0.43397399783
          -3.7167961597 -0.29400056601 -0.18038730323 -3.5462591648 -0.3417108953 -0.29696801305
          -3.7167961597 -0.29400056601 -0.18038730323 -3.5503668785 -0.17767935991 -0.019175993279
          -3.5914151669 -0.15871548653 -0.36829999089 -3.5462591648 -0.3417108953 -0.29696801305
          -3.733959198 -0.32337343693 -0.43397399783 -3.8035757542 -0.50670826435 -0.31858798862
          -3.5462591648 -0.3417108953 -0.29696801305 -3.600661993 -0.50759500265 -0.39991500974
          -3.5462591648 -0.3417108953 -0.29696801305 -3.8035757542 -0.50670826435 -0.31858798862
          -3.5096030235 -0.50470131636 -0.15045179427 -3.600661993 -0.50759500265 -0.39991500974
          -3.5462591648 -0.3417108953 -0.29696801305 -3.600661993 -0.50759500265 -0.39991500974
          -3.5096030235 -0.50470131636 -0.15045179427 -3.251019001 -0.50599706173 -0.25622180104
          -3.5462591648 -0.3417108953 -0.29696801305 -3.600661993 -0.50759500265 -0.39991500974
          -3.251019001 -0.50599706173 -0.25622180104 -3.3306560516 -0.50790274143 -0.51511698961
          1.6287219524 -0.45572260022 -0.34583300352 1.6978210211 -0.28733319044 -0.61622899771
          1.7291409969 -0.28722119331 -0.28180330992 1.5643210411 -0.27857810259 -0.44123601913
          -3.5693891048 0.4848459959 -0.46422702074 -3.4724879265 0.27005422115 -0.50610899925
          -3.6243565083 0.17590141296 -0.3374350071 -3.6321229935 0.48460400105 -0.30110099912
          2.4399039745 -0.10959740728 -0.0052800015546 2.3748869896 0.069039702415 0.16169330478
          2.4038360119 -0.2405732125 0.18867635727 2.2508289814 -0.099022090435 0.14436070621
          2.3748869896 0.069039702415 0.16169330478 2.2780179977 -0.12498279661 0.35640898347
          2.4038360119 -0.2405732125 0.18867635727 2.2508289814 -0.099022090435 0.14436070621
          2.4038360119 -0.2405732125 0.18867635727 2.2780179977 -0.12498279661 0.35640898347
          2.0660989285 -0.22966709733 0.14300569892 2.2508289814 -0.099022090435 0.14436070621
          4.6309452057 0.20724229515 0.45776200294 4.548661232 0.31044599414 0.7846570015
          4.6400561333 0.033197704703 0.65296798944 4.4424939156 0.089347399771 0.64447599649
          4.6400561333 0.033197704703 0.65296798944 4.548661232 0.31044599414 0.7846570015
          4.5335330963 0.11206749827 0.92334389687 4.4424939156 0.089347399771 0.64447599649
          2.2508289814 -0.099022090435 0.14436070621 2.1151509285 0.051999751478 0.097855910659
          2.2780179977 -0.12498279661 0.35640898347 2.0134241581 0.082406297326 0.37211599946
          -4.394712925 -0.0063827331178 -0.052065320313 -4.5570960045 -0.13278326392 -0.03384745121
          -4.4642100334 -0.19895298779 -0.3199582994 -4.4088745117 0.030903441831 -0.32176870108
          -4.394712925 -0.0063827331178 -0.052065320313 -4.6010689735 -0.032954148948 -0.34019801021
          -4.5570960045 -0.13278326392 -0.03384745121 -4.4088745117 0.030903441831 -0.32176870108
          -4.6010689735 -0.032954148948 -0.34019801021 -4.5570960045 -0.13278326392 -0.03384745121
          -4.5877504349 0.083796218038 -0.033795300871 -4.394712925 -0.0063827331178 -0.052065320313
          -4.6010689735 -0.032954148948 -0.34019801021 -4.6692109108 -0.16517569125 -0.19817639887
          -4.5877504349 0.083796218038 -0.033795300871 -4.5570960045 -0.13278326392 -0.03384745121
          -4.5570960045 -0.13278326392 -0.03384745121 -4.6692109108 -0.16517569125 -0.19817639887
          -4.4642100334 -0.19895298779 -0.3199582994 -4.6010689735 -0.032954148948 -0.34019801021
          -4.5570960045 -0.13278326392 -0.03384745121 -4.6010689735 -0.032954148948 -0.34019801021
          -4.4642100334 -0.19895298779 -0.3199582994 -4.4088745117 0.030903441831 -0.32176870108
          -4.6692109108 -0.16517569125 -0.19817639887 -4.5877504349 0.083796218038 -0.033795300871
          -4.5570960045 -0.13278326392 -0.03384745121 -4.7780652046 -0.0085761295632 -0.01886684075
          -4.7949709892 -0.27444934845 -0.028330069035 -4.7780652046 -0.0085761295632 -0.01886684075
          -4.6692109108 -0.16517569125 -0.19817639887 -4.5570960045 -0.13278326392 -0.03384745121
          -4.7949709892 -0.27444934845 -0.028330069035 -4.7780652046 -0.0085761295632 -0.01886684075
          -4.5570960045 -0.13278326392 -0.03384745121 -4.6583003998 -0.19147884846 0.13825491071
          -4.5570960045 -0.13278326392 -0.03384745121 -4.7949709892 -0.27444934845 -0.028330069035
          -4.6583003998 -0.19147884846 0.13825491071 -4.4882779121 -0.32354712486 0.15183719993
          -4.5570960045 -0.13278326392 -0.03384745121 -4.5877504349 0.083796218038 -0.033795300871
          -4.6583003998 -0.19147884846 0.13825491071 -4.7780652046 -0.0085761295632 -0.01886684075
          -4.4813494682 0.022646209225 0.2389934808 -4.5877504349 0.083796218038 -0.033795300871
          -4.6583003998 -0.19147884846 0.13825491071 -4.5570960045 -0.13278326392 -0.03384745121
          -4.4813494682 0.022646209225 0.2389934808 -4.5877504349 0.083796218038 -0.033795300871
          -4.5570960045 -0.13278326392 -0.03384745121 -4.394712925 -0.0063827331178 -0.052065320313
          1.1952601671 -0.29477098584 0.064541012049 1.2560261488 -0.45418319106 0.33257600665
          1.3789390326 -0.47327530384 -0.003226995701 1.178434968 -0.4816032052 0.03579299897
          1.1952601671 -0.29477098584 0.064541012049 1.2560261488 -0.45418319106 0.33257600665
          1.178434968 -0.4816032052 0.03579299897 1.0654981136 -0.48984488845 0.18946000934
          1.2560261488 -0.45418319106 0.33257600665 1.4743545055 -0.47509750724 0.23366600275
          1.3789390326 -0.47327530384 -0.003226995701 1.178434968 -0.4816032052 0.03579299897
          1.178434968 -0.4816032052 0.03579299897 1.3097800016 -0.27519398928 -0.1584803015
          1.1713650227 -0.47730788589 -0.15520529449 1.3789390326 -0.47327530384 -0.003226995701
          -3.0849509239 0.17763519287 -0.079053997993 -3.133988142 0.48230528831 -0.1387040019
          -2.9699950218 0.48249959946 -0.0066279866733 -3.1628189087 0.48208609223 0.07378398627
          -3.0849509239 0.17763519287 -0.079053997993 -3.133988142 0.48230528831 -0.1387040019
          -3.1628189087 0.48208609223 0.07378398627 -3.2902696133 0.27174562216 0.025448989123
          -3.133988142 0.48230528831 -0.1387040019 -3.3706200123 0.48187199235 0.10127900541
          -3.1628189087 0.48208609223 0.07378398627 -3.2902696133 0.27174562216 0.025448989123
          -3.2902696133 0.27174562216 0.025448989123 -3.3706200123 0.48187199235 0.10127900541
          -3.1628189087 0.48208609223 0.07378398627 -3.2128009796 0.42603981495 0.26003301144
          -0.04301200062 0.17476075888 -0.718306005 -0.17038999498 0.33329957724 -0.6997410059
          -0.33919200301 0.20730000734 -0.79884600639 -0.091403998435 0.28790903091 -0.89287102222
          -0.04301200062 0.17476075888 -0.718306005 -0.17038999498 0.33329957724 -0.6997410059
          -0.18545199931 0.22996643186 -0.47609320283 -0.33919200301 0.20730000734 -0.79884600639
          -0.04301200062 0.17476075888 -0.718306005 -0.18545199931 0.22996643186 -0.47609320283
          -0.17038999498 0.33329957724 -0.6997410059 0.10719139874 0.28679504991 -0.54870027304
          -0.17038999498 0.33329957724 -0.6997410059 -0.18545199931 0.22996643186 -0.47609320283
          -0.17106099427 0.49157705903 -0.57271128893 0.10719139874 0.28679504991 -0.54870027304
          -0.17038999498 0.33329957724 -0.6997410059 -0.17106099427 0.49157705903 -0.57271128893
          -0.18545199931 0.22996643186 -0.47609320283 -0.35219299793 0.31618493795 -0.60427820683
          -0.17038999498 0.33329957724 -0.6997410059 -0.35219299793 0.31618493795 -0.60427820683
          -0.18545199931 0.22996643186 -0.47609320283 -0.33919200301 0.20730000734 -0.79884600639
          -0.091403998435 0.28790903091 -0.89287102222 -0.17038999498 0.33329957724 -0.6997410059
          -0.10962300003 0.48779779673 -0.82918798923 0.014425000176 0.49165633321 -0.66029900312
          -1.7097920179 0.31207630038 -0.45334500074 -1.9671391249 0.48218691349 -0.52298557758
          -1.9025046825 0.29032579064 -0.52002221346 -1.7930159569 0.48152941465 -0.59363406897
          -1.8841609955 0.47777590156 -0.81263101101 -1.9671391249 0.48218691349 -0.52298557758
          -1.7930159569 0.48152941465 -0.59363406897 -1.9025046825 0.29032579064 -0.52002221346
          -1.8121285439 0.26642638445 -0.82310700417 -1.8841609955 0.47777590156 -0.81263101101
          -1.7930159569 0.48152941465 -0.59363406897 -1.9025046825 0.29032579064 -0.52002221346
          -1.6599514484 0.24216479063 -0.65762501955 -1.8121285439 0.26642638445 -0.82310700417
          -1.7930159569 0.48152941465 -0.59363406897 -1.9025046825 0.29032579064 -0.52002221346
          -1.6599514484 0.24216479063 -0.65762501955 -1.8121285439 0.26642638445 -0.82310700417
          -1.9025046825 0.29032579064 -0.52002221346 -1.9367829561 0.15483479202 -0.66529297829
          -1.9025046825 0.29032579064 -0.52002221346 -1.9367829561 0.15483479202 -0.66529297829
          -1.8747121096 0.0029144007713 -0.49748280644 -1.6599514484 0.24216479063 -0.65762501955
          -1.9367829561 0.15483479202 -0.66529297829 -1.8747121096 0.0029144007713 -0.49748280644
          -2.0933618546 0.23922790587 -0.44598591328 -1.9025046825 0.29032579064 -0.52002221346
          -1.9025046825 0.29032579064 -0.52002221346 -2.1485760212 0.26226508617 -0.74843597412
          -2.0933618546 0.23922790587 -0.44598591328 -1.9367829561 0.15483479202 -0.66529297829
          -2.0836164951 0.47975090146 -0.66095596552 -2.1485760212 0.26226508617 -0.74843597412
          -1.9025046825 0.29032579064 -0.52002221346 -1.9367829561 0.15483479202 -0.66529297829
          -1.8841609955 0.47777590156 -0.81263101101 -2.0836164951 0.47975090146 -0.66095596552
          -1.9025046825 0.29032579064 -0.52002221346 -1.9367829561 0.15483479202 -0.66529297829
          -1.8121285439 0.26642638445 -0.82310700417 -1.8841609955 0.47777590156 -0.81263101101
          -1.9025046825 0.29032579064 -0.52002221346 -1.9367829561 0.15483479202 -0.66529297829
          -1.8841609955 0.47777590156 -0.81263101101 -2.0836164951 0.47975090146 -0.66095596552
          -1.9671391249 0.48218691349 -0.52298557758 -1.9025046825 0.29032579064 -0.52002221346
          -2.0836164951 0.47975090146 -0.66095596552 -2.1485760212 0.26226508617 -0.74843597412
          -2.0933618546 0.23922790587 -0.44598591328 -1.9025046825 0.29032579064 -0.52002221346
          2.5335454941 -0.19222688675 0.50451397896 2.3304371834 -0.26972290874 0.49684798717
          2.2661983967 0.044934421778 0.50948798656 2.3686749935 -0.11354149133 0.74313497543
          2.5335454941 -0.19222688675 0.50451397896 2.2780179977 -0.12498279661 0.35640898347
          2.2661983967 0.044934421778 0.50948798656 2.3304371834 -0.26972290874 0.49684798717
          2.3304371834 -0.26972290874 0.49684798717 2.5335454941 -0.19222688675 0.50451397896
          2.2780179977 -0.12498279661 0.35640898347 2.4038360119 -0.2405732125 0.18867635727
          2.3304371834 -0.26972290874 0.49684798717 2.1862559319 -0.44939181209 0.30064499378
          2.4038360119 -0.2405732125 0.18867635727 2.2780179977 -0.12498279661 0.35640898347
          2.3304371834 -0.26972290874 0.49684798717 2.1206483841 -0.27323719859 0.41196197271
          2.1862559319 -0.44939181209 0.30064499378 2.2780179977 -0.12498279661 0.35640898347
          2.1238291264 -0.18699400127 0.64728599787 2.1206483841 -0.27323719859 0.41196197271
          2.3304371834 -0.26972290874 0.49684798717 2.2780179977 -0.12498279661 0.35640898347
          2.3304371834 -0.26972290874 0.49684798717 2.1238291264 -0.18699400127 0.64728599787
          2.2780179977 -0.12498279661 0.35640898347 2.2661983967 0.044934421778 0.50948798656
          2.3304371834 -0.26972290874 0.49684798717 2.2495288849 -0.45216780901 0.5471829772
          2.1862559319 -0.44939181209 0.30064499378 2.1206483841 -0.27323719859 0.41196197271
          2.5104129314 -0.4431695044 0.58892899752 2.2495288849 -0.45216780901 0.5471829772
          2.4307379723 -0.44270971417 0.40620398521 2.3304371834 -0.26972290874 0.49684798717
          4.2886710167 0.33758100867 0.66382801533 4.1101632118 0.60391497612 0.52134698629
          4.309071064 0.60760998726 0.56352597475 4.1542201042 0.59776520729 0.72164899111
          -3.3833937645 -0.032667398453 -0.48868498206 -3.4343647957 -0.1506202966 -0.72061800957
          -3.3206231594 -0.27725860476 -0.74263799191 -3.1794657707 -0.17824740708 -0.77178901434
          -3.3833937645 -0.032667398453 -0.48868498206 -3.4343647957 -0.1506202966 -0.72061800957
          -3.4071218967 -0.27582120895 -0.49657699466 -3.3206231594 -0.27725860476 -0.74263799191
          -3.4343647957 -0.1506202966 -0.72061800957 -3.5520818233 -0.30605709553 -0.697009027
          -3.4071218967 -0.27582120895 -0.49657699466 -3.3206231594 -0.27725860476 -0.74263799191
          -3.5520818233 -0.30605709553 -0.697009027 -3.5324959755 -0.49818360806 -0.69915002584
          -3.4071218967 -0.27582120895 -0.49657699466 -3.3206231594 -0.27725860476 -0.74263799191
          -3.4071218967 -0.27582120895 -0.49657699466 -3.5324959755 -0.49818360806 -0.69915002584
          -3.3306560516 -0.50790274143 -0.51511698961 -3.3206231594 -0.27725860476 -0.74263799191
          -3.0045845509 -0.31262481213 -0.59387999773 -3.3206231594 -0.27725860476 -0.74263799191
          -3.1794657707 -0.17824740708 -0.77178901434 -3.1450257301 -0.19032800198 -0.44944301248
          -3.1707112789 -0.50821882486 -0.61334198713 -3.3206231594 -0.27725860476 -0.74263799191
          -3.0045845509 -0.31262481213 -0.59387999773 -3.1450257301 -0.19032800198 -0.44944301248
          -3.1707112789 -0.50821882486 -0.61334198713 -3.2359466553 -0.42429992557 -0.7593640089
          -3.0045845509 -0.31262481213 -0.59387999773 -3.3206231594 -0.27725860476 -0.74263799191
          -3.0045845509 -0.31262481213 -0.59387999773 -3.2359466553 -0.42429992557 -0.7593640089
          -3.1794657707 -0.17824740708 -0.77178901434 -3.3206231594 -0.27725860476 -0.74263799191
          0.7164170146 -0.01385910064 -0.332908988 0.78821092844 0.14894378185 -0.18848800659
          0.95586800575 0.071381397545 -0.33720040321 0.87983602285 -0.093330197036 -0.22511909902
          0.7164170146 -0.01385910064 -0.332908988 0.78821092844 0.14894378185 -0.18848800659
          0.87983602285 -0.093330197036 -0.22511909902 0.81067937613 -0.037577752024 -0.03468298912
          0.67708927393 -0.18054930866 -0.18623100221 0.81067937613 -0.037577752024 -0.03468298912
          0.7164170146 -0.01385910064 -0.332908988 0.87983602285 -0.093330197036 -0.22511909902
          0.67708927393 -0.18054930866 -0.18623100221 0.73383498192 -0.30438300967 -0.4254899919
          0.87983602285 -0.093330197036 -0.22511909902 0.7164170146 -0.01385910064 -0.332908988
          0.87983602285 -0.093330197036 -0.22511909902 0.78821092844 0.14894378185 -0.18848800659
          0.97177040577 0.064062602818 -0.1233580038 0.81067937613 -0.037577752024 -0.03468298912
          0.87983602285 -0.093330197036 -0.22511909902 0.78821092844 0.14894378185 -0.18848800659
          0.95586800575 0.071381397545 -0.33720040321 0.97177040577 0.064062602818 -0.1233580038
          0.87983602285 -0.093330197036 -0.22511909902 0.97177040577 0.064062602818 -0.1233580038
          0.95586800575 0.071381397545 -0.33720040321 1.1638020277 0.033433400095 -0.21218000352
          -3.302652359 0.038016501814 0.04223600775 -3.1989395618 -0.20423613489 -0.036946997046
          -3.5503668785 -0.17767935991 -0.019175993279 -3.4821026325 -0.046573873609 0.11716599017
          -3.4821026325 -0.046573873609 0.11716599017 -3.5523664951 0.0045121996664 -0.18042999506
          -3.5503668785 -0.17767935991 -0.019175993279 -3.302652359 0.038016501814 0.04223600775
          -3.4821026325 -0.046573873609 0.11716599017 -3.6940450668 -0.011909330264 0.12301498652
          -3.5503668785 -0.17767935991 -0.019175993279 -3.5523664951 0.0045121996664 -0.18042999506
          0.39167898893 0.41524764895 -0.96190798283 0.41305398941 0.29973137379 -0.76187801361
          0.63849902153 0.22250783443 -0.90636301041 0.43729901314 0.24008713663 -0.95277100801
          0.39167898893 0.41524764895 -0.96190798283 0.43729901314 0.24008713663 -0.95277100801
          0.15515929461 0.27147474885 -0.81783097982 0.41305398941 0.29973137379 -0.76187801361
          0.39167898893 0.41524764895 -0.96190798283 0.15515929461 0.27147474885 -0.81783097982
          0.18558773398 0.49153119326 -0.87829899788 0.41305398941 0.29973137379 -0.76187801361
          0.39167898893 0.41524764895 -0.96190798283 0.41305398941 0.29973137379 -0.76187801361
          0.18558773398 0.49153119326 -0.87829899788 0.41876199841 0.49852332473 -0.76524400711
          0.41305398941 0.29973137379 -0.76187801361 0.22630690038 0.49578845501 -0.65596997738
          0.18558773398 0.49153119326 -0.87829899788 0.41876199841 0.49852332473 -0.76524400711
          0.41876199841 0.49852332473 -0.76524400711 0.22630690038 0.49578845501 -0.65596997738
          0.41060099006 0.50051188469 -0.52816462517 0.41305398941 0.29973137379 -0.76187801361
          0.15515929461 0.27147474885 -0.81783097982 0.22630690038 0.49578845501 -0.65596997738
          0.18558773398 0.49153119326 -0.87829899788 0.41305398941 0.29973137379 -0.76187801361
          0.43729901314 0.24008713663 -0.95277100801 0.31418091059 0.094848684967 -0.98210698366
          0.15515929461 0.27147474885 -0.81783097982 0.41305398941 0.29973137379 -0.76187801361
          0.43729901314 0.24008713663 -0.95277100801 0.56008797884 0.052585806698 -0.68334698677
          0.41305398941 0.29973137379 -0.76187801361 0.63849902153 0.22250783443 -0.90636301041
          0.56008797884 0.052585806698 -0.68334698677 0.70296800137 0.32958817482 -0.69135397673
          0.41305398941 0.29973137379 -0.76187801361 0.63849902153 0.22250783443 -0.90636301041
          0.56008797884 0.052585806698 -0.68334698677 0.70296800137 0.32958817482 -0.69135397673
          0.52244597673 0.28034487367 -0.58197897673 0.41305398941 0.29973137379 -0.76187801361
          0.41305398941 0.29973137379 -0.76187801361 0.52244597673 0.28034487367 -0.58197897673
          0.60414099693 0.50304430723 -0.62985301018 0.70296800137 0.32958817482 -0.69135397673
          0.41305398941 0.29973137379 -0.76187801361 0.70296800137 0.32958817482 -0.69135397673
          0.67563098669 0.48699307442 -0.89504599571 0.63849902153 0.22250783443 -0.90636301041
          0.49290901423 -0.27051791549 -0.38118758798 0.35398098826 -0.14804252982 -0.47525811195
          0.6582840085 -0.086143799126 -0.53992497921 0.49993100762 0.0054506729357 -0.41626721621
          0.49290901423 -0.27051791549 -0.38118758798 0.4496409893 -0.20598120987 -0.64667701721
          0.6582840085 -0.086143799126 -0.53992497921 0.35398098826 -0.14804252982 -0.47525811195
          0.35398098826 -0.14804252982 -0.47525811195 0.4496409893 -0.20598120987 -0.64667701721
          0.6582840085 -0.086143799126 -0.53992497921 0.49993100762 0.0054506729357 -0.41626721621
          1.912476182 -0.21805660427 0.34040221572 1.9838659763 -0.058840800077 0.22020068765
          2.1206483841 -0.27323719859 0.41196197271 2.0134241581 0.082406297326 0.37211599946
          1.9838659763 -0.058840800077 0.22020068765 2.0134241581 0.082406297326 0.37211599946
          1.912476182 -0.21805660427 0.34040221572 1.7636737823 0.046389199793 0.32517156005
          1.9838659763 -0.058840800077 0.22020068765 1.7636737823 0.046389199793 0.32517156005
          1.8019828796 0.22406680882 0.18662501872 2.0134241581 0.082406297326 0.37211599946
          -0.32380700111 -0.29127669334 -0.87523800135 -0.64104998112 -0.30240130424 -0.9189350009
          -0.43940600753 -0.13465237617 -1.0850310326 -0.49614500999 -0.18467617035 -0.78485298157
          -0.32380700111 -0.29127669334 -0.87523800135 -0.49614500999 -0.18467617035 -0.78485298157
          -0.43940600753 -0.13465237617 -1.0850310326 -0.31712800264 -0.025899430737 -0.85415101051
          1.7837769985 -0.11298939586 0.15795660019 1.8784749508 -0.24840208888 0.010538879782
          2.0660989285 -0.22966709733 0.14300569892 1.9838659763 -0.058840800077 0.22020068765
          4.4464259148 -0.17551660538 0.63643395901 4.4424939156 0.089347399771 0.64447599649
          4.6600642204 -0.03085799329 0.45767199993 4.6400561333 0.033197704703 0.65296798944
          4.8261451721 -0.19942000508 0.48777401447 4.6600642204 -0.03085799329 0.45767199993
          4.6400561333 0.033197704703 0.65296798944 4.7822642326 -0.20231451094 0.72078299522
          4.8261451721 -0.19942000508 0.48777401447 4.6400561333 0.033197704703 0.65296798944
          4.86105299 0.0081822015345 0.50044000149 4.7822642326 -0.20231451094 0.72078299522
          4.8261451721 -0.19942000508 0.48777401447 4.6600642204 -0.03085799329 0.45767199993
          4.86105299 0.0081822015345 0.50044000149 4.6400561333 0.033197704703 0.65296798944
          4.7766752243 -0.0062490031123 0.81723797321 4.86105299 0.0081822015345 0.50044000149
          4.6400561333 0.033197704703 0.65296798944 4.7822642326 -0.20231451094 0.72078299522
          4.7792887688 0.17319969833 0.70396101475 4.86105299 0.0081822015345 0.50044000149
          4.6400561333 0.033197704703 0.65296798944 4.7766752243 -0.0062490031123 0.81723797321
          2.1323330402 -0.24952030182 -0.2159884125 2.0688860416 -0.10810660571 -0.024964602664
          2.2007000446 -0.030069796368 -0.17213380337 2.2454249859 -0.24175401032 -0.0085900025442
          2.1323330402 -0.24952030182 -0.2159884125 1.9164220095 -0.13674210012 -0.17615103722
          2.2007000446 -0.030069796368 -0.17213380337 2.0688860416 -0.10810660571 -0.024964602664
          2.0688860416 -0.10810660571 -0.024964602664 1.8809980154 0.037144001573 -0.0096619697288
          1.9164220095 -0.13674210012 -0.17615103722 2.2007000446 -0.030069796368 -0.17213380337
          2.2454249859 -0.24175401032 -0.0085900025442 2.2007000446 -0.030069796368 -0.17213380337
          2.2508289814 -0.099022090435 0.14436070621 2.0688860416 -0.10810660571 -0.024964602664
          2.2454249859 -0.24175401032 -0.0085900025442 2.2508289814 -0.099022090435 0.14436070621
          2.0660989285 -0.22966709733 0.14300569892 2.0688860416 -0.10810660571 -0.024964602664
          1.9838659763 -0.058840800077 0.22020068765 1.8809980154 0.037144001573 -0.0096619697288
          2.0688860416 -0.10810660571 -0.024964602664 2.1151509285 0.051999751478 0.097855910659
          -0.58885598183 0.011368970387 -1.0877560377 -0.50009101629 0.076063752174 -0.91057896614
          -0.3908880055 0.018037790433 -1.0773969889 -0.43940600753 -0.13465237617 -1.0850310326
          -0.58885598183 0.011368970387 -1.0877560377 -0.50009101629 0.076063752174 -0.91057896614
          -0.43940600753 -0.13465237617 -1.0850310326 -0.65971499681 -0.068506918848 -0.89710998535
          -0.49614500999 -0.18467617035 -0.78485298157 -0.50009101629 0.076063752174 -0.91057896614
          -0.65971499681 -0.068506918848 -0.89710998535 -0.43940600753 -0.13465237617 -1.0850310326
          -0.43940600753 -0.13465237617 -1.0850310326 -0.64104998112 -0.30240130424 -0.9189350009
          -0.65971499681 -0.068506918848 -0.89710998535 -0.49614500999 -0.18467617035 -0.78485298157
          -0.49614500999 -0.18467617035 -0.78485298157 -0.50009101629 0.076063752174 -0.91057896614
          -0.43940600753 -0.13465237617 -1.0850310326 -0.31712800264 -0.025899430737 -0.85415101051
          4.7351660728 -0.16101920605 0.98147392273 4.9225811958 -0.41055479646 1.0575927496
          5.0362038612 -0.1984565109 1.0518586636 4.9700870514 -0.40666720271 0.87981498241
          4.7351660728 -0.16101920605 0.98147392273 4.9700870514 -0.40666720271 0.87981498241
          5.0362038612 -0.1984565109 1.0518586636 4.9587922096 -0.11951480061 0.84872800112
          4.7351660728 -0.16101920605 0.98147392273 4.9700870514 -0.40666720271 0.87981498241
          4.9587922096 -0.11951480061 0.84872800112 4.7853469849 -0.40575119853 0.83861100674
          4.7351660728 -0.16101920605 0.98147392273 4.9225811958 -0.41055479646 1.0575927496
          4.9700870514 -0.40666720271 0.87981498241 4.7853469849 -0.40575119853 0.83861100674
          -4.5572566986 0.23751859367 0.2899813056 -4.374229908 0.21605139971 0.18340799212
          -4.6630234718 0.13930633664 0.15250210464 -4.4813494682 0.022646209225 0.2389934808
          -4.5572566986 0.23751859367 0.2899813056 -4.6630234718 0.13930633664 0.15250210464
          -4.6333608627 0.15650126338 0.46339869499 -4.4813494682 0.022646209225 0.2389934808
          -4.4532856941 0.16817709804 0.44724240899 -4.5572566986 0.23751859367 0.2899813056
          -4.6333608627 0.15650126338 0.46339869499 -4.4813494682 0.022646209225 0.2389934808
          -4.4532856941 0.16817709804 0.44724240899 -4.374229908 0.21605139971 0.18340799212
          -4.5572566986 0.23751859367 0.2899813056 -4.4813494682 0.022646209225 0.2389934808
          -4.5572566986 0.23751859367 0.2899813056 -4.745464325 0.3263682127 0.25227379799
          -4.6630234718 0.13930633664 0.15250210464 -4.5292730331 0.2915058732 0.031001500785
          -4.5572566986 0.23751859367 0.2899813056 -4.6132879257 0.48546689749 0.14135861397
          -4.745464325 0.3263682127 0.25227379799 -4.5292730331 0.2915058732 0.031001500785
          -2.5502791405 0.25031089783 -0.30732250214 -2.4924480915 0.1497296989 -0.4765163064
          -2.6538431644 0.18475399911 -0.59675198793 -2.7821593285 0.30021998286 -0.44675600529
          -4.752243042 -0.50364774466 -0.24244779348 -4.6158905029 -0.49994170666 -0.083305798471
          -4.7671570778 -0.49938252568 -0.076874218881 -4.7949709892 -0.27444934845 -0.028330069035
          -4.2165794373 -0.29792863131 -0.10957739502 -4.4304690361 -0.50256663561 -0.13597680628
          -4.4301371574 -0.28078189492 -0.098592102528 -4.2421140671 -0.50075817108 -0.098954796791
          -4.2165794373 -0.29792863131 -0.10957739502 -4.2843179703 -0.50610029697 -0.3169965148
          -4.4301371574 -0.28078189492 -0.098592102528 -4.4304690361 -0.50256663561 -0.13597680628
          -4.4301371574 -0.28078189492 -0.098592102528 -4.4642100334 -0.19895298779 -0.3199582994
          -4.4304690361 -0.50256663561 -0.13597680628 -4.2843179703 -0.50610029697 -0.3169965148
          -4.4301371574 -0.28078189492 -0.098592102528 -4.4642100334 -0.19895298779 -0.3199582994
          -4.5914802551 -0.50413167477 -0.23168960214 -4.4304690361 -0.50256663561 -0.13597680628
          -4.4304690361 -0.50256663561 -0.13597680628 -4.4642100334 -0.19895298779 -0.3199582994
          -4.5914802551 -0.50413167477 -0.23168960214 -4.2843179703 -0.50610029697 -0.3169965148
          -2.3224203587 0.14642329514 -0.60301297903 -2.4924480915 0.1497296989 -0.4765163064
          -2.6538431644 0.18475399911 -0.59675198793 -2.4720232487 0.27283710241 -0.72016400099
          -2.3224203587 0.14642329514 -0.60301297903 -2.6087565422 -0.063813298941 -0.63231498003
          -2.6538431644 0.18475399911 -0.59675198793 -2.4924480915 0.1497296989 -0.4765163064
          -2.3224203587 0.14642329514 -0.60301297903 -2.3289134502 -0.0023192001972 -0.42081850767
          -2.6087565422 -0.063813298941 -0.63231498003 -2.4924480915 0.1497296989 -0.4765163064
          -2.3224203587 0.14642329514 -0.60301297903 -2.3340997696 0.29154390097 -0.43325453997
          -2.3289134502 -0.0023192001972 -0.42081850767 -2.4924480915 0.1497296989 -0.4765163064
          -2.3340997696 0.29154390097 -0.43325453997 -2.2913610935 0.16144010425 -0.25700899959
          -2.3289134502 -0.0023192001972 -0.42081850767 -2.4924480915 0.1497296989 -0.4765163064
          -2.3289134502 -0.0023192001972 -0.42081850767 -2.2913610935 0.16144010425 -0.25700899959
          -2.5705890656 -0.0096552502364 -0.37767747045 -2.4924480915 0.1497296989 -0.4765163064
          -2.4924480915 0.1497296989 -0.4765163064 -2.3289134502 -0.0023192001972 -0.42081850767
          -2.6087565422 -0.063813298941 -0.63231498003 -2.5705890656 -0.0096552502364 -0.37767747045
          -2.4924480915 0.1497296989 -0.4765163064 -2.6087565422 -0.063813298941 -0.63231498003
          -2.6538431644 0.18475399911 -0.59675198793 -2.5705890656 -0.0096552502364 -0.37767747045
          -2.4924480915 0.1497296989 -0.4765163064 -2.5705890656 -0.0096552502364 -0.37767747045
          -2.6538431644 0.18475399911 -0.59675198793 -2.8009653091 0.022092198953 -0.32149419188
          -2.7821593285 0.30021998286 -0.44675600529 -2.4924480915 0.1497296989 -0.4765163064
          -2.6538431644 0.18475399911 -0.59675198793 -2.8009653091 0.022092198953 -0.32149419188
          -3.0660376549 -0.035237099975 -0.601772964 -3.1901597977 0.0029790997505 -0.4238820076
          -3.1450257301 -0.19032800198 -0.44944301248 -3.3833937645 -0.032667398453 -0.48868498206
          -3.1901597977 0.0029790997505 -0.4238820076 -3.3833937645 -0.032667398453 -0.48868498206
          -3.3609697819 -0.25755804777 -0.25123178959 -3.1450257301 -0.19032800198 -0.44944301248
          -3.0660376549 -0.035237099975 -0.601772964 -2.9424054623 0.1131972 -0.47736001015
          -2.9648208618 -0.08248540014 -0.41598600149 -3.1901597977 0.0029790997505 -0.4238820076
          -3.5198493004 0.28535220027 -0.20457419753 -3.3095912933 0.2773117125 -0.21319679916
          -3.5523664951 0.0045121996664 -0.18042999506 -3.5458295345 0.1751678884 -0.0069859996438
          -3.4112770557 0.15064421296 -0.34156700969 -3.3095912933 0.2773117125 -0.21319679916
          -3.5523664951 0.0045121996664 -0.18042999506 -3.5198493004 0.28535220027 -0.20457419753
          -3.6243565083 0.17590141296 -0.3374350071 -3.4112770557 0.15064421296 -0.34156700969
          -3.5523664951 0.0045121996664 -0.18042999506 -3.5198493004 0.28535220027 -0.20457419753
          -3.4724879265 0.27005422115 -0.50610899925 -3.4112770557 0.15064421296 -0.34156700969
          -3.6243565083 0.17590141296 -0.3374350071 -3.5198493004 0.28535220027 -0.20457419753
          -3.4724879265 0.27005422115 -0.50610899925 -3.3095912933 0.2773117125 -0.21319679916
          -3.4112770557 0.15064421296 -0.34156700969 -3.5198493004 0.28535220027 -0.20457419753
          -3.4724879265 0.27005422115 -0.50610899925 -3.2644114494 0.48313009739 -0.43453800678
          -3.3095912933 0.2773117125 -0.21319679916 -3.5198493004 0.28535220027 -0.20457419753
          -3.5198493004 0.28535220027 -0.20457419753 -3.71869874 0.25738021731 -0.13884219527
          -3.5492799282 0.4825848937 -0.0015599994222 -3.5458295345 0.1751678884 -0.0069859996438
          -3.5198493004 0.28535220027 -0.20457419753 -3.5458295345 0.1751678884 -0.0069859996438
          -3.5492799282 0.4825848937 -0.0015599994222 -3.2902696133 0.27174562216 0.025448989123
          -3.5198493004 0.28535220027 -0.20457419753 -3.5492799282 0.4825848937 -0.0015599994222
          -3.4978125095 0.48323321342 -0.19416743517 -3.2902696133 0.27174562216 0.025448989123
          -3.4978125095 0.48323321342 -0.19416743517 -3.5198493004 0.28535220027 -0.20457419753
          -3.7007267475 0.4836808145 -0.12965320051 -3.5492799282 0.4825848937 -0.0015599994222
          -3.4978125095 0.48323321342 -0.19416743517 -3.6321229935 0.48460400105 -0.30110099912
          -3.7007267475 0.4836808145 -0.12965320051 -3.5198493004 0.28535220027 -0.20457419753
          -3.5198493004 0.28535220027 -0.20457419753 -3.6321229935 0.48460400105 -0.30110099912
          -3.7007267475 0.4836808145 -0.12965320051 -3.71869874 0.25738021731 -0.13884219527
          -3.5198493004 0.28535220027 -0.20457419753 -3.71869874 0.25738021731 -0.13884219527
          -3.7007267475 0.4836808145 -0.12965320051 -3.5492799282 0.4825848937 -0.0015599994222
          1.5643210411 -0.27857810259 -0.44123601913 1.6978210211 -0.28733319044 -0.61622899771
          1.7291409969 -0.28722119331 -0.28180330992 1.7244919538 -0.11605580151 -0.38782680035
          1.5643210411 -0.27857810259 -0.44123601913 1.4434380531 -0.14066420496 -0.32838499546
          1.7244919538 -0.11605580151 -0.38782680035 1.7291409969 -0.28722119331 -0.28180330992
          1.7291409969 -0.28722119331 -0.28180330992 1.4434380531 -0.14066420496 -0.32838499546
          1.7244919538 -0.11605580151 -0.38782680035 1.6362780333 -0.19434309006 -0.1196873039
          1.7291409969 -0.28722119331 -0.28180330992 1.8784749508 -0.24840208888 0.010538879782
          1.85224998 -0.44815999269 -0.31117022038 1.8268829584 -0.45585429668 -0.0072320010513
          1.932314992 0.39315280318 -0.51564007998 1.9153610468 0.36894521117 -0.30883604288
          2.0072319508 0.54592597485 -0.34398621321 2.2012159824 0.29154539108 -0.42888310552
          1.932314992 0.39315280318 -0.51564007998 2.0239698887 0.24268069863 -0.49068275094
          1.9153610468 0.36894521117 -0.30883604288 2.2012159824 0.29154539108 -0.42888310552
          2.0239698887 0.24268069863 -0.49068275094 1.9153610468 0.36894521117 -0.30883604288
          2.2012159824 0.29154539108 -0.42888310552 2.1437630653 0.14836460352 -0.25723919272
          2.0239698887 0.24268069863 -0.49068275094 1.9772109985 0.2443075031 -0.15706959367
          1.9153610468 0.36894521117 -0.30883604288 2.1437630653 0.14836460352 -0.25723919272
          2.0239698887 0.24268069863 -0.49068275094 1.9772109985 0.2443075031 -0.15706959367
          1.8510379791 0.076726302505 -0.29504978657 1.9153610468 0.36894521117 -0.30883604288
          1.9153610468 0.36894521117 -0.30883604288 1.9772109985 0.2443075031 -0.15706959367
          2.2012159824 0.29154539108 -0.42888310552 2.1437630653 0.14836460352 -0.25723919272
          1.9772109985 0.2443075031 -0.15706959367 2.2012159824 0.29154539108 -0.42888310552
          2.2763319016 0.28125241399 -0.14818999171 1.9153610468 0.36894521117 -0.30883604288
          1.9772109985 0.2443075031 -0.15706959367 1.9153610468 0.36894521117 -0.30883604288
          2.2763319016 0.28125241399 -0.14818999171 2.1508929729 0.55003911257 -0.24668708444
          1.9153610468 0.36894521117 -0.30883604288 2.2012159824 0.29154539108 -0.42888310552
          2.2763319016 0.28125241399 -0.14818999171 2.1508929729 0.55003911257 -0.24668708444
          1.9153610468 0.36894521117 -0.30883604288 2.2012159824 0.29154539108 -0.42888310552
          2.1508929729 0.55003911257 -0.24668708444 2.0072319508 0.54592597485 -0.34398621321
          2.9183690548 -0.10514099896 0.18946899474 3.1101438999 0.080181010067 0.45569860935
          3.2239820957 -0.14030811191 0.26961100101 3.0323710442 -0.2302993089 0.32912188768
          3.0323710442 -0.2302993089 0.32912188768 3.1101438999 0.080181010067 0.45569860935
          3.2239820957 -0.14030811191 0.26961100101 3.1153120995 -0.17042639852 0.52375102043
          3.0323710442 -0.2302993089 0.32912188768 3.3344159126 -0.41385099292 0.43574500084
          3.1153120995 -0.17042639852 0.52375102043 3.2239820957 -0.14030811191 0.26961100101
          3.0323710442 -0.2302993089 0.32912188768 3.3344159126 -0.41385099292 0.43574500084
          3.0756709576 -0.422498703 0.57748502493 3.1153120995 -0.17042639852 0.52375102043
          3.0323710442 -0.2302993089 0.32912188768 3.1153120995 -0.17042639852 0.52375102043
          3.0756709576 -0.422498703 0.57748502493 2.8791120052 -0.42745420337 0.46121960878
          2.9719080925 -0.42173939943 0.30924770236 3.0323710442 -0.2302993089 0.32912188768
          3.0756709576 -0.422498703 0.57748502493 2.8791120052 -0.42745420337 0.46121960878
          2.9719080925 -0.42173939943 0.30924770236 2.8154499531 -0.22758620977 0.35329309106
          3.0323710442 -0.2302993089 0.32912188768 2.8791120052 -0.42745420337 0.46121960878
          3.0323710442 -0.2302993089 0.32912188768 2.8154499531 -0.22758620977 0.35329309106
          2.9719080925 -0.42173939943 0.30924770236 2.9301850796 -0.41978639364 0.12177300453
          3.0323710442 -0.2302993089 0.32912188768 2.8154499531 -0.22758620977 0.35329309106
          3.1153120995 -0.17042639852 0.52375102043 2.8791120052 -0.42745420337 0.46121960878
          2.8154499531 -0.22758620977 0.35329309106 3.0323710442 -0.2302993089 0.32912188768
          3.1153120995 -0.17042639852 0.52375102043 2.824450016 -0.10761829466 0.55310499668
          2.8154499531 -0.22758620977 0.35329309106 2.8575510979 0.064445592463 0.36333754659
          3.0323710442 -0.2302993089 0.32912188768 2.824450016 -0.10761829466 0.55310499668
          3.0323710442 -0.2302993089 0.32912188768 2.8575510979 0.064445592463 0.36333754659
          3.1153120995 -0.17042639852 0.52375102043 2.824450016 -0.10761829466 0.55310499668
          3.0323710442 -0.2302993089 0.32912188768 3.1101438999 0.080181010067 0.45569860935
          3.1153120995 -0.17042639852 0.52375102043 2.8575510979 0.064445592463 0.36333754659
          1.1842939854 -0.12854279578 -0.092633001506 0.97177040577 0.064062602818 -0.1233580038
          1.1638020277 0.033433400095 -0.21218000352 1.1398986578 -0.010146999732 0.071502000093
          4.1978611946 0.12986010313 0.5741019845 4.4424939156 0.089347399771 0.64447599649
          4.344326973 0.23196899891 0.38592201471 4.4777679443 0.087183900177 0.41901400685
          4.1978611946 0.12986010313 0.5741019845 4.4777679443 0.087183900177 0.41901400685
          4.344326973 0.23196899891 0.38592201471 4.2723498344 0.019195003435 0.35912799835
          4.1978611946 0.12986010313 0.5741019845 4.4424939156 0.089347399771 0.64447599649
          4.4777679443 0.087183900177 0.41901400685 4.2723498344 0.019195003435 0.35912799835
          -2.0975265503 -0.075285196304 -0.43518251181 -2.1201012135 -0.050273101777 -0.70986998081
          -1.8747121096 0.0029144007713 -0.49748280644 -2.1330692768 0.078793898225 -0.55708521605
          -2.1201012135 -0.050273101777 -0.70986998081 -2.3289134502 -0.0023192001972 -0.42081850767
          -2.1330692768 0.078793898225 -0.55708521605 -2.0975265503 -0.075285196304 -0.43518251181
          -2.1201012135 -0.050273101777 -0.70986998081 -2.3716421127 -0.18197050691 -0.6025840044
          -2.1330692768 0.078793898225 -0.55708521605 -2.3289134502 -0.0023192001972 -0.42081850767
          -2.1201012135 -0.050273101777 -0.70986998081 -2.3716421127 -0.18197050691 -0.6025840044
          -2.3477945328 -0.017081549391 -0.75131797791 -2.1330692768 0.078793898225 -0.55708521605
          -2.1201012135 -0.050273101777 -0.70986998081 -2.3477945328 -0.017081549391 -0.75131797791
          -2.3224203587 0.14642329514 -0.60301297903 -2.1330692768 0.078793898225 -0.55708521605
          -2.1330692768 0.078793898225 -0.55708521605 -2.3477945328 -0.017081549391 -0.75131797791
          -2.3224203587 0.14642329514 -0.60301297903 -2.3289134502 -0.0023192001972 -0.42081850767
          -2.1330692768 0.078793898225 -0.55708521605 -2.3289134502 -0.0023192001972 -0.42081850767
          -2.3224203587 0.14642329514 -0.60301297903 -2.3340997696 0.29154390097 -0.43325453997
          -2.0933618546 0.23922790587 -0.44598591328 -2.1330692768 0.078793898225 -0.55708521605
          -2.3224203587 0.14642329514 -0.60301297903 -2.3340997696 0.29154390097 -0.43325453997
          -2.0933618546 0.23922790587 -0.44598591328 -2.3289134502 -0.0023192001972 -0.42081850767
          -2.1330692768 0.078793898225 -0.55708521605 -2.3340997696 0.29154390097 -0.43325453997
          -2.0933618546 0.23922790587 -0.44598591328 -2.1330692768 0.078793898225 -0.55708521605
          -2.3289134502 -0.0023192001972 -0.42081850767 -2.2913610935 0.16144010425 -0.25700899959
          -2.0933618546 0.23922790587 -0.44598591328 -2.0975265503 -0.075285196304 -0.43518251181
          -2.1330692768 0.078793898225 -0.55708521605 -2.2913610935 0.16144010425 -0.25700899959
          -2.1330692768 0.078793898225 -0.55708521605 -2.0975265503 -0.075285196304 -0.43518251181
          -2.3289134502 -0.0023192001972 -0.42081850767 -2.2913610935 0.16144010425 -0.25700899959
          -2.1330692768 0.078793898225 -0.55708521605 -2.3716421127 -0.18197050691 -0.6025840044
          -2.3477945328 -0.017081549391 -0.75131797791 -2.3289134502 -0.0023192001972 -0.42081850767
          5.0302901268 0.43874397874 1.1967389584 5.1688809395 0.37849900126 1.3310799599
          5.1848549843 0.61228102446 1.2231149673 5.2164421082 0.40284201503 1.1155520678
          5.0302901268 0.43874397874 1.1967389584 5.1848549843 0.61228102446 1.2231149673
          5.0476732254 0.61224198341 1.0092389584 5.2164421082 0.40284201503 1.1155520678
          5.0476732254 0.61224198341 1.0092389584 5.0302901268 0.43874397874 1.1967389584
          5.2164421082 0.40284201503 1.1155520678 5.0286197662 0.27560698986 1.0374772549
          5.0302901268 0.43874397874 1.1967389584 5.1688809395 0.37849900126 1.3310799599
          5.2164421082 0.40284201503 1.1155520678 5.1940898895 0.12840040028 1.2278339863
          5.0302901268 0.43874397874 1.1967389584 4.9485001564 0.60167902708 1.3511019945
          5.1688809395 0.37849900126 1.3310799599 4.9263429642 0.33198681474 1.4921859503
          -0.56078988314 -0.3168579042 -0.30044898391 -0.37324941158 -0.23546770215 -0.36768600345
          -0.44009780884 -0.045463498682 -0.38387098908 -0.63126498461 -0.15162830055 -0.47663301229
          -0.56078988314 -0.3168579042 -0.30044898391 -0.44009780884 -0.045463498682 -0.38387098908
          -0.6087269187 0.024860799313 -0.30977600813 -0.63126498461 -0.15162830055 -0.47663301229
          -0.62142932415 -0.09965570271 -0.097244001925 -0.56078988314 -0.3168579042 -0.30044898391
          -0.44009780884 -0.045463498682 -0.38387098908 -0.6087269187 0.024860799313 -0.30977600813
          -0.62142932415 -0.09965570271 -0.097244001925 -0.44009780884 -0.045463498682 -0.38387098908
          -0.43998798728 -0.035619899631 -0.082337997854 -0.6087269187 0.024860799313 -0.30977600813
          -0.62142932415 -0.09965570271 -0.097244001925 -0.56078988314 -0.3168579042 -0.30044898391
          -0.43998798728 -0.035619899631 -0.082337997854 -0.44009780884 -0.045463498682 -0.38387098908
          -0.56078988314 -0.3168579042 -0.30044898391 -0.4785284996 -0.28558018804 -0.089541003108
          -0.43998798728 -0.035619899631 -0.082337997854 -0.44009780884 -0.045463498682 -0.38387098908
          -0.43998798728 -0.035619899631 -0.082337997854 -0.46809598804 0.17155979574 -0.082805998623
          -0.6087269187 0.024860799313 -0.30977600813 -0.44009780884 -0.045463498682 -0.38387098908
          -0.43998798728 -0.035619899631 -0.082337997854 -0.264005512 0.0059295003302 -0.30922400951
          -0.46809598804 0.17155979574 -0.082805998623 -0.44009780884 -0.045463498682 -0.38387098908
          -0.44009780884 -0.045463498682 -0.38387098908 -0.6087269187 0.024860799313 -0.30977600813
          -0.63126498461 -0.15162830055 -0.47663301229 -0.51164197922 0.025980791077 -0.55774062872
          -1.2013354301 -0.1661592871 -1.0883820057 -1.3467004299 -0.27448686957 -1.0782300234
          -1.323502183 -0.038665849715 -1.075633049 -1.4535621405 -0.08741620183 -0.88498598337
          -1.4535621405 -0.08741620183 -0.88498598337 -1.2481642962 0.04549119994 -0.89113599062
          -1.323502183 -0.038665849715 -1.075633049 -1.2013354301 -0.1661592871 -1.0883820057
          -3.1700980663 0.079973198473 0.25145700574 -3.0849509239 0.17763519287 -0.079053997993
          -3.0553820133 0.29404971004 0.22911499441 -3.2902696133 0.27174562216 0.025448989123
          -3.302652359 0.038016501814 0.04223600775 -3.2902696133 0.27174562216 0.025448989123
          -3.1700980663 0.079973198473 0.25145700574 -3.2997620106 0.21736480296 0.27584698796
          -0.94496697187 0.078266300261 -1.0942200422 -1.0507317781 -0.037540301681 -1.0923370123
          -1.0723729134 -0.088602088392 -0.8404250145 -0.85043102503 0.031999699771 -0.80896800756
          -0.85043102503 0.031999699771 -0.80896800756 -1.0507317781 -0.037540301681 -1.0923370123
          -0.87940299511 -0.1013680622 -1.096660018 -0.94496697187 0.078266300261 -1.0942200422
          -1.2560925484 0.27916309237 -0.88956099749 -1.1157516241 0.10669529438 -1.088037014
          -1.2481642962 0.04549119994 -0.89113599062 -1.075802207 0.17113420367 -0.81510698795
          -1.0723729134 -0.088602088392 -0.8404250145 -1.075802207 0.17113420367 -0.81510698795
          -1.2481642962 0.04549119994 -0.89113599062 -1.1157516241 0.10669529438 -1.088037014
          -1.0723729134 -0.088602088392 -0.8404250145 -1.1157516241 0.10669529438 -1.088037014
          -1.2481642962 0.04549119994 -0.89113599062 -1.0507317781 -0.037540301681 -1.0923370123
          -1.1157516241 0.10669529438 -1.088037014 -1.0507317781 -0.037540301681 -1.0923370123
          -1.0723729134 -0.088602088392 -0.8404250145 -0.94496697187 0.078266300261 -1.0942200422
          -1.075802207 0.17113420367 -0.81510698795 -1.1157516241 0.10669529438 -1.088037014
          -1.0723729134 -0.088602088392 -0.8404250145 -0.94496697187 0.078266300261 -1.0942200422
          -1.2481642962 0.04549119994 -0.89113599062 -1.1157516241 0.10669529438 -1.088037014
          -1.323502183 -0.038665849715 -1.075633049 -1.0507317781 -0.037540301681 -1.0923370123
          -1.2481642962 0.04549119994 -0.89113599062 -1.2635279894 0.19011539221 -1.0803289413
          -1.323502183 -0.038665849715 -1.075633049 -1.1157516241 0.10669529438 -1.088037014
          -3.1700980663 0.079973198473 0.25145700574 -3.302652359 0.038016501814 0.04223600775
          -3.4821026325 -0.046573873609 0.11716599017 -3.2058420181 -0.10112692416 0.25872200727
          -3.1700980663 0.079973198473 0.25145700574 -3.4821026325 -0.046573873609 0.11716599017
          -3.3787970543 -0.14233914018 0.29122000933 -3.2058420181 -0.10112692416 0.25872200727
          -3.4652879238 0.12876489758 0.30643999577 -3.4821026325 -0.046573873609 0.11716599017
          -3.3787970543 -0.14233914018 0.29122000933 -3.1700980663 0.079973198473 0.25145700574
          -3.4652879238 0.12876489758 0.30643999577 -3.302652359 0.038016501814 0.04223600775
          -3.4821026325 -0.046573873609 0.11716599017 -3.1700980663 0.079973198473 0.25145700574
          -2.819904089 0.037339199334 -0.66302698851 -3.0660376549 -0.035237099975 -0.601772964
          -2.9699292183 -0.052413102239 -0.81482702494 -3.0065186024 0.11188069731 -0.80747801065
          -4.4813494682 0.022646209225 0.2389934808 -4.7917890549 -0.033734429628 0.26267528534
          -4.5753359795 -0.14313571155 0.30882889032 -4.6583003998 -0.19147884846 0.13825491071
          -4.4813494682 0.022646209225 0.2389934808 -4.5753359795 -0.14313571155 0.30882889032
          -4.3568739891 -0.16453392804 0.20460030437 -4.6583003998 -0.19147884846 0.13825491071
          -4.6583003998 -0.19147884846 0.13825491071 -4.4882779121 -0.32354712486 0.15183719993
          -4.5753359795 -0.14313571155 0.30882889032 -4.3568739891 -0.16453392804 0.20460030437
          -4.4882779121 -0.32354712486 0.15183719993 -4.6583003998 -0.19147884846 0.13825491071
          -4.5753359795 -0.14313571155 0.30882889032 -4.7839722633 -0.32270756364 0.2961961925
          -4.4882779121 -0.32354712486 0.15183719993 -4.5753359795 -0.14313571155 0.30882889032
          -4.4945139885 -0.24172013998 0.45762220025 -4.7839722633 -0.32270756364 0.2961961925
          -4.5753359795 -0.14313571155 0.30882889032 -4.4882779121 -0.32354712486 0.15183719993
          -4.4945139885 -0.24172013998 0.45762220025 -4.3568739891 -0.16453392804 0.20460030437
          -4.5753359795 -0.14313571155 0.30882889032 -4.6800694466 0.0018985598581 0.46689039469
          -4.7917890549 -0.033734429628 0.26267528534 -4.4813494682 0.022646209225 0.2389934808
          1.8098720312 0.33792459965 -0.017415300012 1.8837449551 0.53903061152 0.06517650187
          2.111946106 0.35183390975 -0.033053901047 2.0875871181 0.32275497913 0.17387519777
          1.8098720312 0.33792459965 -0.017415300012 1.8837449551 0.53903061152 0.06517650187
          2.0672409534 0.54569250345 -0.02698210068 2.111946106 0.35183390975 -0.033053901047
          2.0875871181 0.32275497913 0.17387519777 2.2603468895 0.54986870289 0.12335199863
          2.111946106 0.35183390975 -0.033053901047 2.3807709217 0.34840109944 0.17629000545
          2.0875871181 0.32275497913 0.17387519777 2.111946106 0.35183390975 -0.033053901047
          2.2439339161 0.21964900196 0.058875899762 2.3807709217 0.34840109944 0.17629000545
          2.111946106 0.35183390975 -0.033053901047 2.0875871181 0.32275497913 0.17387519777
          2.2439339161 0.21964900196 0.058875899762 2.1151509285 0.051999751478 0.097855910659
          2.2439339161 0.21964900196 0.058875899762 2.111946106 0.35183390975 -0.033053901047
          2.2763319016 0.28125241399 -0.14818999171 2.3807709217 0.34840109944 0.17629000545
          2.111946106 0.35183390975 -0.033053901047 2.3807709217 0.34840109944 0.17629000545
          2.4682879448 0.38555598259 -0.10436999053 2.2763319016 0.28125241399 -0.14818999171
          2.111946106 0.35183390975 -0.033053901047 2.4682879448 0.38555598259 -0.10436999053
          2.2839529514 0.55297267437 -0.13702598214 2.2763319016 0.28125241399 -0.14818999171
          2.111946106 0.35183390975 -0.033053901047 2.2763319016 0.28125241399 -0.14818999171
          2.2839529514 0.55297267437 -0.13702598214 2.1508929729 0.55003911257 -0.24668708444
          2.111946106 0.35183390975 -0.033053901047 1.9772109985 0.2443075031 -0.15706959367
          2.2763319016 0.28125241399 -0.14818999171 2.1508929729 0.55003911257 -0.24668708444
          2.111946106 0.35183390975 -0.033053901047 1.9772109985 0.2443075031 -0.15706959367
          2.1508929729 0.55003911257 -0.24668708444 1.9153610468 0.36894521117 -0.30883604288
          2.2603468895 0.54986870289 0.12335199863 2.4682879448 0.38555598259 -0.10436999053
          2.2839529514 0.55297267437 -0.13702598214 2.111946106 0.35183390975 -0.033053901047
          2.2603468895 0.54986870289 0.12335199863 2.3807709217 0.34840109944 0.17629000545
          2.4682879448 0.38555598259 -0.10436999053 2.111946106 0.35183390975 -0.033053901047
          -1.3984810114 0.086329601705 -0.26900598407 -1.1750420332 0.11218670756 -0.27856901288
          -1.2152099609 -0.081209897995 -0.31830999255 -1.2953740358 0.05793229863 -0.080146998167
          -1.1750420332 0.11218670756 -0.27856901288 -1.3188999891 0.28086179495 -0.079112000763
          -1.2953740358 0.05793229863 -0.080146998167 -1.3984810114 0.086329601705 -0.26900598407
          -2.741081953 0.32292592525 -0.24629439414 -2.8941919804 0.276453197 -0.0076509867795
          -2.638958931 0.48359829187 -0.078652016819 -2.7577950954 0.15421199799 -0.14046099782
          -2.741081953 0.32292592525 -0.24629439414 -2.7577950954 0.15421199799 -0.14046099782
          -2.638958931 0.48359829187 -0.078652016819 -2.4349720478 0.31375589967 -0.069557994604
          -2.741081953 0.32292592525 -0.24629439414 -2.9400956631 0.27705860138 -0.27815890312
          -2.8941919804 0.276453197 -0.0076509867795 -2.7577950954 0.15421199799 -0.14046099782
          -2.741081953 0.32292592525 -0.24629439414 -2.9112796783 0.48190781474 -0.45949801803
          -2.9400956631 0.27705860138 -0.27815890312 -2.7821593285 0.30021998286 -0.44675600529
        </DataArray>
      </Points>
      <Cells>
        <DataArray type="Int64" Name="connectivity" format="ascii" RangeMin="0" RangeMax="21867">
          0 1 2 3 4 5
          6 7 8 9 10 11
          12 13 14 15 16 17
          18 19 20 21 22 23
          24 25 26 27 28 29
          30 31 32 33 34 35
          36 37 38 39 40 41
          42 43 44 45 46 47
          48 49 50 51 52 53
          54 55 56 57 58 59
          60 61 62 63 64 65
          66 67 68 69 70 71
          72 73 74 75 76 77
          78 79 80 81 82 83
          84 85 86 87 88 89
          90 91 92 93 94 95
          96 97 98 99 100 101
          102 103 104 105 106 107
          108 109 110 111 112 113
          114 115 116 117 118 119
          120 121 122 123 124 125
          126 127 128 129 130 131
          132 133 134 135 136 137
          138 139 140 141 142 143
          144 145 146 147 148 149
          150 151 152 153 154 155
          156 157 158 159 160 161
          162 163 164 165 166 167
          168 169 170 171 172 173
          174 175 176 177 178 179
          180 181 182 183 184 185
          186 187 188 189 190 191
          192 193 194 195 196 197
          198 199 200 201 202 203
          204 205 206 207 208 209
          210 211 212 213 214 215
          216 217 218 219 220 221
          222 223 224 225 226 227
          228 229 230 231 232 233
          234 235 236 237 238 239
          240 241 242 243 244 245
          246 247 248 249 250 251
          252 253 254 255 256 257
          258 259 260 261 262 263
          264 265 266 267 268 269
          270 271 272 273 274 275
          276 277 278 279 280 281
          282 283 284 285 286 287
          288 289 290 291 292 293
          294 295 296 297 298 299
          300 301 302 303 304 305
          306 307 308 309 310 311
          312 313 314 315 316 317
          318 319 320 321 322 323
          324 325 326 327 328 329
          330 331 332 333 334 335
          336 337 338 339 340 341
          342 343 344 345 346 347
          348 349 350 351 352 353
          354 355 356 357 358 359
          360 361 362 363 364 365
          366 367 368 369 370 371
          372 373 374 375 376 377
          378 379 380 381 382 383
          384 385 386 387 388 389
          390 391 392 393 394 395
          396 397 398 399 400 401
          402 403 404 405 406 407
          408 409 410 411 412 413
          414 415 416 417 418 419
          420 421 422 423 424 425
          426 427 428 429 430 431
          432 433 434 435 436 437
          438 439 440 441 442 443
          444 445 446 447 448 449
          450 451 452 453 454 455
          456 457 458 459 460 461
          462 463 464 465 466 467
          468 469 470 471 472 473
          474 475 476 477 478 479
          480 481 482 483 484 485
          486 487 488 489 490 491
          492 493 494 495 496 497
          498 499 500 501 502 503
          504 505 506 507 508 509
          510 511 512 513 514 515
          516 517 518 519 520 521
          522 523 524 525 526 527
          528 529 530 531 532 533
          534 535 536 537 538 539
          540 541 542 543 544 545
          546 547 548 549 550 551
          552 553 554 555 556 557
          558 559 560 561 562 563
          564 565 566 567 568 569
          570 571 572 573 574 575
          576 577 578 579 580 581
          582 583 584 585 586 587
          588 589 590 591 592 593
          594 595 596 597 598 599
          600 601 602 603 604 605
          606 607 608 609 610 611
          612 613 614 615 616 617
          618 619 620 621 622 623
          624 625 626 627 628 629
          630 631 632 633 634 635
          636 637 638 639 640 641
          642 643 644 645 646 647
          648 649 650 651 652 653
          654 655 656 657 658 659
          660 661 662 663 664 665
          666 667 668 669 670 671
          672 673 674 675 676 677
          678 679 680 681 682 683
          684 685 686 687 688 689
          690 691 692 693 694 695
          696 697 698 699 700 701
          702 703 704 705 706 707
          708 709 710 711 712 713
          714 715 716 717 718 719
          720 721 722 723 724 725
          726 727 728 729 730 731
          732 733 734 735 736 737
          738 739 740 741 742 743
          744 745 746 747 748 749
          750 751 752 753 754 755
          756 757 758 759 760 761
          762 763 764 765 766 767
          768 769 770 771 772 773
          774 775 776 777 778 779
          780 781 782 783 784 785
          786 787 788 789 790 791
          792 793 794 795 796 797
          798 799 800 801 802 803
          804 805 806 807 808 809
          810 811 812 813 814 815
          816 817 818 819 820 821
          822 823 824 825 826 827
          828 829 830 831 832 833
          834 835 836 837 838 839
          840 841 842 843 844 845
          846 847 848 849 850 851
          852 853 854 855 856 857
          858 859 860 861 862 863
          864 865 866 867 868 869
          870 871 872 873 874 875
          876 877 878 879 880 881
          882 883 884 885 886 887
          888 889 890 891 892 893
          894 895 896 897 898 899
          900 901 902 903 904 905
          906 907 908 909 910 911
          912 913 914 915 916 917
          918 919 920 921 922 923
          924 925 926 927 928 929
          930 931 932 933 934 935
          936 937 938 939 940 941
          942 943 944 945 946 947
          948 949 950 951 952 953
          954 955 956 957 958 959
          960 961 962 963 964 965
          966 967 968 969 970 971
          972 973 974 975 976 977
          978 979 980 981 982 983
          984 985 986 987 988 989
          990 991 992 993 994 995
          996 997 998 999 1000 1001
          1002 1003 1004 1005 1006 1007
          1008 1009 1010 1011 1012 1013
          1014 1015 1016 1017 1018 1019
          1020 1021 1022 1023 1024 1025
          1026 1027 1028 1029 1030 1031
          1032 1033 1034 1035 1036 1037
          1038 1039 1040 1041 1042 1043
          1044 1045 1046 1047 1048 1049
          1050 1051 1052 1053 1054 1055
          1056 1057 1058 1059 1060 1061
          1062 1063 1064 1065 1066 1067
          1068 1069 1070 1071 1072 1073
          1074 1075 1076 1077 1078 1079
          1080 1081 1082 1083 1084 1085
          1086 1087 1088 1089 1090 1091
          1092 1093 1094 1095 1096 1097
          1098 1099 1100 1101 1102 1103
          1104 1105 1106 1107 1108 1109
          1110 1111 1112 1113 1114 1115
          1116 1117 1118 1119 1120 1121
          1122 1123 1124 1125 1126 1127
          1128 1129 1130 1131 1132 1133
          1134 1135 1136 1137 1138 1139
          1140 1141 1142 1143 1144 1145
          1146 1147 1148 1149 1150 1151
          1152 1153 1154 1155 1156 1157
          1158 1159 1160 1161 1162 1163
          1164 1165 1166 1167 1168 1169
          1170 1171 1172 1173 1174 1175
          1176 1177 1178 1179 1180 1181
          1182 1183 1184 1185 1186 1187
          1188 1189 1190 1191 1192 1193
          1194 1195 1196 1197 1198 1199
          1200 1201 1202 1203 1204 1205
          1206 1207 1208 1209 1210 1211
          1212 1213 1214 1215 1216 1217
          1218 1219 1220 1221 1222 1223
          1224 1225 1226 1227 1228 1229
          1230 1231 1232 1233 1234 1235
          1236 1237 1238 1239 1240 1241
          1242 1243 1244 1245 1246 1247
          1248 1249 1250 1251 1252 1253
          1254 1255 1256 1257 1258 1259
          1260 1261 1262 1263 1264 1265
          1266 1267 1268 1269 1270 1271
          1272 1273 1274 1275 1276 1277
          1278 1279 1280 1281 1282 1283
          1284 1285 1286 1287 1288 1289
          1290 1291 1292 1293 1294 1295
          1296 1297 1298 1299 1300 1301
          1302 1303 1304 1305 1306 1307
          1308 1309 1310 1311 1312 1313
          1314 1315 1316 1317 1318 1319
          1320 1321 1322 1323 1324 1325
          1326 1327 1328 1329 1330 1331
          1332 1333 1334 1335 1336 1337
          1338 1339 1340 1341 1342 1343
          1344 1345 1346 1347 1348 1349
          1350 1351 1352 1353 1354 1355
          1356 1357 1358 1359 1360 1361
          1362 1363 1364 1365 1366 1367
          1368 1369 1370 1371 1372 1373
          1374 1375 1376 1377 1378 1379
          1380 1381 1382 1383 1384 1385
          1386 1387 1388 1389 1390 1391
          1392 1393 1394 1395 1396 1397
          1398 1399 1400 1401 1402 1403
          1404 1405 1406 1407 1408 1409
          1410 1411 1412 1413 1414 1415
          1416 1417 1418 1419 1420 1421
          1422 1423 1424 1425 1426 1427
          1428 1429 1430 1431 1432 1433
          1434 1435 1436 1437 1438 1439
          1440 1441 1442 1443 1444 1445
          1446 1447 1448 1449 1450 1451
          1452 1453 1454 1455 1456 1457
          1458 1459 1460 1461 1462 1463
          1464 1465 1466 1467 1468 1469
          1470 1471 1472 1473 1474 1475
          1476 1477 1478 1479 1480 1481
          1482 1483 1484 1485 1486 1487
          1488 1489 1490 1491 1492 1493
          1494 1495 1496 1497 1498 1499
          1500 1501 1502 1503 1504 1505
          1506 1507 1508 1509 1510 1511
          1512 1513 1514 1515 1516 1517
          1518 1519 1520 1521 1522 1523
          1524 1525 1526 1527 1528 1529
          1530 1531 1532 1533 1534 1535
          1536 1537 1538 1539 1540 1541
          1542 1543 1544 1545 1546 1547
          1548 1549 1550 1551 1552 1553
          1554 1555 1556 1557 1558 1559
          1560 1561 1562 1563 1564 1565
          1566 1567 1568 1569 1570 1571
          1572 1573 1574 1575 1576 1577
          1578 1579 1580 1581 1582 1583
          1584 1585 1586 1587 1588 1589
          1590 1591 1592 1593 1594 1595
          1596 1597 1598 1599 1600 1601
          1602 1603 1604 1605 1606 1607
          1608 1609 1610 1611 1612 1613
          1614 1615 1616 1617 1618 1619
          1620 1621 1622 1623 1624 1625
          1626 1627 1628 1629 1630 1631
          1632 1633 1634 1635 1636 1637
          1638 1639 1640 1641 1642 1643
          1644 1645 1646 1647 1648 1649
          1650 1651 1652 1653 1654 1655
          1656 1657 1658 1659 1660 1661
          1662 1663 1664 1665 1666 1667
          1668 1669 1670 1671 1672 1673
          1674 1675 1676 1677 1678 1679
          1680 1681 1682 1683 1684 1685
          1686 1687 1688 1689 1690 1691
          1692 1693 1694 1695 1696 1697
          1698 1699 1700 1701 1702 1703
          1704 1705 1706 1707 1708 1709
          1710 1711 1712 1713 1714 1715
          1716 1717 1718 1719 1720 1721
          1722 1723 1724 1725 1726 1727
          1728 1729 1730 1731 1732 1733
          1734 1735 1736 1737 1738 1739
          1740 1741 1742 1743 1744 1745
          1746 1747 1748 1749 1750 1751
          1752 1753 1754 1755 1756 1757
          1758 1759 1760 1761 1762 1763
          1764 1765 1766 1767 1768 1769
          1770 1771 1772 1773 1774 1775
          1776 1777 1778 1779 1780 1781
          1782 1783 1784 1785 1786 1787
          1788 1789 1790 1791 1792 1793
          1794 1795 1796 1797 1798 1799
          1800 1801 1802 1803 1804 1805
          1806 1807 1808 1809 1810 1811
          1812 1813 1814 1815 1816 1817
          1818 1819 1820 1821 1822 1823
          1824 1825 1826 1827 1828 1829
          1830 1831 1832 1833 1834 1835
          1836 1837 1838 1839 1840 1841
          1842 1843 1844 1845 1846 1847
          1848 1849 1850 1851 1852 1853
          1854 1855 1856 1857 1858 1859
          1860 1861 1862 1863 1864 1865
          1866 1867 1868 1869 1870 1871
          1872 1873 1874 1875 1876 1877
          1878 1879 1880 1881 1882 1883
          1884 1885 1886 1887 1888 1889
          1890 1891 1892 1893 1894 1895
          1896 1897 1898 1899 1900 1901
          1902 1903 1904 1905 1906 1907
          1908 1909 1910 1911 1912 1913
          1914 1915 1916 1917 1918 1919
          1920 1921 1922 1923 1924 1925
          1926 1927 1928 1929 1930 1931
          1932 1933 1934 1935 1936 1937
          1938 1939 1940 1941 1942 1943
          1944 1945 1946 1947 1948 1949
          1950 1951 1952 1953 1954 1955
          1956 1957 1958 1959 1960 1961
          1962 1963 1964 1965 1966 1967
          1968 1969 1970 1971 1972 1973
          1974 1975 1976 1977 1978 1979
          1980 1981 1982 1983 1984 1985
          1986 1987 1988 1989 1990 1991
          1992 1993 1994 1995 1996 1997
          1998 1999 2000 2001 2002 2003
          2004 2005 2006 2007 2008 2009
          2010 2011 2012 2013 2014 2015
          2016 2017 2018 2019 2020 2021
          2022 2023 2024 2025 2026 2027
          2028 2029 2030 2031 2032 2033
          2034 2035 2036 2037 2038 2039
          2040 2041 2042 2043 2044 2045
          2046 2047 2048 2049 2050 2051
          2052 2053 2054 2055 2056 2057
          2058 2059 2060 2061 2062 2063
          2064 2065 2066 2067 2068 2069
          2070 2071 2072 2073 2074 2075
          2076 2077 2078 2079 2080 2081
          2082 2083 2084 2085 2086 2087
          2088 2089 2090 2091 2092 2093
          2094 2095 2096 2097 2098 2099
          2100 2101 2102 2103 2104 2105
          2106 2107 2108 2109 2110 2111
          2112 2113 2114 2115 2116 2117
          2118 2119 2120 2121 2122 2123
          2124 2125 2126 2127 2128 2129
          2130 2131 2132 2133 2134 2135
          2136 2137 2138 2139 2140 2141
          2142 2143 2144 2145 2146 2147
          2148 2149 2150 2151 2152 2153
          2154 2155 2156 2157 2158 2159
          2160 2161 2162 2163 2164 2165
          2166 2167 2168 2169 2170 2171
          2172 2173 2174 2175 2176 2177
          2178 2179 2180 2181 2182 2183
          2184 2185 2186 2187 2188 2189
          2190 2191 2192 2193 2194 2195
          2196 2197 2198 2199 2200 2201
          2202 2203 2204 2205 2206 2207
          2208 2209 2210 2211 2212 2213
          2214 2215 2216 2217 2218 2219
          2220 2221 2222 2223 2224 2225
          2226 2227 2228 2229 2230 2231
          2232 2233 2234 2235 2236 2237
          2238 2239 2240 2241 2242 2243
          2244 2245 2246 2247 2248 2249
          2250 2251 2252 2253 2254 2255
          2256 2257 2258 2259 2260 2261
          2262 2263 2264 2265 2266 2267
          2268 2269 2270 2271 2272 2273
          2274 2275 2276 2277 2278 2279
          2280 2281 2282 2283 2284 2285
          2286 2287 2288 2289 2290 2291
          2292 2293 2294 2295 2296 2297
          2298 2299 2300 2301 2302 2303
          2304 2305 2306 2307 2308 2309
          2310 2311 2312 2313 2314 2315
          2316 2317 2318 2319 2320 2321
          2322 2323 2324 2325 2326 2327
          2328 2329 2330 2331 2332 2333
          2334 2335 2336 2337 2338 2339
          2340 2341 2342 2343 2344 2345
          2346 2347 2348 2349 2350 2351
          2352 2353 2354 2355 2356 2357
          2358 2359 2360 2361 2362 2363
          2364 2365 2366 2367 2368 2369
          2370 2371 2372 2373 2374 2375
          2376 2377 2378 2379 2380 2381
          2382 2383 2384 2385 2386 2387
          2388 2389 2390 2391 2392 2393
          2394 2395 2396 2397 2398 2399
          2400 2401 2402 2403 2404 2405
          2406 2407 2408 2409 2410 2411
          2412 2413 2414 2415 2416 2417
          2418 2419 2420 2421 2422 2423
          2424 2425 2426 2427 2428 2429
          2430 2431 2432 2433 2434 2435
          2436 2437 2438 2439 2440 2441
          2442 2443 2444 2445 2446 2447
          2448 2449 2450 2451 2452 2453
          2454 2455 2456 2457 2458 2459
          2460 2461 2462 2463 2464 2465
          2466 2467 2468 2469 2470 2471
          2472 2473 2474 2475 2476 2477
          2478 2479 2480 2481 2482 2483
          2484 2485 2486 2487 2488 2489
          2490 2491 2492 2493 2494 2495
          2496 2497 2498 2499 2500 2501
          2502 2503 2504 2505 2506 2507
          2508 2509 2510 2511 2512 2513
          2514 2515 2516 2517 2518 2519
          2520 2521 2522 2523 2524 2525
          2526 2527 2528 2529 2530 2531
          2532 2533 2534 2535 2536 2537
          2538 2539 2540 2541 2542 2543
          2544 2545 2546 2547 2548 2549
          2550 2551 2552 2553 2554 2555
          2556 2557 2558 2559 2560 2561
          2562 2563 2564 2565 2566 2567
          2568 2569 2570 2571 2572 2573
          2574 2575 2576 2577 2578 2579
          2580 2581 2582 2583 2584 2585
          2586 2587 2588 2589 2590 2591
          2592 2593 2594 2595 2596 2597
          2598 2599 2600 2601 2602 2603
          2604 2605 2606 2607 2608 2609
          2610 2611 2612 2613 2614 2615
          2616 2617 2618 2619 2620 2621
          2622 2623 2624 2625 2626 2627
          2628 2629 2630 2631 2632 2633
          2634 2635 2636 2637 2638 2639
          2640 2641 2642 2643 2644 2645
          2646 2647 2648 2649 2650 2651
          2652 2653 2654 2655 2656 2657
          2658 2659 2660 2661 2662 2663
          2664 2665 2666 2667 2668 2669
          2670 2671 2672 2673 2674 2675
          2676 2677 2678 2679 2680 2681
          2682 2683 2684 2685 2686 2687
          2688 2689 2690 2691 2692 2693
          2694 2695 2696 2697 2698 2699
          2700 2701 2702 2703 2704 2705
          2706 2707 2708 2709 2710 2711
          2712 2713 2714 2715 2716 2717
          2718 2719 2720 2721 2722 2723
          2724 2725 2726 2727 2728 2729
          2730 2731 2732 2733 2734 2735
          2736 2737 2738 2739 2740 2741
          2742 2743 2744 2745 2746 2747
          2748 2749 2750 2751 2752 2753
          2754 2755 2756 2757 2758 2759
          2760 2761 2762 2763 2764 2765
          2766 2767 2768 2769 2770 2771
          2772 2773 2774 2775 2776 2777
          2778 2779 2780 2781 2782 2783
          2784 2785 2786 2787 2788 2789
          2790 2791 2792 2793 2794 2795
          2796 2797 2798 2799 2800 2801
          2802 2803 2804 2805 2806 2807
          2808 2809 2810 2811 2812 2813
          2814 2815 2816 2817 2818 2819
          2820 2821 2822 2823 2824 2825
          2826 2827 2828 2829 2830 2831
          2832 2833 2834 2835 2836 2837
          2838 2839 2840 2841 2842 2843
          2844 2845 2846 2847 2848 2849
          2850 2851 2852 2853 2854 2855
          2856 2857 2858 2859 2860 2861
          2862 2863 2864 2865 2866 2867
          2868 2869 2870 2871 2872 2873
          2874 2875 2876 2877 2878 2879
          2880 2881 2882 2883 2884 2885
          2886 2887 2888 2889 2890 2891
          2892 2893 2894 2895 2896 2897
          2898 2899 2900 2901 2902 2903
          2904 2905 2906 2907 2908 2909
          2910 2911 2912 2913 2914 2915
          2916 2917 2918 2919 2920 2921
          2922 2923 2924 2925 2926 2927
          2928 2929 2930 2931 2932 2933
          2934 2935 2936 2937 2938 2939
          2940 2941 2942 2943 2944 2945
          2946 2947 2948 2949 2950 2951
          2952 2953 2954 2955 2956 2957
          2958 2959 2960 2961 2962 2963
          2964 2965 2966 2967 2968 2969
          2970 2971 2972 2973 2974 2975
          2976 2977 2978 2979 2980 2981
          2982 2983 2984 2985 2986 2987
          2988 2989 2990 2991 2992 2993
          2994 2995 2996 2997 2998 2999
          3000 3001 3002 3003 3004 3005
          3006 3007 3008 3009 3010 3011
          3012 3013 3014 3015 3016 3017
          3018 3019 3020 3021 3022 3023
          3024 3025 3026 3027 3028 3029
          3030 3031 3032 3033 3034 3035
          3036 3037 3038 3039 3040 3041
          3042 3043 3044 3045 3046 3047
          3048 3049 3050 3051 3052 3053
          3054 3055 3056 3057 3058 3059
          3060 3061 3062 3063 3064 3065
          3066 3067 3068 3069 3070 3071
          3072 3073 3074 3075 3076 3077
          3078 3079 3080 3081 3082 3083
          3084 3085 3086 3087 3088 3089
          3090 3091 3092 3093 3094 3095
          3096 3097 3098 3099 3100 3101
          3102 3103 3104 3105 3106 3107
          3108 3109 3110 3111 3112 3113
          3114 3115 3116 3117 3118 3119
          3120 3121 3122 3123 3124 3125
          3126 3127 3128 3129 3130 3131
          3132 3133 3134 3135 3136 3137
          3138 3139 3140 3141 3142 3143
          3144 3145 3146 3147 3148 3149
          3150 3151 3152 3153 3154 3155
          3156 3157 3158 3159 3160 3161
          3162 3163 3164 3165 3166 3167
          3168 3169 3170 3171 3172 3173
          3174 3175 3176 3177 3178 3179
          3180 3181 3182 3183 3184 3185
          3186 3187 3188 3189 3190 3191
          3192 3193 3194 3195 3196 3197
          3198 3199 3200 3201 3202 3203
          3204 3205 3206 3207 3208 3209
          3210 3211 3212 3213 3214 3215
          3216 3217 3218 3219 3220 3221
          3222 3223 3224 3225 3226 3227
          3228 3229 3230 3231 3232 3233
          3234 3235 3236 3237 3238 3239
          3240 3241 3242 3243 3244 3245
          3246 3247 3248 3249 3250 3251
          3252 3253 3254 3255 3256 3257
          3258 3259 3260 3261 3262 3263
          3264 3265 3266 3267 3268 3269
          3270 3271 3272 3273 3274 3275
          3276 3277 3278 3279 3280 3281
          3282 3283 3284 3285 3286 3287
          3288 3289 3290 3291 3292 3293
          3294 3295 3296 3297 3298 3299
          3300 3301 3302 3303 3304 3305
          3306 3307 3308 3309 3310 3311
          3312 3313 3314 3315 3316 3317
          3318 3319 3320 3321 3322 3323
          3324 3325 3326 3327 3328 3329
          3330 3331 3332 3333 3334 3335
          3336 3337 3338 3339 3340 3341
          3342 3343 3344 3345 3346 3347
          3348 3349 3350 3351 3352 3353
          3354 3355 3356 3357 3358 3359
          3360 3361 3362 3363 3364 3365
          3366 3367 3368 3369 3370 3371
          3372 3373 3374 3375 3376 3377
          3378 3379 3380 3381 3382 3383
          3384 3385 3386 3387 3388 3389
          3390 3391 3392 3393 3394 3395
          3396 3397 3398 3399 3400 3401
          3402 3403 3404 3405 3406 3407
          3408 3409 3410 3411 3412 3413
          3414 3415 3416 3417 3418 3419
          3420 3421 3422 3423 3424 3425
          3426 3427 3428 3429 3430 3431
          3432 3433 3434 3435 3436 3437
          3438 3439 3440 3441 3442 3443
          3444 3445 3446 3447 3448 3449
          3450 3451 3452 3453 3454 3455
          3456 3457 3458 3459 3460 3461
          3462 3463 3464 3465 3466 3467
          3468 3469 3470 3471 3472 3473
          3474 3475 3476 3477 3478 3479
          3480 3481 3482 3483 3484 3485
          3486 3487 3488 3489 3490 3491
          3492 3493 3494 3495 3496 3497
          3498 3499 3500 3501 3502 3503
          3504 3505 3506 3507 3508 3509
          3510 3511 3512 3513 3514 3515
          3516 3517 3518 3519 3520 3521
          3522 3523 3524 3525 3526 3527
          3528 3529 3530 3531 3532 3533
          3534 3535 3536 3537 3538 3539
          3540 3541 3542 3543 3544 3545
          3546 3547 3548 3549 3550 3551
          3552 3553 3554 3555 3556 3557
          3558 3559 3560 3561 3562 3563
          3564 3565 3566 3567 3568 3569
          3570 3571 3572 3573 3574 3575
          3576 3577 3578 3579 3580 3581
          3582 3583 3584 3585 3586 3587
          3588 3589 3590 3591 3592 3593
          3594 3595 3596 3597 3598 3599
          3600 3601 3602 3603 3604 3605
          3606 3607 3608 3609 3610 3611
          3612 3613 3614 3615 3616 3617
          3618 3619 3620 3621 3622 3623
          3624 3625 3626 3627 3628 3629
          3630 3631 3632 3633 3634 3635
          3636 3637 3638 3639 3640 3641
          3642 3643 3644 3645 3646 3647
          3648 3649 3650 3651 3652 3653
          3654 3655 3656 3657 3658 3659
          3660 3661 3662 3663 3664 3665
          3666 3667 3668 3669 3670 3671
          3672 3673 3674 3675 3676 3677
          3678 3679 3680 3681 3682 3683
          3684 3685 3686 3687 3688 3689
          3690 3691 3692 3693 3694 3695
          3696 3697 3698 3699 3700 3701
          3702 3703 3704 3705 3706 3707
          3708 3709 3710 3711 3712 3713
          3714 3715 3716 3717 3718 3719
          3720 3721 3722 3723 3724 3725
          3726 3727 3728 3729 3730 3731
          3732 3733 3734 3735 3736 3737
          3738 3739 3740 3741 3742 3743
          3744 3745 3746 3747 3748 3749
          3750 3751 3752 3753 3754 3755
          3756 3757 3758 3759 3760 3761
          3762 3763 3764 3765 3766 3767
          3768 3769 3770 3771 3772 3773
          3774 3775 3776 3777 3778 3779
          3780 3781 3782 3783 3784 3785
          3786 3787 3788 3789 3790 3791
          3792 3793 3794 3795 3796 3797
          3798 3799 3800 3801 3802 3803
          3804 3805 3806 3807 3808 3809
          3810 3811 3812 3813 3814 3815
          3816 3817 3818 3819 3820 3821
          3822 3823 3824 3825 3826 3827
          3828 3829 3830 3831 3832 3833
          3834 3835 3836 3837 3838 3839
          3840 3841 3842 3843 3844 3845
          3846 3847 3848 3849 3850 3851
          3852 3853 3854 3855 3856 3857
          3858 3859 3860 3861 3862 3863
          3864 3865 3866 3867 3868 3869
          3870 3871 3872 3873 3874 3875
          3876 3877 3878 3879 3880 3881
          3882 3883 3884 3885 3886 3887
          3888 3889 3890 3891 3892 3893
          3894 3895 3896 3897 3898 3899
          3900 3901 3902 3903 3904 3905
          3906 3907 3908 3909 3910 3911
          3912 3913 3914 3915 3916 3917
          3918 3919 3920 3921 3922 3923
          3924 3925 3926 3927 3928 3929
          3930 3931 3932 3933 3934 3935
          3936 3937 3938 3939 3940 3941
          3942 3943 3944 3945 3946 3947
          3948 3949 3950 3951 3952 3953
          3954 3955 3956 3957 3958 3959
          3960 3961 3962 3963 3964 3965
          3966 3967 3968 3969 3970 3971
          3972 3973 3974 3975 3976 3977
          3978 3979 3980 3981 3982 3983
          3984 3985 3986 3987 3988 3989
          3990 3991 3992 3993 3994 3995
          3996 3997 3998 3999 4000 4001
          4002 4003 4004 4005 4006 4007
          4008 4009 4010 4011 4012 4013
          4014 4015 4016 4017 4018 4019
          4020 4021 4022 4023 4024 4025
          4026 4027 4028 4029 4030 4031
          4032 4033 4034 4035 4036 4037
          4038 4039 4040 4041 4042 4043
          4044 4045 4046 4047 4048 4049
          4050 4051 4052 4053 4054 4055
          4056 4057 4058 4059 4060 4061
          4062 4063 4064 4065 4066 4067
          4068 4069 4070 4071 4072 4073
          4074 4075 4076 4077 4078 4079
          4080 4081 4082 4083 4084 4085
          4086 4087 4088 4089 4090 4091
          4092 4093 4094 4095 4096 4097
          4098 4099 4100 4101 4102 4103
          4104 4105 4106 4107 4108 4109
          4110 4111 4112 4113 4114 4115
          4116 4117 4118 4119 4120 4121
          4122 4123 4124 4125 4126 4127
          4128 4129 4130 4131 4132 4133
          4134 4135 4136 4137 4138 4139
          4140 4141 4142 4143 4144 4145
          4146 4147 4148 4149 4150 4151
          4152 4153 4154 4155 4156 4157
          4158 4159 4160 4161 4162 4163
          4164 4165 4166 4167 4168 4169
          4170 4171 4172 4173 4174 4175
          4176 4177 4178 4179 4180 4181
          4182 4183 4184 4185 4186 4187
          4188 4189 4190 4191 4192 4193
          4194 4195 4196 4197 4198 4199
          4200 4201 4202 4203 4204 4205
          4206 4207 4208 4209 4210 4211
          4212 4213 4214 4215 4216 4217
          4218 4219 4220 4221 4222 4223
          4224 4225 4226 4227 4228 4229
          4230 4231 4232 4233 4234 4235
          4236 4237 4238 4239 4240 4241
          4242 4243 4244 4245 4246 4247
          4248 4249 4250 4251 4252 4253
          4254 4255 4256 4257 4258 4259
          4260 4261 4262 4263 4264 4265
          4266 4267 4268 4269 4270 4271
          4272 4273 4274 4275 4276 4277
          4278 4279 4280 4281 4282 4283
          4284 4285 4286 4287 4288 4289
          4290 4291 4292 4293 4294 4295
          4296 4297 4298 4299 4300 4301
          4302 4303 4304 4305 4306 4307
          4308 4309 4310 4311 4312 4313
          4314 4315 4316 4317 4318 4319
          4320 4321 4322 4323 4324 4325
          4326 4327 4328 4329 4330 4331
          4332 4333 4334 4335 4336 4337
          4338 4339 4340 4341 4342 4343
          4344 4345 4346 4347 4348 4349
          4350 4351 4352 4353 4354 4355
          4356 4357 4358 4359 4360 4361
          4362 4363 4364 4365 4366 4367
          4368 4369 4370 4371 4372 4373
          4374 4375 4376 4377 4378 4379
          4380 4381 4382 4383 4384 4385
          4386 4387 4388 4389 4390 4391
          4392 4393 4394 4395 4396 4397
          4398 4399 4400 4401 4402 4403
          4404 4405 4406 4407 4408 4409
          4410 4411 4412 4413 4414 4415
          4416 4417 4418 4419 4420 4421
          4422 4423 4424 4425 4426 4427
          4428 4429 4430 4431 4432 4433
          4434 4435 4436 4437 4438 4439
          4440 4441 4442 4443 4444 4445
          4446 4447 4448 4449 4450 4451
          4452 4453 4454 4455 4456 4457
          4458 4459 4460 4461 4462 4463
          4464 4465 4466 4467 4468 4469
          4470 4471 4472 4473 4474 4475
          4476 4477 4478 4479 4480 4481
          4482 4483 4484 4485 4486 4487
          4488 4489 4490 4491 4492 4493
          4494 4495 4496 4497 4498 4499
          4500 4501 4502 4503 4504 4505
          4506 4507 4508 4509 4510 4511
          4512 4513 4514 4515 4516 4517
          4518 4519 4520 4521 4522 4523
          4524 4525 4526 4527 4528 4529
          4530 4531 4532 4533 4534 4535
          4536 4537 4538 4539 4540 4541
          4542 4543 4544 4545 4546 4547
          4548 4549 4550 4551 4552 4553
          4554 4555 4556 4557 4558 4559
          4560 4561 4562 4563 4564 4565
          4566 4567 4568 4569 4570 4571
          4572 4573 4574 4575 4576 4577
          4578 4579 4580 4581 4582 4583
          4584 4585 4586 4587 4588 4589
          4590 4591 4592 4593 4594 4595
          4596 4597 4598 4599 4600 4601
          4602 4603 4604 4605 4606 4607
          4608 4609 4610 4611 4612 4613
          4614 4615 4616 4617 4618 4619
          4620 4621 4622 4623 4624 4625
          4626 4627 4628 4629 4630 4631
          4632 4633 4634 4635 4636 4637
          4638 4639 4640 4641 4642 4643
          4644 4645 4646 4647 4648 4649
          4650 4651 4652 4653 4654 4655
          4656 4657 4658 4659 4660 4661
          4662 4663 4664 4665 4666 4667
          4668 4669 4670 4671 4672 4673
          4674 4675 4676 4677 4678 4679
          4680 4681 4682 4683 4684 4685
          4686 4687 4688 4689 4690 4691
          4692 4693 4694 4695 4696 4697
          4698 4699 4700 4701 4702 4703
          4704 4705 4706 4707 4708 4709
          4710 4711 4712 4713 4714 4715
          4716 4717 4718 4719 4720 4721
          4722 4723 4724 4725 4726 4727
          4728 4729 4730 4731 4732 4733
          4734 4735 4736 4737 4738 4739
          4740 4741 4742 4743 4744 4745
          4746 4747 4748 4749 4750 4751
          4752 4753 4754 4755 4756 4757
          4758 4759 4760 4761 4762 4763
          4764 4765 4766 4767 4768 4769
          4770 4771 4772 4773 4774 4775
          4776 4777 4778 4779 4780 4781
          4782 4783 4784 4785 4786 4787
          4788 4789 4790 4791 4792 4793
          4794 4795 4796 4797 4798 4799
          4800 4801 4802 4803 4804 4805
          4806 4807 4808 4809 4810 4811
          4812 4813 4814 4815 4816 4817
          4818 4819 4820 4821 4822 4823
          4824 4825 4826 4827 4828 4829
          4830 4831 4832 4833 4834 4835
          4836 4837 4838 4839 4840 4841
          4842 4843 4844 4845 4846 4847
          4848 4849 4850 4851 4852 4853
          4854 4855 4856 4857 4858 4859
          4860 4861 4862 4863 4864 4865
          4866 4867 4868 4869 4870 4871
          4872 4873 4874 4875 4876 4877
          4878 4879 4880 4881 4882 4883
          4884 4885 4886 4887 4888 4889
          4890 4891 4892 4893 4894 4895
          4896 4897 4898 4899 4900 4901
          4902 4903 4904 4905 4906 4907
          4908 4909 4910 4911 4912 4913
          4914 4915 4916 4917 4918 4919
          4920 4921 4922 4923 4924 4925
          4926 4927 4928 4929 4930 4931
          4932 4933 4934 4935 4936 4937
          4938 4939 4940 4941 4942 4943
          4944 4945 4946 4947 4948 4949
          4950 4951 4952 4953 4954 4955
          4956 4957 4958 4959 4960 4961
          4962 4963 4964 4965 4966 4967
          4968 4969 4970 4971 4972 4973
          4974 4975 4976 4977 4978 4979
          4980 4981 4982 4983 4984 4985
          4986 4987 4988 4989 4990 4991
          4992 4993 4994 4995 4996 4997
          4998 4999 5000 5001 5002 5003
          5004 5005 5006 5007 5008 5009
          5010 5011 5012 5013 5014 5015
          5016 5017 5018 5019 5020 5021
          5022 5023 5024 5025 5026 5027
          5028 5029 5030 5031 5032 5033
          5034 5035 5036 5037 5038 5039
          5040 5041 5042 5043 5044 5045
          5046 5047 5048 5049 5050 5051
          5052 5053 5054 5055 5056 5057
          5058 5059 5060 5061 5062 5063
          5064 5065 5066 5067 5068 5069
          5070 5071 5072 5073 5074 5075
          5076 5077 5078 5079 5080 5081
          5082 5083 5084 5085 5086 5087
          5088 5089 5090 5091 5092 5093
          5094 5095 5096 5097 5098 5099
          5100 5101 5102 5103 5104 5105
          5106 5107 5108 5109 5110 5111
          5112 5113 5114 5115 5116 5117
          5118 5119 5120 5121 5122 5123
          5124 5125 5126 5127 5128 5129
          5130 5131 5132 5133 5134 5135
          5136 5137 5138 5139 5140 5141
          5142 5143 5144 5145 5146 5147
          5148 5149 5150 5151 5152 5153
          5154 5155 5156 5157 5158 5159
          5160 5161 5162 5163 5164 5165
          5166 5167 5168 5169 5170 5171
          5172 5173 5174 5175 5176 5177
          5178 5179 5180 5181 5182 5183
          5184 5185 5186 5187 5188 5189
          5190 5191 5192 5193 5194 5195
          5196 5197 5198 5199 5200 5201
          5202 5203 5204 5205 5206 5207
          5208 5209 5210 5211 5212 5213
          5214 5215 5216 5217 5218 5219
          5220 5221 5222 5223 5224 5225
          5226 5227 5228 5229 5230 5231
          5232 5233 5234 5235 5236 5237
          5238 5239 5240 5241 5242 5243
          5244 5245 5246 5247 5248 5249
          5250 5251 5252 5253 5254 5255
          5256 5257 5258 5259 5260 5261
          5262 5263 5264 5265 5266 5267
          5268 5269 5270 5271 5272 5273
          5274 5275 5276 5277 5278 5279
          5280 5281 5282 5283 5284 5285
          5286 5287 5288 5289 5290 5291
          5292 5293 5294 5295 5296 5297
          5298 5299 5300 5301 5302 5303
          5304 5305 5306 5307 5308 5309
          5310 5311 5312 5313 5314 5315
          5316 5317 5318 5319 5320 5321
          5322 5323 5324 5325 5326 5327
          5328 5329 5330 5331 5332 5333
          5334 5335 5336 5337 5338 5339
          5340 5341 5342 5343 5344 5345
          5346 5347 5348 5349 5350 5351
          5352 5353 5354 5355 5356 5357
          5358 5359 5360 5361 5362 5363
          5364 5365 5366 5367 5368 5369
          5370 5371 5372 5373 5374 5375
          5376 5377 5378 5379 5380 5381
          5382 5383 5384 5385 5386 5387
          5388 5389 5390 5391 5392 5393
          5394 5395 5396 5397 5398 5399
          5400 5401 5402 5403 5404 5405
          5406 5407 5408 5409 5410 5411
          5412 5413 5414 5415 5416 5417
          5418 5419 5420 5421 5422 5423
          5424 5425 5426 5427 5428 5429
          5430 5431 5432 5433 5434 5435
          5436 5437 5438 5439 5440 5441
          5442 5443 5444 5445 5446 5447
          5448 5449 5450 5451 5452 5453
          5454 5455 5456 5457 5458 5459
          5460 5461 5462 5463 5464 5465
          5466 5467 5468 5469 5470 5471
          5472 5473 5474 5475 5476 5477
          5478 5479 5480 5481 5482 5483
          5484 5485 5486 5487 5488 5489
          5490 5491 5492 5493 5494 5495
          5496 5497 5498 5499 5500 5501
          5502 5503 5504 5505 5506 5507
          5508 5509 5510 5511 5512 5513
          5514 5515 5516 5517 5518 5519
          5520 5521 5522 5523 5524 5525
          5526 5527 5528 5529 5530 5531
          5532 5533 5534 5535 5536 5537
          5538 5539 5540 5541 5542 5543
          5544 5545 5546 5547 5548 5549
          5550 5551 5552 5553 5554 5555
          5556 5557 5558 5559 5560 5561
          5562 5563 5564 5565 5566 5567
          5568 5569 5570 5571 5572 5573
          5574 5575 5576 5577 5578 5579
          5580 5581 5582 5583 5584 5585
          5586 5587 5588 5589 5590 5591
          5592 5593 5594 5595 5596 5597
          5598 5599 5600 5601 5602 5603
          5604 5605 5606 5607 5608 5609
          5610 5611 5612 5613 5614 5615
          5616 5617 5618 5619 5620 5621
          5622 5623 5624 5625 5626 5627
          5628 5629 5630 5631 5632 5633
          5634 5635 5636 5637 5638 5639
          5640 5641 5642 5643 5644 5645
          5646 5647 5648 5649 5650 5651
          5652 5653 5654 5655 5656 5657
          5658 5659 5660 5661 5662 5663
          5664 5665 5666 5667 5668 5669
          5670 5671 5672 5673 5674 5675
          5676 5677 5678 5679 5680 5681
          5682 5683 5684 5685 5686 5687
          5688 5689 5690 5691 5692 5693
          5694 5695 5696 5697 5698 5699
          5700 5701 5702 5703 5704 5705
          5706 5707 5708 5709 5710 5711
          5712 5713 5714 5715 5716 5717
          5718 5719 5720 5721 5722 5723
          5724 5725 5726 5727 5728 5729
          5730 5731 5732 5733 5734 5735
          5736 5737 5738 5739 5740 5741
          5742 5743 5744 5745 5746 5747
          5748 5749 5750 5751 5752 5753
          5754 5755 5756 5757 5758 5759
          5760 5761 5762 5763 5764 5765
          5766 5767 5768 5769 5770 5771
          5772 5773 5774 5775 5776 5777
          5778 5779 5780 5781 5782 5783
          5784 5785 5786 5787 5788 5789
          5790 5791 5792 5793 5794 5795
          5796 5797 5798 5799 5800 5801
          5802 5803 5804 5805 5806 5807
          5808 5809 5810 5811 5812 5813
          5814 5815 5816 5817 5818 5819
          5820 5821 5822 5823 5824 5825
          5826 5827 5828 5829 5830 5831
          5832 5833 5834 5835 5836 5837
          5838 5839 5840 5841 5842 5843
          5844 5845 5846 5847 5848 5849
          5850 5851 5852 5853 5854 5855
          5856 5857 5858 5859 5860 5861
          5862 5863 5864 5865 5866 5867
          5868 5869 5870 5871 5872 5873
          5874 5875 5876 5877 5878 5879
          5880 5881 5882 5883 5884 5885
          5886 5887 5888 5889 5890 5891
          5892 5893 5894 5895 5896 5897
          5898 5899 5900 5901 5902 5903
          5904 5905 5906 5907 5908 5909
          5910 5911 5912 5913 5914 5915
          5916 5917 5918 5919 5920 5921
          5922 5923 5924 5925 5926 5927
          5928 5929 5930 5931 5932 5933
          5934 5935 5936 5937 5938 5939
          5940 5941 5942 5943 5944 5945
          5946 5947 5948 5949 5950 5951
          5952 5953 5954 5955 5956 5957
          5958 5959 5960 5961 5962 5963
          5964 5965 5966 5967 5968 5969
          5970 5971 5972 5973 5974 5975
          5976 5977 5978 5979 5980 5981
          5982 5983 5984 5985 5986 5987
          5988 5989 5990 5991 5992 5993
          5994 5995 5996 5997 5998 5999
          6000 6001 6002 6003 6004 6005
          6006 6007 6008 6009 6010 6011
          6012 6013 6014 6015 6016 6017
          6018 6019 6020 6021 6022 6023
          6024 6025 6026 6027 6028 6029
          6030 6031 6032 6033 6034 6035
          6036 6037 6038 6039 6040 6041
          6042 6043 6044 6045 6046 6047
          6048 6049 6050 6051 6052 6053
          6054 6055 6056 6057 6058 6059
          6060 6061 6062 6063 6064 6065
          6066 6067 6068 6069 6070 6071
          6072 6073 6074 6075 6076 6077
          6078 6079 6080 6081 6082 6083
          6084 6085 6086 6087 6088 6089
          6090 6091 6092 6093 6094 6095
          6096 6097 6098 6099 6100 6101
          6102 6103 6104 6105 6106 6107
          6108 6109 6110 6111 6112 6113
          6114 6115 6116 6117 6118 6119
          6120 6121 6122 6123 6124 6125
          6126 6127 6128 6129 6130 6131
          6132 6133 6134 6135 6136 6137
          6138 6139 6140 6141 6142 6143
          6144 6145 6146 6147 6148 6149
          6150 6151 6152 6153 6154 6155
          6156 6157 6158 6159 6160 6161
          6162 6163 6164 6165 6166 6167
          6168 6169 6170 6171 6172 6173
          6174 6175 6176 6177 6178 6179
          6180 6181 6182 6183 6184 6185
          6186 6187 6188 6189 6190 6191
          6192 6193 6194 6195 6196 6197
          6198 6199 6200 6201 6202 6203
          6204 6205 6206 6207 6208 6209
          6210 6211 6212 6213 6214 6215
          6216 6217 6218 6219 6220 6221
          6222 6223 6224 6225 6226 6227
          6228 6229 6230 6231 6232 6233
          6234 6235 6236 6237 6238 6239
          6240 6241 6242 6243 6244 6245
          6246 6247 6248 6249 6250 6251
          6252 6253 6254 6255 6256 6257
          6258 6259 6260 6261 6262 6263
          6264 6265 6266 6267 6268 6269
          6270 6271 6272 6273 6274 6275
          6276 6277 6278 6279 6280 6281
          6282 6283 6284 6285 6286 6287
          6288 6289 6290 6291 6292 6293
          6294 6295 6296 6297 6298 6299
          6300 6301 6302 6303 6304 6305
          6306 6307 6308 6309 6310 6311
          6312 6313 6314 6315 6316 6317
          6318 6319 6320 6321 6322 6323
          6324 6325 6326 6327 6328 6329
          6330 6331 6332 6333 6334 6335
          6336 6337 6338 6339 6340 6341
          6342 6343 6344 6345 6346 6347
          6348 6349 6350 6351 6352 6353
          6354 6355 6356 6357 6358 6359
          6360 6361 6362 6363 6364 6365
          6366 6367 6368 6369 6370 6371
          6372 6373 6374 6375 6376 6377
          6378 6379 6380 6381 6382 6383
          6384 6385 6386 6387 6388 6389
          6390 6391 6392 6393 6394 6395
          6396 6397 6398 6399 6400 6401
          6402 6403 6404 6405 6406 6407
          6408 6409 6410 6411 6412 6413
          6414 6415 6416 6417 6418 6419
          6420 6421 6422 6423 6424 6425
          6426 6427 6428 6429 6430 6431
          6432 6433 6434 6435 6436 6437
          6438 6439 6440 6441 6442 6443
          6444 6445 6446 6447 6448 6449
          6450 6451 6452 6453 6454 6455
          6456 6457 6458 6459 6460 6461
          6462 6463 6464 6465 6466 6467
          6468 6469 6470 6471 6472 6473
          6474 6475 6476 6477 6478 6479
          6480 6481 6482 6483 6484 6485
          6486 6487 6488 6489 6490 6491
          6492 6493 6494 6495 6496 6497
          6498 6499 6500 6501 6502 6503
          6504 6505 6506 6507 6508 6509
          6510 6511 6512 6513 6514 6515
          6516 6517 6518 6519 6520 6521
          6522 6523 6524 6525 6526 6527
          6528 6529 6530 6531 6532 6533
          6534 6535 6536 6537 6538 6539
          6540 6541 6542 6543 6544 6545
          6546 6547 6548 6549 6550 6551
          6552 6553 6554 6555 6556 6557
          6558 6559 6560 6561 6562 6563
          6564 6565 6566 6567 6568 6569
          6570 6571 6572 6573 6574 6575
          6576 6577 6578 6579 6580 6581
          6582 6583 6584 6585 6586 6587
          6588 6589 6590 6591 6592 6593
          6594 6595 6596 6597 6598 6599
          6600 6601 6602 6603 6604 6605
          6606 6607 6608 6609 6610 6611
          6612 6613 6614 6615 6616 6617
          6618 6619 6620 6621 6622 6623
          6624 6625 6626 6627 6628 6629
          6630 6631 6632 6633 6634 6635
          6636 6637 6638 6639 6640 6641
          6642 6643 6644 6645 6646 6647
          6648 6649 6650 6651 6652 6653
          6654 6655 6656 6657 6658 6659
          6660 6661 6662 6663 6664 6665
          6666 6667 6668 6669 6670 6671
          6672 6673 6674 6675 6676 6677
          6678 6679 6680 6681 6682 6683
          6684 6685 6686 6687 6688 6689
          6690 6691 6692 6693 6694 6695
          6696 6697 6698 6699 6700 6701
          6702 6703 6704 6705 6706 6707
          6708 6709 6710 6711 6712 6713
          6714 6715 6716 6717 6718 6719
          6720 6721 6722 6723 6724 6725
          6726 6727 6728 6729 6730 6731
          6732 6733 6734 6735 6736 6737
          6738 6739 6740 6741 6742 6743
          6744 6745 6746 6747 6748 6749
          6750 6751 6752 6753 6754 6755
          6756 6757 6758 6759 6760 6761
          6762 6763 6764 6765 6766 6767
          6768 6769 6770 6771 6772 6773
          6774 6775 6776 6777 6778 6779
          6780 6781 6782 6783 6784 6785
          6786 6787 6788 6789 6790 6791
          6792 6793 6794 6795 6796 6797
          6798 6799 6800 6801 6802 6803
          6804 6805 6806 6807 6808 6809
          6810 6811 6812 6813 6814 6815
          6816 6817 6818 6819 6820 6821
          6822 6823 6824 6825 6826 6827
          6828 6829 6830 6831 6832 6833
          6834 6835 6836 6837 6838 6839
          6840 6841 6842 6843 6844 6845
          6846 6847 6848 6849 6850 6851
          6852 6853 6854 6855 6856 6857
          6858 6859 6860 6861 6862 6863
          6864 6865 6866 6867 6868 6869
          6870 6871 6872 6873 6874 6875
          6876 6877 6878 6879 6880 6881
          6882 6883 6884 6885 6886 6887
          6888 6889 6890 6891 6892 6893
          6894 6895 6896 6897 6898 6899
          6900 6901 6902 6903 6904 6905
          6906 6907 6908 6909 6910 6911
          6912 6913 6914 6915 6916 6917
          6918 6919 6920 6921 6922 6923
          6924 6925 6926 6927 6928 6929
          6930 6931 6932 6933 6934 6935
          6936 6937 6938 6939 6940 6941
          6942 6943 6944 6945 6946 6947
          6948 6949 6950 6951 6952 6953
          6954 6955 6956 6957 6958 6959
          6960 6961 6962 6963 6964 6965
          6966 6967 6968 6969 6970 6971
          6972 6973 6974 6975 6976 6977
          6978 6979 6980 6981 6982 6983
          6984 6985 6986 6987 6988 6989
          6990 6991 6992 6993 6994 6995
          6996 6997 6998 6999 7000 7001
          7002 7003 7004 7005 7006 7007
          7008 7009 7010 7011 7012 7013
          7014 7015 7016 7017 7018 7019
          7020 7021 7022 7023 7024 7025
          7026 7027 7028 7029 7030 7031
          7032 7033 7034 7035 7036 7037
          7038 7039 7040 7041 7042 7043
          7044 7045 7046 7047 7048 7049
          7050 7051 7052 7053 7054 7055
          7056 7057 7058 7059 7060 7061
          7062 7063 7064 7065 7066 7067
          7068 7069 7070 7071 7072 7073
          7074 7075 7076 7077 7078 7079
          7080 7081 7082 7083 7084 7085
          7086 7087 7088 7089 7090 7091
          7092 7093 7094 7095 7096 7097
          7098 7099 7100 7101 7102 7103
          7104 7105 7106 7107 7108 7109
          7110 7111 7112 7113 7114 7115
          7116 7117 7118 7119 7120 7121
          7122 7123 7124 7125 7126 7127
          7128 7129 7130 7131 7132 7133
          7134 7135 7136 7137 7138 7139
          7140 7141 7142 7143 7144 7145
          7146 7147 7148 7149 7150 7151
          7152 7153 7154 7155 7156 7157
          7158 7159 7160 7161 7162 7163
          7164 7165 7166 7167 7168 7169
          7170 7171 7172 7173 7174 7175
          7176 7177 7178 7179 7180 7181
          7182 7183 7184 7185 7186 7187
          7188 7189 7190 7191 7192 7193
          7194 7195 7196 7197 7198 7199
          7200 7201 7202 7203 7204 7205
          7206 7207 7208 7209 7210 7211
          7212 7213 7214 7215 7216 7217
          7218 7219 7220 7221 7222 7223
          7224 7225 7226 7227 7228 7229
          7230 7231 7232 7233 7234 7235
          7236 7237 7238 7239 7240 7241
          7242 7243 7244 7245 7246 7247
          7248 7249 7250 7251 7252 7253
          7254 7255 7256 7257 7258 7259
          7260 7261 7262 7263 7264 7265
          7266 7267 7268 7269 7270 7271
          7272 7273 7274 7275 7276 7277
          7278 7279 7280 7281 7282 7283
          7284 7285 7286 7287 7288 7289
          7290 7291 7292 7293 7294 7295
          7296 7297 7298 7299 7300 7301
          7302 7303 7304 7305 7306 7307
          7308 7309 7310 7311 7312 7313
          7314 7315 7316 7317 7318 7319
          7320 7321 7322 7323 7324 7325
          7326 7327 7328 7329 7330 7331
          7332 7333 7334 7335 7336 7337
          7338 7339 7340 7341 7342 7343
          7344 7345 7346 7347 7348 7349
          7350 7351 7352 7353 7354 7355
          7356 7357 7358 7359 7360 7361
          7362 7363 7364 7365 7366 7367
          7368 7369 7370 7371 7372 7373
          7374 7375 7376 7377 7378 7379
          7380 7381 7382 7383 7384 7385
          7386 7387 7388 7389 7390 7391
          7392 7393 7394 7395 7396 7397
          7398 7399 7400 7401 7402 7403
          7404 7405 7406 7407 7408 7409
          7410 7411 7412 7413 7414 7415
          7416 7417 7418 7419 7420 7421
          7422 7423 7424 7425 7426 7427
          7428 7429 7430 7431 7432 7433
          7434 7435 7436 7437 7438 7439
          7440 7441 7442 7443 7444 7445
          7446 7447 7448 7449 7450 7451
          7452 7453 7454 7455 7456 7457
          7458 7459 7460 7461 7462 7463
          7464 7465 7466 7467 7468 7469
          7470 7471 7472 7473 7474 7475
          7476 7477 7478 7479 7480 7481
          7482 7483 7484 7485 7486 7487
          7488 7489 7490 7491 7492 7493
          7494 7495 7496 7497 7498 7499
          7500 7501 7502 7503 7504 7505
          7506 7507 7508 7509 7510 7511
          7512 7513 7514 7515 7516 7517
          7518 7519 7520 7521 7522 7523
          7524 7525 7526 7527 7528 7529
          7530 7531 7532 7533 7534 7535
          7536 7537 7538 7539 7540 7541
          7542 7543 7544 7545 7546 7547
          7548 7549 7550 7551 7552 7553
          7554 7555 7556 7557 7558 7559
          7560 7561 7562 7563 7564 7565
          7566 7567 7568 7569 7570 7571
          7572 7573 7574 7575 7576 7577
          7578 7579 7580 7581 7582 7583
          7584 7585 7586 7587 7588 7589
          7590 7591 7592 7593 7594 7595
          7596 7597 7598 7599 7600 7601
          7602 7603 7604 7605 7606 7607
          7608 7609 7610 7611 7612 7613
          7614 7615 7616 7617 7618 7619
          7620 7621 7622 7623 7624 7625
          7626 7627 7628 7629 7630 7631
          7632 7633 7634 7635 7636 7637
          7638 7639 7640 7641 7642 7643
          7644 7645 7646 7647 7648 7649
          7650 7651 7652 7653 7654 7655
          7656 7657 7658 7659 7660 7661
          7662 7663 7664 7665 7666 7667
          7668 7669 7670 7671 7672 7673
          7674 7675 7676 7677 7678 7679
          7680 7681 7682 7683 7684 7685
          7686 7687 7688 7689 7690 7691
          7692 7693 7694 7695 7696 7697
          7698 7699 7700 7701 7702 7703
          7704 7705 7706 7707 7708 7709
          7710 7711 7712 7713 7714 7715
          7716 7717 7718 7719 7720 7721
          7722 7723 7724 7725 7726 7727
          7728 7729 7730 7731 7732 7733
          7734 7735 7736 7737 7738 7739
          7740 7741 7742 7743 7744 7745
          7746 7747 7748 7749 7750 7751
          7752 7753 7754 7755 7756 7757
          7758 7759 7760 7761 7762 7763
          7764 7765 7766 7767 7768 7769
          7770 7771 7772 7773 7774 7775
          7776 7777 7778 7779 7780 7781
          7782 7783 7784 7785 7786 7787
          7788 7789 7790 7791 7792 7793
          7794 7795 7796 7797 7798 7799
          7800 7801 7802 7803 7804 7805
          7806 7807 7808 7809 7810 7811
          7812 7813 7814 7815 7816 7817
          7818 7819 7820 7821 7822 7823
          7824 7825 7826 7827 7828 7829
          7830 7831 7832 7833 7834 7835
          7836 7837 7838 7839 7840 7841
          7842 7843 7844 7845 7846 7847
          7848 7849 7850 7851 7852 7853
          7854 7855 7856 7857 7858 7859
          7860 7861 7862 7863 7864 7865
          7866 7867 7868 7869 7870 7871
          7872 7873 7874 7875 7876 7877
          7878 7879 7880 7881 7882 7883
          7884 7885 7886 7887 7888 7889
          7890 7891 7892 7893 7894 7895
          7896 7897 7898 7899 7900 7901
          7902 7903 7904 7905 7906 7907
          7908 7909 7910 7911 7912 7913
          7914 7915 7916 7917 7918 7919
          7920 7921 7922 7923 7924 7925
          7926 7927 7928 7929 7930 7931
          7932 7933 7934 7935 7936 7937
          7938 7939 7940 7941 7942 7943
          7944 7945 7946 7947 7948 7949
          7950 7951 7952 7953 7954 7955
          7956 7957 7958 7959 7960 7961
          7962 7963 7964 7965 7966 7967
          7968 7969 7970 7971 7972 7973
          7974 7975 7976 7977 7978 7979
          7980 7981 7982 7983 7984 7985
          7986 7987 7988 7989 7990 7991
          7992 7993 7994 7995 7996 7997
          7998 7999 8000 8001 8002 8003
          8004 8005 8006 8007 8008 8009
          8010 8011 8012 8013 8014 8015
          8016 8017 8018 8019 8020 8021
          8022 8023 8024 8025 8026 8027
          8028 8029 8030 8031 8032 8033
          8034 8035 8036 8037 8038 8039
          8040 8041 8042 8043 8044 8045
          8046 8047 8048 8049 8050 8051
          8052 8053 8054 8055 8056 8057
          8058 8059 8060 8061 8062 8063
          8064 8065 8066 8067 8068 8069
          8070 8071 8072 8073 8074 8075
          8076 8077 8078 8079 8080 8081
          8082 8083 8084 8085 8086 8087
          8088 8089 8090 8091 8092 8093
          8094 8095 8096 8097 8098 8099
          8100 8101 8102 8103 8104 8105
          8106 8107 8108 8109 8110 8111
          8112 8113 8114 8115 8116 8117
          8118 8119 8120 8121 8122 8123
          8124 8125 8126 8127 8128 8129
          8130 8131 8132 8133 8134 8135
          8136 8137 8138 8139 8140 8141
          8142 8143 8144 8145 8146 8147
          8148 8149 8150 8151 8152 8153
          8154 8155 8156 8157 8158 8159
          8160 8161 8162 8163 8164 8165
          8166 8167 8168 8169 8170 8171
          8172 8173 8174 8175 8176 8177
          8178 8179 8180 8181 8182 8183
          8184 8185 8186 8187 8188 8189
          8190 8191 8192 8193 8194 8195
          8196 8197 8198 8199 8200 8201
          8202 8203 8204 8205 8206 8207
          8208 8209 8210 8211 8212 8213
          8214 8215 8216 8217 8218 8219
          8220 8221 8222 8223 8224 8225
          8226 8227 8228 8229 8230 8231
          8232 8233 8234 8235 8236 8237
          8238 8239 8240 8241 8242 8243
          8244 8245 8246 8247 8248 8249
          8250 8251 8252 8253 8254 8255
          8256 8257 8258 8259 8260 8261
          8262 8263 8264 8265 8266 8267
          8268 8269 8270 8271 8272 8273
          8274 8275 8276 8277 8278 8279
          8280 8281 8282 8283 8284 8285
          8286 8287 8288 8289 8290 8291
          8292 8293 8294 8295 8296 8297
          8298 8299 8300 8301 8302 8303
          8304 8305 8306 8307 8308 8309
          8310 8311 8312 8313 8314 8315
          8316 8317 8318 8319 8320 8321
          8322 8323 8324 8325 8326 8327
          8328 8329 8330 8331 8332 8333
          8334 8335 8336 8337 8338 8339
          8340 8341 8342 8343 8344 8345
          8346 8347 8348 8349 8350 8351
          8352 8353 8354 8355 8356 8357
          8358 8359 8360 8361 8362 8363
          8364 8365 8366 8367 8368 8369
          8370 8371 8372 8373 8374 8375
          8376 8377 8378 8379 8380 8381
          8382 8383 8384 8385 8386 8387
          8388 8389 8390 8391 8392 8393
          8394 8395 8396 8397 8398 8399
          8400 8401 8402 8403 8404 8405
          8406 8407 8408 8409 8410 8411
          8412 8413 8414 8415 8416 8417
          8418 8419 8420 8421 8422 8423
          8424 8425 8426 8427 8428 8429
          8430 8431 8432 8433 8434 8435
          8436 8437 8438 8439 8440 8441
          8442 8443 8444 8445 8446 8447
          8448 8449 8450 8451 8452 8453
          8454 8455 8456 8457 8458 8459
          8460 8461 8462 8463 8464 8465
          8466 8467 8468 8469 8470 8471
          8472 8473 8474 8475 8476 8477
          8478 8479 8480 8481 8482 8483
          8484 8485 8486 8487 8488 8489
          8490 8491 8492 8493 8494 8495
          8496 8497 8498 8499 8500 8501
          8502 8503 8504 8505 8506 8507
          8508 8509 8510 8511 8512 8513
          8514 8515 8516 8517 8518 8519
          8520 8521 8522 8523 8524 8525
          8526 8527 8528 8529 8530 8531
          8532 8533 8534 8535 8536 8537
          8538 8539 8540 8541 8542 8543
          8544 8545 8546 8547 8548 8549
          8550 8551 8552 8553 8554 8555
          8556 8557 8558 8559 8560 8561
          8562 8563 8564 8565 8566 8567
          8568 8569 8570 8571 8572 8573
          8574 8575 8576 8577 8578 8579
          8580 8581 8582 8583 8584 8585
          8586 8587 8588 8589 8590 8591
          8592 8593 8594 8595 8596 8597
          8598 8599 8600 8601 8602 8603
          8604 8605 8606 8607 8608 8609
          8610 8611 8612 8613 8614 8615
          8616 8617 8618 8619 8620 8621
          8622 8623 8624 8625 8626 8627
          8628 8629 8630 8631 8632 8633
          8634 8635 8636 8637 8638 8639
          8640 8641 8642 8643 8644 8645
          8646 8647 8648 8649 8650 8651
          8652 8653 8654 8655 8656 8657
          8658 8659 8660 8661 8662 8663
          8664 8665 8666 8667 8668 8669
          8670 8671 8672 8673 8674 8675
          8676 8677 8678 8679 8680 8681
          8682 8683 8684 8685 8686 8687
          8688 8689 8690 8691 8692 8693
          8694 8695 8696 8697 8698 8699
          8700 8701 8702 8703 8704 8705
          8706 8707 8708 8709 8710 8711
          8712 8713 8714 8715 8716 8717
          8718 8719 8720 8721 8722 8723
          8724 8725 8726 8727 8728 8729
          8730 8731 8732 8733 8734 8735
          8736 8737 8738 8739 8740 8741
          8742 8743 8744 8745 8746 8747
          8748 8749 8750 8751 8752 8753
          8754 8755 8756 8757 8758 8759
          8760 8761 8762 8763 8764 8765
          8766 8767 8768 8769 8770 8771
          8772 8773 8774 8775 8776 8777
          8778 8779 8780 8781 8782 8783
          8784 8785 8786 8787 8788 8789
          8790 8791 8792 8793 8794 8795
          8796 8797 8798 8799 8800 8801
          8802 8803 8804 8805 8806 8807
          8808 8809 8810 8811 8812 8813
          8814 8815 8816 8817 8818 8819
          8820 8821 8822 8823 8824 8825
          8826 8827 8828 8829 8830 8831
          8832 8833 8834 8835 8836 8837
          8838 8839 8840 8841 8842 8843
          8844 8845 8846 8847 8848 8849
          8850 8851 8852 8853 8854 8855
          8856 8857 8858 8859 8860 8861
          8862 8863 8864 8865 8866 8867
          8868 8869 8870 8871 8872 8873
          8874 8875 8876 8877 8878 8879
          8880 8881 8882 8883 8884 8885
          8886 8887 8888 8889 8890 8891
          8892 8893 8894 8895 8896 8897
          8898 8899 8900 8901 8902 8903
          8904 8905 8906 8907 8908 8909
          8910 8911 8912 8913 8914 8915
          8916 8917 8918 8919 8920 8921
          8922 8923 8924 8925 8926 8927
          8928 8929 8930 8931 8932 8933
          8934 8935 8936 8937 8938 8939
          8940 8941 8942 8943 8944 8945
          8946 8947 8948 8949 8950 8951
          8952 8953 8954 8955 8956 8957
          8958 8959 8960 8961 8962 8963
          8964 8965 8966 8967 8968 8969
          8970 8971 8972 8973 8974 8975
          8976 8977 8978 8979 8980 8981
          8982 8983 8984 8985 8986 8987
          8988 8989 8990 8991 8992 8993
          8994 8995 8996 8997 8998 8999
          9000 9001 9002 9003 9004 9005
          9006 9007 9008 9009 9010 9011
          9012 9013 9014 9015 9016 9017
          9018 9019 9020 9021 9022 9023
          9024 9025 9026 9027 9028 9029
          9030 9031 9032 9033 9034 9035
          9036 9037 9038 9039 9040 9041
          9042 9043 9044 9045 9046 9047
          9048 9049 9050 9051 9052 9053
          9054 9055 9056 9057 9058 9059
          9060 9061 9062 9063 9064 9065
          9066 9067 9068 9069 9070 9071
          9072 9073 9074 9075 9076 9077
          9078 9079 9080 9081 9082 9083
          9084 9085 9086 9087 9088 9089
          9090 9091 9092 9093 9094 9095
          9096 9097 9098 9099 9100 9101
          9102 9103 9104 9105 9106 9107
          9108 9109 9110 9111 9112 9113
          9114 9115 9116 9117 9118 9119
          9120 9121 9122 9123 9124 9125
          9126 9127 9128 9129 9130 9131
          9132 9133 9134 9135 9136 9137
          9138 9139 9140 9141 9142 9143
          9144 9145 9146 9147 9148 9149
          9150 9151 9152 9153 9154 9155
          9156 9157 9158 9159 9160 9161
          9162 9163 9164 9165 9166 9167
          9168 9169 9170 9171 9172 9173
          9174 9175 9176 9177 9178 9179
          9180 9181 9182 9183 9184 9185
          9186 9187 9188 9189 9190 9191
          9192 9193 9194 9195 9196 9197
          9198 9199 9200 9201 9202 9203
          9204 9205 9206 9207 9208 9209
          9210 9211 9212 9213 9214 9215
          9216 9217 9218 9219 9220 9221
          9222 9223 9224 9225 9226 9227
          9228 9229 9230 9231 9232 9233
          9234 9235 9236 9237 9238 9239
          9240 9241 9242 9243 9244 9245
          9246 9247 9248 9249 9250 9251
          9252 9253 9254 9255 9256 9257
          9258 9259 9260 9261 9262 9263
          9264 9265 9266 9267 9268 9269
          9270 9271 9272 9273 9274 9275
          9276 9277 9278 9279 9280 9281
          9282 9283 9284 9285 9286 9287
          9288 9289 9290 9291 9292 9293
          9294 9295 9296 9297 9298 9299
          9300 9301 9302 9303 9304 9305
          9306 9307 9308 9309 9310 9311
          9312 9313 9314 9315 9316 9317
          9318 9319 9320 9321 9322 9323
          9324 9325 9326 9327 9328 9329
          9330 9331 9332 9333 9334 9335
          9336 9337 9338 9339 9340 9341
          9342 9343 9344 9345 9346 9347
          9348 9349 9350 9351 9352 9353
          9354 9355 9356 9357 9358 9359
          9360 9361 9362 9363 9364 9365
          9366 9367 9368 9369 9370 9371
          9372 9373 9374 9375 9376 9377
          9378 9379 9380 9381 9382 9383
          9384 9385 9386 9387 9388 9389
          9390 9391 9392 9393 9394 9395
          9396 9397 9398 9399 9400 9401
          9402 9403 9404 9405 9406 9407
          9408 9409 9410 9411 9412 9413
          9414 9415 9416 9417 9418 9419
          9420 9421 9422 9423 9424 9425
          9426 9427 9428 9429 9430 9431
          9432 9433 9434 9435 9436 9437
          9438 9439 9440 9441 9442 9443
          9444 9445 9446 9447 9448 9449
          9450 9451 9452 9453 9454 9455
          9456 9457 9458 9459 9460 9461
          9462 9463 9464 9465 9466 9467
          9468 9469 9470 9471 9472 9473
          9474 9475 9476 9477 9478 9479
          9480 9481 9482 9483 9484 9485
          9486 9487 9488 9489 9490 9491
          9492 9493 9494 9495 9496 9497
          9498 9499 9500 9501 9502 9503
          9504 9505 9506 9507 9508 9509
          9510 9511 9512 9513 9514 9515
          9516 9517 9518 9519 9520 9521
          9522 9523 9524 9525 9526 9527
          9528 9529 9530 9531 9532 9533
          9534 9535 9536 9537 9538 9539
          9540 9541 9542 9543 9544 9545
          9546 9547 9548 9549 9550 9551
          9552 9553 9554 9555 9556 9557
          9558 9559 9560 9561 9562 9563
          9564 9565 9566 9567 9568 9569
          9570 9571 9572 9573 9574 9575
          9576 9577 9578 9579 9580 9581
          9582 9583 9584 9585 9586 9587
          9588 9589 9590 9591 9592 9593
          9594 9595 9596 9597 9598 9599
          9600 9601 9602 9603 9604 9605
          9606 9607 9608 9609 9610 9611
          9612 9613 9614 9615 9616 9617
          9618 9619 9620 9621 9622 9623
          9624 9625 9626 9627 9628 9629
          9630 9631 9632 9633 9634 9635
          9636 9637 9638 9639 9640 9641
          9642 9643 9644 9645 9646 9647
          9648 9649 9650 9651 9652 9653
          9654 9655 9656 9657 9658 9659
          9660 9661 9662 9663 9664 9665
          9666 9667 9668 9669 9670 9671
          9672 9673 9674 9675 9676 9677
          9678 9679 9680 9681 9682 9683
          9684 9685 9686 9687 9688 9689
          9690 9691 9692 9693 9694 9695
          9696 9697 9698 9699 9700 9701
          9702 9703 9704 9705 9706 9707
          9708 9709 9710 9711 9712 9713
          9714 9715 9716 9717 9718 9719
          9720 9721 9722 9723 9724 9725
          9726 9727 9728 9729 9730 9731
          9732 9733 9734 9735 9736 9737
          9738 9739 9740 9741 9742 9743
          9744 9745 9746 9747 9748 9749
          9750 9751 9752 9753 9754 9755
          9756 9757 9758 9759 9760 9761
          9762 9763 9764 9765 9766 9767
          9768 9769 9770 9771 9772 9773
          9774 9775 9776 9777 9778 9779
          9780 9781 9782 9783 9784 9785
          9786 9787 9788 9789 9790 9791
          9792 9793 9794 9795 9796 9797
          9798 9799 9800 9801 9802 9803
          9804 9805 9806 9807 9808 9809
          9810 9811 9812 9813 9814 9815
          9816 9817 9818 9819 9820 9821
          9822 9823 9824 9825 9826 9827
          9828 9829 9830 9831 9832 9833
          9834 9835 9836 9837 9838 9839
          9840 9841 9842 9843 9844 9845
          9846 9847 9848 9849 9850 9851
          9852 9853 9854 9855 9856 9857
          9858 9859 9860 9861 9862 9863
          9864 9865 9866 9867 9868 9869
          9870 9871 9872 9873 9874 9875
          9876 9877 9878 9879 9880 9881
          9882 9883 9884 9885 9886 9887
          9888 9889 9890 9891 9892 9893
          9894 9895 9896 9897 9898 9899
          9900 9901 9902 9903 9904 9905
          9906 9907 9908 9909 9910 9911
          9912 9913 9914 9915 9916 9917
          9918 9919 9920 9921 9922 9923
          9924 9925 9926 9927 9928 9929
          9930 9931 9932 9933 9934 9935
          9936 9937 9938 9939 9940 9941
          9942 9943 9944 9945 9946 9947
          9948 9949 9950 9951 9952 9953
          9954 9955 9956 9957 9958 9959
          9960 9961 9962 9963 9964 9965
          9966 9967 9968 9969 9970 9971
          9972 9973 9974 9975 9976 9977
          9978 9979 9980 9981 9982 9983
          9984 9985 9986 9987 9988 9989
          9990 9991 9992 9993 9994 9995
          9996 9997 9998 9999 10000 10001
          10002 10003 10004 10005 10006 10007
          10008 10009 10010 10011 10012 10013
          10014 10015 10016 10017 10018 10019
          10020 10021 10022 10023 10024 10025
          10026 10027 10028 10029 10030 10031
          10032 10033 10034 10035 10036 10037
          10038 10039 10040 10041 10042 10043
          10044 10045 10046 10047 10048 10049
          10050 10051 10052 10053 10054 10055
          10056 10057 10058 10059 10060 10061
          10062 10063 10064 10065 10066 10067
          10068 10069 10070 10071 10072 10073
          10074 10075 10076 10077 10078 10079
          10080 10081 10082 10083 10084 10085
          10086 10087 10088 10089 10090 10091
          10092 10093 10094 10095 10096 10097
          10098 10099 10100 10101 10102 10103
          10104 10105 10106 10107 10108 10109
          10110 10111 10112 10113 10114 10115
          10116 10117 10118 10119 10120 10121
          10122 10123 10124 10125 10126 10127
          10128 10129 10130 10131 10132 10133
          10134 10135 10136 10137 10138 10139
          10140 10141 10142 10143 10144 10145
          10146 10147 10148 10149 10150 10151
          10152 10153 10154 10155 10156 10157
          10158 10159 10160 10161 10162 10163
          10164 10165 10166 10167 10168 10169
          10170 10171 10172 10173 10174 10175
          10176 10177 10178 10179 10180 10181
          10182 10183 10184 10185 10186 10187
          10188 10189 10190 10191 10192 10193
          10194 10195 10196 10197 10198 10199
          10200 10201 10202 10203 10204 10205
          10206 10207 10208 10209 10210 10211
          10212 10213 10214 10215 10216 10217
          10218 10219 10220 10221 10222 10223
          10224 10225 10226 10227 10228 10229
          10230 10231 10232 10233 10234 10235
          10236 10237 10238 10239 10240 10241
          10242 10243 10244 10245 10246 10247
          10248 10249 10250 10251 10252 10253
          10254 10255 10256 10257 10258 10259
          10260 10261 10262 10263 10264 10265
          10266 10267 10268 10269 10270 10271
          10272 10273 10274 10275 10276 10277
          10278 10279 10280 10281 10282 10283
          10284 10285 10286 10287 10288 10289
          10290 10291 10292 10293 10294 10295
          10296 10297 10298 10299 10300 10301
          10302 10303 10304 10305 10306 10307
          10308 10309 10310 10311 10312 10313
          10314 10315 10316 10317 10318 10319
          10320 10321 10322 10323 10324 10325
          10326 10327 10328 10329 10330 10331
          10332 10333 10334 10335 10336 10337
          10338 10339 10340 10341 10342 10343
          10344 10345 10346 10347 10348 10349
          10350 10351 10352 10353 10354 10355
          10356 10357 10358 10359 10360 10361
          10362 10363 10364 10365 10366 10367
          10368 10369 10370 10371 10372 10373
          10374 10375 10376 10377 10378 10379
          10380 10381 10382 10383 10384 10385
          10386 10387 10388 10389 10390 10391
          10392 10393 10394 10395 10396 10397
          10398 10399 10400 10401 10402 10403
          10404 10405 10406 10407 10408 10409
          10410 10411 10412 10413 10414 10415
          10416 10417 10418 10419 10420 10421
          10422 10423 10424 10425 10426 10427
          10428 10429 10430 10431 10432 10433
          10434 10435 10436 10437 10438 10439
          10440 10441 10442 10443 10444 10445
          10446 10447 10448 10449 10450 10451
          10452 10453 10454 10455 10456 10457
          10458 10459 10460 10461 10462 10463
          10464 10465 10466 10467 10468 10469
          10470 10471 10472 10473 10474 10475
          10476 10477 10478 10479 10480 10481
          10482 10483 10484 10485 10486 10487
          10488 10489 10490 10491 10492 10493
          10494 10495 10496 10497 10498 10499
          10500 10501 10502 10503 10504 10505
          10506 10507 10508 10509 10510 10511
          10512 10513 10514 10515 10516 10517
          10518 10519 10520 10521 10522 10523
          10524 10525 10526 10527 10528 10529
          10530 10531 10532 10533 10534 10535
          10536 10537 10538 10539 10540 10541
          10542 10543 10544 10545 10546 10547
          10548 10549 10550 10551 10552 10553
          10554 10555 10556 10557 10558 10559
          10560 10561 10562 10563 10564 10565
          10566 10567 10568 10569 10570 10571
          10572 10573 10574 10575 10576 10577
          10578 10579 10580 10581 10582 10583
          10584 10585 10586 10587 10588 10589
          10590 10591 10592 10593 10594 10595
          10596 10597 10598 10599 10600 10601
          10602 10603 10604 10605 10606 10607
          10608 10609 10610 10611 10612 10613
          10614 10615 10616 10617 10618 10619
          10620 10621 10622 10623 10624 10625
          10626 10627 10628 10629 10630 10631
          10632 10633 10634 10635 10636 10637
          10638 10639 10640 10641 10642 10643
          10644 10645 10646 10647 10648 10649
          10650 10651 10652 10653 10654 10655
          10656 10657 10658 10659 10660 10661
          10662 10663 10664 10665 10666 10667
          10668 10669 10670 10671 10672 10673
          10674 10675 10676 10677 10678 10679
          10680 10681 10682 10683 10684 10685
          10686 10687 10688 10689 10690 10691
          10692 10693 10694 10695 10696 10697
          10698 10699 10700 10701 10702 10703
          10704 10705 10706 10707 10708 10709
          10710 10711 10712 10713 10714 10715
          10716 10717 10718 10719 10720 10721
          10722 10723 10724 10725 10726 10727
          10728 10729 10730 10731 10732 10733
          10734 10735 10736 10737 10738 10739
          10740 10741 10742 10743 10744 10745
          10746 10747 10748 10749 10750 10751
          10752 10753 10754 10755 10756 10757
          10758 10759 10760 10761 10762 10763
          10764 10765 10766 10767 10768 10769
          10770 10771 10772 10773 10774 10775
          10776 10777 10778 10779 10780 10781
          10782 10783 10784 10785 10786 10787
          10788 10789 10790 10791 10792 10793
          10794 10795 10796 10797 10798 10799
          10800 10801 10802 10803 10804 10805
          10806 10807 10808 10809 10810 10811
          10812 10813 10814 10815 10816 10817
          10818 10819 10820 10821 10822 10823
          10824 10825 10826 10827 10828 10829
          10830 10831 10832 10833 10834 10835
          10836 10837 10838 10839 10840 10841
          10842 10843 10844 10845 10846 10847
          10848 10849 10850 10851 10852 10853
          10854 10855 10856 10857 10858 10859
          10860 10861 10862 10863 10864 10865
          10866 10867 10868 10869 10870 10871
          10872 10873 10874 10875 10876 10877
          10878 10879 10880 10881 10882 10883
          10884 10885 10886 10887 10888 10889
          10890 10891 10892 10893 10894 10895
          10896 10897 10898 10899 10900 10901
          10902 10903 10904 10905 10906 10907
          10908 10909 10910 10911 10912 10913
          10914 10915 10916 10917 10918 10919
          10920 10921 10922 10923 10924 10925
          10926 10927 10928 10929 10930 10931
          10932 10933 10934 10935 10936 10937
          10938 10939 10940 10941 10942 10943
          10944 10945 10946 10947 10948 10949
          10950 10951 10952 10953 10954 10955
          10956 10957 10958 10959 10960 10961
          10962 10963 10964 10965 10966 10967
          10968 10969 10970 10971 10972 10973
          10974 10975 10976 10977 10978 10979
          10980 10981 10982 10983 10984 10985
          10986 10987 10988 10989 10990 10991
          10992 10993 10994 10995 10996 10997
          10998 10999 11000 11001 11002 11003
          11004 11005 11006 11007 11008 11009
          11010 11011 11012 11013 11014 11015
          11016 11017 11018 11019 11020 11021
          11022 11023 11024 11025 11026 11027
          11028 11029 11030 11031 11032 11033
          11034 11035 11036 11037 11038 11039
          11040 11041 11042 11043 11044 11045
          11046 11047 11048 11049 11050 11051
          11052 11053 11054 11055 11056 11057
          11058 11059 11060 11061 11062 11063
          11064 11065 11066 11067 11068 11069
          11070 11071 11072 11073 11074 11075
          11076 11077 11078 11079 11080 11081
          11082 11083 11084 11085 11086 11087
          11088 11089 11090 11091 11092 11093
          11094 11095 11096 11097 11098 11099
          11100 11101 11102 11103 11104 11105
          11106 11107 11108 11109 11110 11111
          11112 11113 11114 11115 11116 11117
          11118 11119 11120 11121 11122 11123
          11124 11125 11126 11127 11128 11129
          11130 11131 11132 11133 11134 11135
          11136 11137 11138 11139 11140 11141
          11142 11143 11144 11145 11146 11147
          11148 11149 11150 11151 11152 11153
          11154 11155 11156 11157 11158 11159
          11160 11161 11162 11163 11164 11165
          11166 11167 11168 11169 11170 11171
          11172 11173 11174 11175 11176 11177
          11178 11179 11180 11181 11182 11183
          11184 11185 11186 11187 11188 11189
          11190 11191 11192 11193 11194 11195
          11196 11197 11198 11199 11200 11201
          11202 11203 11204 11205 11206 11207
          11208 11209 11210 11211 11212 11213
          11214 11215 11216 11217 11218 11219
          11220 11221 11222 11223 11224 11225
          11226 11227 11228 11229 11230 11231
          11232 11233 11234 11235 11236 11237
          11238 11239 11240 11241 11242 11243
          11244 11245 11246 11247 11248 11249
          11250 11251 11252 11253 11254 11255
          11256 11257 11258 11259 11260 11261
          11262 11263 11264 11265 11266 11267
          11268 11269 11270 11271 11272 11273
          11274 11275 11276 11277 11278 11279
          11280 11281 11282 11283 11284 11285
          11286 11287 11288 11289 11290 11291
          11292 11293 11294 11295 11296 11297
          11298 11299 11300 11301 11302 11303
          11304 11305 11306 11307 11308 11309
          11310 11311 11312 11313 11314 11315
          11316 11317 11318 11319 11320 11321
          11322 11323 11324 11325 11326 11327
          11328 11329 11330 11331 11332 11333
          11334 11335 11336 11337 11338 11339
          11340 11341 11342 11343 11344 11345
          11346 11347 11348 11349 11350 11351
          11352 11353 11354 11355 11356 11357
          11358 11359 11360 11361 11362 11363
          11364 11365 11366 11367 11368 11369
          11370 11371 11372 11373 11374 11375
          11376 11377 11378 11379 11380 11381
          11382 11383 11384 11385 11386 11387
          11388 11389 11390 11391 11392 11393
          11394 11395 11396 11397 11398 11399
          11400 11401 11402 11403 11404 11405
          11406 11407 11408 11409 11410 11411
          11412 11413 11414 11415 11416 11417
          11418 11419 11420 11421 11422 11423
          11424 11425 11426 11427 11428 11429
          11430 11431 11432 11433 11434 11435
          11436 11437 11438 11439 11440 11441
          11442 11443 11444 11445 11446 11447
          11448 11449 11450 11451 11452 11453
          11454 11455 11456 11457 11458 11459
          11460 11461 11462 11463 11464 11465
          11466 11467 11468 11469 11470 11471
          11472 11473 11474 11475 11476 11477
          11478 11479 11480 11481 11482 11483
          11484 11485 11486 11487 11488 11489
          11490 11491 11492 11493 11494 11495
          11496 11497 11498 11499 11500 11501
          11502 11503 11504 11505 11506 11507
          11508 11509 11510 11511 11512 11513
          11514 11515 11516 11517 11518 11519
          11520 11521 11522 11523 11524 11525
          11526 11527 11528 11529 11530 11531
          11532 11533 11534 11535 11536 11537
          11538 11539 11540 11541 11542 11543
          11544 11545 11546 11547 11548 11549
          11550 11551 11552 11553 11554 11555
          11556 11557 11558 11559 11560 11561
          11562 11563 11564 11565 11566 11567
          11568 11569 11570 11571 11572 11573
          11574 11575 11576 11577 11578 11579
          11580 11581 11582 11583 11584 11585
          11586 11587 11588 11589 11590 11591
          11592 11593 11594 11595 11596 11597
          11598 11599 11600 11601 11602 11603
          11604 11605 11606 11607 11608 11609
          11610 11611 11612 11613 11614 11615
          11616 11617 11618 11619 11620 11621
          11622 11623 11624 11625 11626 11627
          11628 11629 11630 11631 11632 11633
          11634 11635 11636 11637 11638 11639
          11640 11641 11642 11643 11644 11645
          11646 11647 11648 11649 11650 11651
          11652 11653 11654 11655 11656 11657
          11658 11659 11660 11661 11662 11663
          11664 11665 11666 11667 11668 11669
          11670 11671 11672 11673 11674 11675
          11676 11677 11678 11679 11680 11681
          11682 11683 11684 11685 11686 11687
          11688 11689 11690 11691 11692 11693
          11694 11695 11696 11697 11698 11699
          11700 11701 11702 11703 11704 11705
          11706 11707 11708 11709 11710 11711
          11712 11713 11714 11715 11716 11717
          11718 11719 11720 11721 11722 11723
          11724 11725 11726 11727 11728 11729
          11730 11731 11732 11733 11734 11735
          11736 11737 11738 11739 11740 11741
          11742 11743 11744 11745 11746 11747
          11748 11749 11750 11751 11752 11753
          11754 11755 11756 11757 11758 11759
          11760 11761 11762 11763 11764 11765
          11766 11767 11768 11769 11770 11771
          11772 11773 11774 11775 11776 11777
          11778 11779 11780 11781 11782 11783
          11784 11785 11786 11787 11788 11789
          11790 11791 11792 11793 11794 11795
          11796 11797 11798 11799 11800 11801
          11802 11803 11804 11805 11806 11807
          11808 11809 11810 11811 11812 11813
          11814 11815 11816 11817 11818 11819
          11820 11821 11822 11823 11824 11825
          11826 11827 11828 11829 11830 11831
          11832 11833 11834 11835 11836 11837
          11838 11839 11840 11841 11842 11843
          11844 11845 11846 11847 11848 11849
          11850 11851 11852 11853 11854 11855
          11856 11857 11858 11859 11860 11861
          11862 11863 11864 11865 11866 11867
          11868 11869 11870 11871 11872 11873
          11874 11875 11876 11877 11878 11879
          11880 11881 11882 11883 11884 11885
          11886 11887 11888 11889 11890 11891
          11892 11893 11894 11895 11896 11897
          11898 11899 11900 11901 11902 11903
          11904 11905 11906 11907 11908 11909
          11910 11911 11912 11913 11914 11915
          11916 11917 11918 11919 11920 11921
          11922 11923 11924 11925 11926 11927
          11928 11929 11930 11931 11932 11933
          11934 11935 11936 11937 11938 11939
          11940 11941 11942 11943 11944 11945
          11946 11947 11948 11949 11950 11951
          11952 11953 11954 11955 11956 11957
          11958 11959 11960 11961 11962 11963
          11964 11965 11966 11967 11968 11969
          11970 11971 11972 11973 11974 11975
          11976 11977 11978 11979 11980 11981
          11982 11983 11984 11985 11986 11987
          11988 11989 11990 11991 11992 11993
          11994 11995 11996 11997 11998 11999
          12000 12001 12002 12003 12004 12005
          12006 12007 12008 12009 12010 12011
          12012 12013 12014 12015 12016 12017
          12018 12019 12020 12021 12022 12023
          12024 12025 12026 12027 12028 12029
          12030 12031 12032 12033 12034 12035
          12036 12037 12038 12039 12040 12041
          12042 12043 12044 12045 12046 12047
          12048 12049 12050 12051 12052 12053
          12054 12055 12056 12057 12058 12059
          12060 12061 12062 12063 12064 12065
          12066 12067 12068 12069 12070 12071
          12072 12073 12074 12075 12076 12077
          12078 12079 12080 12081 12082 12083
          12084 12085 12086 12087 12088 12089
          12090 12091 12092 12093 12094 12095
          12096 12097 12098 12099 12100 12101
          12102 12103 12104 12105 12106 12107
          12108 12109 12110 12111 12112 12113
          12114 12115 12116 12117 12118 12119
          12120 12121 12122 12123 12124 12125
          12126 12127 12128 12129 12130 12131
          12132 12133 12134 12135 12136 12137
          12138 12139 12140 12141 12142 12143
          12144 12145 12146 12147 12148 12149
          12150 12151 12152 12153 12154 12155
          12156 12157 12158 12159 12160 12161
          12162 12163 12164 12165 12166 12167
          12168 12169 12170 12171 12172 12173
          12174 12175 12176 12177 12178 12179
          12180 12181 12182 12183 12184 12185
          12186 12187 12188 12189 12190 12191
          12192 12193 12194 12195 12196 12197
          12198 12199 12200 12201 12202 12203
          12204 12205 12206 12207 12208 12209
          12210 12211 12212 12213 12214 12215
          12216 12217 12218 12219 12220 12221
          12222 12223 12224 12225 12226 12227
          12228 12229 12230 12231 12232 12233
          12234 12235 12236 12237 12238 12239
          12240 12241 12242 12243 12244 12245
          12246 12247 12248 12249 12250 12251
          12252 12253 12254 12255 12256 12257
          12258 12259 12260 12261 12262 12263
          12264 12265 12266 12267 12268 12269
          12270 12271 12272 12273 12274 12275
          12276 12277 12278 12279 12280 12281
          12282 12283 12284 12285 12286 12287
          12288 12289 12290 12291 12292 12293
          12294 12295 12296 12297 12298 12299
          12300 12301 12302 12303 12304 12305
          12306 12307 12308 12309 12310 12311
          12312 12313 12314 12315 12316 12317
          12318 12319 12320 12321 12322 12323
          12324 12325 12326 12327 12328 12329
          12330 12331 12332 12333 12334 12335
          12336 12337 12338 12339 12340 12341
          12342 12343 12344 12345 12346 12347
          12348 12349 12350 12351 12352 12353
          12354 12355 12356 12357 12358 12359
          12360 12361 12362 12363 12364 12365
          12366 12367 12368 12369 12370 12371
          12372 12373 12374 12375 12376 12377
          12378 12379 12380 12381 12382 12383
          12384 12385 12386 12387 12388 12389
          12390 12391 12392 12393 12394 12395
          12396 12397 12398 12399 12400 12401
          12402 12403 12404 12405 12406 12407
          12408 12409 12410 12411 12412 12413
          12414 12415 12416 12417 12418 12419
          12420 12421 12422 12423 12424 12425
          12426 12427 12428 12429 12430 12431
          12432 12433 12434 12435 12436 12437
          12438 12439 12440 12441 12442 12443
          12444 12445 12446 12447 12448 12449
          12450 12451 12452 12453 12454 12455
          12456 12457 12458 12459 12460 12461
          12462 12463 12464 12465 12466 12467
          12468 12469 12470 12471 12472 12473
          12474 12475 12476 12477 12478 12479
          12480 12481 12482 12483 12484 12485
          12486 12487 12488 12489 12490 12491
          12492 12493 12494 12495 12496 12497
          12498 12499 12500 12501 12502 12503
          12504 12505 12506 12507 12508 12509
          12510 12511 12512 12513 12514 12515
          12516 12517 12518 12519 12520 12521
          12522 12523 12524 12525 12526 12527
          12528 12529 12530 12531 12532 12533
          12534 12535 12536 12537 12538 12539
          12540 12541 12542 12543 12544 12545
          12546 12547 12548 12549 12550 12551
          12552 12553 12554 12555 12556 12557
          12558 12559 12560 12561 12562 12563
          12564 12565 12566 12567 12568 12569
          12570 12571 12572 12573 12574 12575
          12576 12577 12578 12579 12580 12581
          12582 12583 12584 12585 12586 12587
          12588 12589 12590 12591 12592 12593
          12594 12595 12596 12597 12598 12599
          12600 12601 12602 12603 12604 12605
          12606 12607 12608 12609 12610 12611
          12612 12613 12614 12615 12616 12617
          12618 12619 12620 12621 12622 12623
          12624 12625 12626 12627 12628 12629
          12630 12631 12632 12633 12634 12635
          12636 12637 12638 12639 12640 12641
          12642 12643 12644 12645 12646 12647
          12648 12649 12650 12651 12652 12653
          12654 12655 12656 12657 12658 12659
          12660 12661 12662 12663 12664 12665
          12666 12667 12668 12669 12670 12671
          12672 12673 12674 12675 12676 12677
          12678 12679 12680 12681 12682 12683
          12684 12685 12686 12687 12688 12689
          12690 12691 12692 12693 12694 12695
          12696 12697 12698 12699 12700 12701
          12702 12703 12704 12705 12706 12707
          12708 12709 12710 12711 12712 12713
          12714 12715 12716 12717 12718 12719
          12720 12721 12722 12723 12724 12725
          12726 12727 12728 12729 12730 12731
          12732 12733 12734 12735 12736 12737
          12738 12739 12740 12741 12742 12743
          12744 12745 12746 12747 12748 12749
          12750 12751 12752 12753 12754 12755
          12756 12757 12758 12759 12760 12761
          12762 12763 12764 12765 12766 12767
          12768 12769 12770 12771 12772 12773
          12774 12775 12776 12777 12778 12779
          12780 12781 12782 12783 12784 12785
          12786 12787 12788 12789 12790 12791
          12792 12793 12794 12795 12796 12797
          12798 12799 12800 12801 12802 12803
          12804 12805 12806 12807 12808 12809
          12810 12811 12812 12813 12814 12815
          12816 12817 12818 12819 12820 12821
          12822 12823 12824 12825 12826 12827
          12828 12829 12830 12831 12832 12833
          12834 12835 12836 12837 12838 12839
          12840 12841 12842 12843 12844 12845
          12846 12847 12848 12849 12850 12851
          12852 12853 12854 12855 12856 12857
          12858 12859 12860 12861 12862 12863
          12864 12865 12866 12867 12868 12869
          12870 12871 12872 12873 12874 12875
          12876 12877 12878 12879 12880 12881
          12882 12883 12884 12885 12886 12887
          12888 12889 12890 12891 12892 12893
          12894 12895 12896 12897 12898 12899
          12900 12901 12902 12903 12904 12905
          12906 12907 12908 12909 12910 12911
          12912 12913 12914 12915 12916 12917
          12918 12919 12920 12921 12922 12923
          12924 12925 12926 12927 12928 12929
          12930 12931 12932 12933 12934 12935
          12936 12937 12938 12939 12940 12941
          12942 12943 12944 12945 12946 12947
          12948 12949 12950 12951 12952 12953
          12954 12955 12956 12957 12958 12959
          12960 12961 12962 12963 12964 12965
          12966 12967 12968 12969 12970 12971
          12972 12973 12974 12975 12976 12977
          12978 12979 12980 12981 12982 12983
          12984 12985 12986 12987 12988 12989
          12990 12991 12992 12993 12994 12995
          12996 12997 12998 12999 13000 13001
          13002 13003 13004 13005 13006 13007
          13008 13009 13010 13011 13012 13013
          13014 13015 13016 13017 13018 13019
          13020 13021 13022 13023 13024 13025
          13026 13027 13028 13029 13030 13031
          13032 13033 13034 13035 13036 13037
          13038 13039 13040 13041 13042 13043
          13044 13045 13046 13047 13048 13049
          13050 13051 13052 13053 13054 13055
          13056 13057 13058 13059 13060 13061
          13062 13063 13064 13065 13066 13067
          13068 13069 13070 13071 13072 13073
          13074 13075 13076 13077 13078 13079
          13080 13081 13082 13083 13084 13085
          13086 13087 13088 13089 13090 13091
          13092 13093 13094 13095 13096 13097
          13098 13099 13100 13101 13102 13103
          13104 13105 13106 13107 13108 13109
          13110 13111 13112 13113 13114 13115
          13116 13117 13118 13119 13120 13121
          13122 13123 13124 13125 13126 13127
          13128 13129 13130 13131 13132 13133
          13134 13135 13136 13137 13138 13139
          13140 13141 13142 13143 13144 13145
          13146 13147 13148 13149 13150 13151
          13152 13153 13154 13155 13156 13157
          13158 13159 13160 13161 13162 13163
          13164 13165 13166 13167 13168 13169
          13170 13171 13172 13173 13174 13175
          13176 13177 13178 13179 13180 13181
          13182 13183 13184 13185 13186 13187
          13188 13189 13190 13191 13192 13193
          13194 13195 13196 13197 13198 13199
          13200 13201 13202 13203 13204 13205
          13206 13207 13208 13209 13210 13211
          13212 13213 13214 13215 13216 13217
          13218 13219 13220 13221 13222 13223
          13224 13225 13226 13227 13228 13229
          13230 13231 13232 13233 13234 13235
          13236 13237 13238 13239 13240 13241
          13242 13243 13244 13245 13246 13247
          13248 13249 13250 13251 13252 13253
          13254 13255 13256 13257 13258 13259
          13260 13261 13262 13263 13264 13265
          13266 13267 13268 13269 13270 13271
          13272 13273 13274 13275 13276 13277
          13278 13279 13280 13281 13282 13283
          13284 13285 13286 13287 13288 13289
          13290 13291 13292 13293 13294 13295
          13296 13297 13298 13299 13300 13301
          13302 13303 13304 13305 13306 13307
          13308 13309 13310 13311 13312 13313
          13314 13315 13316 13317 13318 13319
          13320 13321 13322 13323 13324 13325
          13326 13327 13328 13329 13330 13331
          13332 13333 13334 13335 13336 13337
          13338 13339 13340 13341 13342 13343
          13344 13345 13346 13347 13348 13349
          13350 13351 13352 13353 13354 13355
          13356 13357 13358 13359 13360 13361
          13362 13363 13364 13365 13366 13367
          13368 13369 13370 13371 13372 13373
          13374 13375 13376 13377 13378 13379
          13380 13381 13382 13383 13384 13385
          13386 13387 13388 13389 13390 13391
          13392 13393 13394 13395 13396 13397
          13398 13399 13400 13401 13402 13403
          13404 13405 13406 13407 13408 13409
          13410 13411 13412 13413 13414 13415
          13416 13417 13418 13419 13420 13421
          13422 13423 13424 13425 13426 13427
          13428 13429 13430 13431 13432 13433
          13434 13435 13436 13437 13438 13439
          13440 13441 13442 13443 13444 13445
          13446 13447 13448 13449 13450 13451
          13452 13453 13454 13455 13456 13457
          13458 13459 13460 13461 13462 13463
          13464 13465 13466 13467 13468 13469
          13470 13471 13472 13473 13474 13475
          13476 13477 13478 13479 13480 13481
          13482 13483 13484 13485 13486 13487
          13488 13489 13490 13491 13492 13493
          13494 13495 13496 13497 13498 13499
          13500 13501 13502 13503 13504 13505
          13506 13507 13508 13509 13510 13511
          13512 13513 13514 13515 13516 13517
          13518 13519 13520 13521 13522 13523
          13524 13525 13526 13527 13528 13529
          13530 13531 13532 13533 13534 13535
          13536 13537 13538 13539 13540 13541
          13542 13543 13544 13545 13546 13547
          13548 13549 13550 13551 13552 13553
          13554 13555 13556 13557 13558 13559
          13560 13561 13562 13563 13564 13565
          13566 13567 13568 13569 13570 13571
          13572 13573 13574 13575 13576 13577
          13578 13579 13580 13581 13582 13583
          13584 13585 13586 13587 13588 13589
          13590 13591 13592 13593 13594 13595
          13596 13597 13598 13599 13600 13601
          13602 13603 13604 13605 13606 13607
          13608 13609 13610 13611 13612 13613
          13614 13615 13616 13617 13618 13619
          13620 13621 13622 13623 13624 13625
          13626 13627 13628 13629 13630 13631
          13632 13633 13634 13635 13636 13637
          13638 13639 13640 13641 13642 13643
          13644 13645 13646 13647 13648 13649
          13650 13651 13652 13653 13654 13655
          13656 13657 13658 13659 13660 13661
          13662 13663 13664 13665 13666 13667
          13668 13669 13670 13671 13672 13673
          13674 13675 13676 13677 13678 13679
          13680 13681 13682 13683 13684 13685
          13686 13687 13688 13689 13690 13691
          13692 13693 13694 13695 13696 13697
          13698 13699 13700 13701 13702 13703
          13704 13705 13706 13707 13708 13709
          13710 13711 13712 13713 13714 13715
          13716 13717 13718 13719 13720 13721
          13722 13723 13724 13725 13726 13727
          13728 13729 13730 13731 13732 13733
          13734 13735 13736 13737 13738 13739
          13740 13741 13742 13743 13744 13745
          13746 13747 13748 13749 13750 13751
          13752 13753 13754 13755 13756 13757
          13758 13759 13760 13761 13762 13763
          13764 13765 13766 13767 13768 13769
          13770 13771 13772 13773 13774 13775
          13776 13777 13778 13779 13780 13781
          13782 13783 13784 13785 13786 13787
          13788 13789 13790 13791 13792 13793
          13794 13795 13796 13797 13798 13799
          13800 13801 13802 13803 13804 13805
          13806 13807 13808 13809 13810 13811
          13812 13813 13814 13815 13816 13817
          13818 13819 13820 13821 13822 13823
          13824 13825 13826 13827 13828 13829
          13830 13831 13832 13833 13834 13835
          13836 13837 13838 13839 13840 13841
          13842 13843 13844 13845 13846 13847
          13848 13849 13850 13851 13852 13853
          13854 13855 13856 13857 13858 13859
          13860 13861 13862 13863 13864 13865
          13866 13867 13868 13869 13870 13871
          13872 13873 13874 13875 13876 13877
          13878 13879 13880 13881 13882 13883
          13884 13885 13886 13887 13888 13889
          13890 13891 13892 13893 13894 13895
          13896 13897 13898 13899 13900 13901
          13902 13903 13904 13905 13906 13907
          13908 13909 13910 13911 13912 13913
          13914 13915 13916 13917 13918 13919
          13920 13921 13922 13923 13924 13925
          13926 13927 13928 13929 13930 13931
          13932 13933 13934 13935 13936 13937
          13938 13939 13940 13941 13942 13943
          13944 13945 13946 13947 13948 13949
          13950 13951 13952 13953 13954 13955
          13956 13957 13958 13959 13960 13961
          13962 13963 13964 13965 13966 13967
          13968 13969 13970 13971 13972 13973
          13974 13975 13976 13977 13978 13979
          13980 13981 13982 13983 13984 13985
          13986 13987 13988 13989 13990 13991
          13992 13993 13994 13995 13996 13997
          13998 13999 14000 14001 14002 14003
          14004 14005 14006 14007 14008 14009
          14010 14011 14012 14013 14014 14015
          14016 14017 14018 14019 14020 14021
          14022 14023 14024 14025 14026 14027
          14028 14029 14030 14031 14032 14033
          14034 14035 14036 14037 14038 14039
          14040 14041 14042 14043 14044 14045
          14046 14047 14048 14049 14050 14051
          14052 14053 14054 14055 14056 14057
          14058 14059 14060 14061 14062 14063
          14064 14065 14066 14067 14068 14069
          14070 14071 14072 14073 14074 14075
          14076 14077 14078 14079 14080 14081
          14082 14083 14084 14085 14086 14087
          14088 14089 14090 14091 14092 14093
          14094 14095 14096 14097 14098 14099
          14100 14101 14102 14103 14104 14105
          14106 14107 14108 14109 14110 14111
          14112 14113 14114 14115 14116 14117
          14118 14119 14120 14121 14122 14123
          14124 14125 14126 14127 14128 14129
          14130 14131 14132 14133 14134 14135
          14136 14137 14138 14139 14140 14141
          14142 14143 14144 14145 14146 14147
          14148 14149 14150 14151 14152 14153
          14154 14155 14156 14157 14158 14159
          14160 14161 14162 14163 14164 14165
          14166 14167 14168 14169 14170 14171
          14172 14173 14174 14175 14176 14177
          14178 14179 14180 14181 14182 14183
          14184 14185 14186 14187 14188 14189
          14190 14191 14192 14193 14194 14195
          14196 14197 14198 14199 14200 14201
          14202 14203 14204 14205 14206 14207
          14208 14209 14210 14211 14212 14213
          14214 14215 14216 14217 14218 14219
          14220 14221 14222 14223 14224 14225
          14226 14227 14228 14229 14230 14231
          14232 14233 14234 14235 14236 14237
          14238 14239 14240 14241 14242 14243
          14244 14245 14246 14247 14248 14249
          14250 14251 14252 14253 14254 14255
          14256 14257 14258 14259 14260 14261
          14262 14263 14264 14265 14266 14267
          14268 14269 14270 14271 14272 14273
          14274 14275 14276 14277 14278 14279
          14280 14281 14282 14283 14284 14285
          14286 14287 14288 14289 14290 14291
          14292 14293 14294 14295 14296 14297
          14298 14299 14300 14301 14302 14303
          14304 14305 14306 14307 14308 14309
          14310 14311 14312 14313 14314 14315
          14316 14317 14318 14319 14320 14321
          14322 14323 14324 14325 14326 14327
          14328 14329 14330 14331 14332 14333
          14334 14335 14336 14337 14338 14339
          14340 14341 14342 14343 14344 14345
          14346 14347 14348 14349 14350 14351
          14352 14353 14354 14355 14356 14357
          14358 14359 14360 14361 14362 14363
          14364 14365 14366 14367 14368 14369
          14370 14371 14372 14373 14374 14375
          14376 14377 14378 14379 14380 14381
          14382 14383 14384 14385 14386 14387
          14388 14389 14390 14391 14392 14393
          14394 14395 14396 14397 14398 14399
          14400 14401 14402 14403 14404 14405
          14406 14407 14408 14409 14410 14411
          14412 14413 14414 14415 14416 14417
          14418 14419 14420 14421 14422 14423
          14424 14425 14426 14427 14428 14429
          14430 14431 14432 14433 14434 14435
          14436 14437 14438 14439 14440 14441
          14442 14443 14444 14445 14446 14447
          14448 14449 14450 14451 14452 14453
          14454 14455 14456 14457 14458 14459
          14460 14461 14462 14463 14464 14465
          14466 14467 14468 14469 14470 14471
          14472 14473 14474 14475 14476 14477
          14478 14479 14480 14481 14482 14483
          14484 14485 14486 14487 14488 14489
          14490 14491 14492 14493 14494 14495
          14496 14497 14498 14499 14500 14501
          14502 14503 14504 14505 14506 14507
          14508 14509 14510 14511 14512 14513
          14514 14515 14516 14517 14518 14519
          14520 14521 14522 14523 14524 14525
          14526 14527 14528 14529 14530 14531
          14532 14533 14534 14535 14536 14537
          14538 14539 14540 14541 14542 14543
          14544 14545 14546 14547 14548 14549
          14550 14551 14552 14553 14554 14555
          14556 14557 14558 14559 14560 14561
          14562 14563 14564 14565 14566 14567
          14568 14569 14570 14571 14572 14573
          14574 14575 14576 14577 14578 14579
          14580 14581 14582 14583 14584 14585
          14586 14587 14588 14589 14590 14591
          14592 14593 14594 14595 14596 14597
          14598 14599 14600 14601 14602 14603
          14604 14605 14606 14607 14608 14609
          14610 14611 14612 14613 14614 14615
          14616 14617 14618 14619 14620 14621
          14622 14623 14624 14625 14626 14627
          14628 14629 14630 14631 14632 14633
          14634 14635 14636 14637 14638 14639
          14640 14641 14642 14643 14644 14645
          14646 14647 14648 14649 14650 14651
          14652 14653 14654 14655 14656 14657
          14658 14659 14660 14661 14662 14663
          14664 14665 14666 14667 14668 14669
          14670 14671 14672 14673 14674 14675
          14676 14677 14678 14679 14680 14681
          14682 14683 14684 14685 14686 14687
          14688 14689 14690 14691 14692 14693
          14694 14695 14696 14697 14698 14699
          14700 14701 14702 14703 14704 14705
          14706 14707 14708 14709 14710 14711
          14712 14713 14714 14715 14716 14717
          14718 14719 14720 14721 14722 14723
          14724 14725 14726 14727 14728 14729
          14730 14731 14732 14733 14734 14735
          14736 14737 14738 14739 14740 14741
          14742 14743 14744 14745 14746 14747
          14748 14749 14750 14751 14752 14753
          14754 14755 14756 14757 14758 14759
          14760 14761 14762 14763 14764 14765
          14766 14767 14768 14769 14770 14771
          14772 14773 14774 14775 14776 14777
          14778 14779 14780 14781 14782 14783
          14784 14785 14786 14787 14788 14789
          14790 14791 14792 14793 14794 14795
          14796 14797 14798 14799 14800 14801
          14802 14803 14804 14805 14806 14807
          14808 14809 14810 14811 14812 14813
          14814 14815 14816 14817 14818 14819
          14820 14821 14822 14823 14824 14825
          14826 14827 14828 14829 14830 14831
          14832 14833 14834 14835 14836 14837
          14838 14839 14840 14841 14842 14843
          14844 14845 14846 14847 14848 14849
          14850 14851 14852 14853 14854 14855
          14856 14857 14858 14859 14860 14861
          14862 14863 14864 14865 14866 14867
          14868 14869 14870 14871 14872 14873
          14874 14875 14876 14877 14878 14879
          14880 14881 14882 14883 14884 14885
          14886 14887 14888 14889 14890 14891
          14892 14893 14894 14895 14896 14897
          14898 14899 14900 14901 14902 14903
          14904 14905 14906 14907 14908 14909
          14910 14911 14912 14913 14914 14915
          14916 14917 14918 14919 14920 14921
          14922 14923 14924 14925 14926 14927
          14928 14929 14930 14931 14932 14933
          14934 14935 14936 14937 14938 14939
          14940 14941 14942 14943 14944 14945
          14946 14947 14948 14949 14950 14951
          14952 14953 14954 14955 14956 14957
          14958 14959 14960 14961 14962 14963
          14964 14965 14966 14967 14968 14969
          14970 14971 14972 14973 14974 14975
          14976 14977 14978 14979 14980 14981
          14982 14983 14984 14985 14986 14987
          14988 14989 14990 14991 14992 14993
          14994 14995 14996 14997 14998 14999
          15000 15001 15002 15003 15004 15005
          15006 15007 15008 15009 15010 15011
          15012 15013 15014 15015 15016 15017
          15018 15019 15020 15021 15022 15023
          15024 15025 15026 15027 15028 15029
          15030 15031 15032 15033 15034 15035
          15036 15037 15038 15039 15040 15041
          15042 15043 15044 15045 15046 15047
          15048 15049 15050 15051 15052 15053
          15054 15055 15056 15057 15058 15059
          15060 15061 15062 15063 15064 15065
          15066 15067 15068 15069 15070 15071
          15072 15073 15074 15075 15076 15077
          15078 15079 15080 15081 15082 15083
          15084 15085 15086 15087 15088 15089
          15090 15091 15092 15093 15094 15095
          15096 15097 15098 15099 15100 15101
          15102 15103 15104 15105 15106 15107
          15108 15109 15110 15111 15112 15113
          15114 15115 15116 15117 15118 15119
          15120 15121 15122 15123 15124 15125
          15126 15127 15128 15129 15130 15131
          15132 15133 15134 15135 15136 15137
          15138 15139 15140 15141 15142 15143
          15144 15145 15146 15147 15148 15149
          15150 15151 15152 15153 15154 15155
          15156 15157 15158 15159 15160 15161
          15162 15163 15164 15165 15166 15167
          15168 15169 15170 15171 15172 15173
          15174 15175 15176 15177 15178 15179
          15180 15181 15182 15183 15184 15185
          15186 15187 15188 15189 15190 15191
          15192 15193 15194 15195 15196 15197
          15198 15199 15200 15201 15202 15203
          15204 15205 15206 15207 15208 15209
          15210 15211 15212 15213 15214 15215
          15216 15217 15218 15219 15220 15221
          15222 15223 15224 15225 15226 15227
          15228 15229 15230 15231 15232 15233
          15234 15235 15236 15237 15238 15239
          15240 15241 15242 15243 15244 15245
          15246 15247 15248 15249 15250 15251
          15252 15253 15254 15255 15256 15257
          15258 15259 15260 15261 15262 15263
          15264 15265 15266 15267 15268 15269
          15270 15271 15272 15273 15274 15275
          15276 15277 15278 15279 15280 15281
          15282 15283 15284 15285 15286 15287
          15288 15289 15290 15291 15292 15293
          15294 15295 15296 15297 15298 15299
          15300 15301 15302 15303 15304 15305
          15306 15307 15308 15309 15310 15311
          15312 15313 15314 15315 15316 15317
          15318 15319 15320 15321 15322 15323
          15324 15325 15326 15327 15328 15329
          15330 15331 15332 15333 15334 15335
          15336 15337 15338 15339 15340 15341
          15342 15343 15344 15345 15346 15347
          15348 15349 15350 15351 15352 15353
          15354 15355 15356 15357 15358 15359
          15360 15361 15362 15363 15364 15365
          15366 15367 15368 15369 15370 15371
          15372 15373 15374 15375 15376 15377
          15378 15379 15380 15381 15382 15383
          15384 15385 15386 15387 15388 15389
          15390 15391 15392 15393 15394 15395
          15396 15397 15398 15399 15400 15401
          15402 15403 15404 15405 15406 15407
          15408 15409 15410 15411 15412 15413
          15414 15415 15416 15417 15418 15419
          15420 15421 15422 15423 15424 15425
          15426 15427 15428 15429 15430 15431
          15432 15433 15434 15435 15436 15437
          15438 15439 15440 15441 15442 15443
          15444 15445 15446 15447 15448 15449
          15450 15451 15452 15453 15454 15455
          15456 15457 15458 15459 15460 15461
          15462 15463 15464 15465 15466 15467
          15468 15469 15470 15471 15472 15473
          15474 15475 15476 15477 15478 15479
          15480 15481 15482 15483 15484 15485
          15486 15487 15488 15489 15490 15491
          15492 15493 15494 15495 15496 15497
          15498 15499 15500 15501 15502 15503
          15504 15505 15506 15507 15508 15509
          15510 15511 15512 15513 15514 15515
          15516 15517 15518 15519 15520 15521
          15522 15523 15524 15525 15526 15527
          15528 15529 15530 15531 15532 15533
          15534 15535 15536 15537 15538 15539
          15540 15541 15542 15543 15544 15545
          15546 15547 15548 15549 15550 15551
          15552 15553 15554 15555 15556 15557
          15558 15559 15560 15561 15562 15563
          15564 15565 15566 15567 15568 15569
          15570 15571 15572 15573 15574 15575
          15576 15577 15578 15579 15580 15581
          15582 15583 15584 15585 15586 15587
          15588 15589 15590 15591 15592 15593
          15594 15595 15596 15597 15598 15599
          15600 15601 15602 15603 15604 15605
          15606 15607 15608 15609 15610 15611
          15612 15613 15614 15615 15616 15617
          15618 15619 15620 15621 15622 15623
          15624 15625 15626 15627 15628 15629
          15630 15631 15632 15633 15634 15635
          15636 15637 15638 15639 15640 15641
          15642 15643 15644 15645 15646 15647
          15648 15649 15650 15651 15652 15653
          15654 15655 15656 15657 15658 15659
          15660 15661 15662 15663 15664 15665
          15666 15667 15668 15669 15670 15671
          15672 15673 15674 15675 15676 15677
          15678 15679 15680 15681 15682 15683
          15684 15685 15686 15687 15688 15689
          15690 15691 15692 15693 15694 15695
          15696 15697 15698 15699 15700 15701
          15702 15703 15704 15705 15706 15707
          15708 15709 15710 15711 15712 15713
          15714 15715 15716 15717 15718 15719
          15720 15721 15722 15723 15724 15725
          15726 15727 15728 15729 15730 15731
          15732 15733 15734 15735 15736 15737
          15738 15739 15740 15741 15742 15743
          15744 15745 15746 15747 15748 15749
          15750 15751 15752 15753 15754 15755
          15756 15757 15758 15759 15760 15761
          15762 15763 15764 15765 15766 15767
          15768 15769 15770 15771 15772 15773
          15774 15775 15776 15777 15778 15779
          15780 15781 15782 15783 15784 15785
          15786 15787 15788 15789 15790 15791
          15792 15793 15794 15795 15796 15797
          15798 15799 15800 15801 15802 15803
          15804 15805 15806 15807 15808 15809
          15810 15811 15812 15813 15814 15815
          15816 15817 15818 15819 15820 15821
          15822 15823 15824 15825 15826 15827
          15828 15829 15830 15831 15832 15833
          15834 15835 15836 15837 15838 15839
          15840 15841 15842 15843 15844 15845
          15846 15847 15848 15849 15850 15851
          15852 15853 15854 15855 15856 15857
          15858 15859 15860 15861 15862 15863
          15864 15865 15866 15867 15868 15869
          15870 15871 15872 15873 15874 15875
          15876 15877 15878 15879 15880 15881
          15882 15883 15884 15885 15886 15887
          15888 15889 15890 15891 15892 15893
          15894 15895 15896 15897 15898 15899
          15900 15901 15902 15903 15904 15905
          15906 15907 15908 15909 15910 15911
          15912 15913 15914 15915 15916 15917
          15918 15919 15920 15921 15922 15923
          15924 15925 15926 15927 15928 15929
          15930 15931 15932 15933 15934 15935
          15936 15937 15938 15939 15940 15941
          15942 15943 15944 15945 15946 15947
          15948 15949 15950 15951 15952 15953
          15954 15955 15956 15957 15958 15959
          15960 15961 15962 15963 15964 15965
          15966 15967 15968 15969 15970 15971
          15972 15973 15974 15975 15976 15977
          15978 15979 15980 15981 15982 15983
          15984 15985 15986 15987 15988 15989
          15990 15991 15992 15993 15994 15995
          15996 15997 15998 15999 16000 16001
          16002 16003 16004 16005 16006 16007
          16008 16009 16010 16011 16012 16013
          16014 16015 16016 16017 16018 16019
          16020 16021 16022 16023 16024 16025
          16026 16027 16028 16029 16030 16031
          16032 16033 16034 16035 16036 16037
          16038 16039 16040 16041 16042 16043
          16044 16045 16046 16047 16048 16049
          16050 16051 16052 16053 16054 16055
          16056 16057 16058 16059 16060 16061
          16062 16063 16064 16065 16066 16067
          16068 16069 16070 16071 16072 16073
          16074 16075 16076 16077 16078 16079
          16080 16081 16082 16083 16084 16085
          16086 16087 16088 16089 16090 16091
          16092 16093 16094 16095 16096 16097
          16098 16099 16100 16101 16102 16103
          16104 16105 16106 16107 16108 16109
          16110 16111 16112 16113 16114 16115
          16116 16117 16118 16119 16120 16121
          16122 16123 16124 16125 16126 16127
          16128 16129 16130 16131 16132 16133
          16134 16135 16136 16137 16138 16139
          16140 16141 16142 16143 16144 16145
          16146 16147 16148 16149 16150 16151
          16152 16153 16154 16155 16156 16157
          16158 16159 16160 16161 16162 16163
          16164 16165 16166 16167 16168 16169
          16170 16171 16172 16173 16174 16175
          16176 16177 16178 16179 16180 16181
          16182 16183 16184 16185 16186 16187
          16188 16189 16190 16191 16192 16193
          16194 16195 16196 16197 16198 16199
          16200 16201 16202 16203 16204 16205
          16206 16207 16208 16209 16210 16211
          16212 16213 16214 16215 16216 16217
          16218 16219 16220 16221 16222 16223
          16224 16225 16226 16227 16228 16229
          16230 16231 16232 16233 16234 16235
          16236 16237 16238 16239 16240 16241
          16242 16243 16244 16245 16246 16247
          16248 16249 16250 16251 16252 16253
          16254 16255 16256 16257 16258 16259
          16260 16261 16262 16263 16264 16265
          16266 16267 16268 16269 16270 16271
          16272 16273 16274 16275 16276 16277
          16278 16279 16280 16281 16282 16283
          16284 16285 16286 16287 16288 16289
          16290 16291 16292 16293 16294 16295
          16296 16297 16298 16299 16300 16301
          16302 16303 16304 16305 16306 16307
          16308 16309 16310 16311 16312 16313
          16314 16315 16316 16317 16318 16319
          16320 16321 16322 16323 16324 16325
          16326 16327 16328 16329 16330 16331
          16332 16333 16334 16335 16336 16337
          16338 16339 16340 16341 16342 16343
          16344 16345 16346 16347 16348 16349
          16350 16351 16352 16353 16354 16355
          16356 16357 16358 16359 16360 16361
          16362 16363 16364 16365 16366 16367
          16368 16369 16370 16371 16372 16373
          16374 16375 16376 16377 16378 16379
          16380 16381 16382 16383 16384 16385
          16386 16387 16388 16389 16390 16391
          16392 16393 16394 16395 16396 16397
          16398 16399 16400 16401 16402 16403
          16404 16405 16406 16407 16408 16409
          16410 16411 16412 16413 16414 16415
          16416 16417 16418 16419 16420 16421
          16422 16423 16424 16425 16426 16427
          16428 16429 16430 16431 16432 16433
          16434 16435 16436 16437 16438 16439
          16440 16441 16442 16443 16444 16445
          16446 16447 16448 16449 16450 16451
          16452 16453 16454 16455 16456 16457
          16458 16459 16460 16461 16462 16463
          16464 16465 16466 16467 16468 16469
          16470 16471 16472 16473 16474 16475
          16476 16477 16478 16479 16480 16481
          16482 16483 16484 16485 16486 16487
          16488 16489 16490 16491 16492 16493
          16494 16495 16496 16497 16498 16499
          16500 16501 16502 16503 16504 16505
          16506 16507 16508 16509 16510 16511
          16512 16513 16514 16515 16516 16517
          16518 16519 16520 16521 16522 16523
          16524 16525 16526 16527 16528 16529
          16530 16531 16532 16533 16534 16535
          16536 16537 16538 16539 16540 16541
          16542 16543 16544 16545 16546 16547
          16548 16549 16550 16551 16552 16553
          16554 16555 16556 16557 16558 16559
          16560 16561 16562 16563 16564 16565
          16566 16567 16568 16569 16570 16571
          16572 16573 16574 16575 16576 16577
          16578 16579 16580 16581 16582 16583
          16584 16585 16586 16587 16588 16589
          16590 16591 16592 16593 16594 16595
          16596 16597 16598 16599 16600 16601
          16602 16603 16604 16605 16606 16607
          16608 16609 16610 16611 16612 16613
          16614 16615 16616 16617 16618 16619
          16620 16621 16622 16623 16624 16625
          16626 16627 16628 16629 16630 16631
          16632 16633 16634 16635 16636 16637
          16638 16639 16640 16641 16642 16643
          16644 16645 16646 16647 16648 16649
          16650 16651 16652 16653 16654 16655
          16656 16657 16658 16659 16660 16661
          16662 16663 16664 16665 16666 16667
          16668 16669 16670 16671 16672 16673
          16674 16675 16676 16677 16678 16679
          16680 16681 16682 16683 16684 16685
          16686 16687 16688 16689 16690 16691
          16692 16693 16694 16695 16696 16697
          16698 16699 16700 16701 16702 16703
          16704 16705 16706 16707 16708 16709
          16710 16711 16712 16713 16714 16715
          16716 16717 16718 16719 16720 16721
          16722 16723 16724 16725 16726 16727
          16728 16729 16730 16731 16732 16733
          16734 16735 16736 16737 16738 16739
          16740 16741 16742 16743 16744 16745
          16746 16747 16748 16749 16750 16751
          16752 16753 16754 16755 16756 16757
          16758 16759 16760 16761 16762 16763
          16764 16765 16766 16767 16768 16769
          16770 16771 16772 16773 16774 16775
          16776 16777 16778 16779 16780 16781
          16782 16783 16784 16785 16786 16787
          16788 16789 16790 16791 16792 16793
          16794 16795 16796 16797 16798 16799
          16800 16801 16802 16803 16804 16805
          16806 16807 16808 16809 16810 16811
          16812 16813 16814 16815 16816 16817
          16818 16819 16820 16821 16822 16823
          16824 16825 16826 16827 16828 16829
          16830 16831 16832 16833 16834 16835
          16836 16837 16838 16839 16840 16841
          16842 16843 16844 16845 16846 16847
          16848 16849 16850 16851 16852 16853
          16854 16855 16856 16857 16858 16859
          16860 16861 16862 16863 16864 16865
          16866 16867 16868 16869 16870 16871
          16872 16873 16874 16875 16876 16877
          16878 16879 16880 16881 16882 16883
          16884 16885 16886 16887 16888 16889
          16890 16891 16892 16893 16894 16895
          16896 16897 16898 16899 16900 16901
          16902 16903 16904 16905 16906 16907
          16908 16909 16910 16911 16912 16913
          16914 16915 16916 16917 16918 16919
          16920 16921 16922 16923 16924 16925
          16926 16927 16928 16929 16930 16931
          16932 16933 16934 16935 16936 16937
          16938 16939 16940 16941 16942 16943
          16944 16945 16946 16947 16948 16949
          16950 16951 16952 16953 16954 16955
          16956 16957 16958 16959 16960 16961
          16962 16963 16964 16965 16966 16967
          16968 16969 16970 16971 16972 16973
          16974 16975 16976 16977 16978 16979
          16980 16981 16982 16983 16984 16985
          16986 16987 16988 16989 16990 16991
          16992 16993 16994 16995 16996 16997
          16998 16999 17000 17001 17002 17003
          17004 17005 17006 17007 17008 17009
          17010 17011 17012 17013 17014 17015
          17016 17017 17018 17019 17020 17021
          17022 17023 17024 17025 17026 17027
          17028 17029 17030 17031 17032 17033
          17034 17035 17036 17037 17038 17039
          17040 17041 17042 17043 17044 17045
          17046 17047 17048 17049 17050 17051
          17052 17053 17054 17055 17056 17057
          17058 17059 17060 17061 17062 17063
          17064 17065 17066 17067 17068 17069
          17070 17071 17072 17073 17074 17075
          17076 17077 17078 17079 17080 17081
          17082 17083 17084 17085 17086 17087
          17088 17089 17090 17091 17092 17093
          17094 17095 17096 17097 17098 17099
          17100 17101 17102 17103 17104 17105
          17106 17107 17108 17109 17110 17111
          17112 17113 17114 17115 17116 17117
          17118 17119 17120 17121 17122 17123
          17124 17125 17126 17127 17128 17129
          17130 17131 17132 17133 17134 17135
          17136 17137 17138 17139 17140 17141
          17142 17143 17144 17145 17146 17147
          17148 17149 17150 17151 17152 17153
          17154 17155 17156 17157 17158 17159
          17160 17161 17162 17163 17164 17165
          17166 17167 17168 17169 17170 17171
          17172 17173 17174 17175 17176 17177
          17178 17179 17180 17181 17182 17183
          17184 17185 17186 17187 17188 17189
          17190 17191 17192 17193 17194 17195
          17196 17197 17198 17199 17200 17201
          17202 17203 17204 17205 17206 17207
          17208 17209 17210 17211 17212 17213
          17214 17215 17216 17217 17218 17219
          17220 17221 17222 17223 17224 17225
          17226 17227 17228 17229 17230 17231
          17232 17233 17234 17235 17236 17237
          17238 17239 17240 17241 17242 17243
          17244 17245 17246 17247 17248 17249
          17250 17251 17252 17253 17254 17255
          17256 17257 17258 17259 17260 17261
          17262 17263 17264 17265 17266 17267
          17268 17269 17270 17271 17272 17273
          17274 17275 17276 17277 17278 17279
          17280 17281 17282 17283 17284 17285
          17286 17287 17288 17289 17290 17291
          17292 17293 17294 17295 17296 17297
          17298 17299 17300 17301 17302 17303
          17304 17305 17306 17307 17308 17309
          17310 17311 17312 17313 17314 17315
          17316 17317 17318 17319 17320 17321
          17322 17323 17324 17325 17326 17327
          17328 17329 17330 17331 17332 17333
          17334 17335 17336 17337 17338 17339
          17340 17341 17342 17343 17344 17345
          17346 17347 17348 17349 17350 17351
          17352 17353 17354 17355 17356 17357
          17358 17359 17360 17361 17362 17363
          17364 17365 17366 17367 17368 17369
          17370 17371 17372 17373 17374 17375
          17376 17377 17378 17379 17380 17381
          17382 17383 17384 17385 17386 17387
          17388 17389 17390 17391 17392 17393
          17394 17395 17396 17397 17398 17399
          17400 17401 17402 17403 17404 17405
          17406 17407 17408 17409 17410 17411
          17412 17413 17414 17415 17416 17417
          17418 17419 17420 17421 17422 17423
          17424 17425 17426 17427 17428 17429
          17430 17431 17432 17433 17434 17435
          17436 17437 17438 17439 17440 17441
          17442 17443 17444 17445 17446 17447
          17448 17449 17450 17451 17452 17453
          17454 17455 17456 17457 17458 17459
          17460 17461 17462 17463 17464 17465
          17466 17467 17468 17469 17470 17471
          17472 17473 17474 17475 17476 17477
          17478 17479 17480 17481 17482 17483
          17484 17485 17486 17487 17488 17489
          17490 17491 17492 17493 17494 17495
          17496 17497 17498 17499 17500 17501
          17502 17503 17504 17505 17506 17507
          17508 17509 17510 17511 17512 17513
          17514 17515 17516 17517 17518 17519
          17520 17521 17522 17523 17524 17525
          17526 17527 17528 17529 17530 17531
          17532 17533 17534 17535 17536 17537
          17538 17539 17540 17541 17542 17543
          17544 17545 17546 17547 17548 17549
          17550 17551 17552 17553 17554 17555
          17556 17557 17558 17559 17560 17561
          17562 17563 17564 17565 17566 17567
          17568 17569 17570 17571 17572 17573
          17574 17575 17576 17577 17578 17579
          17580 17581 17582 17583 17584 17585
          17586 17587 17588 17589 17590 17591
          17592 17593 17594 17595 17596 17597
          17598 17599 17600 17601 17602 17603
          17604 17605 17606 17607 17608 17609
          17610 17611 17612 17613 17614 17615
          17616 17617 17618 17619 17620 17621
          17622 17623 17624 17625 17626 17627
          17628 17629 17630 17631 17632 17633
          17634 17635 17636 17637 17638 17639
          17640 17641 17642 17643 17644 17645
          17646 17647 17648 17649 17650 17651
          17652 17653 17654 17655 17656 17657
          17658 17659 17660 17661 17662 17663
          17664 17665 17666 17667 17668 17669
          17670 17671 17672 17673 17674 17675
          17676 17677 17678 17679 17680 17681
          17682 17683 17684 17685 17686 17687
          17688 17689 17690 17691 17692 17693
          17694 17695 17696 17697 17698 17699
          17700 17701 17702 17703 17704 17705
          17706 17707 17708 17709 17710 17711
          17712 17713 17714 17715 17716 17717
          17718 17719 17720 17721 17722 17723
          17724 17725 17726 17727 17728 17729
          17730 17731 17732 17733 17734 17735
          17736 17737 17738 17739 17740 17741
          17742 17743 17744 17745 17746 17747
          17748 17749 17750 17751 17752 17753
          17754 17755 17756 17757 17758 17759
          17760 17761 17762 17763 17764 17765
          17766 17767 17768 17769 17770 17771
          17772 17773 17774 17775 17776 17777
          17778 17779 17780 17781 17782 17783
          17784 17785 17786 17787 17788 17789
          17790 17791 17792 17793 17794 17795
          17796 17797 17798 17799 17800 17801
          17802 17803 17804 17805 17806 17807
          17808 17809 17810 17811 17812 17813
          17814 17815 17816 17817 17818 17819
          17820 17821 17822 17823 17824 17825
          17826 17827 17828 17829 17830 17831
          17832 17833 17834 17835 17836 17837
          17838 17839 17840 17841 17842 17843
          17844 17845 17846 17847 17848 17849
          17850 17851 17852 17853 17854 17855
          17856 17857 17858 17859 17860 17861
          17862 17863 17864 17865 17866 17867
          17868 17869 17870 17871 17872 17873
          17874 17875 17876 17877 17878 17879
          17880 17881 17882 17883 17884 17885
          17886 17887 17888 17889 17890 17891
          17892 17893 17894 17895 17896 17897
          17898 17899 17900 17901 17902 17903
          17904 17905 17906 17907 17908 17909
          17910 17911 17912 17913 17914 17915
          17916 17917 17918 17919 17920 17921
          17922 17923 17924 17925 17926 17927
          17928 17929 17930 17931 17932 17933
          17934 17935 17936 17937 17938 17939
          17940 17941 17942 17943 17944 17945
          17946 17947 17948 17949 17950 17951
          17952 17953 17954 17955 17956 17957
          17958 17959 17960 17961 17962 17963
          17964 17965 17966 17967 17968 17969
          17970 17971 17972 17973 17974 17975
          17976 17977 17978 17979 17980 17981
          17982 17983 17984 17985 17986 17987
          17988 17989 17990 17991 17992 17993
          17994 17995 17996 17997 17998 17999
          18000 18001 18002 18003 18004 18005
          18006 18007 18008 18009 18010 18011
          18012 18013 18014 18015 18016 18017
          18018 18019 18020 18021 18022 18023
          18024 18025 18026 18027 18028 18029
          18030 18031 18032 18033 18034 18035
          18036 18037 18038 18039 18040 18041
          18042 18043 18044 18045 18046 18047
          18048 18049 18050 18051 18052 18053
          18054 18055 18056 18057 18058 18059
          18060 18061 18062 18063 18064 18065
          18066 18067 18068 18069 18070 18071
          18072 18073 18074 18075 18076 18077
          18078 18079 18080 18081 18082 18083
          18084 18085 18086 18087 18088 18089
          18090 18091 18092 18093 18094 18095
          18096 18097 18098 18099 18100 18101
          18102 18103 18104 18105 18106 18107
          18108 18109 18110 18111 18112 18113
          18114 18115 18116 18117 18118 18119
          18120 18121 18122 18123 18124 18125
          18126 18127 18128 18129 18130 18131
          18132 18133 18134 18135 18136 18137
          18138 18139 18140 18141 18142 18143
          18144 18145 18146 18147 18148 18149
          18150 18151 18152 18153 18154 18155
          18156 18157 18158 18159 18160 18161
          18162 18163 18164 18165 18166 18167
          18168 18169 18170 18171 18172 18173
          18174 18175 18176 18177 18178 18179
          18180 18181 18182 18183 18184 18185
          18186 18187 18188 18189 18190 18191
          18192 18193 18194 18195 18196 18197
          18198 18199 18200 18201 18202 18203
          18204 18205 18206 18207 18208 18209
          18210 18211 18212 18213 18214 18215
          18216 18217 18218 18219 18220 18221
          18222 18223 18224 18225 18226 18227
          18228 18229 18230 18231 18232 18233
          18234 18235 18236 18237 18238 18239
          18240 18241 18242 18243 18244 18245
          18246 18247 18248 18249 18250 18251
          18252 18253 18254 18255 18256 18257
          18258 18259 18260 18261 18262 18263
          18264 18265 18266 18267 18268 18269
          18270 18271 18272 18273 18274 18275
          18276 18277 18278 18279 18280 18281
          18282 18283 18284 18285 18286 18287
          18288 18289 18290 18291 18292 18293
          18294 18295 18296 18297 18298 18299
          18300 18301 18302 18303 18304 18305
          18306 18307 18308 18309 18310 18311
          18312 18313 18314 18315 18316 18317
          18318 18319 18320 18321 18322 18323
          18324 18325 18326 18327 18328 18329
          18330 18331 18332 18333 18334 18335
          18336 18337 18338 18339 18340 18341
          18342 18343 18344 18345 18346 18347
          18348 18349 18350 18351 18352 18353
          18354 18355 18356 18357 18358 18359
          18360 18361 18362 18363 18364 18365
          18366 18367 18368 18369 18370 18371
          18372 18373 18374 18375 18376 18377
          18378 18379 18380 18381 18382 18383
          18384 18385 18386 18387 18388 18389
          18390 18391 18392 18393 18394 18395
          18396 18397 18398 18399 18400 18401
          18402 18403 18404 18405 18406 18407
          18408 18409 18410 18411 18412 18413
          18414 18415 18416 18417 18418 18419
          18420 18421 18422 18423 18424 18425
          18426 18427 18428 18429 18430 18431
          18432 18433 18434 18435 18436 18437
          18438 18439 18440 18441 18442 18443
          18444 18445 18446 18447 18448 18449
          18450 18451 18452 18453 18454 18455
          18456 18457 18458 18459 18460 18461
          18462 18463 18464 18465 18466 18467
          18468 18469 18470 18471 18472 18473
          18474 18475 18476 18477 18478 18479
          18480 18481 18482 18483 18484 18485
          18486 18487 18488 18489 18490 18491
          18492 18493 18494 18495 18496 18497
          18498 18499 18500 18501 18502 18503
          18504 18505 18506 18507 18508 18509
          18510 18511 18512 18513 18514 18515
          18516 18517 18518 18519 18520 18521
          18522 18523 18524 18525 18526 18527
          18528 18529 18530 18531 18532 18533
          18534 18535 18536 18537 18538 18539
          18540 18541 18542 18543 18544 18545
          18546 18547 18548 18549 18550 18551
          18552 18553 18554 18555 18556 18557
          18558 18559 18560 18561 18562 18563
          18564 18565 18566 18567 18568 18569
          18570 18571 18572 18573 18574 18575
          18576 18577 18578 18579 18580 18581
          18582 18583 18584 18585 18586 18587
          18588 18589 18590 18591 18592 18593
          18594 18595 18596 18597 18598 18599
          18600 18601 18602 18603 18604 18605
          18606 18607 18608 18609 18610 18611
          18612 18613 18614 18615 18616 18617
          18618 18619 18620 18621 18622 18623
          18624 18625 18626 18627 18628 18629
          18630 18631 18632 18633 18634 18635
          18636 18637 18638 18639 18640 18641
          18642 18643 18644 18645 18646 18647
          18648 18649 18650 18651 18652 18653
          18654 18655 18656 18657 18658 18659
          18660 18661 18662 18663 18664 18665
          18666 18667 18668 18669 18670 18671
          18672 18673 18674 18675 18676 18677
          18678 18679 18680 18681 18682 18683
          18684 18685 18686 18687 18688 18689
          18690 18691 18692 18693 18694 18695
          18696 18697 18698 18699 18700 18701
          18702 18703 18704 18705 18706 18707
          18708 18709 18710 18711 18712 18713
          18714 18715 18716 18717 18718 18719
          18720 18721 18722 18723 18724 18725
          18726 18727 18728 18729 18730 18731
          18732 18733 18734 18735 18736 18737
          18738 18739 18740 18741 18742 18743
          18744 18745 18746 18747 18748 18749
          18750 18751 18752 18753 18754 18755
          18756 18757 18758 18759 18760 18761
          18762 18763 18764 18765 18766 18767
          18768 18769 18770 18771 18772 18773
          18774 18775 18776 18777 18778 18779
          18780 18781 18782 18783 18784 18785
          18786 18787 18788 18789 18790 18791
          18792 18793 18794 18795 18796 18797
          18798 18799 18800 18801 18802 18803
          18804 18805 18806 18807 18808 18809
          18810 18811 18812 18813 18814 18815
          18816 18817 18818 18819 18820 18821
          18822 18823 18824 18825 18826 18827
          18828 18829 18830 18831 18832 18833
          18834 18835 18836 18837 18838 18839
          18840 18841 18842 18843 18844 18845
          18846 18847 18848 18849 18850 18851
          18852 18853 18854 18855 18856 18857
          18858 18859 18860 18861 18862 18863
          18864 18865 18866 18867 18868 18869
          18870 18871 18872 18873 18874 18875
          18876 18877 18878 18879 18880 18881
          18882 18883 18884 18885 18886 18887
          18888 18889 18890 18891 18892 18893
          18894 18895 18896 18897 18898 18899
          18900 18901 18902 18903 18904 18905
          18906 18907 18908 18909 18910 18911
          18912 18913 18914 18915 18916 18917
          18918 18919 18920 18921 18922 18923
          18924 18925 18926 18927 18928 18929
          18930 18931 18932 18933 18934 18935
          18936 18937 18938 18939 18940 18941
          18942 18943 18944 18945 18946 18947
          18948 18949 18950 18951 18952 18953
          18954 18955 18956 18957 18958 18959
          18960 18961 18962 18963 18964 18965
          18966 18967 18968 18969 18970 18971
          18972 18973 18974 18975 18976 18977
          18978 18979 18980 18981 18982 18983
          18984 18985 18986 18987 18988 18989
          18990 18991 18992 18993 18994 18995
          18996 18997 18998 18999 19000 19001
          19002 19003 19004 19005 19006 19007
          19008 19009 19010 19011 19012 19013
          19014 19015 19016 19017 19018 19019
          19020 19021 19022 19023 19024 19025
          19026 19027 19028 19029 19030 19031
          19032 19033 19034 19035 19036 19037
          19038 19039 19040 19041 19042 19043
          19044 19045 19046 19047 19048 19049
          19050 19051 19052 19053 19054 19055
          19056 19057 19058 19059 19060 19061
          19062 19063 19064 19065 19066 19067
          19068 19069 19070 19071 19072 19073
          19074 19075 19076 19077 19078 19079
          19080 19081 19082 19083 19084 19085
          19086 19087 19088 19089 19090 19091
          19092 19093 19094 19095 19096 19097
          19098 19099 19100 19101 19102 19103
          19104 19105 19106 19107 19108 19109
          19110 19111 19112 19113 19114 19115
          19116 19117 19118 19119 19120 19121
          19122 19123 19124 19125 19126 19127
          19128 19129 19130 19131 19132 19133
          19134 19135 19136 19137 19138 19139
          19140 19141 19142 19143 19144 19145
          19146 19147 19148 19149 19150 19151
          19152 19153 19154 19155 19156 19157
          19158 19159 19160 19161 19162 19163
          19164 19165 19166 19167 19168 19169
          19170 19171 19172 19173 19174 19175
          19176 19177 19178 19179 19180 19181
          19182 19183 19184 19185 19186 19187
          19188 19189 19190 19191 19192 19193
          19194 19195 19196 19197 19198 19199
          19200 19201 19202 19203 19204 19205
          19206 19207 19208 19209 19210 19211
          19212 19213 19214 19215 19216 19217
          19218 19219 19220 19221 19222 19223
          19224 19225 19226 19227 19228 19229
          19230 19231 19232 19233 19234 19235
          19236 19237 19238 19239 19240 19241
          19242 19243 19244 19245 19246 19247
          19248 19249 19250 19251 19252 19253
          19254 19255 19256 19257 19258 19259
          19260 19261 19262 19263 19264 19265
          19266 19267 19268 19269 19270 19271
          19272 19273 19274 19275 19276 19277
          19278 19279 19280 19281 19282 19283
          19284 19285 19286 19287 19288 19289
          19290 19291 19292 19293 19294 19295
          19296 19297 19298 19299 19300 19301
          19302 19303 19304 19305 19306 19307
          19308 19309 19310 19311 19312 19313
          19314 19315 19316 19317 19318 19319
          19320 19321 19322 19323 19324 19325
          19326 19327 19328 19329 19330 19331
          19332 19333 19334 19335 19336 19337
          19338 19339 19340 19341 19342 19343
          19344 19345 19346 19347 19348 19349
          19350 19351 19352 19353 19354 19355
          19356 19357 19358 19359 19360 19361
          19362 19363 19364 19365 19366 19367
          19368 19369 19370 19371 19372 19373
          19374 19375 19376 19377 19378 19379
          19380 19381 19382 19383 19384 19385
          19386 19387 19388 19389 19390 19391
          19392 19393 19394 19395 19396 19397
          19398 19399 19400 19401 19402 19403
          19404 19405 19406 19407 19408 19409
          19410 19411 19412 19413 19414 19415
          19416 19417 19418 19419 19420 19421
          19422 19423 19424 19425 19426 19427
          19428 19429 19430 19431 19432 19433
          19434 19435 19436 19437 19438 19439
          19440 19441 19442 19443 19444 19445
          19446 19447 19448 19449 19450 19451
          19452 19453 19454 19455 19456 19457
          19458 19459 19460 19461 19462 19463
          19464 19465 19466 19467 19468 19469
          19470 19471 19472 19473 19474 19475
          19476 19477 19478 19479 19480 19481
          19482 19483 19484 19485 19486 19487
          19488 19489 19490 19491 19492 19493
          19494 19495 19496 19497 19498 19499
          19500 19501 19502 19503 19504 19505
          19506 19507 19508 19509 19510 19511
          19512 19513 19514 19515 19516 19517
          19518 19519 19520 19521 19522 19523
          19524 19525 19526 19527 19528 19529
          19530 19531 19532 19533 19534 19535
          19536 19537 19538 19539 19540 19541
          19542 19543 19544 19545 19546 19547
          19548 19549 19550 19551 19552 19553
          19554 19555 19556 19557 19558 19559
          19560 19561 19562 19563 19564 19565
          19566 19567 19568 19569 19570 19571
          19572 19573 19574 19575 19576 19577
          19578 19579 19580 19581 19582 19583
          19584 19585 19586 19587 19588 19589
          19590 19591 19592 19593 19594 19595
          19596 19597 19598 19599 19600 19601
          19602 19603 19604 19605 19606 19607
          19608 19609 19610 19611 19612 19613
          19614 19615 19616 19617 19618 19619
          19620 19621 19622 19623 19624 19625
          19626 19627 19628 19629 19630 19631
          19632 19633 19634 19635 19636 19637
          19638 19639 19640 19641 19642 19643
          19644 19645 19646 19647 19648 19649
          19650 19651 19652 19653 19654 19655
          19656 19657 19658 19659 19660 19661
          19662 19663 19664 19665 19666 19667
          19668 19669 19670 19671 19672 19673
          19674 19675 19676 19677 19678 19679
          19680 19681 19682 19683 19684 19685
          19686 19687 19688 19689 19690 19691
          19692 19693 19694 19695 19696 19697
          19698 19699 19700 19701 19702 19703
          19704 19705 19706 19707 19708 19709
          19710 19711 19712 19713 19714 19715
          19716 19717 19718 19719 19720 19721
          19722 19723 19724 19725 19726 19727
          19728 19729 19730 19731 19732 19733
          19734 19735 19736 19737 19738 19739
          19740 19741 19742 19743 19744 19745
          19746 19747 19748 19749 19750 19751
          19752 19753 19754 19755 19756 19757
          19758 19759 19760 19761 19762 19763
          19764 19765 19766 19767 19768 19769
          19770 19771 19772 19773 19774 19775
          19776 19777 19778 19779 19780 19781
          19782 19783 19784 19785 19786 19787
          19788 19789 19790 19791 19792 19793
          19794 19795 19796 19797 19798 19799
          19800 19801 19802 19803 19804 19805
          19806 19807 19808 19809 19810 19811
          19812 19813 19814 19815 19816 19817
          19818 19819 19820 19821 19822 19823
          19824 19825 19826 19827 19828 19829
          19830 19831 19832 19833 19834 19835
          19836 19837 19838 19839 19840 19841
          19842 19843 19844 19845 19846 19847
          19848 19849 19850 19851 19852 19853
          19854 19855 19856 19857 19858 19859
          19860 19861 19862 19863 19864 19865
          19866 19867 19868 19869 19870 19871
          19872 19873 19874 19875 19876 19877
          19878 19879 19880 19881 19882 19883
          19884 19885 19886 19887 19888 19889
          19890 19891 19892 19893 19894 19895
          19896 19897 19898 19899 19900 19901
          19902 19903 19904 19905 19906 19907
          19908 19909 19910 19911 19912 19913
          19914 19915 19916 19917 19918 19919
          19920 19921 19922 19923 19924 19925
          19926 19927 19928 19929 19930 19931
          19932 19933 19934 19935 19936 19937
          19938 19939 19940 19941 19942 19943
          19944 19945 19946 19947 19948 19949
          19950 19951 19952 19953 19954 19955
          19956 19957 19958 19959 19960 19961
          19962 19963 19964 19965 19966 19967
          19968 19969 19970 19971 19972 19973
          19974 19975 19976 19977 19978 19979
          19980 19981 19982 19983 19984 19985
          19986 19987 19988 19989 19990 19991
          19992 19993 19994 19995 19996 19997
          19998 19999 20000 20001 20002 20003
          20004 20005 20006 20007 20008 20009
          20010 20011 20012 20013 20014 20015
          20016 20017 20018 20019 20020 20021
          20022 20023 20024 20025 20026 20027
          20028 20029 20030 20031 20032 20033
          20034 20035 20036 20037 20038 20039
          20040 20041 20042 20043 20044 20045
          20046 20047 20048 20049 20050 20051
          20052 20053 20054 20055 20056 20057
          20058 20059 20060 20061 20062 20063
          20064 20065 20066 20067 20068 20069
          20070 20071 20072 20073 20074 20075
          20076 20077 20078 20079 20080 20081
          20082 20083 20084 20085 20086 20087
          20088 20089 20090 20091 20092 20093
          20094 20095 20096 20097 20098 20099
          20100 20101 20102 20103 20104 20105
          20106 20107 20108 20109 20110 20111
          20112 20113 20114 20115 20116 20117
          20118 20119 20120 20121 20122 20123
          20124 20125 20126 20127 20128 20129
          20130 20131 20132 20133 20134 20135
          20136 20137 20138 20139 20140 20141
          20142 20143 20144 20145 20146 20147
          20148 20149 20150 20151 20152 20153
          20154 20155 20156 20157 20158 20159
          20160 20161 20162 20163 20164 20165
          20166 20167 20168 20169 20170 20171
          20172 20173 20174 20175 20176 20177
          20178 20179 20180 20181 20182 20183
          20184 20185 20186 20187 20188 20189
          20190 20191 20192 20193 20194 20195
          20196 20197 20198 20199 20200 20201
          20202 20203 20204 20205 20206 20207
          20208 20209 20210 20211 20212 20213
          20214 20215 20216 20217 20218 20219
          20220 20221 20222 20223 20224 20225
          20226 20227 20228 20229 20230 20231
          20232 20233 20234 20235 20236 20237
          20238 20239 20240 20241 20242 20243
          20244 20245 20246 20247 20248 20249
          20250 20251 20252 20253 20254 20255
          20256 20257 20258 20259 20260 20261
          20262 20263 20264 20265 20266 20267
          20268 20269 20270 20271 20272 20273
          20274 20275 20276 20277 20278 20279
          20280 20281 20282 20283 20284 20285
          20286 20287 20288 20289 20290 20291
          20292 20293 20294 20295 20296 20297
          20298 20299 20300 20301 20302 20303
          20304 20305 20306 20307 20308 20309
          20310 20311 20312 20313 20314 20315
          20316 20317 20318 20319 20320 20321
          20322 20323 20324 20325 20326 20327
          20328 20329 20330 20331 20332 20333
          20334 20335 20336 20337 20338 20339
          20340 20341 20342 20343 20344 20345
          20346 20347 20348 20349 20350 20351
          20352 20353 20354 20355 20356 20357
          20358 20359 20360 20361 20362 20363
          20364 20365 20366 20367 20368 20369
          20370 20371 20372 20373 20374 20375
          20376 20377 20378 20379 20380 20381
          20382 20383 20384 20385 20386 20387
          20388 20389 20390 20391 20392 20393
          20394 20395 20396 20397 20398 20399
          20400 20401 20402 20403 20404 20405
          20406 20407 20408 20409 20410 20411
          20412 20413 20414 20415 20416 20417
          20418 20419 20420 20421 20422 20423
          20424 20425 20426 20427 20428 20429
          20430 20431 20432 20433 20434 20435
          20436 20437 20438 20439 20440 20441
          20442 20443 20444 20445 20446 20447
          20448 20449 20450 20451 20452 20453
          20454 20455 20456 20457 20458 20459
          20460 20461 20462 20463 20464 20465
          20466 20467 20468 20469 20470 20471
          20472 20473 20474 20475 20476 20477
          20478 20479 20480 20481 20482 20483
          20484 20485 20486 20487 20488 20489
          20490 20491 20492 20493 20494 20495
          20496 20497 20498 20499 20500 20501
          20502 20503 20504 20505 20506 20507
          20508 20509 20510 20511 20512 20513
          20514 20515 20516 20517 20518 20519
          20520 20521 20522 20523 20524 20525
          20526 20527 20528 20529 20530 20531
          20532 20533 20534 20535 20536 20537
          20538 20539 20540 20541 20542 20543
          20544 20545 20546 20547 20548 20549
          20550 20551 20552 20553 20554 20555
          20556 20557 20558 20559 20560 20561
          20562 20563 20564 20565 20566 20567
          20568 20569 20570 20571 20572 20573
          20574 20575 20576 20577 20578 20579
          20580 20581 20582 20583 20584 20585
          20586 20587 20588 20589 20590 20591
          20592 20593 20594 20595 20596 20597
          20598 20599 20600 20601 20602 20603
          20604 20605 20606 20607 20608 20609
          20610 20611 20612 20613 20614 20615
          20616 20617 20618 20619 20620 20621
          20622 20623 20624 20625 20626 20627
          20628 20629 20630 20631 20632 20633
          20634 20635 20636 20637 20638 20639
          20640 20641 20642 20643 20644 20645
          20646 20647 20648 20649 20650 20651
          20652 20653 20654 20655 20656 20657
          20658 20659 20660 20661 20662 20663
          20664 20665 20666 20667 20668 20669
          20670 20671 20672 20673 20674 20675
          20676 20677 20678 20679 20680 20681
          20682 20683 20684 20685 20686 20687
          20688 20689 20690 20691 20692 20693
          20694 20695 20696 20697 20698 20699
          20700 20701 20702 20703 20704 20705
          20706 20707 20708 20709 20710 20711
          20712 20713 20714 20715 20716 20717
          20718 20719 20720 20721 20722 20723
          20724 20725 20726 20727 20728 20729
          20730 20731 20732 20733 20734 20735
          20736 20737 20738 20739 20740 20741
          20742 20743 20744 20745 20746 20747
          20748 20749 20750 20751 20752 20753
          20754 20755 20756 20757 20758 20759
          20760 20761 20762 20763 20764 20765
          20766 20767 20768 20769 20770 20771
          20772 20773 20774 20775 20776 20777
          20778 20779 20780 20781 20782 20783
          20784 20785 20786 20787 20788 20789
          20790 20791 20792 20793 20794 20795
          20796 20797 20798 20799 20800 20801
          20802 20803 20804 20805 20806 20807
          20808 20809 20810 20811 20812 20813
          20814 20815 20816 20817 20818 20819
          20820 20821 20822 20823 20824 20825
          20826 20827 20828 20829 20830 20831
          20832 20833 20834 20835 20836 20837
          20838 20839 20840 20841 20842 20843
          20844 20845 20846 20847 20848 20849
          20850 20851 20852 20853 20854 20855
          20856 20857 20858 20859 20860 20861
          20862 20863 20864 20865 20866 20867
          20868 20869 20870 20871 20872 20873
          20874 20875 20876 20877 20878 20879
          20880 20881 20882 20883 20884 20885
          20886 20887 20888 20889 20890 20891
          20892 20893 20894 20895 20896 20897
          20898 20899 20900 20901 20902 20903
          20904 20905 20906 20907 20908 20909
          20910 20911 20912 20913 20914 20915
          20916 20917 20918 20919 20920 20921
          20922 20923 20924 20925 20926 20927
          20928 20929 20930 20931 20932 20933
          20934 20935 20936 20937 20938 20939
          20940 20941 20942 20943 20944 20945
          20946 20947 20948 20949 20950 20951
          20952 20953 20954 20955 20956 20957
          20958 20959 20960 20961 20962 20963
          20964 20965 20966 20967 20968 20969
          20970 20971 20972 20973 20974 20975
          20976 20977 20978 20979 20980 20981
          20982 20983 20984 20985 20986 20987
          20988 20989 20990 20991 20992 20993
          20994 20995 20996 20997 20998 20999
          21000 21001 21002 21003 21004 21005
          21006 21007 21008 21009 21010 21011
          21012 21013 21014 21015 21016 21017
          21018 21019 21020 21021 21022 21023
          21024 21025 21026 21027 21028 21029
          21030 21031 21032 21033 21034 21035
          21036 21037 21038 21039 21040 21041
          21042 21043 21044 21045 21046 21047
          21048 21049 21050 21051 21052 21053
          21054 21055 21056 21057 21058 21059
          21060 21061 21062 21063 21064 21065
          21066 21067 21068 21069 21070 21071
          21072 21073 21074 21075 21076 21077
          21078 21079 21080 21081 21082 21083
          21084 21085 21086 21087 21088 21089
          21090 21091 21092 21093 21094 21095
          21096 21097 21098 21099 21100 21101
          21102 21103 21104 21105 21106 21107
          21108 21109 21110 21111 21112 21113
          21114 21115 21116 21117 21118 21119
          21120 21121 21122 21123 21124 21125
          21126 21127 21128 21129 21130 21131
          21132 21133 21134 21135 21136 21137
          21138 21139 21140 21141 21142 21143
          21144 21145 21146 21147 21148 21149
          21150 21151 21152 21153 21154 21155
          21156 21157 21158 21159 21160 21161
          21162 21163 21164 21165 21166 21167
          21168 21169 21170 21171 21172 21173
          21174 21175 21176 21177 21178 21179
          21180 21181 21182 21183 21184 21185
          21186 21187 21188 21189 21190 21191
          21192 21193 21194 21195 21196 21197
          21198 21199 21200 21201 21202 21203
          21204 21205 21206 21207 21208 21209
          21210 21211 21212 21213 21214 21215
          21216 21217 21218 21219 21220 21221
          21222 21223 21224 21225 21226 21227
          21228 21229 21230 21231 21232 21233
          21234 21235 21236 21237 21238 21239
          21240 21241 21242 21243 21244 21245
          21246 21247 21248 21249 21250 21251
          21252 21253 21254 21255 21256 21257
          21258 21259 21260 21261 21262 21263
          21264 21265 21266 21267 21268 21269
          21270 21271 21272 21273 21274 21275
          21276 21277 21278 21279 21280 21281
          21282 21283 21284 21285 21286 21287
          21288 21289 21290 21291 21292 21293
          21294 21295 21296 21297 21298 21299
          21300 21301 21302 21303 21304 21305
          21306 21307 21308 21309 21310 21311
          21312 21313 21314 21315 21316 21317
          21318 21319 21320 21321 21322 21323
          21324 21325 21326 21327 21328 21329
          21330 21331 21332 21333 21334 21335
          21336 21337 21338 21339 21340 21341
          21342 21343 21344 21345 21346 21347
          21348 21349 21350 21351 21352 21353
          21354 21355 21356 21357 21358 21359
          21360 21361 21362 21363 21364 21365
          21366 21367 21368 21369 21370 21371
          21372 21373 21374 21375 21376 21377
          21378 21379 21380 21381 21382 21383
          21384 21385 21386 21387 21388 21389
          21390 21391 21392 21393 21394 21395
          21396 21397 21398 21399 21400 21401
          21402 21403 21404 21405 21406 21407
          21408 21409 21410 21411 21412 21413
          21414 21415 21416 21417 21418 21419
          21420 21421 21422 21423 21424 21425
          21426 21427 21428 21429 21430 21431
          21432 21433 21434 21435 21436 21437
          21438 21439 21440 21441 21442 21443
          21444 21445 21446 21447 21448 21449
          21450 21451 21452 21453 21454 21455
          21456 21457 21458 21459 21460 21461
          21462 21463 21464 21465 21466 21467
          21468 21469 21470 21471 21472 21473
          21474 21475 21476 21477 21478 21479
          21480 21481 21482 21483 21484 21485
          21486 21487 21488 21489 21490 21491
          21492 21493 21494 21495 21496 21497
          21498 21499 21500 21501 21502 21503
          21504 21505 21506 21507 21508 21509
          21510 21511 21512 21513 21514 21515
          21516 21517 21518 21519 21520 21521
          21522 21523 21524 21525 21526 21527
          21528 21529 21530 21531 21532 21533
          21534 21535 21536 21537 21538 21539
          21540 21541 21542 21543 21544 21545
          21546 21547 21548 21549 21550 21551
          21552 21553 21554 21555 21556 21557
          21558 21559 21560 21561 21562 21563
          21564 21565 21566 21567 21568 21569
          21570 21571 21572 21573 21574 21575
          21576 21577 21578 21579 21580 21581
          21582 21583 21584 21585 21586 21587
          21588 21589 21590 21591 21592 21593
          21594 21595 21596 21597 21598 21599
          21600 21601 21602 21603 21604 21605
          21606 21607 21608 21609 21610 21611
          21612 21613 21614 21615 21616 21617
          21618 21619 21620 21621 21622 21623
          21624 21625 21626 21627 21628 21629
          21630 21631 21632 21633 21634 21635
          21636 21637 21638 21639 21640 21641
          21642 21643 21644 21645 21646 21647
          21648 21649 21650 21651 21652 21653
          21654 21655 21656 21657 21658 21659
          21660 21661 21662 21663 21664 21665
          21666 21667 21668 21669 21670 21671
          21672 21673 21674 21675 21676 21677
          21678 21679 21680 21681 21682 21683
          21684 21685 21686 21687 21688 21689
          21690 21691 21692 21693 21694 21695
          21696 21697 21698 21699 21700 21701
          21702 21703 21704 21705 21706 21707
          21708 21709 21710 21711 21712 21713
          21714 21715 21716 21717 21718 21719
          21720 21721 21722 21723 21724 21725
          21726 21727 21728 21729 21730 21731
          21732 21733 21734 21735 21736 21737
          21738 21739 21740 21741 21742 21743
          21744 21745 21746 21747 21748 21749
          21750 21751 21752 21753 21754 21755
          21756 21757 21758 21759 21760 21761
          21762 21763 21764 21765 21766 21767
          21768 21769 21770 21771 21772 21773
          21774 21775 21776 21777 21778 21779
          21780 21781 21782 21783 21784 21785
          21786 21787 21788 21789 21790 21791
          21792 21793 21794 21795 21796 21797
          21798 21799 21800 21801 21802 21803
          21804 21805 21806 21807 21808 21809
          21810 21811 21812 21813 21814 21815
          21816 21817 21818 21819 21820 21821
          21822 21823 21824 21825 21826 21827
          21828 21829 21830 21831 21832 21833
          21834 21835 21836 21837 21838 21839
          21840 21841 21842 21843 21844 21845
          21846 21847 21848 21849 21850 21851
          21852 21853 21854 21855 21856 21857
          21858 21859 21860 21861 21862 21863
          21864 21865 21866 21867
        </DataArray>
        <DataArray type="Int64" Name="offsets" format="ascii" RangeMin="4" RangeMax="21868">
          4 8 12 16 20 24
          28 32 36 40 44 48
          52 56 60 64 68 72
          76 80 84 88 92 96
          100 104 108 112 116 120
          124 128 132 136 140 144
          148 152 156 160 164 168
          172 176 180 184 188 192
          196 200 204 208 212 216
          220 224 228 232 236 240
          244 248 252 256 260 264
          268 272 276 280 284 288
          292 296 300 304 308 312
          316 320 324 328 332 336
          340 344 348 352 356 360
          364 368 372 376 380 384
          388 392 396 400 404 408
          412 416 420 424 428 432
          436 440 444 448 452 456
          460 464 468 472 476 480
          484 488 492 496 500 504
          508 512 516 520 524 528
          532 536 540 544 548 552
          556 560 564 568 572 576
          580 584 588 592 596 600
          604 608 612 616 620 624
          628 632 636 640 644 648
          652 656 660 664 668 672
          676 680 684 688 692 696
          700 704 708 712 716 720
          724 728 732 736 740 744
          748 752 756 760 764 768
          772 776 780 784 788 792
          796 800 804 808 812 816
          820 824 828 832 836 840
          844 848 852 856 860 864
          868 872 876 880 884 888
          892 896 900 904 908 912
          916 920 924 928 932 936
          940 944 948 952 956 960
          964 968 972 976 980 984
          988 992 996 1000 1004 1008
          1012 1016 1020 1024 1028 1032
          1036 1040 1044 1048 1052 1056
          1060 1064 1068 1072 1076 1080
          1084 1088 1092 1096 1100 1104
          1108 1112 1116 1120 1124 1128
          1132 1136 1140 1144 1148 1152
          1156 1160 1164 1168 1172 1176
          1180 1184 1188 1192 1196 1200
          1204 1208 1212 1216 1220 1224
          1228 1232 1236 1240 1244 1248
          1252 1256 1260 1264 1268 1272
          1276 1280 1284 1288 1292 1296
          1300 1304 1308 1312 1316 1320
          1324 1328 1332 1336 1340 1344
          1348 1352 1356 1360 1364 1368
          1372 1376 1380 1384 1388 1392
          1396 1400 1404 1408 1412 1416
          1420 1424 1428 1432 1436 1440
          1444 1448 1452 1456 1460 1464
          1468 1472 1476 1480 1484 1488
          1492 1496 1500 1504 1508 1512
          1516 1520 1524 1528 1532 1536
          1540 1544 1548 1552 1556 1560
          1564 1568 1572 1576 1580 1584
          1588 1592 1596 1600 1604 1608
          1612 1616 1620 1624 1628 1632
          1636 1640 1644 1648 1652 1656
          1660 1664 1668 1672 1676 1680
          1684 1688 1692 1696 1700 1704
          1708 1712 1716 1720 1724 1728
          1732 1736 1740 1744 1748 1752
          1756 1760 1764 1768 1772 1776
          1780 1784 1788 1792 1796 1800
          1804 1808 1812 1816 1820 1824
          1828 1832 1836 1840 1844 1848
          1852 1856 1860 1864 1868 1872
          1876 1880 1884 1888 1892 1896
          1900 1904 1908 1912 1916 1920
          1924 1928 1932 1936 1940 1944
          1948 1952 1956 1960 1964 1968
          1972 1976 1980 1984 1988 1992
          1996 2000 2004 2008 2012 2016
          2020 2024 2028 2032 2036 2040
          2044 2048 2052 2056 2060 2064
          2068 2072 2076 2080 2084 2088
          2092 2096 2100 2104 2108 2112
          2116 2120 2124 2128 2132 2136
          2140 2144 2148 2152 2156 2160
          2164 2168 2172 2176 2180 2184
          2188 2192 2196 2200 2204 2208
          2212 2216 2220 2224 2228 2232
          2236 2240 2244 2248 2252 2256
          2260 2264 2268 2272 2276 2280
          2284 2288 2292 2296 2300 2304
          2308 2312 2316 2320 2324 2328
          2332 2336 2340 2344 2348 2352
          2356 2360 2364 2368 2372 2376
          2380 2384 2388 2392 2396 2400
          2404 2408 2412 2416 2420 2424
          2428 2432 2436 2440 2444 2448
          2452 2456 2460 2464 2468 2472
          2476 2480 2484 2488 2492 2496
          2500 2504 2508 2512 2516 2520
          2524 2528 2532 2536 2540 2544
          2548 2552 2556 2560 2564 2568
          2572 2576 2580 2584 2588 2592
          2596 2600 2604 2608 2612 2616
          2620 2624 2628 2632 2636 2640
          2644 2648 2652 2656 2660 2664
          2668 2672 2676 2680 2684 2688
          2692 2696 2700 2704 2708 2712
          2716 2720 2724 2728 2732 2736
          2740 2744 2748 2752 2756 2760
          2764 2768 2772 2776 2780 2784
          2788 2792 2796 2800 2804 2808
          2812 2816 2820 2824 2828 2832
          2836 2840 2844 2848 2852 2856
          2860 2864 2868 2872 2876 2880
          2884 2888 2892 2896 2900 2904
          2908 2912 2916 2920 2924 2928
          2932 2936 2940 2944 2948 2952
          2956 2960 2964 2968 2972 2976
          2980 2984 2988 2992 2996 3000
          3004 3008 3012 3016 3020 3024
          3028 3032 3036 3040 3044 3048
          3052 3056 3060 3064 3068 3072
          3076 3080 3084 3088 3092 3096
          3100 3104 3108 3112 3116 3120
          3124 3128 3132 3136 3140 3144
          3148 3152 3156 3160 3164 3168
          3172 3176 3180 3184 3188 3192
          3196 3200 3204 3208 3212 3216
          3220 3224 3228 3232 3236 3240
          3244 3248 3252 3256 3260 3264
          3268 3272 3276 3280 3284 3288
          3292 3296 3300 3304 3308 3312
          3316 3320 3324 3328 3332 3336
          3340 3344 3348 3352 3356 3360
          3364 3368 3372 3376 3380 3384
          3388 3392 3396 3400 3404 3408
          3412 3416 3420 3424 3428 3432
          3436 3440 3444 3448 3452 3456
          3460 3464 3468 3472 3476 3480
          3484 3488 3492 3496 3500 3504
          3508 3512 3516 3520 3524 3528
          3532 3536 3540 3544 3548 3552
          3556 3560 3564 3568 3572 3576
          3580 3584 3588 3592 3596 3600
          3604 3608 3612 3616 3620 3624
          3628 3632 3636 3640 3644 3648
          3652 3656 3660 3664 3668 3672
          3676 3680 3684 3688 3692 3696
          3700 3704 3708 3712 3716 3720
          3724 3728 3732 3736 3740 3744
          3748 3752 3756 3760 3764 3768
          3772 3776 3780 3784 3788 3792
          3796 3800 3804 3808 3812 3816
          3820 3824 3828 3832 3836 3840
          3844 3848 3852 3856 3860 3864
          3868 3872 3876 3880 3884 3888
          3892 3896 3900 3904 3908 3912
          3916 3920 3924 3928 3932 3936
          3940 3944 3948 3952 3956 3960
          3964 3968 3972 3976 3980 3984
          3988 3992 3996 4000 4004 4008
          4012 4016 4020 4024 4028 4032
          4036 4040 4044 4048 4052 4056
          4060 4064 4068 4072 4076 4080
          4084 4088 4092 4096 4100 4104
          4108 4112 4116 4120 4124 4128
          4132 4136 4140 4144 4148 4152
          4156 4160 4164 4168 4172 4176
          4180 4184 4188 4192 4196 4200
          4204 4208 4212 4216 4220 4224
          4228 4232 4236 4240 4244 4248
          4252 4256 4260 4264 4268 4272
          4276 4280 4284 4288 4292 4296
          4300 4304 4308 4312 4316 4320
          4324 4328 4332 4336 4340 4344
          4348 4352 4356 4360 4364 4368
          4372 4376 4380 4384 4388 4392
          4396 4400 4404 4408 4412 4416
          4420 4424 4428 4432 4436 4440
          4444 4448 4452 4456 4460 4464
          4468 4472 4476 4480 4484 4488
          4492 4496 4500 4504 4508 4512
          4516 4520 4524 4528 4532 4536
          4540 4544 4548 4552 4556 4560
          4564 4568 4572 4576 4580 4584
          4588 4592 4596 4600 4604 4608
          4612 4616 4620 4624 4628 4632
          4636 4640 4644 4648 4652 4656
          4660 4664 4668 4672 4676 4680
          4684 4688 4692 4696 4700 4704
          4708 4712 4716 4720 4724 4728
          4732 4736 4740 4744 4748 4752
          4756 4760 4764 4768 4772 4776
          4780 4784 4788 4792 4796 4800
          4804 4808 4812 4816 4820 4824
          4828 4832 4836 4840 4844 4848
          4852 4856 4860 4864 4868 4872
          4876 4880 4884 4888 4892 4896
          4900 4904 4908 4912 4916 4920
          4924 4928 4932 4936 4940 4944
          4948 4952 4956 4960 4964 4968
          4972 4976 4980 4984 4988 4992
          4996 5000 5004 5008 5012 5016
          5020 5024 5028 5032 5036 5040
          5044 5048 5052 5056 5060 5064
          5068 5072 5076 5080 5084 5088
          5092 5096 5100 5104 5108 5112
          5116 5120 5124 5128 5132 5136
          5140 5144 5148 5152 5156 5160
          5164 5168 5172 5176 5180 5184
          5188 5192 5196 5200 5204 5208
          5212 5216 5220 5224 5228 5232
          5236 5240 5244 5248 5252 5256
          5260 5264 5268 5272 5276 5280
          5284 5288 5292 5296 5300 5304
          5308 5312 5316 5320 5324 5328
          5332 5336 5340 5344 5348 5352
          5356 5360 5364 5368 5372 5376
          5380 5384 5388 5392 5396 5400
          5404 5408 5412 5416 5420 5424
          5428 5432 5436 5440 5444 5448
          5452 5456 5460 5464 5468 5472
          5476 5480 5484 5488 5492 5496
          5500 5504 5508 5512 5516 5520
          5524 5528 5532 5536 5540 5544
          5548 5552 5556 5560 5564 5568
          5572 5576 5580 5584 5588 5592
          5596 5600 5604 5608 5612 5616
          5620 5624 5628 5632 5636 5640
          5644 5648 5652 5656 5660 5664
          5668 5672 5676 5680 5684 5688
          5692 5696 5700 5704 5708 5712
          5716 5720 5724 5728 5732 5736
          5740 5744 5748 5752 5756 5760
          5764 5768 5772 5776 5780 5784
          5788 5792 5796 5800 5804 5808
          5812 5816 5820 5824 5828 5832
          5836 5840 5844 5848 5852 5856
          5860 5864 5868 5872 5876 5880
          5884 5888 5892 5896 5900 5904
          5908 5912 5916 5920 5924 5928
          5932 5936 5940 5944 5948 5952
          5956 5960 5964 5968 5972 5976
          5980 5984 5988 5992 5996 6000
          6004 6008 6012 6016 6020 6024
          6028 6032 6036 6040 6044 6048
          6052 6056 6060 6064 6068 6072
          6076 6080 6084 6088 6092 6096
          6100 6104 6108 6112 6116 6120
          6124 6128 6132 6136 6140 6144
          6148 6152 6156 6160 6164 6168
          6172 6176 6180 6184 6188 6192
          6196 6200 6204 6208 6212 6216
          6220 6224 6228 6232 6236 6240
          6244 6248 6252 6256 6260 6264
          6268 6272 6276 6280 6284 6288
          6292 6296 6300 6304 6308 6312
          6316 6320 6324 6328 6332 6336
          6340 6344 6348 6352 6356 6360
          6364 6368 6372 6376 6380 6384
          6388 6392 6396 6400 6404 6408
          6412 6416 6420 6424 6428 6432
          6436 6440 6444 6448 6452 6456
          6460 6464 6468 6472 6476 6480
          6484 6488 6492 6496 6500 6504
          6508 6512 6516 6520 6524 6528
          6532 6536 6540 6544 6548 6552
          6556 6560 6564 6568 6572 6576
          6580 6584 6588 6592 6596 6600
          6604 6608 6612 6616 6620 6624
          6628 6632 6636 6640 6644 6648
          6652 6656 6660 6664 6668 6672
          6676 6680 6684 6688 6692 6696
          6700 6704 6708 6712 6716 6720
          6724 6728 6732 6736 6740 6744
          6748 6752 6756 6760 6764 6768
          6772 6776 6780 6784 6788 6792
          6796 6800 6804 6808 6812 6816
          6820 6824 6828 6832 6836 6840
          6844 6848 6852 6856 6860 6864
          6868 6872 6876 6880 6884 6888
          6892 6896 6900 6904 6908 6912
          6916 6920 6924 6928 6932 6936
          6940 6944 6948 6952 6956 6960
          6964 6968 6972 6976 6980 6984
          6988 6992 6996 7000 7004 7008
          7012 7016 7020 7024 7028 7032
          7036 7040 7044 7048 7052 7056
          7060 7064 7068 7072 7076 7080
          7084 7088 7092 7096 7100 7104
          7108 7112 7116 7120 7124 7128
          7132 7136 7140 7144 7148 7152
          7156 7160 7164 7168 7172 7176
          7180 7184 7188 7192 7196 7200
          7204 7208 7212 7216 7220 7224
          7228 7232 7236 7240 7244 7248
          7252 7256 7260 7264 7268 7272
          7276 7280 7284 7288 7292 7296
          7300 7304 7308 7312 7316 7320
          7324 7328 7332 7336 7340 7344
          7348 7352 7356 7360 7364 7368
          7372 7376 7380 7384 7388 7392
          7396 7400 7404 7408 7412 7416
          7420 7424 7428 7432 7436 7440
          7444 7448 7452 7456 7460 7464
          7468 7472 7476 7480 7484 7488
          7492 7496 7500 7504 7508 7512
          7516 7520 7524 7528 7532 7536
          7540 7544 7548 7552 7556 7560
          7564 7568 7572 7576 7580 7584
          7588 7592 7596 7600 7604 7608
          7612 7616 7620 7624 7628 7632
          7636 7640 7644 7648 7652 7656
          7660 7664 7668 7672 7676 7680
          7684 7688 7692 7696 7700 7704
          7708 7712 7716 7720 7724 7728
          7732 7736 7740 7744 7748 7752
          7756 7760 7764 7768 7772 7776
          7780 7784 7788 7792 7796 7800
          7804 7808 7812 7816 7820 7824
          7828 7832 7836 7840 7844 7848
          7852 7856 7860 7864 7868 7872
          7876 7880 7884 7888 7892 7896
          7900 7904 7908 7912 7916 7920
          7924 7928 7932 7936 7940 7944
          7948 7952 7956 7960 7964 7968
          7972 7976 7980 7984 7988 7992
          7996 8000 8004 8008 8012 8016
          8020 8024 8028 8032 8036 8040
          8044 8048 8052 8056 8060 8064
          8068 8072 8076 8080 8084 8088
          8092 8096 8100 8104 8108 8112
          8116 8120 8124 8128 8132 8136
          8140 8144 8148 8152 8156 8160
          8164 8168 8172 8176 8180 8184
          8188 8192 8196 8200 8204 8208
          8212 8216 8220 8224 8228 8232
          8236 8240 8244 8248 8252 8256
          8260 8264 8268 8272 8276 8280
          8284 8288 8292 8296 8300 8304
          8308 8312 8316 8320 8324 8328
          8332 8336 8340 8344 8348 8352
          8356 8360 8364 8368 8372 8376
          8380 8384 8388 8392 8396 8400
          8404 8408 8412 8416 8420 8424
          8428 8432 8436 8440 8444 8448
          8452 8456 8460 8464 8468 8472
          8476 8480 8484 8488 8492 8496
          8500 8504 8508 8512 8516 8520
          8524 8528 8532 8536 8540 8544
          8548 8552 8556 8560 8564 8568
          8572 8576 8580 8584 8588 8592
          8596 8600 8604 8608 8612 8616
          8620 8624 8628 8632 8636 8640
          8644 8648 8652 8656 8660 8664
          8668 8672 8676 8680 8684 8688
          8692 8696 8700 8704 8708 8712
          8716 8720 8724 8728 8732 8736
          8740 8744 8748 8752 8756 8760
          8764 8768 8772 8776 8780 8784
          8788 8792 8796 8800 8804 8808
          8812 8816 8820 8824 8828 8832
          8836 8840 8844 8848 8852 8856
          8860 8864 8868 8872 8876 8880
          8884 8888 8892 8896 8900 8904
          8908 8912 8916 8920 8924 8928
          8932 8936 8940 8944 8948 8952
          8956 8960 8964 8968 8972 8976
          8980 8984 8988 8992 8996 9000
          9004 9008 9012 9016 9020 9024
          9028 9032 9036 9040 9044 9048
          9052 9056 9060 9064 9068 9072
          9076 9080 9084 9088 9092 9096
          9100 9104 9108 9112 9116 9120
          9124 9128 9132 9136 9140 9144
          9148 9152 9156 9160 9164 9168
          9172 9176 9180 9184 9188 9192
          9196 9200 9204 9208 9212 9216
          9220 9224 9228 9232 9236 9240
          9244 9248 9252 9256 9260 9264
          9268 9272 9276 9280 9284 9288
          9292 9296 9300 9304 9308 9312
          9316 9320 9324 9328 9332 9336
          9340 9344 9348 9352 9356 9360
          9364 9368 9372 9376 9380 9384
          9388 9392 9396 9400 9404 9408
          9412 9416 9420 9424 9428 9432
          9436 9440 9444 9448 9452 9456
          9460 9464 9468 9472 9476 9480
          9484 9488 9492 9496 9500 9504
          9508 9512 9516 9520 9524 9528
          9532 9536 9540 9544 9548 9552
          9556 9560 9564 9568 9572 9576
          9580 9584 9588 9592 9596 9600
          9604 9608 9612 9616 9620 9624
          9628 9632 9636 9640 9644 9648
          9652 9656 9660 9664 9668 9672
          9676 9680 9684 9688 9692 9696
          9700 9704 9708 9712 9716 9720
          9724 9728 9732 9736 9740 9744
          9748 9752 9756 9760 9764 9768
          9772 9776 9780 9784 9788 9792
          9796 9800 9804 9808 9812 9816
          9820 9824 9828 9832 9836 9840
          9844 9848 9852 9856 9860 9864
          9868 9872 9876 9880 9884 9888
          9892 9896 9900 9904 9908 9912
          9916 9920 9924 9928 9932 9936
          9940 9944 9948 9952 9956 9960
          9964 9968 9972 9976 9980 9984
          9988 9992 9996 10000 10004 10008
          10012 10016 10020 10024 10028 10032
          10036 10040 10044 10048 10052 10056
          10060 10064 10068 10072 10076 10080
          10084 10088 10092 10096 10100 10104
          10108 10112 10116 10120 10124 10128
          10132 10136 10140 10144 10148 10152
          10156 10160 10164 10168 10172 10176
          10180 10184 10188 10192 10196 10200
          10204 10208 10212 10216 10220 10224
          10228 10232 10236 10240 10244 10248
          10252 10256 10260 10264 10268 10272
          10276 10280 10284 10288 10292 10296
          10300 10304 10308 10312 10316 10320
          10324 10328 10332 10336 10340 10344
          10348 10352 10356 10360 10364 10368
          10372 10376 10380 10384 10388 10392
          10396 10400 10404 10408 10412 10416
          10420 10424 10428 10432 10436 10440
          10444 10448 10452 10456 10460 10464
          10468 10472 10476 10480 10484 10488
          10492 10496 10500 10504 10508 10512
          10516 10520 10524 10528 10532 10536
          10540 10544 10548 10552 10556 10560
          10564 10568 10572 10576 10580 10584
          10588 10592 10596 10600 10604 10608
          10612 10616 10620 10624 10628 10632
          10636 10640 10644 10648 10652 10656
          10660 10664 10668 10672 10676 10680
          10684 10688 10692 10696 10700 10704
          10708 10712 10716 10720 10724 10728
          10732 10736 10740 10744 10748 10752
          10756 10760 10764 10768 10772 10776
          10780 10784 10788 10792 10796 10800
          10804 10808 10812 10816 10820 10824
          10828 10832 10836 10840 10844 10848
          10852 10856 10860 10864 10868 10872
          10876 10880 10884 10888 10892 10896
          10900 10904 10908 10912 10916 10920
          10924 10928 10932 10936 10940 10944
          10948 10952 10956 10960 10964 10968
          10972 10976 10980 10984 10988 10992
          10996 11000 11004 11008 11012 11016
          11020 11024 11028 11032 11036 11040
          11044 11048 11052 11056 11060 11064
          11068 11072 11076 11080 11084 11088
          11092 11096 11100 11104 11108 11112
          11116 11120 11124 11128 11132 11136
          11140 11144 11148 11152 11156 11160
          11164 11168 11172 11176 11180 11184
          11188 11192 11196 11200 11204 11208
          11212 11216 11220 11224 11228 11232
          11236 11240 11244 11248 11252 11256
          11260 11264 11268 11272 11276 11280
          11284 11288 11292 11296 11300 11304
          11308 11312 11316 11320 11324 11328
          11332 11336 11340 11344 11348 11352
          11356 11360 11364 11368 11372 11376
          11380 11384 11388 11392 11396 11400
          11404 11408 11412 11416 11420 11424
          11428 11432 11436 11440 11444 11448
          11452 11456 11460 11464 11468 11472
          11476 11480 11484 11488 11492 11496
          11500 11504 11508 11512 11516 11520
          11524 11528 11532 11536 11540 11544
          11548 11552 11556 11560 11564 11568
          11572 11576 11580 11584 11588 11592
          11596 11600 11604 11608 11612 11616
          11620 11624 11628 11632 11636 11640
          11644 11648 11652 11656 11660 11664
          11668 11672 11676 11680 11684 11688
          11692 11696 11700 11704 11708 11712
          11716 11720 11724 11728 11732 11736
          11740 11744 11748 11752 11756 11760
          11764 11768 11772 11776 11780 11784
          11788 11792 11796 11800 11804 11808
          11812 11816 11820 11824 11828 11832
          11836 11840 11844 11848 11852 11856
          11860 11864 11868 11872 11876 11880
          11884 11888 11892 11896 11900 11904
          11908 11912 11916 11920 11924 11928
          11932 11936 11940 11944 11948 11952
          11956 11960 11964 11968 11972 11976
          11980 11984 11988 11992 11996 12000
          12004 12008 12012 12016 12020 12024
          12028 12032 12036 12040 12044 12048
          12052 12056 12060 12064 12068 12072
          12076 12080 12084 12088 12092 12096
          12100 12104 12108 12112 12116 12120
          12124 12128 12132 12136 12140 12144
          12148 12152 12156 12160 12164 12168
          12172 12176 12180 12184 12188 12192
          12196 12200 12204 12208 12212 12216
          12220 12224 12228 12232 12236 12240
          12244 12248 12252 12256 12260 12264
          12268 12272 12276 12280 12284 12288
          12292 12296 12300 12304 12308 12312
          12316 12320 12324 12328 12332 12336
          12340 12344 12348 12352 12356 12360
          12364 12368 12372 12376 12380 12384
          12388 12392 12396 12400 12404 12408
          12412 12416 12420 12424 12428 12432
          12436 12440 12444 12448 12452 12456
          12460 12464 12468 12472 12476 12480
          12484 12488 12492 12496 12500 12504
          12508 12512 12516 12520 12524 12528
          12532 12536 12540 12544 12548 12552
          12556 12560 12564 12568 12572 12576
          12580 12584 12588 12592 12596 12600
          12604 12608 12612 12616 12620 12624
          12628 12632 12636 12640 12644 12648
          12652 12656 12660 12664 12668 12672
          12676 12680 12684 12688 12692 12696
          12700 12704 12708 12712 12716 12720
          12724 12728 12732 12736 12740 12744
          12748 12752 12756 12760 12764 12768
          12772 12776 12780 12784 12788 12792
          12796 12800 12804 12808 12812 12816
          12820 12824 12828 12832 12836 12840
          12844 12848 12852 12856 12860 12864
          12868 12872 12876 12880 12884 12888
          12892 12896 12900 12904 12908 12912
          12916 12920 12924 12928 12932 12936
          12940 12944 12948 12952 12956 12960
          12964 12968 12972 12976 12980 12984
          12988 12992 12996 13000 13004 13008
          13012 13016 13020 13024 13028 13032
          13036 13040 13044 13048 13052 13056
          13060 13064 13068 13072 13076 13080
          13084 13088 13092 13096 13100 13104
          13108 13112 13116 13120 13124 13128
          13132 13136 13140 13144 13148 13152
          13156 13160 13164 13168 13172 13176
          13180 13184 13188 13192 13196 13200
          13204 13208 13212 13216 13220 13224
          13228 13232 13236 13240 13244 13248
          13252 13256 13260 13264 13268 13272
          13276 13280 13284 13288 13292 13296
          13300 13304 13308 13312 13316 13320
          13324 13328 13332 13336 13340 13344
          13348 13352 13356 13360 13364 13368
          13372 13376 13380 13384 13388 13392
          13396 13400 13404 13408 13412 13416
          13420 13424 13428 13432 13436 13440
          13444 13448 13452 13456 13460 13464
          13468 13472 13476 13480 13484 13488
          13492 13496 13500 13504 13508 13512
          13516 13520 13524 13528 13532 13536
          13540 13544 13548 13552 13556 13560
          13564 13568 13572 13576 13580 13584
          13588 13592 13596 13600 13604 13608
          13612 13616 13620 13624 13628 13632
          13636 13640 13644 13648 13652 13656
          13660 13664 13668 13672 13676 13680
          13684 13688 13692 13696 13700 13704
          13708 13712 13716 13720 13724 13728
          13732 13736 13740 13744 13748 13752
          13756 13760 13764 13768 13772 13776
          13780 13784 13788 13792 13796 13800
          13804 13808 13812 13816 13820 13824
          13828 13832 13836 13840 13844 13848
          13852 13856 13860 13864 13868 13872
          13876 13880 13884 13888 13892 13896
          13900 13904 13908 13912 13916 13920
          13924 13928 13932 13936 13940 13944
          13948 13952 13956 13960 13964 13968
          13972 13976 13980 13984 13988 13992
          13996 14000 14004 14008 14012 14016
          14020 14024 14028 14032 14036 14040
          14044 14048 14052 14056 14060 14064
          14068 14072 14076 14080 14084 14088
          14092 14096 14100 14104 14108 14112
          14116 14120 14124 14128 14132 14136
          14140 14144 14148 14152 14156 14160
          14164 14168 14172 14176 14180 14184
          14188 14192 14196 14200 14204 14208
          14212 14216 14220 14224 14228 14232
          14236 14240 14244 14248 14252 14256
          14260 14264 14268 14272 14276 14280
          14284 14288 14292 14296 14300 14304
          14308 14312 14316 14320 14324 14328
          14332 14336 14340 14344 14348 14352
          14356 14360 14364 14368 14372 14376
          14380 14384 14388 14392 14396 14400
          14404 14408 14412 14416 14420 14424
          14428 14432 14436 14440 14444 14448
          14452 14456 14460 14464 14468 14472
          14476 14480 14484 14488 14492 14496
          14500 14504 14508 14512 14516 14520
          14524 14528 14532 14536 14540 14544
          14548 14552 14556 14560 14564 14568
          14572 14576 14580 14584 14588 14592
          14596 14600 14604 14608 14612 14616
          14620 14624 14628 14632 14636 14640
          14644 14648 14652 14656 14660 14664
          14668 14672 14676 14680 14684 14688
          14692 14696 14700 14704 14708 14712
          14716 14720 14724 14728 14732 14736
          14740 14744 14748 14752 14756 14760
          14764 14768 14772 14776 14780 14784
          14788 14792 14796 14800 14804 14808
          14812 14816 14820 14824 14828 14832
          14836 14840 14844 14848 14852 14856
          14860 14864 14868 14872 14876 14880
          14884 14888 14892 14896 14900 14904
          14908 14912 14916 14920 14924 14928
          14932 14936 14940 14944 14948 14952
          14956 14960 14964 14968 14972 14976
          14980 14984 14988 14992 14996 15000
          15004 15008 15012 15016 15020 15024
          15028 15032 15036 15040 15044 15048
          15052 15056 15060 15064 15068 15072
          15076 15080 15084 15088 15092 15096
          15100 15104 15108 15112 15116 15120
          15124 15128 15132 15136 15140 15144
          15148 15152 15156 15160 15164 15168
          15172 15176 15180 15184 15188 15192
          15196 15200 15204 15208 15212 15216
          15220 15224 15228 15232 15236 15240
          15244 15248 15252 15256 15260 15264
          15268 15272 15276 15280 15284 15288
          15292 15296 15300 15304 15308 15312
          15316 15320 15324 15328 15332 15336
          15340 15344 15348 15352 15356 15360
          15364 15368 15372 15376 15380 15384
          15388 15392 15396 15400 15404 15408
          15412 15416 15420 15424 15428 15432
          15436 15440 15444 15448 15452 15456
          15460 15464 15468 15472 15476 15480
          15484 15488 15492 15496 15500 15504
          15508 15512 15516 15520 15524 15528
          15532 15536 15540 15544 15548 15552
          15556 15560 15564 15568 15572 15576
          15580 15584 15588 15592 15596 15600
          15604 15608 15612 15616 15620 15624
          15628 15632 15636 15640 15644 15648
          15652 15656 15660 15664 15668 15672
          15676 15680 15684 15688 15692 15696
          15700 15704 15708 15712 15716 15720
          15724 15728 15732 15736 15740 15744
          15748 15752 15756 15760 15764 15768
          15772 15776 15780 15784 15788 15792
          15796 15800 15804 15808 15812 15816
          15820 15824 15828 15832 15836 15840
          15844 15848 15852 15856 15860 15864
          15868 15872 15876 15880 15884 15888
          15892 15896 15900 15904 15908 15912
          15916 15920 15924 15928 15932 15936
          15940 15944 15948 15952 15956 15960
          15964 15968 15972 15976 15980 15984
          15988 15992 15996 16000 16004 16008
          16012 16016 16020 16024 16028 16032
          16036 16040 16044 16048 16052 16056
          16060 16064 16068 16072 16076 16080
          16084 16088 16092 16096 16100 16104
          16108 16112 16116 16120 16124 16128
          16132 16136 16140 16144 16148 16152
          16156 16160 16164 16168 16172 16176
          16180 16184 16188 16192 16196 16200
          16204 16208 16212 16216 16220 16224
          16228 16232 16236 16240 16244 16248
          16252 16256 16260 16264 16268 16272
          16276 16280 16284 16288 16292 16296
          16300 16304 16308 16312 16316 16320
          16324 16328 16332 16336 16340 16344
          16348 16352 16356 16360 16364 16368
          16372 16376 16380 16384 16388 16392
          16396 16400 16404 16408 16412 16416
          16420 16424 16428 16432 16436 16440
          16444 16448 16452 16456 16460 16464
          16468 16472 16476 16480 16484 16488
          16492 16496 16500 16504 16508 16512
          16516 16520 16524 16528 16532 16536
          16540 16544 16548 16552 16556 16560
          16564 16568 16572 16576 16580 16584
          16588 16592 16596 16600 16604 16608
          16612 16616 16620 16624 16628 16632
          16636 16640 16644 16648 16652 16656
          16660 16664 16668 16672 16676 16680
          16684 16688 16692 16696 16700 16704
          16708 16712 16716 16720 16724 16728
          16732 16736 16740 16744 16748 16752
          16756 16760 16764 16768 16772 16776
          16780 16784 16788 16792 16796 16800
          16804 16808 16812 16816 16820 16824
          16828 16832 16836 16840 16844 16848
          16852 16856 16860 16864 16868 16872
          16876 16880 16884 16888 16892 16896
          16900 16904 16908 16912 16916 16920
          16924 16928 16932 16936 16940 16944
          16948 16952 16956 16960 16964 16968
          16972 16976 16980 16984 16988 16992
          16996 17000 17004 17008 17012 17016
          17020 17024 17028 17032 17036 17040
          17044 17048 17052 17056 17060 17064
          17068 17072 17076 17080 17084 17088
          17092 17096 17100 17104 17108 17112
          17116 17120 17124 17128 17132 17136
          17140 17144 17148 17152 17156 17160
          17164 17168 17172 17176 17180 17184
          17188 17192 17196 17200 17204 17208
          17212 17216 17220 17224 17228 17232
          17236 17240 17244 17248 17252 17256
          17260 17264 17268 17272 17276 17280
          17284 17288 17292 17296 17300 17304
          17308 17312 17316 17320 17324 17328
          17332 17336 17340 17344 17348 17352
          17356 17360 17364 17368 17372 17376
          17380 17384 17388 17392 17396 17400
          17404 17408 17412 17416 17420 17424
          17428 17432 17436 17440 17444 17448
          17452 17456 17460 17464 17468 17472
          17476 17480 17484 17488 17492 17496
          17500 17504 17508 17512 17516 17520
          17524 17528 17532 17536 17540 17544
          17548 17552 17556 17560 17564 17568
          17572 17576 17580 17584 17588 17592
          17596 17600 17604 17608 17612 17616
          17620 17624 17628 17632 17636 17640
          17644 17648 17652 17656 17660 17664
          17668 17672 17676 17680 17684 17688
          17692 17696 17700 17704 17708 17712
          17716 17720 17724 17728 17732 17736
          17740 17744 17748 17752 17756 17760
          17764 17768 17772 17776 17780 17784
          17788 17792 17796 17800 17804 17808
          17812 17816 17820 17824 17828 17832
          17836 17840 17844 17848 17852 17856
          17860 17864 17868 17872 17876 17880
          17884 17888 17892 17896 17900 17904
          17908 17912 17916 17920 17924 17928
          17932 17936 17940 17944 17948 17952
          17956 17960 17964 17968 17972 17976
          17980 17984 17988 17992 17996 18000
          18004 18008 18012 18016 18020 18024
          18028 18032 18036 18040 18044 18048
          18052 18056 18060 18064 18068 18072
          18076 18080 18084 18088 18092 18096
          18100 18104 18108 18112 18116 18120
          18124 18128 18132 18136 18140 18144
          18148 18152 18156 18160 18164 18168
          18172 18176 18180 18184 18188 18192
          18196 18200 18204 18208 18212 18216
          18220 18224 18228 18232 18236 18240
          18244 18248 18252 18256 18260 18264
          18268 18272 18276 18280 18284 18288
          18292 18296 18300 18304 18308 18312
          18316 18320 18324 18328 18332 18336
          18340 18344 18348 18352 18356 18360
          18364 18368 18372 18376 18380 18384
          18388 18392 18396 18400 18404 18408
          18412 18416 18420 18424 18428 18432
          18436 18440 18444 18448 18452 18456
          18460 18464 18468 18472 18476 18480
          18484 18488 18492 18496 18500 18504
          18508 18512 18516 18520 18524 18528
          18532 18536 18540 18544 18548 18552
          18556 18560 18564 18568 18572 18576
          18580 18584 18588 18592 18596 18600
          18604 18608 18612 18616 18620 18624
          18628 18632 18636 18640 18644 18648
          18652 18656 18660 18664 18668 18672
          18676 18680 18684 18688 18692 18696
          18700 18704 18708 18712 18716 18720
          18724 18728 18732 18736 18740 18744
          18748 18752 18756 18760 18764 18768
          18772 18776 18780 18784 18788 18792
          18796 18800 18804 18808 18812 18816
          18820 18824 18828 18832 18836 18840
          18844 18848 18852 18856 18860 18864
          18868 18872 18876 18880 18884 18888
          18892 18896 18900 18904 18908 18912
          18916 18920 18924 18928 18932 18936
          18940 18944 18948 18952 18956 18960
          18964 18968 18972 18976 18980 18984
          18988 18992 18996 19000 19004 19008
          19012 19016 19020 19024 19028 19032
          19036 19040 19044 19048 19052 19056
          19060 19064 19068 19072 19076 19080
          19084 19088 19092 19096 19100 19104
          19108 19112 19116 19120 19124 19128
          19132 19136 19140 19144 19148 19152
          19156 19160 19164 19168 19172 19176
          19180 19184 19188 19192 19196 19200
          19204 19208 19212 19216 19220 19224
          19228 19232 19236 19240 19244 19248
          19252 19256 19260 19264 19268 19272
          19276 19280 19284 19288 19292 19296
          19300 19304 19308 19312 19316 19320
          19324 19328 19332 19336 19340 19344
          19348 19352 19356 19360 19364 19368
          19372 19376 19380 19384 19388 19392
          19396 19400 19404 19408 19412 19416
          19420 19424 19428 19432 19436 19440
          19444 19448 19452 19456 19460 19464
          19468 19472 19476 19480 19484 19488
          19492 19496 19500 19504 19508 19512
          19516 19520 19524 19528 19532 19536
          19540 19544 19548 19552 19556 19560
          19564 19568 19572 19576 19580 19584
          19588 19592 19596 19600 19604 19608
          19612 19616 19620 19624 19628 19632
          19636 19640 19644 19648 19652 19656
          19660 19664 19668 19672 19676 19680
          19684 19688 19692 19696 19700 19704
          19708 19712 19716 19720 19724 19728
          19732 19736 19740 19744 19748 19752
          19756 19760 19764 19768 19772 19776
          19780 19784 19788 19792 19796 19800
          19804 19808 19812 19816 19820 19824
          19828 19832 19836 19840 19844 19848
          19852 19856 19860 19864 19868 19872
          19876 19880 19884 19888 19892 19896
          19900 19904 19908 19912 19916 19920
          19924 19928 19932 19936 19940 19944
          19948 19952 19956 19960 19964 19968
          19972 19976 19980 19984 19988 19992
          19996 20000 20004 20008 20012 20016
          20020 20024 20028 20032 20036 20040
          20044 20048 20052 20056 20060 20064
          20068 20072 20076 20080 20084 20088
          20092 20096 20100 20104 20108 20112
          20116 20120 20124 20128 20132 20136
          20140 20144 20148 20152 20156 20160
          20164 20168 20172 20176 20180 20184
          20188 20192 20196 20200 20204 20208
          20212 20216 20220 20224 20228 20232
          20236 20240 20244 20248 20252 20256
          20260 20264 20268 20272 20276 20280
          20284 20288 20292 20296 20300 20304
          20308 20312 20316 20320 20324 20328
          20332 20336 20340 20344 20348 20352
          20356 20360 20364 20368 20372 20376
          20380 20384 20388 20392 20396 20400
          20404 20408 20412 20416 20420 20424
          20428 20432 20436 20440 20444 20448
          20452 20456 20460 20464 20468 20472
          20476 20480 20484 20488 20492 20496
          20500 20504 20508 20512 20516 20520
          20524 20528 20532 20536 20540 20544
          20548 20552 20556 20560 20564 20568
          20572 20576 20580 20584 20588 20592
          20596 20600 20604 20608 20612 20616
          20620 20624 20628 20632 20636 20640
          20644 20648 20652 20656 20660 20664
          20668 20672 20676 20680 20684 20688
          20692 20696 20700 20704 20708 20712
          20716 20720 20724 20728 20732 20736
          20740 20744 20748 20752 20756 20760
          20764 20768 20772 20776 20780 20784
          20788 20792 20796 20800 20804 20808
          20812 20816 20820 20824 20828 20832
          20836 20840 20844 20848 20852 20856
          20860 20864 20868 20872 20876 20880
          20884 20888 20892 20896 20900 20904
          20908 20912 20916 20920 20924 20928
          20932 20936 20940 20944 20948 20952
          20956 20960 20964 20968 20972 20976
          20980 20984 20988 20992 20996 21000
          21004 21008 21012 21016 21020 21024
          21028 21032 21036 21040 21044 21048
          21052 21056 21060 21064 21068 21072
          21076 21080 21084 21088 21092 21096
          21100 21104 21108 21112 21116 21120
          21124 21128 21132 21136 21140 21144
          21148 21152 21156 21160 21164 21168
          21172 21176 21180 21184 21188 21192
          21196 21200 21204 21208 21212 21216
          21220 21224 21228 21232 21236 21240
          21244 21248 21252 21256 21260 21264
          21268 21272 21276 21280 21284 21288
          21292 21296 21300 21304 21308 21312
          21316 21320 21324 21328 21332 21336
          21340 21344 21348 21352 21356 21360
          21364 21368 21372 21376 21380 21384
          21388 21392 21396 21400 21404 21408
          21412 21416 21420 21424 21428 21432
          21436 21440 21444 21448 21452 21456
          21460 21464 21468 21472 21476 21480
          21484 21488 21492 21496 21500 21504
          21508 21512 21516 21520 21524 21528
          21532 21536 21540 21544 21548 21552
          21556 21560 21564 21568 21572 21576
          21580 21584 21588 21592 21596 21600
          21604 21608 21612 21616 21620 21624
          21628 21632 21636 21640 21644 21648
          21652 21656 21660 21664 21668 21672
          21676 21680 21684 21688 21692 21696
          21700 21704 21708 21712 21716 21720
          21724 21728 21732 21736 21740 21744
          21748 21752 21756 21760 21764 21768
          21772 21776 21780 21784 21788 21792
          21796 21800 21804 21808 21812 21816
          21820 21824 21828 21832 21836 21840
          21844 21848 21852 21856 21860 21864
          21868
        </DataArray>
        <DataArray type="UInt8" Name="types" format="ascii" RangeMin="10" RangeMax="10">
          10 10 10 10 10 10
          10 10 10 10 10 10
          10 10 10 10 10 10
          10 10 10 10 10 10
          10 10 10 10 10 10
          10 10 10 10 10 10
          10 10 10 10 10 10
          10 10 10 10 10 10
          10 10 10 10 10 10
          10 10 10 10 10 10
          10 10 10 10 10 10
          10 10 10 10 10 10
          10 10 10 10 10 10
          10 10 10 10 10 10
          10 10 10 10 10 10
          10 10 10 10 10 10
          10 10 10 10 10 10
          10 10 10 10 10 10
          10 10 10 10 10 10
          10 10 10 10 10 10
          10 10 10 10 10 10
          10 10 10 10 10 10
          10 10 10 10 10 10
          10 10 10 10 10 10
          10 10 10 10 10 10
          10 10 10 10 10 10
          10 10 10 10 10 10
          10 10 10 10 10 10
          10 10 10 10 10 10
          10 10 10 10 10 10
          10 10 10 10 10 10
          10 10 10 10 10 10
          10 10 10 10 10 10
          10 10 10 10 10 10
          10 10 10 10 10 10
          10 10 10 10 10 10
          10 10 10 10 10 10
          10 10 10 10 10 10
          10 10 10 10 10 10
          10 10 10 10 10 10
          10 10 10 10 10 10
          10 10 10 10 10 10
          10 10 10 10 10 10
          10 10 10 10 10 10
          10 10 10 10 10 10
          10 10 10 10 10 10
          10 10 10 10 10 10
          10 10 10 10 10 10
          10 10 10 10 10 10
          10 10 10 10 10 10
          10 10 10 10 10 10
          10 10 10 10 10 10
          10 10 10 10 10 10
          10 10 10 10 10 10
          10 10 10 10 10 10
          10 10 10 10 10 10
          10 10 10 10 10 10
          10 10 10 10 10 10
          10 10 10 10 10 10
          10 10 10 10 10 10
          10 10 10 10 10 10
          10 10 10 10 10 10
          10 10 10 10 10 10
          10 10 10 10 10 10
          10 10 10 10 10 10
          10 10 10 10 10 10
          10 10 10 10 10 10
          10 10 10 10 10 10
          10 10 10 10 10 10
          10 10 10 10 10 10
          10 10 10 10 10 10
          10 10 10 10 10 10
          10 10 10 10 10 10
          10 10 10 10 10 10
          10 10 10 10 10 10
          10 10 10 10 10 10
          10 10 10 10 10 10
          10 10 10 10 10 10
          10 10 10 10 10 10
          10 10 10 10 10 10
          10 10 10 10 10 10
          10 10 10 10 10 10
          10 10 10 10 10 10
          10 10 10 10 10 10
          10 10 10 10 10 10
          10 10 10 10 10 10
          10 10 10 10 10 10
          10 10 10 10 10 10
          10 10 10 10 10 10
          10 10 10 10 10 10
          10 10 10 10 10 10
          10 10 10 10 10 10
          10 10 10 10 10 10
          10 10 10 10 10 10
          10 10 10 10 10 10
          10 10 10 10 10 10
          10 10 10 10 10 10
          10 10 10 10 10 10
          10 10 10 10 10 10
          10 10 10 10 10 10
          10 10 10 10 10 10
          10 10 10 10 10 10
          10 10 10 10 10 10
          10 10 10 10 10 10
          10 10 10 10 10 10
          10 10 10 10 10 10
          10 10 10 10 10 10
          10 10 10 10 10 10
          10 10 10 10 10 10
          10 10 10 10 10 10
          10 10 10 10 10 10
          10 10 10 10 10 10
          10 10 10 10 10 10
          10 10 10 10 10 10
          10 10 10 10 10 10
          10 10 10 10 10 10
          10 10 10 10 10 10
          10 10 10 10 10 10
          10 10 10 10 10 10
          10 10 10 10 10 10
          10 10 10 10 10 10
          10 10 10 10 10 10
          10 10 10 10 10 10
          10 10 10 10 10 10
          10 10 10 10 10 10
          10 10 10 10 10 10
          10 10 10 10 10 10
          10 10 10 10 10 10
          10 10 10 10 10 10
          10 10 10 10 10 10
          10 10 10 10 10 10
          10 10 10 10 10 10
          10 10 10 10 10 10
          10 10 10 10 10 10
          10 10 10 10 10 10
          10 10 10 10 10 10
          10 10 10 10 10 10
          10 10 10 10 10 10
          10 10 10 10 10 10
          10 10 10 10 10 10
          10 10 10 10 10 10
          10 10 10 10 10 10
          10 10 10 10 10 10
          10 10 10 10 10 10
          10 10 10 10 10 10
          10 10 10 10 10 10
          10 10 10 10 10 10
          10 10 10 10 10 10
          10 10 10 10 10 10
          10 10 10 10 10 10
          10 10 10 10 10 10
          10 10 10 10 10 10
          10 10 10 10 10 10
          10 10 10 10 10 10
          10 10 10 10 10 10
          10 10 10 10 10 10
          10 10 10 10 10 10
          10 10 10 10 10 10
          10 10 10 10 10 10
          10 10 10 10 10 10
          10 10 10 10 10 10
          10 10 10 10 10 10
          10 10 10 10 10 10
          10 10 10 10 10 10
          10 10 10 10 10 10
          10 10 10 10 10 10
          10 10 10 10 10 10
          10 10 10 10 10 10
          10 10 10 10 10 10
          10 10 10 10 10 10
          10 10 10 10 10 10
          10 10 10 10 10 10
          10 10 10 10 10 10
          10 10 10 10 10 10
          10 10 10 10 10 10
          10 10 10 10 10 10
          10 10 10 10 10 10
          10 10 10 10 10 10
          10 10 10 10 10 10
          10 10 10 10 10 10
          10 10 10 10 10 10
          10 10 10 10 10 10
          10 10 10 10 10 10
          10 10 10 10 10 10
          10 10 10 10 10 10
          10 10 10 10 10 10
          10 10 10 10 10 10
          10 10 10 10 10 10
          10 10 10 10 10 10
          10 10 10 10 10 10
          10 10 10 10 10 10
          10 10 10 10 10 10
          10 10 10 10 10 10
          10 10 10 10 10 10
          10 10 10 10 10 10
          10 10 10 10 10 10
          10 10 10 10 10 10
          10 10 10 10 10 10
          10 10 10 10 10 10
          10 10 10 10 10 10
          10 10 10 10 10 10
          10 10 10 10 10 10
          10 10 10 10 10 10
          10 10 10 10 10 10
          10 10 10 10 10 10
          10 10 10 10 10 10
          10 10 10 10 10 10
          10 10 10 10 10 10
          10 10 10 10 10 10
          10 10 10 10 10 10
          10 10 10 10 10 10
          10 10 10 10 10 10
          10 10 10 10 10 10
          10 10 10 10 10 10
          10 10 10 10 10 10
          10 10 10 10 10 10
          10 10 10 10 10 10
          10 10 10 10 10 10
          10 10 10 10 10 10
          10 10 10 10 10 10
          10 10 10 10 10 10
          10 10 10 10 10 10
          10 10 10 10 10 10
          10 10 10 10 10 10
          10 10 10 10 10 10
          10 10 10 10 10 10
          10 10 10 10 10 10
          10 10 10 10 10 10
          10 10 10 10 10 10
          10 10 10 10 10 10
          10 10 10 10 10 10
          10 10 10 10 10 10
          10 10 10 10 10 10
          10 10 10 10 10 10
          10 10 10 10 10 10
          10 10 10 10 10 10
          10 10 10 10 10 10
          10 10 10 10 10 10
          10 10 10 10 10 10
          10 10 10 10 10 10
          10 10 10 10 10 10
          10 10 10 10 10 10
          10 10 10 10 10 10
          10 10 10 10 10 10
          10 10 10 10 10 10
          10 10 10 10 10 10
          10 10 10 10 10 10
          10 10 10 10 10 10
          10 10 10 10 10 10
          10 10 10 10 10 10
          10 10 10 10 10 10
          10 10 10 10 10 10
          10 10 10 10 10 10
          10 10 10 10 10 10
          10 10 10 10 10 10
          10 10 10 10 10 10
          10 10 10 10 10 10
          10 10 10 10 10 10
          10 10 10 10 10 10
          10 10 10 10 10 10
          10 10 10 10 10 10
          10 10 10 10 10 10
          10 10 10 10 10 10
          10 10 10 10 10 10
          10 10 10 10 10 10
          10 10 10 10 10 10
          10 10 10 10 10 10
          10 10 10 10 10 10
          10 10 10 10 10 10
          10 10 10 10 10 10
          10 10 10 10 10 10
          10 10 10 10 10 10
          10 10 10 10 10 10
          10 10 10 10 10 10
          10 10 10 10 10 10
          10 10 10 10 10 10
          10 10 10 10 10 10
          10 10 10 10 10 10
          10 10 10 10 10 10
          10 10 10 10 10 10
          10 10 10 10 10 10
          10 10 10 10 10 10
          10 10 10 10 10 10
          10 10 10 10 10 10
          10 10 10 10 10 10
          10 10 10 10 10 10
          10 10 10 10 10 10
          10 10 10 10 10 10
          10 10 10 10 10 10
          10 10 10 10 10 10
          10 10 10 10 10 10
          10 10 10 10 10 10
          10 10 10 10 10 10
          10 10 10 10 10 10
          10 10 10 10 10 10
          10 10 10 10 10 10
          10 10 10 10 10 10
          10 10 10 10 10 10
          10 10 10 10 10 10
          10 10 10 10 10 10
          10 10 10 10 10 10
          10 10 10 10 10 10
          10 10 10 10 10 10
          10 10 10 10 10 10
          10 10 10 10 10 10
          10 10 10 10 10 10
          10 10 10 10 10 10
          10 10 10 10 10 10
          10 10 10 10 10 10
          10 10 10 10 10 10
          10 10 10 10 10 10
          10 10 10 10 10 10
          10 10 10 10 10 10
          10 10 10 10 10 10
          10 10 10 10 10 10
          10 10 10 10 10 10
          10 10 10 10 10 10
          10 10 10 10 10 10
          10 10 10 10 10 10
          10 10 10 10 10 10
          10 10 10 10 10 10
          10 10 10 10 10 10
          10 10 10 10 10 10
          10 10 10 10 10 10
          10 10 10 10 10 10
          10 10 10 10 10 10
          10 10 10 10 10 10
          10 10 10 10 10 10
          10 10 10 10 10 10
          10 10 10 10 10 10
          10 10 10 10 10 10
          10 10 10 10 10 10
          10 10 10 10 10 10
          10 10 10 10 10 10
          10 10 10 10 10 10
          10 10 10 10 10 10
          10 10 10 10 10 10
          10 10 10 10 10 10
          10 10 10 10 10 10
          10 10 10 10 10 10
          10 10 10 10 10 10
          10 10 10 10 10 10
          10 10 10 10 10 10
          10 10 10 10 10 10
          10 10 10 10 10 10
          10 10 10 10 10 10
          10 10 10 10 10 10
          10 10 10 10 10 10
          10 10 10 10 10 10
          10 10 10 10 10 10
          10 10 10 10 10 10
          10 10 10 10 10 10
          10 10 10 10 10 10
          10 10 10 10 10 10
          10 10 10 10 10 10
          10 10 10 10 10 10
          10 10 10 10 10 10
          10 10 10 10 10 10
          10 10 10 10 10 10
          10 10 10 10 10 10
          10 10 10 10 10 10
          10 10 10 10 10 10
          10 10 10 10 10 10
          10 10 10 10 10 10
          10 10 10 10 10 10
          10 10 10 10 10 10
          10 10 10 10 10 10
          10 10 10 10 10 10
          10 10 10 10 10 10
          10 10 10 10 10 10
          10 10 10 10 10 10
          10 10 10 10 10 10
          10 10 10 10 10 10
          10 10 10 10 10 10
          10 10 10 10 10 10
          10 10 10 10 10 10
          10 10 10 10 10 10
          10 10 10 10 10 10
          10 10 10 10 10 10
          10 10 10 10 10 10
          10 10 10 10 10 10
          10 10 10 10 10 10
          10 10 10 10 10 10
          10 10 10 10 10 10
          10 10 10 10 10 10
          10 10 10 10 10 10
          10 10 10 10 10 10
          10 10 10 10 10 10
          10 10 10 10 10 10
          10 10 10 10 10 10
          10 10 10 10 10 10
          10 10 10 10 10 10
          10 10 10 10 10 10
          10 10 10 10 10 10
          10 10 10 10 10 10
          10 10 10 10 10 10
          10 10 10 10 10 10
          10 10 10 10 10 10
          10 10 10 10 10 10
          10 10 10 10 10 10
          10 10 10 10 10 10
          10 10 10 10 10 10
          10 10 10 10 10 10
          10 10 10 10 10 10
          10 10 10 10 10 10
          10 10 10 10 10 10
          10 10 10 10 10 10
          10 10 10 10 10 10
          10 10 10 10 10 10
          10 10 10 10 10 10
          10 10 10 10 10 10
          10 10 10 10 10 10
          10 10 10 10 10 10
          10 10 10 10 10 10
          10 10 10 10 10 10
          10 10 10 10 10 10
          10 10 10 10 10 10
          10 10 10 10 10 10
          10 10 10 10 10 10
          10 10 10 10 10 10
          10 10 10 10 10 10
          10 10 10 10 10 10
          10 10 10 10 10 10
          10 10 10 10 10 10
          10 10 10 10 10 10
          10 10 10 10 10 10
          10 10 10 10 10 10
          10 10 10 10 10 10
          10 10 10 10 10 10
          10 10 10 10 10 10
          10 10 10 10 10 10
          10 10 10 10 10 10
          10 10 10 10 10 10
          10 10 10 10 10 10
          10 10 10 10 10 10
          10 10 10 10 10 10
          10 10 10 10 10 10
          10 10 10 10 10 10
          10 10 10 10 10 10
          10 10 10 10 10 10
          10 10 10 10 10 10
          10 10 10 10 10 10
          10 10 10 10 10 10
          10 10 10 10 10 10
          10 10 10 10 10 10
          10 10 10 10 10 10
          10 10 10 10 10 10
          10 10 10 10 10 10
          10 10 10 10 10 10
          10 10 10 10 10 10
          10 10 10 10 10 10
          10 10 10 10 10 10
          10 10 10 10 10 10
          10 10 10 10 10 10
          10 10 10 10 10 10
          10 10 10 10 10 10
          10 10 10 10 10 10
          10 10 10 10 10 10
          10 10 10 10 10 10
          10 10 10 10 10 10
          10 10 10 10 10 10
          10 10 10 10 10 10
          10 10 10 10 10 10
          10 10 10 10 10 10
          10 10 10 10 10 10
          10 10 10 10 10 10
          10 10 10 10 10 10
          10 10 10 10 10 10
          10 10 10 10 10 10
          10 10 10 10 10 10
          10 10 10 10 10 10
          10 10 10 10 10 10
          10 10 10 10 10 10
          10 10 10 10 10 10
          10 10 10 10 10 10
          10 10 10 10 10 10
          10 10 10 10 10 10
          10 10 10 10 10 10
          10 10 10 10 10 10
          10 10 10 10 10 10
          10 10 10 10 10 10
          10 10 10 10 10 10
          10 10 10 10 10 10
          10 10 10 10 10 10
          10 10 10 10 10 10
          10 10 10 10 10 10
          10 10 10 10 10 10
          10 10 10 10 10 10
          10 10 10 10 10 10
          10 10 10 10 10 10
          10 10 10 10 10 10
          10 10 10 10 10 10
          10 10 10 10 10 10
          10 10 10 10 10 10
          10 10 10 10 10 10
          10 10 10 10 10 10
          10 10 10 10 10 10
          10 10 10 10 10 10
          10 10 10 10 10 10
          10 10 10 10 10 10
          10 10 10 10 10 10
          10 10 10 10 10 10
          10 10 10 10 10 10
          10 10 10 10 10 10
          10 10 10 10 10 10
          10 10 10 10 10 10
          10 10 10 10 10 10
          10 10 10 10 10 10
          10 10 10 10 10 10
          10 10 10 10 10 10
          10 10 10 10 10 10
          10 10 10 10 10 10
          10 10 10 10 10 10
          10 10 10 10 10 10
          10 10 10 10 10 10
          10 10 10 10 10 10
          10 10 10 10 10 10
          10 10 10 10 10 10
          10 10 10 10 10 10
          10 10 10 10 10 10
          10 10 10 10 10 10
          10 10 10 10 10 10
          10 10 10 10 10 10
          10 10 10 10 10 10
          10 10 10 10 10 10
          10 10 10 10 10 10
          10 10 10 10 10 10
          10 10 10 10 10 10
          10 10 10 10 10 10
          10 10 10 10 10 10
          10 10 10 10 10 10
          10 10 10 10 10 10
          10 10 10 10 10 10
          10 10 10 10 10 10
          10 10 10 10 10 10
          10 10 10 10 10 10
          10 10 10 10 10 10
          10 10 10 10 10 10
          10 10 10 10 10 10
          10 10 10 10 10 10
          10 10 10 10 10 10
          10 10 10 10 10 10
          10 10 10 10 10 10
          10 10 10 10 10 10
          10 10 10 10 10 10
          10 10 10 10 10 10
          10 10 10 10 10 10
          10 10 10 10 10 10
          10 10 10 10 10 10
          10 10 10 10 10 10
          10 10 10 10 10 10
          10 10 10 10 10 10
          10 10 10 10 10 10
          10 10 10 10 10 10
          10 10 10 10 10 10
          10 10 10 10 10 10
          10 10 10 10 10 10
          10 10 10 10 10 10
          10 10 10 10 10 10
          10 10 10 10 10 10
          10 10 10 10 10 10
          10 10 10 10 10 10
          10 10 10 10 10 10
          10 10 10 10 10 10
          10 10 10 10 10 10
          10 10 10 10 10 10
          10 10 10 10 10 10
          10 10 10 10 10 10
          10 10 10 10 10 10
          10 10 10 10 10 10
          10 10 10 10 10 10
          10 10 10 10 10 10
          10 10 10 10 10 10
          10 10 10 10 10 10
          10 10 10 10 10 10
          10 10 10 10 10 10
          10 10 10 10 10 10
          10 10 10 10 10 10
          10 10 10 10 10 10
          10 10 10 10 10 10
          10 10 10 10 10 10
          10 10 10 10 10 10
          10 10 10 10 10 10
          10 10 10 10 10 10
          10 10 10 10 10 10
          10 10 10 10 10 10
          10 10 10 10 10 10
          10 10 10 10 10 10
          10 10 10 10 10 10
          10 10 10 10 10 10
          10 10 10 10 10 10
          10 10 10 10 10 10
          10 10 10 10 10 10
          10 10 10 10 10 10
          10 10 10 10 10 10
          10 10 10 10 10 10
          10 10 10 10 10 10
          10 10 10 10 10 10
          10 10 10 10 10 10
          10 10 10 10 10 10
          10 10 10 10 10 10
          10 10 10 10 10 10
          10 10 10 10 10 10
          10 10 10 10 10 10
          10 10 10 10 10 10
          10 10 10 10 10 10
          10 10 10 10 10 10
          10 10 10 10 10 10
          10 10 10 10 10 10
          10 10 10 10 10 10
          10 10 10 10 10 10
          10 10 10 10 10 10
          10 10 10 10 10 10
          10 10 10 10 10 10
          10 10 10 10 10 10
          10 10 10 10 10 10
          10 10 10 10 10 10
          10 10 10 10 10 10
          10 10 10 10 10 10
          10 10 10 10 10 10
          10 10 10 10 10 10
          10 10 10 10 10 10
          10 10 10 10 10 10
          10 10 10 10 10 10
          10 10 10 10 10 10
          10 10 10 10 10 10
          10 10 10 10 10 10
          10 10 10 10 10 10
          10 10 10 10 10 10
          10 10 10 10 10 10
          10 10 10 10 10 10
          10 10 10 10 10 10
          10 10 10 10 10 10
          10 10 10 10 10 10
          10 10 10 10 10 10
          10 10 10 10 10 10
          10 10 10 10 10 10
          10 10 10 10 10 10
          10 10 10 10 10 10
          10 10 10 10 10 10
          10 10 10 10 10 10
          10 10 10 10 10 10
          10 10 10 10 10 10
          10 10 10 10 10 10
          10 10 10 10 10 10
          10 10 10 10 10 10
          10 10 10 10 10 10
          10 10 10 10 10 10
          10 10 10 10 10 10
          10 10 10 10 10 10
          10 10 10 10 10 10
          10 10 10 10 10 10
          10 10 10 10 10 10
          10 10 10 10 10 10
          10 10 10 10 10 10
          10 10 10 10 10 10
          10 10 10 10 10 10
          10 10 10 10 10 10
          10 10 10 10 10 10
          10 10 10 10 10 10
          10 10 10 10 10 10
          10 10 10 10 10 10
          10 10 10 10 10 10
          10 10 10 10 10 10
          10 10 10 10 10 10
          10 10 10 10 10 10
          10 10 10 10 10 10
          10 10 10 10 10 10
          10 10 10 10 10 10
          10 10 10 10 10 10
          10 10 10 10 10 10
          10 10 10 10 10 10
          10 10 10 10 10 10
          10 10 10 10 10 10
          10 10 10 10 10 10
          10 10 10 10 10 10
          10 10 10 10 10 10
          10 10 10 10 10 10
          10 10 10 10 10 10
          10 10 10 10 10 10
          10 10 10 10 10 10
          10 10 10 10 10 10
          10 10 10 10 10 10
          10 10 10 10 10 10
          10 10 10 10 10 10
          10 10 10 10 10 10
          10 10 10 10 10 10
          10 10 10 10 10 10
          10 10 10 10 10 10
          10 10 10 10 10 10
          10 10 10 10 10 10
          10 10 10 10 10 10
          10 10 10 10 10 10
          10 10 10 10 10 10
          10 10 10 10 10 10
          10 10 10 10 10 10
          10 10 10 10 10 10
          10 10 10 10 10 10
          10 10 10 10 10 10
          10 10 10 10 10 10
          10 10 10 10 10 10
          10 10 10 10 10 10
          10 10 10 10 10 10
          10 10 10 10 10 10
          10 10 10 10 10 10
          10 10 10 10 10 10
          10 10 10 10 10 10
          10 10 10 10 10 10
          10 10 10 10 10 10
          10 10 10 10 10 10
          10 10 10 10 10 10
          10 10 10 10 10 10
          10 10 10 10 10 10
          10 10 10 10 10 10
          10 10 10 10 10 10
          10 10 10 10 10 10
          10 10 10 10 10 10
          10 10 10 10 10 10
          10 10 10 10 10 10
          10 10 10 10 10 10
          10 10 10 10 10 10
          10 10 10 10 10 10
          10 10 10 10 10 10
          10 10 10 10 10 10
          10 10 10 10 10 10
          10 10 10 10 10 10
          10 10 10 10 10 10
          10 10 10 10 10 10
          10 10 10 10 10 10
          10 10 10 10 10 10
          10 10 10 10 10 10
          10 10 10 10 10 10
          10 10 10 10 10 10
          10 10 10 10 10 10
          10 10 10 10 10 10
          10 10 10 10 10 10
          10 10 10 10 10 10
          10 10 10 10 10 10
          10 10 10 10 10 10
          10 10 10 10 10 10
          10 10 10 10 10 10
          10 10 10 10 10 10
          10 10 10 10 10 10
          10 10 10 10 10 10
          10 10 10 10 10 10
          10 10 10 10 10 10
          10 10 10 10 10 10
          10 10 10 10 10 10
          10 10 10 10 10 10
          10 10 10 10 10 10
          10 10 10 10 10 10
          10 10 10 10 10 10
          10 10 10 10 10 10
          10 10 10 10 10 10
          10 10 10 10 10 10
          10 10 10 10 10 10
          10 10 10 10 10 10
          10 10 10 10 10 10
          10 10 10 10 10 10
          10 10 10 10 10 10
          10 10 10 10 10 10
          10 10 10 10 10 10
          10 10 10 10 10 10
          10 10 10 10 10 10
          10 10 10 10 10 10
          10 10 10 10 10 10
          10 10 10 10 10 10
          10 10 10 10 10 10
          10 10 10 10 10 10
          10 10 10 10 10 10
          10 10 10 10 10 10
          10 10 10 10 10 10
          10 10 10 10 10 10
          10 10 10 10 10 10
          10 10 10 10 10 10
          10 10 10 10 10 10
          10 10 10 10 10 10
          10 10 10 10 10 10
          10 10 10 10 10 10
          10 10 10 10 10 10
          10 10 10 10 10 10
          10 10 10 10 10 10
          10 10 10 10 10 10
          10 10 10 10 10 10
          10 10 10 10 10 10
          10 10 10 10 10 10
          10 10 10 10 10 10
          10 10 10 10 10 10
          10 10 10 10 10 10
          10 10 10 10 10 10
          10 10 10 10 10 10
          10 10 10 10 10 10
          10 10 10 10 10 10
          10 10 10 10 10 10
          10 10 10 10 10 10
          10 10 10 10 10 10
          10 10 10 10 10 10
          10 10 10 10 10 10
          10 10 10 10 10 10
          10 10 10 10 10 10
          10 10 10 10 10 10
          10 10 10 10 10 10
          10 10 10 10 10 10
          10 10 10 10 10 10
          10 10 10 10 10 10
          10 10 10 10 10 10
          10 10 10 10 10 10
          10 10 10 10 10 10
          10 10 10 10 10 10
          10 10 10 10 10 10
          10 10 10 10 10 10
          10 10 10 10 10 10
          10 10 10 10 10 10
          10 10 10 10 10 10
          10 10 10 10 10 10
          10 10 10 10 10 10
          10 10 10 10 10 10
          10 10 10 10 10 10
          10 10 10 10 10 10
          10 10 10 10 10 10
          10 10 10 10 10 10
          10 10 10 10 10 10
          10 10 10 10 10 10
          10 10 10 10 10 10
          10 10 10 10 10 10
          10 10 10 10 10 10
          10 10 10 10 10 10
          10 10 10 10 10 10
          10 10 10 10 10 10
          10 10 10 10 10 10
          10 10 10 10 10 10
          10 10 10 10 10 10
          10 10 10 10 10 10
          10 10 10 10 10 10
          10 10 10 10 10 10
          10 10 10 10 10 10
          10 10 10 10 10 10
          10 10 10 10 10 10
          10 10 10 10 10 10
          10 10 10 10 10 10
          10 10 10 10 10 10
          10 10 10 10 10 10
          10 10 10 10 10 10
          10 10 10 10 10 10
          10 10 10 10 10 10
          10 10 10 10 10 10
          10 10 10 10 10 10
          10 10 10 10 10 10
          10 10 10 10 10 10
          10 10 10 10 10 10
          10 10 10 10 10 10
          10 10 10 10 10 10
          10 10 10 10 10 10
          10 10 10 10 10 10
          10 10 10 10 10 10
          10 10 10 10 10 10
          10 10 10 10 10 10
          10 10 10 10 10 10
          10 10 10 10 10 10
          10 10 10 10 10 10
          10 10 10 10 10 10
          10 10 10 10 10 10
          10 10 10 10 10 10
          10 10 10 10 10 10
          10 10 10 10 10 10
          10 10 10 10 10 10
          10 10 10 10 10 10
          10 10 10 10 10 10
          10 10 10 10 10 10
          10 10 10 10 10 10
          10 10 10 10 10 10
          10 10 10 10 10 10
          10 10 10 10 10 10
          10 10 10 10 10 10
          10 10 10 10 10 10
          10 10 10 10 10 10
          10 10 10 10 10 10
          10 10 10 10 10 10
          10 10 10 10 10 10
          10 10 10 10 10 10
          10 10 10 10 10 10
          10 10 10 10 10 10
          10 10 10 10 10 10
          10 10 10 10 10 10
          10 10 10 10 10 10
          10 10 10 10 10 10
          10 10 10 10 10 10
          10 10 10 10 10 10
          10 10 10 10 10 10
          10 10 10 10 10 10
          10 10 10 10 10 10
          10 10 10 10 10 10
          10 10 10 10 10 10
          10 10 10 10 10 10
          10 10 10 10 10 10
          10 10 10 10 10 10
          10 10 10 10 10 10
          10 10 10 10 10 10
          10 10 10 10 10 10
          10 10 10 10 10 10
          10 10 10 10 10 10
          10 10 10 10 10 10
          10 10 10 10 10 10
          10 10 10 10 10 10
          10 10 10 10 10 10
          10 10 10 10 10 10
          10 10 10 10 10 10
          10 10 10 10 10 10
          10 10 10 10 10 10
          10 10 10 10 10 10
          10 10 10 10 10 10
          10
        </DataArray>
      </Cells>
    </Piece>
  </UnstructuredGrid>
</VTKFile>
